<?xml version="1.0"?>
<VTKFile type="UnstructuredGrid" version="0.1" byte_order="LittleEndian">
<UnstructuredGrid>
<Piece NumberOfPoints="31898" NumberOfCells="11152">
<Points>
<DataArray type="Float64" NumberOfComponents="3" format="ascii">
-0.5 -0.5 0 -0.47620991077874902 -0.44978878706170539 0 -0.49999999999999473 -0.42132396840504388 0 -0.5 -0.5 0 -0.47160970827802529 -0.4793630013852106 0 -0.47620991077874902 -0.44978878706170539 0 -0.5 -0.5 0 -0.47160970827802529 -0.4793630013852106 0 -0.44860394795025399 -0.5 0 -0.47160970827802529 -0.4793630013852106 0 -0.44860394795025399 -0.5 0 -0.4490820238307246 -0.45820516232899983 0 -0.44860394795025399 -0.5 0 -0.4490820238307246 -0.45820516232899983 0 -0.42881687682924802 -0.47781464288736519 0 -0.4490820238307246 -0.45820516232899983 0 -0.45555437223955858 -0.42914059360647611 0 -0.4490820238307246 -0.45820516232899983 0 -0.45555437223955858 -0.42914059360647611 0 -0.43867285131603428 -0.4271457417558665 0 -0.4490820238307246 -0.45820516232899983 0 -0.43867285131603428 -0.4271457417558665 0 -0.4263356171060747 -0.44269880333887462 0 -0.47160970827802529 -0.4793630013852106 0 -0.4490820238307246 -0.45820516232899983 0 -0.47620991077874902 -0.44978878706170539 0 -0.4490820238307246 -0.45820516232899983 0 -0.47620991077874902 -0.44978878706170539 0 -0.45555437223955858 -0.42914059360647611 0 -0.47620991077874902 -0.44978878706170539 0 -0.48101336032419229 -0.41069999664450008 0 -0.45555437223955858 -0.42914059360647611 0 -0.47620991077874902 -0.44978878706170539 0 -0.49999999999999473 -0.42132396840504388 0 -0.48101336032419229 -0.41069999664450008 0 -0.49999999999999473 -0.42132396840504388 0 -0.48101336032419229 -0.41069999664450008 0 -0.5 -0.393886241813306 0 -0.49999999999999473 -0.42132396840504388 0 -0.48101336032419229 -0.41069999664450008 0 -0.5 -0.393886241813306 0 -0.47854472220918332 -0.38978458738689759 0 -0.48422759779560409 -0.37130120630367158 0 -0.5 -0.393886241813306 0 -0.5 -0.36644851522156802 0 -0.48422759779560409 -0.37130120630367158 0 -0.48101336032419229 -0.41069999664450008 0 -0.5 -0.393886241813306 0 -0.47854472220918332 -0.38978458738689759 0 -0.48101336032419229 -0.41069999664450008 0 -0.47854472220918332 -0.38978458738689759 0 -0.46202672064839212 -0.40007602488395211 0 -0.48101336032419229 -0.41069999664450008 0 -0.46202672064839212 -0.40007602488395211 0 -0.47854472220918332 -0.38978458738689759 0 -0.46725442735267431 -0.37660061361585562 0 -0.46202672064839212 -0.40007602488395211 0 -0.47854472220918332 -0.38978458738689759 0 -0.46725442735267431 -0.37660061361585562 0 -0.48422759779560409 -0.37130120630367158 0 -0.46725442735267431 -0.37660061361585562 0 -0.46202672064839212 -0.40007602488395211 0 -0.46725442735267431 -0.37660061361585562 0 -0.45645674801697989 -0.38644133236760531 0 -0.46202672064839212 -0.40007602488395211 0 -0.46725442735267431 -0.37660061361585562 0 -0.45645674801697989 -0.38644133236760531 0 -0.4540003998136638 -0.37455519391687309 0 -0.45645674801697989 -0.38644133236760531 0 -0.46202672064839212 -0.40007602488395211 0 -0.44257020456291563 -0.38918913383950271 0 -0.46202672064839212 -0.40007602488395211 0 -0.44257020456291563 -0.38918913383950271 0 -0.44727608925983742 -0.41095911152778891 0 -0.46202672064839212 -0.40007602488395211 0 -0.44257020456291563 -0.38918913383950271 0 -0.44257020456291563 -0.38918913383950271 0 -0.44727608925983742 -0.41095911152778891 0 -0.43479358559901082 -0.4041454901736512 0 -0.44257020456291563 -0.38918913383950271 0 -0.4540003998136638 -0.37455519391687309 0 -0.44172858264042247 -0.37082207246888088 0 -0.45645674801697989 -0.38644133236760531 0 -0.44257020456291563 -0.38918913383950271 0 -0.4540003998136638 -0.37455519391687309 0 -0.46202672064839212 -0.40007602488395211 0 -0.45555437223955858 -0.42914059360647611 0 -0.44727608925983742 -0.41095911152778891 0 -0.46202672064839212 -0.40007602488395211 0 -0.45555437223955858 -0.42914059360647611 0 -0.48101336032419229 -0.41069999664450008 0 -0.46202672064839212 -0.40007602488395211 0 -0.45555437223955858 -0.42914059360647611 0 -0.44727608925983742 -0.41095911152778891 0 -0.43867285131603428 -0.4271457417558665 0 -0.43676601469929588 -0.41441201227470881 0 -0.44727608925983742 -0.41095911152778891 0 -0.43676601469929588 -0.41441201227470881 0 -0.43479358559901082 -0.4041454901736512 0 -0.45555437223955858 -0.42914059360647611 0 -0.44727608925983742 -0.41095911152778891 0 -0.43867285131603428 -0.4271457417558665 0 -0.43867285131603428 -0.4271457417558665 0 -0.42681803064840879 -0.42717069814352421 0 -0.4263356171060747 -0.44269880333887462 0 -0.42681803064840879 -0.42717069814352421 0 -0.41531815884496182 -0.42985383783075998 0 -0.4263356171060747 -0.44269880333887462 0 -0.42681803064840879 -0.42717069814352421 0 -0.42624289495594048 -0.42089725947505818 0 -0.42083332353326591 -0.42146747131641099 0 -0.42681803064840879 -0.42717069814352421 0 -0.43096994786351572 -0.41951492446283251 0 -0.42624289495594048 -0.42089725947505818 0 -0.43867285131603428 -0.4271457417558665 0 -0.42681803064840879 -0.42717069814352421 0 -0.43096994786351572 -0.41951492446283251 0 -0.43867285131603428 -0.4271457417558665 0 -0.43676601469929588 -0.41441201227470881 0 -0.43096994786351572 -0.41951492446283251 0 -0.43676601469929588 -0.41441201227470881 0 -0.43096994786351572 -0.41951492446283251 0 -0.42907264086257813 -0.41311715872526122 0 -0.43676601469929588 -0.41441201227470881 0 -0.42907264086257813 -0.41311715872526122 0 -0.43479358559901082 -0.4041454901736512 0 -0.42907264086257813 -0.41311715872526122 0 -0.43479358559901082 -0.4041454901736512 0 -0.42460885511582858 -0.40417321677700252 0 -0.42907264086257813 -0.41311715872526122 0 -0.41997834854398469 -0.41180534796019508 0 -0.42907264086257813 -0.41311715872526122 0 -0.42635027777857132 -0.41543594397746519 0 -0.41997834854398469 -0.41180534796019508 0 -0.42907264086257813 -0.41311715872526122 0 -0.41997834854398469 -0.41180534796019508 0 -0.42460885511582858 -0.40417321677700252 0 -0.42635027777857132 -0.41543594397746519 0 -0.41997834854398469 -0.41180534796019508 0 -0.42635027777857132 -0.41543594397746519 0 -0.42083332353326591 -0.42146747131641099 0 -0.41997834854398469 -0.41180534796019508 0 -0.43096994786351572 -0.41951492446283251 0 -0.42624289495594048 -0.42089725947505818 0 -0.42635027777857132 -0.41543594397746519 0 -0.43096994786351572 -0.41951492446283251 0 -0.42907264086257813 -0.41311715872526122 0 -0.42635027777857132 -0.41543594397746519 0 -0.42624289495594048 -0.42089725947505818 0 -0.42635027777857132 -0.41543594397746519 0 -0.42083332353326591 -0.42146747131641099 0 -0.42083332353326591 -0.42146747131641099 0 -0.41997834854398469 -0.41180534796019508 0 -0.40992282953163789 -0.42011435591993562 0 -0.41997834854398469 -0.41180534796019508 0 -0.39756877647335259 -0.40857286797681719 0 -0.41997834854398469 -0.41180534796019508 0 -0.40992282953163789 -0.42011435591993562 0 -0.39756877647335259 -0.40857286797681719 0 -0.40992282953163789 -0.42011435591993562 0 -0.41531815884496182 -0.42985383783075998 0 -0.39591554026262499 -0.42887225451549271 0 -0.41531815884496182 -0.42985383783075998 0 -0.39591554026262499 -0.42887225451549271 0 -0.41160927495564159 -0.44339431233754628 0 -0.42083332353326591 -0.42146747131641099 0 -0.40992282953163789 -0.42011435591993562 0 -0.41531815884496182 -0.42985383783075998 0 -0.42681803064840879 -0.42717069814352421 0 -0.42083332353326591 -0.42146747131641099 0 -0.41531815884496182 -0.42985383783075998 0 -0.44257020456291563 -0.38918913383950271 0 -0.42311368847744002 -0.37830224279505142 0 -0.42594061475171041 -0.39368797999533162 0 -0.44257020456291563 -0.38918913383950271 0 -0.42311368847744002 -0.37830224279505142 0 -0.44172858264042247 -0.37082207246888088 0 -0.44257020456291563 -0.38918913383950271 0 -0.42311368847744002 -0.37830224279505142 0 -0.42311368847744002 -0.37830224279505142 0 -0.42594061475171041 -0.39368797999533162 0 -0.416587075656149 -0.38785930376960043 0 -0.44257020456291563 -0.38918913383950271 0 -0.42594061475171041 -0.39368797999533162 0 -0.43479358559901082 -0.4041454901736512 0 -0.42594061475171041 -0.39368797999533162 0 -0.43479358559901082 -0.4041454901736512 0 -0.42460885511582858 -0.40417321677700252 0 -0.41997834854398469 -0.41180534796019508 0 -0.41325908582185972 -0.39811010703057192 0 -0.39770572831670092 -0.39911486077581648 0 -0.41997834854398469 -0.41180534796019508 0 -0.39770572831670092 -0.39911486077581648 0 -0.42594061475171041 -0.39368797999533162 0 -0.42460885511582858 -0.40417321677700252 0 -0.41325908582185972 -0.39811010703057192 0 -0.41997834854398469 -0.41180534796019508 0 -0.42460885511582858 -0.40417321677700252 0 -0.41325908582185972 -0.39811010703057192 0 -0.42594061475171041 -0.39368797999533162 0 -0.41325908582185972 -0.39811010703057192 0 -0.416587075656149 -0.38785930376960043 0 -0.41325908582185972 -0.39811010703057192 0 -0.416587075656149 -0.38785930376960043 0 -0.40403491357358612 -0.38133688525744702 0 -0.42311368847744002 -0.37830224279505142 0 -0.40403491357358612 -0.38133688525744702 0 -0.40365717239196519 -0.36741535175059892 0 -0.42311368847744002 -0.37830224279505142 0 -0.416587075656149 -0.38785930376960043 0 -0.40403491357358612 -0.38133688525744702 0 -0.40403491357358612 -0.38133688525744702 0 -0.39190790742475001 -0.38540387676521748 0 -0.39770572831670092 -0.39911486077581648 0 -0.40403491357358612 -0.38133688525744702 0 -0.39190790742475001 -0.38540387676521748 0 -0.3904578797192948 -0.37473938743617019 0 -0.41325908582185972 -0.39811010703057192 0 -0.40403491357358612 -0.38133688525744702 0 -0.39770572831670092 -0.39911486077581648 0 -0.39770572831670092 -0.39911486077581648 0 -0.37543310808941849 -0.38642437359143528 0 -0.39770572831670092 -0.39911486077581648 0 -0.37515920440272033 -0.40534038799344108 0 -0.37543310808941849 -0.38642437359143528 0 -0.39770572831670092 -0.39911486077581648 0 -0.37515920440272033 -0.40534038799344108 0 -0.39756877647335259 -0.40857286797681719 0 -0.37515920440272033 -0.40534038799344108 0 -0.37543310808941849 -0.38642437359143528 0 -0.37543310808941849 -0.38642437359143528 0 -0.3904578797192948 -0.37473938743617019 0 -0.37568304780698558 -0.36916333065311507 0 -0.39190790742475001 -0.38540387676521748 0 -0.37543310808941849 -0.38642437359143528 0 -0.3904578797192948 -0.37473938743617019 0 -0.37543310808941849 -0.38642437359143528 0 -0.37568304780698558 -0.36916333065311507 0 -0.39190790742475001 -0.38540387676521748 0 -0.39770572831670092 -0.39911486077581648 0 -0.37543310808941849 -0.38642437359143528 0 -0.41997834854398469 -0.41180534796019508 0 -0.39770572831670092 -0.39911486077581648 0 -0.39756877647335259 -0.40857286797681719 0 -0.40992282953163789 -0.42011435591993562 0 -0.39591554026262499 -0.42887225451549271 0 -0.39756877647335259 -0.40857286797681719 0 -0.37515920440272033 -0.40534038799344108 0 -0.39591554026262499 -0.42887225451549271 0 -0.39756877647335259 -0.40857286797681719 0 -0.37515920440272033 -0.40534038799344108 0 -0.39756877647335259 -0.40857286797681719 0 -0.37515920440272033 -0.40534038799344108 0 -0.39591554026262499 -0.42887225451549271 0 -0.37472313619600889 -0.43545561783144832 0 -0.39591554026262499 -0.42887225451549271 0 -0.39301703415267508 -0.44654444244683272 0 -0.37472313619600889 -0.43545561783144832 0 -0.39301703415267508 -0.44654444244683272 0 -0.37428706798929601 -0.46557084766945539 0 -0.37472313619600889 -0.43545561783144832 0 -0.39591554026262499 -0.42887225451549271 0 -0.39301703415267508 -0.44654444244683272 0 -0.41160927495564159 -0.44339431233754628 0 -0.39301703415267508 -0.44654444244683272 0 -0.40396056051613372 -0.45751466911048011 0 -0.41160927495564159 -0.44339431233754628 0 -0.40396056051613372 -0.45751466911048011 0 -0.39245383412573559 -0.47875733455523922 0 -0.41207507163844148 -0.46917161410542801 0 -0.40396056051613372 -0.45751466911048011 0 -0.38912381425271458 -0.46154275838996711 0 -0.39245383412573559 -0.47875733455523922 0 -0.40396056051613372 -0.45751466911048011 0 -0.39245383412573559 -0.47875733455523922 0 -0.40396056051613372 -0.45751466911048011 0 -0.40649676728151513 -0.45682610390212369 0 -0.40396056051613372 -0.45751466911048011 0 -0.38912381425271458 -0.46154275838996711 0 -0.39301703415267508 -0.44654444244683272 0 -0.40396056051613372 -0.45751466911048011 0 -0.38912381425271458 -0.46154275838996711 0 -0.39301703415267508 -0.44654444244683272 0 -0.38912381425271458 -0.46154275838996711 0 -0.37428706798929601 -0.46557084766945539 0 -0.38912381425271458 -0.46154275838996711 0 -0.37428706798929601 -0.46557084766945539 0 -0.38912381425271458 -0.46154275838996711 0 -0.38378714202547332 -0.47159002408209011 0 -0.37428706798929601 -0.46557084766945539 0 -0.38378714202547332 -0.47159002408209011 0 -0.39245383412573559 -0.47875733455523922 0 -0.37411677223754131 -0.47733161267270968 0 -0.39245383412573559 -0.47875733455523922 0 -0.37240076261097882 -0.48974555046165519 0 -0.37411677223754131 -0.47733161267270968 0 -0.38378714202547332 -0.47159002408209011 0 -0.37411677223754131 -0.47733161267270968 0 -0.37428706798929601 -0.46557084766945539 0 -0.38912381425271458 -0.46154275838996711 0 -0.38378714202547332 -0.47159002408209011 0 -0.39245383412573559 -0.47875733455523922 0 -0.38094710773533791 -0.49999999999999839 0 -0.39245383412573559 -0.47875733455523922 0 -0.38094710773533791 -0.49999999999999839 0 -0.39245383412573559 -0.47875733455523922 0 -0.37240076261097882 -0.48974555046165519 0 -0.38094710773533791 -0.49999999999999839 0 -0.39245383412573559 -0.47875733455523922 0 -0.40997732063196057 -0.5 0 -0.39245383412573559 -0.47875733455523922 0 -0.41207507163844148 -0.46917161410542801 0 -0.40997732063196057 -0.5 0 -0.41207507163844148 -0.46917161410542801 0 -0.40997732063196057 -0.5 0 -0.42881687682924802 -0.47781464288736519 0 -0.44860394795025399 -0.5 0 -0.40997732063196057 -0.5 0 -0.42881687682924802 -0.47781464288736519 0 -0.41207507163844148 -0.46917161410542801 0 -0.42881687682924802 -0.47781464288736519 0 -0.42627766738448791 -0.46032764904509182 0 -0.4490820238307246 -0.45820516232899983 0 -0.42881687682924802 -0.47781464288736519 0 -0.42627766738448791 -0.46032764904509182 0 -0.4490820238307246 -0.45820516232899983 0 -0.42627766738448791 -0.46032764904509182 0 -0.4263356171060747 -0.44269880333887462 0 -0.42627766738448791 -0.46032764904509182 0 -0.4263356171060747 -0.44269880333887462 0 -0.41655419253802572 -0.45404861160063659 0 -0.4263356171060747 -0.44269880333887462 0 -0.41160927495564159 -0.44339431233754628 0 -0.41655419253802572 -0.45404861160063659 0 -0.41531815884496182 -0.42985383783075998 0 -0.4263356171060747 -0.44269880333887462 0 -0.41160927495564159 -0.44339431233754628 0 -0.40396056051613372 -0.45751466911048011 0 -0.41160927495564159 -0.44339431233754628 0 -0.40649676728151513 -0.45682610390212369 0 -0.41160927495564159 -0.44339431233754628 0 -0.40649676728151513 -0.45682610390212369 0 -0.41655419253802572 -0.45404861160063659 0 -0.40396056051613372 -0.45751466911048011 0 -0.41160927495564159 -0.44339431233754628 0 -0.41207507163844148 -0.46917161410542801 0 -0.40649676728151513 -0.45682610390212369 0 -0.41655419253802572 -0.45404861160063659 0 -0.40396056051613372 -0.45751466911048011 0 -0.41207507163844148 -0.46917161410542801 0 -0.40649676728151513 -0.45682610390212369 0 -0.41207507163844148 -0.46917161410542801 0 -0.42627766738448791 -0.46032764904509182 0 -0.41655419253802572 -0.45404861160063659 0 -0.45662330498375908 -0.25656877445722759 0 -0.43445882011373449 -0.25478651907497341 0 -0.45662330498375908 -0.25656877445722759 0 -0.43445882011373449 -0.25478651907497341 0 -0.45034617445999431 -0.24335722649563979 0 -0.44999384684511368 -0.2755750489792308 0 -0.45662330498375908 -0.25656877445722759 0 -0.43445882011373449 -0.25478651907497341 0 -0.44999384684511368 -0.2755750489792308 0 -0.43077531442077321 -0.27459050524281542 0 -0.43445882011373449 -0.25478651907497341 0 -0.44999384684511368 -0.2755750489792308 0 -0.441361257405879 -0.29303276451920029 0 -0.43077531442077321 -0.27459050524281542 0 -0.44999384684511368 -0.2755750489792308 0 -0.4670541169931961 -0.26846056693166809 0 -0.46910519348062618 -0.28320526693770848 0 -0.44999384684511368 -0.2755750489792308 0 -0.4670541169931961 -0.26846056693166809 0 -0.45662330498375908 -0.25656877445722759 0 -0.45662330498375908 -0.25656877445722759 0 -0.47878778985378329 -0.25835102983948688 0 -0.4670541169931961 -0.26846056693166809 0 -0.45662330498375908 -0.25656877445722759 0 -0.47878778985378329 -0.25835102983948688 0 -0.45662330498375908 -0.25656877445722759 0 -0.47878778985378329 -0.25835102983948688 0 -0.47142395938804471 -0.23802335247430181 0 -0.47878778985378329 -0.25835102983948688 0 -0.5 -0.25669760885461612 0 -0.48361763707807442 -0.27426406281091331 0 -0.47878778985378329 -0.25835102983948688 0 -0.5 -0.25669760885461612 0 -0.4875835208682564 -0.24248539692068891 0 -0.5 -0.25669760885461612 0 -0.48361763707807442 -0.27426406281091331 0 -0.5 -0.28413533544635422 0 -0.4670541169931961 -0.26846056693166809 0 -0.47878778985378329 -0.25835102983948688 0 -0.48361763707807442 -0.27426406281091331 0 -0.4670541169931961 -0.26846056693166809 0 -0.48361763707807442 -0.27426406281091331 0 -0.46910519348062618 -0.28320526693770848 0 -0.46910519348062618 -0.28320526693770848 0 -0.48580896399913942 -0.29193665231809679 0 -0.47164434439118558 -0.29859902487093259 0 -0.48361763707807442 -0.27426406281091331 0 -0.46910519348062618 -0.28320526693770848 0 -0.48580896399913942 -0.29193665231809679 0 -0.5 -0.28413533544635422 0 -0.48580896399913942 -0.29193665231809679 0 -0.5 -0.3115730620380921 0 -0.48361763707807442 -0.27426406281091331 0 -0.5 -0.28413533544635422 0 -0.48580896399913942 -0.29193665231809679 0 -0.48580896399913942 -0.29193665231809679 0 -0.5 -0.3115730620380921 0 -0.48293754746551898 -0.30617437981156609 0 -0.48293754746551898 -0.30617437981156609 0 -0.47164434439118558 -0.29859902487093259 0 -0.47203566342767839 -0.31514771464943409 0 -0.48580896399913942 -0.29193665231809679 0 -0.48293754746551898 -0.30617437981156609 0 -0.47164434439118558 -0.29859902487093259 0 -0.47164434439118558 -0.29859902487093259 0 -0.46096111539772322 -0.3069557537098867 0 -0.47203566342767839 -0.31514771464943409 0 -0.46096111539772322 -0.3069557537098867 0 -0.44739706002137658 -0.30395698434733032 0 -0.45229582611609759 -0.31444164243390338 0 -0.46096111539772322 -0.3069557537098867 0 -0.45682111422556548 -0.29317658806621089 0 -0.44739706002137658 -0.30395698434733032 0 -0.47164434439118558 -0.29859902487093259 0 -0.46096111539772322 -0.3069557537098867 0 -0.45682111422556548 -0.29317658806621089 0 -0.44999384684511368 -0.2755750489792308 0 -0.46910519348062618 -0.28320526693770848 0 -0.45682111422556548 -0.29317658806621089 0 -0.46910519348062618 -0.28320526693770848 0 -0.47164434439118558 -0.29859902487093259 0 -0.45682111422556548 -0.29317658806621089 0 -0.44999384684511368 -0.2755750489792308 0 -0.45682111422556548 -0.29317658806621089 0 -0.441361257405879 -0.29303276451920029 0 -0.45682111422556548 -0.29317658806621089 0 -0.441361257405879 -0.29303276451920029 0 -0.44739706002137658 -0.30395698434733032 0 -0.441361257405879 -0.29303276451920029 0 -0.44739706002137658 -0.30395698434733032 0 -0.43527018611072049 -0.30465000121327751 0 -0.44739706002137658 -0.30395698434733032 0 -0.44024276041750632 -0.31887045497680111 0 -0.43527018611072049 -0.30465000121327751 0 -0.44739706002137658 -0.30395698434733032 0 -0.45229582611609759 -0.31444164243390338 0 -0.44024276041750632 -0.31887045497680111 0 -0.44024276041750632 -0.31887045497680111 0 -0.45653421084860168 -0.32646185290925811 0 -0.44024276041750632 -0.31887045497680111 0 -0.43930980958642257 -0.33554338078202212 0 -0.45653421084860168 -0.32646185290925811 0 -0.45229582611609759 -0.31444164243390338 0 -0.44024276041750632 -0.31887045497680111 0 -0.45653421084860168 -0.32646185290925811 0 -0.43930980958642257 -0.33554338078202212 0 -0.44966367396753332 -0.33841986907325933 0 -0.46855294336124231 -0.32873531729210143 0 -0.43930980958642257 -0.33554338078202212 0 -0.4507851133594416 -0.34910720111649318 0 -0.43930980958642257 -0.33554338078202212 0 -0.44966367396753332 -0.33841986907325933 0 -0.4507851133594416 -0.34910720111649318 0 -0.44966367396753332 -0.33841986907325933 0 -0.46855294336124231 -0.32873531729210143 0 -0.46386644800117471 -0.33586508895417932 0 -0.43930980958642257 -0.33554338078202212 0 -0.46855294336124231 -0.32873531729210143 0 -0.43930980958642257 -0.33554338078202212 0 -0.46855294336124231 -0.32873531729210143 0 -0.45653421084860168 -0.32646185290925811 0 -0.44966367396753332 -0.33841986907325933 0 -0.4586808436472537 -0.3401528003513713 0 -0.45711636988675219 -0.34547487934353349 0 -0.44966367396753332 -0.33841986907325933 0 -0.4586808436472537 -0.3401528003513713 0 -0.46386644800117471 -0.33586508895417932 0 -0.4586808436472537 -0.3401528003513713 0 -0.46472493826860672 -0.34236766697450172 0 -0.45711636988675219 -0.34547487934353349 0 -0.4586808436472537 -0.3401528003513713 0 -0.46472493826860672 -0.34236766697450172 0 -0.46386644800117471 -0.33586508895417932 0 -0.46855294336124231 -0.32873531729210143 0 -0.46207595183026873 -0.31834845619891672 0 -0.47203566342767839 -0.31514771464943409 0 -0.46855294336124231 -0.32873531729210143 0 -0.45653421084860168 -0.32646185290925811 0 -0.46207595183026873 -0.31834845619891672 0 -0.46096111539772322 -0.3069557537098867 0 -0.45229582611609759 -0.31444164243390338 0 -0.46207595183026873 -0.31834845619891672 0 -0.45229582611609759 -0.31444164243390338 0 -0.45653421084860168 -0.32646185290925811 0 -0.46207595183026873 -0.31834845619891672 0 -0.46096111539772322 -0.3069557537098867 0 -0.46207595183026873 -0.31834845619891672 0 -0.47203566342767839 -0.31514771464943409 0 -0.48293754746551898 -0.30617437981156609 0 -0.47203566342767839 -0.31514771464943409 0 -0.47770984076123751 -0.32964979107966252 0 -0.48293754746551898 -0.30617437981156609 0 -0.47770984076123751 -0.32964979107966252 0 -0.48293754746551898 -0.30617437981156609 0 -0.48763303240419292 -0.31981883507337211 0 -0.47770984076123751 -0.32964979107966252 0 -0.46855294336124231 -0.32873531729210143 0 -0.47203566342767839 -0.31514771464943409 0 -0.47770984076123751 -0.32964979107966252 0 -0.5 -0.3115730620380921 0 -0.5 -0.33901078862982997 0 -0.49048543526404831 -0.32960291085151988 0 -0.5 -0.3115730620380921 0 -0.48763303240419292 -0.31981883507337211 0 -0.49048543526404831 -0.32960291085151988 0 -0.5 -0.3115730620380921 0 -0.48293754746551898 -0.30617437981156609 0 -0.48763303240419292 -0.31981883507337211 0 -0.48763303240419292 -0.31981883507337211 0 -0.49048543526404831 -0.32960291085151988 0 -0.47770984076123751 -0.32964979107966252 0 -0.49048543526404831 -0.32960291085151988 0 -0.47770984076123751 -0.32964979107966252 0 -0.48708430315481122 -0.3479620774366432 0 -0.5 -0.33901078862982997 0 -0.49048543526404831 -0.32960291085151988 0 -0.48708430315481122 -0.3479620774366432 0 -0.47770984076123751 -0.32964979107966252 0 -0.47248213405695583 -0.35312520234775913 0 -0.47770984076123751 -0.32964979107966252 0 -0.47248213405695583 -0.35312520234775913 0 -0.48708430315481122 -0.3479620774366432 0 -0.46472493826860672 -0.34236766697450172 0 -0.47770984076123751 -0.32964979107966252 0 -0.47248213405695583 -0.35312520234775913 0 -0.46855294336124231 -0.32873531729210143 0 -0.46386644800117471 -0.33586508895417932 0 -0.47770984076123751 -0.32964979107966252 0 -0.46472493826860672 -0.34236766697450172 0 -0.46386644800117471 -0.33586508895417932 0 -0.47770984076123751 -0.32964979107966252 0 -0.47248213405695583 -0.35312520234775913 0 -0.48708430315481122 -0.3479620774366432 0 -0.48422759779560409 -0.37130120630367158 0 -0.5 -0.33901078862982997 0 -0.48708430315481122 -0.3479620774366432 0 -0.5 -0.36644851522156802 0 -0.48708430315481122 -0.3479620774366432 0 -0.5 -0.36644851522156802 0 -0.48422759779560409 -0.37130120630367158 0 -0.46725442735267431 -0.37660061361585562 0 -0.47248213405695583 -0.35312520234775913 0 -0.48422759779560409 -0.37130120630367158 0 -0.46725442735267431 -0.37660061361585562 0 -0.47248213405695583 -0.35312520234775913 0 -0.46725442735267431 -0.37660061361585562 0 -0.4540003998136638 -0.37455519391687309 0 -0.46226041713245919 -0.36267102145096558 0 -0.46725442735267431 -0.37660061361585562 0 -0.47248213405695583 -0.35312520234775913 0 -0.46226041713245919 -0.36267102145096558 0 -0.4540003998136638 -0.37455519391687309 0 -0.46226041713245919 -0.36267102145096558 0 -0.45167034254705118 -0.36337553476545958 0 -0.47248213405695583 -0.35312520234775913 0 -0.46226041713245919 -0.36267102145096558 0 -0.46130034509645268 -0.35111989715704561 0 -0.46472493826860672 -0.34236766697450172 0 -0.47248213405695583 -0.35312520234775913 0 -0.46130034509645268 -0.35111989715704561 0 -0.46472493826860672 -0.34236766697450172 0 -0.46130034509645268 -0.35111989715704561 0 -0.45711636988675219 -0.34547487934353349 0 -0.46130034509645268 -0.35111989715704561 0 -0.45711636988675219 -0.34547487934353349 0 -0.4507851133594416 -0.34910720111649318 0 -0.46226041713245919 -0.36267102145096558 0 -0.4507851133594416 -0.34910720111649318 0 -0.45167034254705118 -0.36337553476545958 0 -0.46226041713245919 -0.36267102145096558 0 -0.46130034509645268 -0.35111989715704561 0 -0.4507851133594416 -0.34910720111649318 0 -0.46226041713245919 -0.36267102145096558 0 -0.4507851133594416 -0.34910720111649318 0 -0.4507851133594416 -0.34910720111649318 0 -0.44504098357239391 -0.35771747353496869 0 -0.45167034254705118 -0.36337553476545958 0 -0.44966367396753332 -0.33841986907325933 0 -0.45711636988675219 -0.34547487934353349 0 -0.4507851133594416 -0.34910720111649318 0 -0.4507851133594416 -0.34910720111649318 0 -0.44408457896710762 -0.34741130507322732 0 -0.44504098357239391 -0.35771747353496869 0 -0.43930980958642257 -0.33554338078202212 0 -0.4507851133594416 -0.34910720111649318 0 -0.44408457896710762 -0.34741130507322732 0 -0.44408457896710762 -0.34741130507322732 0 -0.43834809566141358 -0.35386966642967582 0 -0.4310745521241639 -0.35060051531725012 0 -0.44408457896710762 -0.34741130507322732 0 -0.43834809566141358 -0.35386966642967582 0 -0.44504098357239391 -0.35771747353496869 0 -0.43834809566141358 -0.35386966642967582 0 -0.44504098357239391 -0.35771747353496869 0 -0.43256408976529492 -0.36260533289695268 0 -0.44504098357239391 -0.35771747353496869 0 -0.44172858264042247 -0.37082207246888088 0 -0.43256408976529492 -0.36260533289695268 0 -0.4540003998136638 -0.37455519391687309 0 -0.44172858264042247 -0.37082207246888088 0 -0.45167034254705118 -0.36337553476545958 0 -0.44504098357239391 -0.35771747353496869 0 -0.44172858264042247 -0.37082207246888088 0 -0.45167034254705118 -0.36337553476545958 0 -0.42311368847744002 -0.37830224279505142 0 -0.44172858264042247 -0.37082207246888088 0 -0.43256408976529492 -0.36260533289695268 0 -0.42311368847744002 -0.37830224279505142 0 -0.43256408976529492 -0.36260533289695268 0 -0.41867380740831611 -0.36398836527224071 0 -0.43256408976529492 -0.36260533289695268 0 -0.42210656065146929 -0.35476551363046099 0 -0.41867380740831611 -0.36398836527224071 0 -0.44408457896710762 -0.34741130507322732 0 -0.4310745521241639 -0.35060051531725012 0 -0.42443636388738298 -0.3390060521705498 0 -0.43834809566141358 -0.35386966642967582 0 -0.43256408976529492 -0.36260533289695268 0 -0.4310745521241639 -0.35060051531725012 0 -0.4310745521241639 -0.35060051531725012 0 -0.42266042161335821 -0.34652378860874011 0 -0.42210656065146929 -0.35476551363046099 0 -0.4310745521241639 -0.35060051531725012 0 -0.42266042161335821 -0.34652378860874011 0 -0.42443636388738298 -0.3390060521705498 0 -0.43256408976529492 -0.36260533289695268 0 -0.4310745521241639 -0.35060051531725012 0 -0.42210656065146929 -0.35476551363046099 0 -0.42210656065146929 -0.35476551363046099 0 -0.41243440171204931 -0.35621682403100541 0 -0.41867380740831611 -0.36398836527224071 0 -0.41243440171204931 -0.35621682403100541 0 -0.40365717239196519 -0.36741535175059892 0 -0.40302160193259851 -0.3439916005776541 0 -0.42210656065146929 -0.35476551363046099 0 -0.41714587076776338 -0.34786779488983011 0 -0.41243440171204931 -0.35621682403100541 0 -0.42266042161335821 -0.34652378860874011 0 -0.42210656065146929 -0.35476551363046099 0 -0.41714587076776338 -0.34786779488983011 0 -0.42266042161335821 -0.34652378860874011 0 -0.41714587076776338 -0.34786779488983011 0 -0.41853876063601031 -0.34037906703560689 0 -0.41714587076776338 -0.34786779488983011 0 -0.41853876063601031 -0.34037906703560689 0 -0.41714587076776338 -0.34786779488983011 0 -0.41243440171204931 -0.35621682403100541 0 -0.40302160193259851 -0.3439916005776541 0 -0.41714587076776338 -0.34786779488983011 0 -0.40302160193259851 -0.3439916005776541 0 -0.41853876063601031 -0.34037906703560689 0 -0.42311368847744002 -0.37830224279505142 0 -0.41867380740831611 -0.36398836527224071 0 -0.40365717239196519 -0.36741535175059892 0 -0.42311368847744002 -0.37830224279505142 0 -0.40365717239196519 -0.36741535175059892 0 -0.41243440171204931 -0.35621682403100541 0 -0.41867380740831611 -0.36398836527224071 0 -0.40365717239196519 -0.36741535175059892 0 -0.40403491357358612 -0.38133688525744702 0 -0.40365717239196519 -0.36741535175059892 0 -0.40403491357358612 -0.38133688525744702 0 -0.40365717239196519 -0.36741535175059892 0 -0.3904578797192948 -0.37473938743617019 0 -0.40365717239196519 -0.36741535175059892 0 -0.38979507995825918 -0.35965881973269581 0 -0.40365717239196519 -0.36741535175059892 0 -0.3904578797192948 -0.37473938743617019 0 -0.38979507995825918 -0.35965881973269581 0 -0.3904578797192948 -0.37473938743617019 0 -0.38979507995825918 -0.35965881973269581 0 -0.37568304780698558 -0.36916333065311507 0 -0.37568304780698558 -0.36916333065311507 0 -0.37593298752455201 -0.35190228771479481 0 -0.38979507995825918 -0.35965881973269581 0 -0.37568304780698558 -0.36916333065311507 0 -0.37593298752455201 -0.35190228771479481 0 -0.38979507995825918 -0.35965881973269581 0 -0.37595629511297179 -0.35029264644438168 0 -0.40302160193259851 -0.3439916005776541 0 -0.37595629511297179 -0.35029264644438168 0 -0.40302160193259851 -0.3439916005776541 0 -0.38842354837557669 -0.33756560667471242 0 -0.37595629511297179 -0.35029264644438168 0 -0.40302160193259851 -0.3439916005776541 0 -0.37595629511297179 -0.35029264644438168 0 -0.37607676276689278 -0.3419730509543204 0 -0.37390838074359528 -0.35076941925389299 0 -0.37595629511297179 -0.35029264644438168 0 -0.37607676276689278 -0.3419730509543204 0 -0.37595629511297179 -0.35029264644438168 0 -0.37593298752455201 -0.35190228771479481 0 -0.37390838074359528 -0.35076941925389299 0 -0.37595629511297179 -0.35029264644438168 0 -0.37593298752455201 -0.35190228771479481 0 -0.38979507995825918 -0.35965881973269581 0 -0.37595629511297179 -0.35029264644438168 0 -0.37593298752455201 -0.35190228771479481 0 -0.38979507995825918 -0.35965881973269581 0 -0.37593298752455201 -0.35190228771479481 0 -0.40365717239196519 -0.36741535175059892 0 -0.40302160193259851 -0.3439916005776541 0 -0.40365717239196519 -0.36741535175059892 0 -0.38979507995825918 -0.35965881973269581 0 -0.40302160193259851 -0.3439916005776541 0 -0.40302160193259851 -0.3439916005776541 0 -0.40263324863316441 -0.32967896077653092 0 -0.40263324863316441 -0.32967896077653092 0 -0.38842354837557669 -0.33756560667471242 0 -0.38442983343225828 -0.32189177462067481 0 -0.40302160193259851 -0.3439916005776541 0 -0.40263324863316441 -0.32967896077653092 0 -0.38842354837557669 -0.33756560667471242 0 -0.37607676276689278 -0.3419730509543204 0 -0.37641717267996733 -0.3184640617331177 0 -0.38842354837557669 -0.33756560667471242 0 -0.37607676276689278 -0.3419730509543204 0 -0.38442983343225828 -0.32189177462067481 0 -0.37607676276689278 -0.3419730509543204 0 -0.38442983343225828 -0.32189177462067481 0 -0.37595629511297179 -0.35029264644438168 0 -0.38842354837557669 -0.33756560667471242 0 -0.37607676276689278 -0.3419730509543204 0 -0.37607676276689278 -0.3419730509543204 0 -0.37641717267996733 -0.3184640617331177 0 -0.38442983343225828 -0.32189177462067481 0 -0.37641717267996733 -0.3184640617331177 0 -0.38442983343225828 -0.32189177462067481 0 -0.3841914044669909 -0.30132118344037401 0 -0.37641717267996733 -0.3184640617331177 0 -0.38442983343225828 -0.32189177462067481 0 -0.40263324863316441 -0.32967896077653092 0 -0.38442983343225828 -0.32189177462067481 0 -0.40185461233875269 -0.30098256284660307 0 -0.40263324863316441 -0.32967896077653092 0 -0.38442983343225828 -0.32189177462067481 0 -0.40263324863316441 -0.32967896077653092 0 -0.40185461233875269 -0.30098256284660307 0 -0.40263324863316441 -0.32967896077653092 0 -0.41242695344044827 -0.31820451366256841 0 -0.40185461233875269 -0.30098256284660307 0 -0.41242695344044827 -0.31820451366256841 0 -0.41920998916455232 -0.33677027649670849 0 -0.42301959421646518 -0.31628833020920039 0 -0.41920998916455232 -0.33677027649670849 0 -0.42301959421646518 -0.31628833020920039 0 -0.41242695344044827 -0.31820451366256841 0 -0.42301959421646518 -0.31628833020920039 0 -0.41541732284930832 -0.30730243798379953 0 -0.40302160193259851 -0.3439916005776541 0 -0.41920998916455232 -0.33677027649670849 0 -0.41853876063601031 -0.34037906703560689 0 -0.40302160193259851 -0.3439916005776541 0 -0.40263324863316441 -0.32967896077653092 0 -0.41920998916455232 -0.33677027649670849 0 -0.40263324863316441 -0.32967896077653092 0 -0.41920998916455232 -0.33677027649670849 0 -0.40263324863316441 -0.32967896077653092 0 -0.41242695344044827 -0.31820451366256841 0 -0.41920998916455232 -0.33677027649670849 0 -0.40302160193259851 -0.3439916005776541 0 -0.41853876063601031 -0.34037906703560689 0 -0.41853876063601031 -0.34037906703560689 0 -0.42443636388738298 -0.3390060521705498 0 -0.41920998916455232 -0.33677027649670849 0 -0.42443636388738298 -0.3390060521705498 0 -0.41920998916455232 -0.33677027649670849 0 -0.41853876063601031 -0.34037906703560689 0 -0.42443636388738298 -0.3390060521705498 0 -0.41920998916455232 -0.33677027649670849 0 -0.41853876063601031 -0.34037906703560689 0 -0.43930980958642257 -0.33554338078202212 0 -0.44408457896710762 -0.34741130507322732 0 -0.42443636388738298 -0.3390060521705498 0 -0.43930980958642257 -0.33554338078202212 0 -0.42443636388738298 -0.3390060521705498 0 -0.42301959421646518 -0.31628833020920039 0 -0.41920998916455232 -0.33677027649670849 0 -0.42443636388738298 -0.3390060521705498 0 -0.42301959421646518 -0.31628833020920039 0 -0.44408457896710762 -0.34741130507322732 0 -0.42443636388738298 -0.3390060521705498 0 -0.42266042161335821 -0.34652378860874011 0 -0.41853876063601031 -0.34037906703560689 0 -0.42443636388738298 -0.3390060521705498 0 -0.43930980958642257 -0.33554338078202212 0 -0.42443636388738298 -0.3390060521705498 0 -0.43930980958642257 -0.33554338078202212 0 -0.42301959421646518 -0.31628833020920039 0 -0.44024276041750632 -0.31887045497680111 0 -0.42395130998641067 -0.31127905704434472 0 -0.44024276041750632 -0.31887045497680111 0 -0.43930980958642257 -0.33554338078202212 0 -0.42301959421646518 -0.31628833020920039 0 -0.44024276041750632 -0.31887045497680111 0 -0.42301959421646518 -0.31628833020920039 0 -0.42395130998641067 -0.31127905704434472 0 -0.42301959421646518 -0.31628833020920039 0 -0.42395130998641067 -0.31127905704434472 0 -0.42395130998641067 -0.31127905704434472 0 -0.42709180872781188 -0.29439449141065738 0 -0.44024276041750632 -0.31887045497680111 0 -0.42395130998641067 -0.31127905704434472 0 -0.43527018611072049 -0.30465000121327751 0 -0.42395130998641067 -0.31127905704434472 0 -0.42709180872781188 -0.29439449141065738 0 -0.41541732284930832 -0.30730243798379953 0 -0.42395130998641067 -0.31127905704434472 0 -0.43527018611072049 -0.30465000121327751 0 -0.42709180872781188 -0.29439449141065738 0 -0.441361257405879 -0.29303276451920029 0 -0.43527018611072049 -0.30465000121327751 0 -0.42709180872781188 -0.29439449141065738 0 -0.42709180872781188 -0.29439449141065738 0 -0.43077531442077321 -0.27459050524281542 0 -0.42709180872781188 -0.29439449141065738 0 -0.41684225135067149 -0.28376244362903152 0 -0.43077531442077321 -0.27459050524281542 0 -0.441361257405879 -0.29303276451920029 0 -0.42709180872781188 -0.29439449141065738 0 -0.441361257405879 -0.29303276451920029 0 -0.42709180872781188 -0.29439449141065738 0 -0.43077531442077321 -0.27459050524281542 0 -0.42709180872781188 -0.29439449141065738 0 -0.41684225135067149 -0.28376244362903152 0 -0.40618483967714292 -0.29638963380315841 0 -0.42709180872781188 -0.29439449141065738 0 -0.40618483967714292 -0.29638963380315841 0 -0.41684225135067149 -0.28376244362903152 0 -0.40690107601488551 -0.28490397733270861 0 -0.40618483967714292 -0.29638963380315841 0 -0.41541732284930832 -0.30730243798379953 0 -0.40185461233875269 -0.30098256284660307 0 -0.40618483967714292 -0.29638963380315841 0 -0.42709180872781188 -0.29439449141065738 0 -0.41541732284930832 -0.30730243798379953 0 -0.40618483967714292 -0.29638963380315841 0 -0.41541732284930832 -0.30730243798379953 0 -0.40618483967714292 -0.29638963380315841 0 -0.41242695344044827 -0.31820451366256841 0 -0.41541732284930832 -0.30730243798379953 0 -0.40185461233875269 -0.30098256284660307 0 -0.41541732284930832 -0.30730243798379953 0 -0.40185461233875269 -0.30098256284660307 0 -0.42301959421646518 -0.31628833020920039 0 -0.41541732284930832 -0.30730243798379953 0 -0.42395130998641067 -0.31127905704434472 0 -0.41541732284930832 -0.30730243798379953 0 -0.42301959421646518 -0.31628833020920039 0 -0.42395130998641067 -0.31127905704434472 0 -0.41541732284930832 -0.30730243798379953 0 -0.38442983343225828 -0.32189177462067481 0 -0.40185461233875269 -0.30098256284660307 0 -0.39448508010510541 -0.297525044214214 0 -0.40185461233875269 -0.30098256284660307 0 -0.40174149504185092 -0.29681366012781812 0 -0.40618483967714292 -0.29638963380315841 0 -0.40185461233875269 -0.30098256284660307 0 -0.40174149504185092 -0.29681366012781812 0 -0.40185461233875269 -0.30098256284660307 0 -0.39448508010510541 -0.297525044214214 0 -0.40174149504185092 -0.29681366012781812 0 -0.40185461233875269 -0.30098256284660307 0 -0.39448508010510541 -0.297525044214214 0 -0.39448508010510541 -0.297525044214214 0 -0.40174149504185092 -0.29681366012781812 0 -0.37641717267996733 -0.3184640617331177 0 -0.37669606201677502 -0.29920373422444158 0 -0.38442983343225828 -0.32189177462067481 0 -0.39448508010510541 -0.297525044214214 0 -0.38442983343225828 -0.32189177462067481 0 -0.39448508010510541 -0.297525044214214 0 -0.3841914044669909 -0.30132118344037401 0 -0.37641717267996733 -0.3184640617331177 0 -0.3841914044669909 -0.30132118344037401 0 -0.37669606201677502 -0.29920373422444158 0 -0.39448508010510541 -0.297525044214214 0 -0.3841914044669909 -0.30132118344037401 0 -0.37928718982873688 -0.29895646409505849 0 -0.39448508010510541 -0.297525044214214 0 -0.37928718982873688 -0.29895646409505849 0 -0.3841914044669909 -0.30132118344037401 0 -0.37928718982873688 -0.29895646409505849 0 -0.3841914044669909 -0.30132118344037401 0 -0.37928718982873688 -0.29895646409505849 0 -0.37669606201677502 -0.29920373422444158 0 -0.37928718982873688 -0.29895646409505849 0 -0.37669606201677502 -0.29920373422444158 0 -0.37671758341694961 -0.29771744858697219 0 -0.37928718982873688 -0.29895646409505849 0 -0.37671758341694961 -0.29771744858697219 0 -0.37928718982873688 -0.29895646409505849 0 -0.37669606201677502 -0.29920373422444158 0 -0.37669606201677502 -0.29920373422444158 0 -0.37671758341694961 -0.29771744858697219 0 -0.37671758341694961 -0.29771744858697219 0 -0.38607699004493318 -0.28757386461908069 0 -0.38483052758877101 -0.28123782127595193 0 -0.37671758341694961 -0.29771744858697219 0 -0.3770412393053626 -0.27536550612006683 0 -0.37671758341694961 -0.29771744858697219 0 -0.38483052758877101 -0.28123782127595193 0 -0.3770412393053626 -0.27536550612006683 0 -0.37928718982873688 -0.29895646409505849 0 -0.37671758341694961 -0.29771744858697219 0 -0.38467000758835601 -0.29297497791584359 0 -0.37671758341694961 -0.29771744858697219 0 -0.38467000758835601 -0.29297497791584359 0 -0.38607699004493318 -0.28757386461908069 0 -0.39448508010510541 -0.297525044214214 0 -0.37928718982873688 -0.29895646409505849 0 -0.38467000758835601 -0.29297497791584359 0 -0.39448508010510541 -0.297525044214214 0 -0.38467000758835601 -0.29297497791584359 0 -0.39448508010510541 -0.297525044214214 0 -0.38467000758835601 -0.29297497791584359 0 -0.39217701296355612 -0.28987936211692023 0 -0.38467000758835601 -0.29297497791584359 0 -0.38607699004493318 -0.28757386461908069 0 -0.39217701296355612 -0.28987936211692023 0 -0.38607699004493318 -0.28757386461908069 0 -0.39049541959166939 -0.28414526237041138 0 -0.39217701296355612 -0.28987936211692023 0 -0.39049541959166939 -0.28414526237041138 0 -0.39420405367365152 -0.27853706101481662 0 -0.38483052758877101 -0.28123782127595193 0 -0.38607699004493318 -0.28757386461908069 0 -0.39049541959166939 -0.28414526237041138 0 -0.38483052758877101 -0.28123782127595193 0 -0.39597078832761667 -0.28551153658085893 0 -0.40174149504185092 -0.29681366012781812 0 -0.40123596036735593 -0.27818233727432817 0 -0.39049541959166939 -0.28414526237041138 0 -0.39597078832761667 -0.28551153658085893 0 -0.39420405367365152 -0.27853706101481662 0 -0.40174149504185092 -0.29681366012781812 0 -0.40123596036735593 -0.27818233727432817 0 -0.40174149504185092 -0.29681366012781812 0 -0.40322207619149192 -0.29288764445213411 0 -0.40123596036735593 -0.27818233727432817 0 -0.39049541959166939 -0.28414526237041138 0 -0.39597078832761667 -0.28551153658085893 0 -0.39217701296355612 -0.28987936211692023 0 -0.39597078832761667 -0.28551153658085893 0 -0.39217701296355612 -0.28987936211692023 0 -0.40174149504185092 -0.29681366012781812 0 -0.39448508010510541 -0.297525044214214 0 -0.39217701296355612 -0.28987936211692023 0 -0.40174149504185092 -0.29681366012781812 0 -0.40690107601488551 -0.28490397733270861 0 -0.40322207619149192 -0.29288764445213411 0 -0.40618483967714292 -0.29638963380315841 0 -0.40174149504185092 -0.29681366012781812 0 -0.40322207619149192 -0.29288764445213411 0 -0.40618483967714292 -0.29638963380315841 0 -0.40174149504185092 -0.29681366012781812 0 -0.40618483967714292 -0.29638963380315841 0 -0.40322207619149192 -0.29288764445213411 0 -0.40618483967714292 -0.29638963380315841 0 -0.40690107601488551 -0.28490397733270861 0 -0.40322207619149192 -0.29288764445213411 0 -0.40123596036735593 -0.27818233727432817 0 -0.39420405367365152 -0.27853706101481662 0 -0.37710287173325818 -0.2711091198417086 0 -0.40073042569286338 -0.25955101442083811 0 -0.40123596036735593 -0.27818233727432817 0 -0.39420405367365152 -0.27853706101481662 0 -0.40073042569286338 -0.25955101442083811 0 -0.40123596036735593 -0.27818233727432817 0 -0.40073042569286338 -0.25955101442083811 0 -0.40123596036735593 -0.27818233727432817 0 -0.40073042569286338 -0.25955101442083811 0 -0.41341650638623911 -0.27076301679274262 0 -0.39597078832761667 -0.28551153658085893 0 -0.40123596036735593 -0.27818233727432817 0 -0.39420405367365152 -0.27853706101481662 0 -0.39420405367365152 -0.27853706101481662 0 -0.37710287173325818 -0.2711091198417086 0 -0.3770412393053626 -0.27536550612006683 0 -0.39420405367365152 -0.27853706101481662 0 -0.3770412393053626 -0.27536550612006683 0 -0.39420405367365152 -0.27853706101481662 0 -0.38483052758877101 -0.28123782127595193 0 -0.3770412393053626 -0.27536550612006683 0 -0.37710287173325818 -0.2711091198417086 0 -0.3770412393053626 -0.27536550612006683 0 -0.37710287173325818 -0.2711091198417086 0 -0.38543722149146659 -0.25821727905458303 0 -0.40073042569286338 -0.25955101442083811 0 -0.37710287173325818 -0.2711091198417086 0 -0.37747963509906429 -0.24508953120583671 0 -0.37710287173325818 -0.2711091198417086 0 -0.40073042569286338 -0.25955101442083811 0 -0.37710287173325818 -0.2711091198417086 0 -0.38543722149146659 -0.25821727905458303 0 -0.37747963509906429 -0.24508953120583671 0 -0.38543722149146659 -0.25821727905458303 0 -0.3938256931015453 -0.25037754026629511 0 -0.37747963509906429 -0.24508953120583671 0 -0.38543722149146659 -0.25821727905458303 0 -0.3938256931015453 -0.25037754026629511 0 -0.40073042569286338 -0.25955101442083811 0 -0.40073042569286338 -0.25955101442083811 0 -0.40282532782868952 -0.25224285689579767 0 -0.40022281387448849 -0.24084313907701979 0 -0.40073042569286338 -0.25955101442083811 0 -0.40022281387448849 -0.24084313907701979 0 -0.3938256931015453 -0.25037754026629511 0 -0.40073042569286338 -0.25955101442083811 0 -0.40022281387448849 -0.24084313907701979 0 -0.40073042569286338 -0.25955101442083811 0 -0.40282532782868952 -0.25224285689579767 0 -0.41385673751816382 -0.25312989710486528 0 -0.40073042569286338 -0.25955101442083811 0 -0.41385673751816382 -0.25312989710486528 0 -0.40073042569286338 -0.25955101442083811 0 -0.41385673751816382 -0.25312989710486528 0 -0.41341650638623911 -0.27076301679274262 0 -0.41385673751816382 -0.25312989710486528 0 -0.41341650638623911 -0.27076301679274262 0 -0.42312684460972783 -0.26331748455384929 0 -0.41385673751816382 -0.25312989710486528 0 -0.41679144862722167 -0.25169429778568547 0 -0.43445882011373449 -0.25478651907497341 0 -0.40282532782868952 -0.25224285689579767 0 -0.41385673751816382 -0.25312989710486528 0 -0.4086566941719203 -0.24778871483445111 0 -0.40282532782868952 -0.25224285689579767 0 -0.41385673751816382 -0.25312989710486528 0 -0.41385673751816382 -0.25312989710486528 0 -0.41679144862722167 -0.25169429778568547 0 -0.41627810448972868 -0.24641300060905449 0 -0.41385673751816382 -0.25312989710486528 0 -0.41679144862722167 -0.25169429778568547 0 -0.41684225135067149 -0.28376244362903152 0 -0.41341650638623911 -0.27076301679274262 0 -0.43077531442077321 -0.27459050524281542 0 -0.40690107601488551 -0.28490397733270861 0 -0.40123596036735593 -0.27818233727432817 0 -0.41341650638623911 -0.27076301679274262 0 -0.41684225135067149 -0.28376244362903152 0 -0.40690107601488551 -0.28490397733270861 0 -0.41341650638623911 -0.27076301679274262 0 -0.41341650638623911 -0.27076301679274262 0 -0.43077531442077321 -0.27459050524281542 0 -0.42312684460972783 -0.26331748455384929 0 -0.43077531442077321 -0.27459050524281542 0 -0.42312684460972783 -0.26331748455384929 0 -0.43445882011373449 -0.25478651907497341 0 -0.41385673751816382 -0.25312989710486528 0 -0.43445882011373449 -0.25478651907497341 0 -0.43077531442077321 -0.27459050524281542 0 -0.43445882011373449 -0.25478651907497341 0 -0.41385673751816382 -0.25312989710486528 0 -0.42312684460972783 -0.26331748455384929 0 -0.43445882011373449 -0.25478651907497341 0 -0.41679144862722167 -0.25169429778568547 0 -0.43445882011373449 -0.25478651907497341 0 -0.42335340856967768 -0.24893549408922019 0 -0.32580796388430833 -0.26195871891040218 0 -0.34139866608006603 -0.2687790352098644 0 -0.31202674084989918 -0.26335133138269068 0 -0.32580796388430833 -0.26195871891040218 0 -0.33345250408021371 -0.25331871279766999 0 -0.32023222063025569 -0.2489608815952247 0 -0.32580796388430833 -0.26195871891040218 0 -0.31664960680882542 -0.25714232151458272 0 -0.32023222063025569 -0.2489608815952247 0 -0.31664960680882542 -0.25714232151458272 0 -0.30853150187083839 -0.25429835417001312 0 -0.32023222063025569 -0.2489608815952247 0 -0.32580796388430833 -0.26195871891040218 0 -0.31664960680882542 -0.25714232151458272 0 -0.31202674084989918 -0.26335133138269068 0 -0.33223611708196649 -0.27626932861073827 0 -0.31972670239926188 -0.28454160199560091 0 -0.31187737399160442 -0.27618124236115132 0 -0.34139866608006603 -0.2687790352098644 0 -0.31202674084989918 -0.26335133138269068 0 -0.33223611708196649 -0.27626932861073827 0 -0.31202674084989918 -0.26335133138269068 0 -0.3062135479255173 -0.26372173898871692 0 -0.33223611708196649 -0.27626932861073827 0 -0.31187737399160442 -0.27618124236115132 0 -0.3062135479255173 -0.26372173898871692 0 -0.33260241140844943 -0.2743168067351805 0 -0.33223611708196649 -0.27626932861073827 0 -0.31202674084989918 -0.26335133138269068 0 -0.33223611708196649 -0.27626932861073827 0 -0.3062135479255173 -0.26372173898871692 0 -0.33260241140844943 -0.2743168067351805 0 -0.34139866608006603 -0.2687790352098644 0 -0.31202674084989918 -0.26335133138269068 0 -0.33223611708196649 -0.27626932861073827 0 -0.34139866608006603 -0.2687790352098644 0 -0.34951875912658742 -0.28460269103381453 0 -0.33223611708196649 -0.27626932861073827 0 -0.34951875912658742 -0.28460269103381453 0 -0.33260241140844943 -0.2743168067351805 0 -0.33223611708196649 -0.27626932861073827 0 -0.34139866608006603 -0.2687790352098644 0 -0.33260241140844943 -0.2743168067351805 0 -0.33223611708196649 -0.27626932861073827 0 -0.34139866608006603 -0.2687790352098644 0 -0.3363084638556994 -0.26041051377605268 0 -0.34457472137820933 -0.25758558818627408 0 -0.32580796388430833 -0.26195871891040218 0 -0.34139866608006603 -0.2687790352098644 0 -0.3363084638556994 -0.26041051377605268 0 -0.32580796388430833 -0.26195871891040218 0 -0.3363084638556994 -0.26041051377605268 0 -0.33345250408021371 -0.25331871279766999 0 -0.3363084638556994 -0.26041051377605268 0 -0.33345250408021371 -0.25331871279766999 0 -0.34457472137820933 -0.25758558818627408 0 -0.33345250408021371 -0.25331871279766999 0 -0.34457472137820933 -0.25758558818627408 0 -0.34395992200845399 -0.24382677409400949 0 -0.34139866608006603 -0.2687790352098644 0 -0.34457472137820933 -0.25758558818627408 0 -0.35733732661955131 -0.26288598862094092 0 -0.34457472137820933 -0.25758558818627408 0 -0.35872453044413888 -0.25078889886649508 0 -0.34395992200845399 -0.24382677409400949 0 -0.34457472137820933 -0.25758558818627408 0 -0.35733732661955131 -0.26288598862094092 0 -0.35872453044413888 -0.25078889886649508 0 -0.37710287173325818 -0.2711091198417086 0 -0.36828299104124951 -0.26081605551440462 0 -0.37747963509906429 -0.24508953120583671 0 -0.35872453044413888 -0.25078889886649508 0 -0.36828299104124951 -0.26081605551440462 0 -0.37747963509906429 -0.24508953120583671 0 -0.35733732661955131 -0.26288598862094092 0 -0.35872453044413888 -0.25078889886649508 0 -0.36828299104124951 -0.26081605551440462 0 -0.37077059131023282 -0.27420673903703829 0 -0.34951875912658742 -0.28460269103381453 0 -0.37710287173325818 -0.2711091198417086 0 -0.3770412393053626 -0.27536550612006683 0 -0.37077059131023282 -0.27420673903703829 0 -0.3770412393053626 -0.27536550612006683 0 -0.37077059131023282 -0.27420673903703829 0 -0.37710287173325818 -0.2711091198417086 0 -0.36828299104124951 -0.26081605551440462 0 -0.37077059131023282 -0.27420673903703829 0 -0.37710287173325818 -0.2711091198417086 0 -0.37077059131023282 -0.27420673903703829 0 -0.35733732661955131 -0.26288598862094092 0 -0.36828299104124951 -0.26081605551440462 0 -0.37077059131023282 -0.27420673903703829 0 -0.34139866608006603 -0.2687790352098644 0 -0.35733732661955131 -0.26288598862094092 0 -0.37077059131023282 -0.27420673903703829 0 -0.34139866608006603 -0.2687790352098644 0 -0.37077059131023282 -0.27420673903703829 0 -0.34951875912658742 -0.28460269103381453 0 -0.34139866608006603 -0.2687790352098644 0 -0.37077059131023282 -0.27420673903703829 0 -0.34951875912658742 -0.28460269103381453 0 -0.3581763596052473 -0.30097106086504849 0 -0.34010739644885768 -0.2892065328944351 0 -0.34951875912658742 -0.28460269103381453 0 -0.34010739644885768 -0.2892065328944351 0 -0.37671758341694961 -0.29771744858697219 0 -0.37077059131023282 -0.27420673903703829 0 -0.34951875912658742 -0.28460269103381453 0 -0.37671758341694961 -0.29771744858697219 0 -0.34951875912658742 -0.28460269103381453 0 -0.37671758341694961 -0.29771744858697219 0 -0.3770412393053626 -0.27536550612006683 0 -0.37077059131023282 -0.27420673903703829 0 -0.37671758341694961 -0.29771744858697219 0 -0.34951875912658742 -0.28460269103381453 0 -0.3581763596052473 -0.30097106086504849 0 -0.37669606201677502 -0.29920373422444158 0 -0.37671758341694961 -0.29771744858697219 0 -0.3581763596052473 -0.30097106086504849 0 -0.37641717267996733 -0.3184640617331177 0 -0.37669606201677502 -0.29920373422444158 0 -0.36799370156123501 -0.30592930732763762 0 -0.37641717267996733 -0.3184640617331177 0 -0.36799370156123501 -0.30592930732763762 0 -0.35803691493684492 -0.31060122461938489 0 -0.37669606201677502 -0.29920373422444158 0 -0.36799370156123501 -0.30592930732763762 0 -0.3581763596052473 -0.30097106086504849 0 -0.37669606201677502 -0.29920373422444158 0 -0.3581763596052473 -0.30097106086504849 0 -0.36799370156123501 -0.30592930732763762 0 -0.35803691493684492 -0.31060122461938489 0 -0.3581763596052473 -0.30097106086504849 0 -0.35803691493684492 -0.31060122461938489 0 -0.33965665719371979 -0.30273838750565862 0 -0.35803691493684492 -0.31060122461938489 0 -0.33965665719371979 -0.30273838750565862 0 -0.34514704515453298 -0.31300544250539297 0 -0.3581763596052473 -0.30097106086504849 0 -0.33965665719371979 -0.30273838750565862 0 -0.34010739644885768 -0.2892065328944351 0 -0.35803691493684492 -0.31060122461938489 0 -0.3581763596052473 -0.30097106086504849 0 -0.33965665719371979 -0.30273838750565862 0 -0.3581763596052473 -0.30097106086504849 0 -0.33965665719371979 -0.30273838750565862 0 -0.33676996251121621 -0.31158184422573892 0 -0.33965665719371979 -0.30273838750565862 0 -0.34514704515453298 -0.31300544250539297 0 -0.33676996251121621 -0.31158184422573892 0 -0.33965665719371979 -0.30273838750565862 0 -0.32704471803945162 -0.30394193902942662 0 -0.33676996251121621 -0.31158184422573892 0 -0.32594772137393307 -0.30978944971135602 0 -0.32704471803945162 -0.30394193902942662 0 -0.33965665719371979 -0.30273838750565862 0 -0.32704471803945162 -0.30394193902942662 0 -0.32819068517220462 -0.29783339261299951 0 -0.33965665719371979 -0.30273838750565862 0 -0.32704471803945162 -0.30394193902942662 0 -0.32819068517220462 -0.29783339261299951 0 -0.33965665719371979 -0.30273838750565862 0 -0.33223611708196649 -0.27626932861073827 0 -0.32819068517220462 -0.29783339261299951 0 -0.33223611708196649 -0.27626932861073827 0 -0.32819068517220462 -0.29783339261299951 0 -0.34010739644885768 -0.2892065328944351 0 -0.33223611708196649 -0.27626932861073827 0 -0.34951875912658742 -0.28460269103381453 0 -0.34010739644885768 -0.2892065328944351 0 -0.32819068517220462 -0.29783339261299951 0 -0.33965665719371979 -0.30273838750565862 0 -0.34010739644885768 -0.2892065328944351 0 -0.32819068517220462 -0.29783339261299951 0 -0.31972670239926188 -0.28454160199560091 0 -0.31332574866090718 -0.291474364566292 0 -0.32819068517220462 -0.29783339261299951 0 -0.31332574866090718 -0.291474364566292 0 -0.33223611708196649 -0.27626932861073827 0 -0.32819068517220462 -0.29783339261299951 0 -0.31972670239926188 -0.28454160199560091 0 -0.31972670239926188 -0.28454160199560091 0 -0.31332574866090718 -0.291474364566292 0 -0.30937392239009109 -0.28339120160471948 0 -0.31972670239926188 -0.28454160199560091 0 -0.30937392239009109 -0.28339120160471948 0 -0.31187737399160442 -0.27618124236115132 0 -0.31992409361072222 -0.30462145692723192 0 -0.32594772137393307 -0.30978944971135602 0 -0.31307430431717392 -0.31869978567557272 0 -0.31992409361072222 -0.30462145692723192 0 -0.32594772137393307 -0.30978944971135602 0 -0.32594772137393307 -0.30978944971135602 0 -0.32704471803945162 -0.30394193902942662 0 -0.31992409361072222 -0.30462145692723192 0 -0.32594772137393307 -0.30978944971135602 0 -0.32704471803945162 -0.30394193902942662 0 -0.32819068517220462 -0.29783339261299951 0 -0.31332574866090718 -0.291474364566292 0 -0.31992409361072222 -0.30462145692723192 0 -0.32819068517220462 -0.29783339261299951 0 -0.32704471803945162 -0.30394193902942662 0 -0.32819068517220462 -0.29783339261299951 0 -0.31992409361072222 -0.30462145692723192 0 -0.32704471803945162 -0.30394193902942662 0 -0.31992409361072222 -0.30462145692723192 0 -0.32704471803945162 -0.30394193902942662 0 -0.32594772137393307 -0.30978944971135602 0 -0.31307430431717392 -0.31869978567557272 0 -0.32184288384298337 -0.33167017375041419 0 -0.32594772137393307 -0.30978944971135602 0 -0.32184288384298337 -0.33167017375041419 0 -0.32184288384298337 -0.33167017375041419 0 -0.31773804631203251 -0.35355089778947202 0 -0.32184288384298337 -0.33167017375041419 0 -0.34475024534571441 -0.34586667392980902 0 -0.31773804631203251 -0.35355089778947202 0 -0.32184288384298337 -0.33167017375041419 0 -0.34612464597635118 -0.32710031367078812 0 -0.34475024534571441 -0.34586667392980902 0 -0.33676996251121621 -0.31158184422573892 0 -0.32594772137393307 -0.30978944971135602 0 -0.34612464597635118 -0.32710031367078812 0 -0.32594772137393307 -0.30978944971135602 0 -0.34612464597635118 -0.32710031367078812 0 -0.32594772137393307 -0.30978944971135602 0 -0.32184288384298337 -0.33167017375041419 0 -0.34612464597635118 -0.32710031367078812 0 -0.33676996251121621 -0.31158184422573892 0 -0.34514704515453298 -0.31300544250539297 0 -0.34612464597635118 -0.32710031367078812 0 -0.35803691493684492 -0.31060122461938489 0 -0.34514704515453298 -0.31300544250539297 0 -0.34612464597635118 -0.32710031367078812 0 -0.35803691493684492 -0.31060122461938489 0 -0.34612464597635118 -0.32710031367078812 0 -0.35600230731325749 -0.33324145173106873 0 -0.37641717267996733 -0.3184640617331177 0 -0.35803691493684492 -0.31060122461938489 0 -0.37641717267996733 -0.3184640617331177 0 -0.35803691493684492 -0.31060122461938489 0 -0.36719759625642318 -0.33008752154143739 0 -0.35803691493684492 -0.31060122461938489 0 -0.36719759625642318 -0.33008752154143739 0 -0.35600230731325749 -0.33324145173106873 0 -0.37607676276689278 -0.3419730509543204 0 -0.37641717267996733 -0.3184640617331177 0 -0.36719759625642318 -0.33008752154143739 0 -0.37607676276689278 -0.3419730509543204 0 -0.3688763256213185 -0.34309961767568647 0 -0.36719759625642318 -0.33008752154143739 0 -0.36719759625642318 -0.33008752154143739 0 -0.36118874601324108 -0.3436521492952741 0 -0.35600230731325749 -0.33324145173106873 0 -0.3688763256213185 -0.34309961767568647 0 -0.36719759625642318 -0.33008752154143739 0 -0.36118874601324108 -0.3436521492952741 0 -0.34612464597635118 -0.32710031367078812 0 -0.35600230731325749 -0.33324145173106873 0 -0.34475024534571441 -0.34586667392980902 0 -0.36118874601324108 -0.3436521492952741 0 -0.35600230731325749 -0.33324145173106873 0 -0.34475024534571441 -0.34586667392980902 0 -0.36118874601324108 -0.3436521492952741 0 -0.34475024534571441 -0.34586667392980902 0 -0.35925477447714671 -0.35134479444962452 0 -0.34475024534571441 -0.34586667392980902 0 -0.35480891830463612 -0.3592101017575729 0 -0.33937201587241012 -0.36587749477948078 0 -0.34475024534571441 -0.34586667392980902 0 -0.35480891830463612 -0.3592101017575729 0 -0.35925477447714671 -0.35134479444962452 0 -0.36118874601324108 -0.3436521492952741 0 -0.37225797237559449 -0.35115364910559932 0 -0.36118874601324108 -0.3436521492952741 0 -0.35925477447714671 -0.35134479444962452 0 -0.36985982957495511 -0.35171195823109852 0 -0.37568304780698558 -0.36916333065311507 0 -0.37593298752455201 -0.35190228771479481 0 -0.37225797237559449 -0.35115364910559932 0 -0.35480891830463612 -0.3592101017575729 0 -0.35925477447714671 -0.35134479444962452 0 -0.36985982957495511 -0.35171195823109852 0 -0.37607676276689278 -0.3419730509543204 0 -0.3688763256213185 -0.34309961767568647 0 -0.37225797237559449 -0.35115364910559932 0 -0.37607676276689278 -0.3419730509543204 0 -0.37225797237559449 -0.35115364910559932 0 -0.37607676276689278 -0.3419730509543204 0 -0.37390838074359528 -0.35076941925389299 0 -0.37225797237559449 -0.35115364910559932 0 -0.37593298752455201 -0.35190228771479481 0 -0.37390838074359528 -0.35076941925389299 0 -0.37225797237559449 -0.35115364910559932 0 -0.3688763256213185 -0.34309961767568647 0 -0.36118874601324108 -0.3436521492952741 0 -0.37225797237559449 -0.35115364910559932 0 -0.37593298752455201 -0.35190228771479481 0 -0.37390838074359528 -0.35076941925389299 0 -0.36118874601324108 -0.3436521492952741 0 -0.36985982957495511 -0.35171195823109852 0 -0.37225797237559449 -0.35115364910559932 0 -0.37595629511297179 -0.35029264644438168 0 -0.37390838074359528 -0.35076941925389299 0 -0.37390838074359528 -0.35076941925389299 0 -0.37225797237559449 -0.35115364910559932 0 -0.36985982957495511 -0.35171195823109852 0 -0.37225797237559449 -0.35115364910559932 0 -0.37568304780698558 -0.36916333065311507 0 -0.37225797237559449 -0.35115364910559932 0 -0.36100598543278789 -0.37820409176948921 0 -0.35480891830463612 -0.3592101017575729 0 -0.36985982957495511 -0.35171195823109852 0 -0.36100598543278789 -0.37820409176948921 0 -0.36985982957495511 -0.35171195823109852 0 -0.37225797237559449 -0.35115364910559932 0 -0.36100598543278789 -0.37820409176948921 0 -0.37225797237559449 -0.35115364910559932 0 -0.36100598543278789 -0.37820409176948921 0 -0.33937201587241012 -0.36587749477948078 0 -0.36100598543278789 -0.37820409176948921 0 -0.35480891830463612 -0.3592101017575729 0 -0.33937201587241012 -0.36587749477948078 0 -0.36100598543278789 -0.37820409176948921 0 -0.33937201587241012 -0.36587749477948078 0 -0.31773804631203251 -0.35355089778947202 0 -0.33937201587241012 -0.36587749477948078 0 -0.31773804631203251 -0.35355089778947202 0 -0.32803705280137402 -0.37447550275240871 0 -0.34475024534571441 -0.34586667392980902 0 -0.33937201587241012 -0.36587749477948078 0 -0.31773804631203251 -0.35355089778947202 0 -0.31773804631203251 -0.35355089778947202 0 -0.31381007312398762 -0.37448885129246268 0 -0.31773804631203251 -0.35355089778947202 0 -0.31381007312398762 -0.37448885129246268 0 -0.32803705280137402 -0.37447550275240871 0 -0.31381007312398762 -0.37448885129246268 0 -0.29871455833571747 -0.36148408621311728 0 -0.29196992941862432 -0.3825632544476108 0 -0.31773804631203251 -0.35355089778947202 0 -0.31381007312398762 -0.37448885129246268 0 -0.29871455833571747 -0.36148408621311728 0 -0.31773804631203251 -0.35355089778947202 0 -0.29871455833571747 -0.36148408621311728 0 -0.29282778547957722 -0.33935753649529382 0 -0.31773804631203251 -0.35355089778947202 0 -0.29282778547957722 -0.33935753649529382 0 -0.29871455833571747 -0.36148408621311728 0 -0.27675503022224163 -0.36681377825091099 0 -0.29282778547957722 -0.33935753649529382 0 -0.29871455833571747 -0.36148408621311728 0 -0.27675503022224163 -0.36681377825091099 0 -0.29196992941862432 -0.3825632544476108 0 -0.27675503022224163 -0.36681377825091099 0 -0.25757508569408222 -0.36424633604315798 0 -0.26546808025963542 -0.34847395767735678 0 -0.27675503022224163 -0.36681377825091099 0 -0.25757508569408222 -0.36424633604315798 0 -0.25812358553267323 -0.37605355791306738 0 -0.25757508569408222 -0.36424633604315798 0 -0.24839247009954951 -0.37292447016044328 0 -0.24532753696728959 -0.36501789644951049 0 -0.25757508569408222 -0.36424633604315798 0 -0.25812358553267323 -0.37605355791306738 0 -0.24839247009954951 -0.37292447016044328 0 -0.25757508569408222 -0.36424633604315798 0 -0.26546808025963542 -0.34847395767735678 0 -0.24650166737573331 -0.3569693529562265 0 -0.26546808025963542 -0.34847395767735678 0 -0.24650166737573331 -0.3569693529562265 0 -0.24881121389389799 -0.33838995723746451 0 -0.27675503022224163 -0.36681377825091099 0 -0.26546808025963542 -0.34847395767735678 0 -0.29282778547957722 -0.33935753649529382 0 -0.26791752464712137 -0.32516417520111718 0 -0.27544300416693679 -0.31995488319631832 0 -0.29282778547957722 -0.33935753649529382 0 -0.26546808025963542 -0.34847395767735678 0 -0.26791752464712137 -0.32516417520111718 0 -0.29282778547957722 -0.33935753649529382 0 -0.26791752464712137 -0.32516417520111718 0 -0.29282778547957722 -0.33935753649529382 0 -0.26791752464712137 -0.32516417520111718 0 -0.24881121389389799 -0.33838995723746451 0 -0.26546808025963542 -0.34847395767735678 0 -0.26791752464712137 -0.32516417520111718 0 -0.24881121389389799 -0.33838995723746451 0 -0.26791752464712137 -0.32516417520111718 0 -0.24881121389389799 -0.33838995723746451 0 -0.2441082332202735 -0.32380704628422963 0 -0.26791752464712137 -0.32516417520111718 0 -0.2444966906846206 -0.31181945912301329 0 -0.26791752464712137 -0.32516417520111718 0 -0.26963915832665503 -0.30942012505775762 0 -0.2444966906846206 -0.31181945912301329 0 -0.26791752464712137 -0.32516417520111718 0 -0.2441082332202735 -0.32380704628422963 0 -0.2444966906846206 -0.31181945912301329 0 -0.26791752464712137 -0.32516417520111718 0 -0.27544300416693679 -0.31995488319631832 0 -0.26963915832665503 -0.30942012505775762 0 -0.26791752464712137 -0.32516417520111718 0 -0.27544300416693679 -0.31995488319631832 0 -0.27544300416693679 -0.31995488319631832 0 -0.29403167998309421 -0.32125824908992018 0 -0.29478162596868879 -0.30702079099249591 0 -0.27544300416693679 -0.31995488319631832 0 -0.29403167998309421 -0.32125824908992018 0 -0.29282778547957722 -0.33935753649529382 0 -0.31307430431717392 -0.31869978567557272 0 -0.32184288384298337 -0.33167017375041419 0 -0.29282778547957722 -0.33935753649529382 0 -0.32184288384298337 -0.33167017375041419 0 -0.31773804631203251 -0.35355089778947202 0 -0.29282778547957722 -0.33935753649529382 0 -0.31307430431717392 -0.31869978567557272 0 -0.29403167998309421 -0.32125824908992018 0 -0.29282778547957722 -0.33935753649529382 0 -0.31307430431717392 -0.31869978567557272 0 -0.29403167998309421 -0.32125824908992018 0 -0.29478162596868879 -0.30702079099249591 0 -0.31992409361072222 -0.30462145692723192 0 -0.29478162596868879 -0.30702079099249591 0 -0.31992409361072222 -0.30462145692723192 0 -0.31307430431717392 -0.31869978567557272 0 -0.29478162596868879 -0.30702079099249591 0 -0.31992409361072222 -0.30462145692723192 0 -0.30687808727867438 -0.29770175581860719 0 -0.29478162596868879 -0.30702079099249591 0 -0.30687808727867438 -0.29770175581860719 0 -0.29813438661480679 -0.29530641477552327 0 -0.29478162596868879 -0.30702079099249591 0 -0.31992409361072222 -0.30462145692723192 0 -0.2984608121496099 -0.28511533651958437 0 -0.31992409361072222 -0.30462145692723192 0 -0.30687808727867438 -0.29770175581860719 0 -0.2984608121496099 -0.28511533651958437 0 -0.31332574866090718 -0.291474364566292 0 -0.31992409361072222 -0.30462145692723192 0 -0.2984608121496099 -0.28511533651958437 0 -0.31332574866090718 -0.291474364566292 0 -0.30937392239009109 -0.28339120160471948 0 -0.2984608121496099 -0.28511533651958437 0 -0.31332574866090718 -0.291474364566292 0 -0.2984608121496099 -0.28511533651958437 0 -0.30937392239009109 -0.28339120160471948 0 -0.2984608121496099 -0.28511533651958437 0 -0.30347897474907187 -0.279643462580969 0 -0.30687808727867438 -0.29770175581860719 0 -0.29951482580247829 -0.29240083595456018 0 -0.29813438661480679 -0.29530641477552327 0 -0.30687808727867438 -0.29770175581860719 0 -0.2984608121496099 -0.28511533651958437 0 -0.29951482580247829 -0.29240083595456018 0 -0.29951482580247829 -0.29240083595456018 0 -0.29813438661480679 -0.29530641477552327 0 -0.29499124589990039 -0.29073588210889412 0 -0.2984608121496099 -0.28511533651958437 0 -0.29951482580247829 -0.29240083595456018 0 -0.29499124589990039 -0.29073588210889412 0 -0.29499124589990039 -0.29073588210889412 0 -0.29148170063899659 -0.29460773718781319 0 -0.28586576089235322 -0.28577101837165192 0 -0.29813438661480679 -0.29530641477552327 0 -0.29499124589990039 -0.29073588210889412 0 -0.29148170063899659 -0.29460773718781319 0 -0.2984608121496099 -0.28511533651958437 0 -0.29499124589990039 -0.29073588210889412 0 -0.28586576089235322 -0.28577101837165192 0 -0.29148170063899659 -0.29460773718781319 0 -0.28586576089235322 -0.28577101837165192 0 -0.2798353156189245 -0.29508903771003908 0 -0.29148170063899659 -0.29460773718781319 0 -0.29478162596868879 -0.30702079099249591 0 -0.2798353156189245 -0.29508903771003908 0 -0.29478162596868879 -0.30702079099249591 0 -0.26963915832665503 -0.30942012505775762 0 -0.2798353156189245 -0.29508903771003908 0 -0.29478162596868879 -0.30702079099249591 0 -0.26963915832665503 -0.30942012505775762 0 -0.29813438661480679 -0.29530641477552327 0 -0.29148170063899659 -0.29460773718781319 0 -0.29478162596868879 -0.30702079099249591 0 -0.27544300416693679 -0.31995488319631832 0 -0.29478162596868879 -0.30702079099249591 0 -0.26963915832665503 -0.30942012505775762 0 -0.26963915832665503 -0.30942012505775762 0 -0.26057201890547982 -0.29344093798311832 0 -0.2798353156189245 -0.29508903771003908 0 -0.26963915832665503 -0.30942012505775762 0 -0.2444966906846206 -0.31181945912301329 0 -0.26963915832665503 -0.30942012505775762 0 -0.26057201890547982 -0.29344093798311832 0 -0.2444966906846206 -0.31181945912301329 0 -0.26057201890547982 -0.29344093798311832 0 -0.27108878797196961 -0.28331686931735522 0 -0.25298377122075039 -0.27518622721876451 0 -0.26057201890547982 -0.29344093798311832 0 -0.25298377122075039 -0.27518622721876451 0 -0.2435111179254994 -0.29490773243705071 0 -0.26057201890547982 -0.29344093798311832 0 -0.27108878797196961 -0.28331686931735522 0 -0.2798353156189245 -0.29508903771003908 0 -0.28586576089235322 -0.28577101837165192 0 -0.27108878797196961 -0.28331686931735522 0 -0.2798353156189245 -0.29508903771003908 0 -0.27108878797196961 -0.28331686931735522 0 -0.27618707322233982 -0.26709712530320262 0 -0.25298377122075039 -0.27518622721876451 0 -0.28586576089235322 -0.28577101837165192 0 -0.27108878797196961 -0.28331686931735522 0 -0.27618707322233982 -0.26709712530320262 0 -0.27618707322233982 -0.26709712530320262 0 -0.25431856302814809 -0.24833495949118861 0 -0.27618707322233982 -0.26709712530320262 0 -0.25298377122075039 -0.27518622721876451 0 -0.25431856302814809 -0.24833495949118861 0 -0.27618707322233982 -0.26709712530320262 0 -0.27309361240676189 -0.24179026653703889 0 -0.25431856302814809 -0.24833495949118861 0 -0.27618707322233982 -0.26709712530320262 0 -0.2907170577323625 -0.25177677077710309 0 -0.27309361240676189 -0.24179026653703889 0 -0.27618707322233982 -0.26709712530320262 0 -0.2907170577323625 -0.25177677077710309 0 -0.29477899871119112 -0.26293378760569941 0 -0.2984608121496099 -0.28511533651958437 0 -0.28586576089235322 -0.28577101837165192 0 -0.27618707322233982 -0.26709712530320262 0 -0.2984608121496099 -0.28511533651958437 0 -0.27618707322233982 -0.26709712530320262 0 -0.27618707322233982 -0.26709712530320262 0 -0.29477899871119112 -0.26293378760569941 0 -0.29948479845841441 -0.27338487519771032 0 -0.2984608121496099 -0.28511533651958437 0 -0.27618707322233982 -0.26709712530320262 0 -0.29948479845841441 -0.27338487519771032 0 -0.29477899871119112 -0.26293378760569941 0 -0.29948479845841441 -0.27338487519771032 0 -0.30156079933714469 -0.26765617134954151 0 -0.30156079933714469 -0.26765617134954151 0 -0.30403476516136241 -0.27459464834518948 0 -0.30588444940973558 -0.27063474712059482 0 -0.29948479845841441 -0.27338487519771032 0 -0.30156079933714469 -0.26765617134954151 0 -0.30403476516136241 -0.27459464834518948 0 -0.30156079933714469 -0.26765617134954151 0 -0.30588444940973558 -0.27063474712059482 0 -0.3062135479255173 -0.26372173898871692 0 -0.2984608121496099 -0.28511533651958437 0 -0.29948479845841441 -0.27338487519771032 0 -0.30347897474907187 -0.279643462580969 0 -0.29948479845841441 -0.27338487519771032 0 -0.30403476516136241 -0.27459464834518948 0 -0.30347897474907187 -0.279643462580969 0 -0.30937392239009109 -0.28339120160471948 0 -0.30347897474907187 -0.279643462580969 0 -0.31187737399160442 -0.27618124236115132 0 -0.30403476516136241 -0.27459464834518948 0 -0.30347897474907187 -0.279643462580969 0 -0.31187737399160442 -0.27618124236115132 0 -0.30403476516136241 -0.27459464834518948 0 -0.31187737399160442 -0.27618124236115132 0 -0.30588444940973558 -0.27063474712059482 0 -0.31187737399160442 -0.27618124236115132 0 -0.30588444940973558 -0.27063474712059482 0 -0.3062135479255173 -0.26372173898871692 0 -0.31664960680882542 -0.25714232151458272 0 -0.31202674084989918 -0.26335133138269068 0 -0.30853150187083839 -0.25429835417001312 0 -0.2907170577323625 -0.25177677077710309 0 -0.29477899871119112 -0.26293378760569941 0 -0.30853150187083839 -0.25429835417001312 0 -0.31202674084989918 -0.26335133138269068 0 -0.3062135479255173 -0.26372173898871692 0 -0.30853150187083839 -0.25429835417001312 0 -0.29477899871119112 -0.26293378760569941 0 -0.30156079933714469 -0.26765617134954151 0 -0.3062135479255173 -0.26372173898871692 0 -0.29477899871119112 -0.26293378760569941 0 -0.3062135479255173 -0.26372173898871692 0 -0.30853150187083839 -0.25429835417001312 0 -0.33709504481289931 -0.46474263175187808 0 -0.33075086723682939 -0.45093918684289991 0 -0.35302422329502631 -0.44785824460859458 0 -0.33709504481289931 -0.46474263175187808 0 -0.33075086723682939 -0.45093918684289991 0 -0.32054712240525829 -0.47546959342145068 0 -0.33075086723682939 -0.45093918684289991 0 -0.34095461206840061 -0.42640878026434909 0 -0.33075086723682939 -0.45093918684289991 0 -0.35302422329502631 -0.44785824460859458 0 -0.34095461206840061 -0.42640878026434909 0 -0.33075086723682939 -0.45093918684289991 0 -0.32054706720266329 -0.44859283512714471 0 -0.3206124180200437 -0.43193612962395289 0 -0.33075086723682939 -0.45093918684289991 0 -0.32054706720266329 -0.44859283512714471 0 -0.31571728338184601 -0.45752087103574601 0 -0.32054706720266329 -0.44859283512714471 0 -0.31571728338184601 -0.45752087103574601 0 -0.30706080135445341 -0.45057148265483188 0 -0.33075086723682939 -0.45093918684289991 0 -0.32054712240525829 -0.47546959342145068 0 -0.33075086723682939 -0.45093918684289991 0 -0.31571728338184601 -0.45752087103574601 0 -0.32054712240525829 -0.47546959342145068 0 -0.32054712240525829 -0.47546959342145068 0 -0.32750579650535672 -0.48798687004089669 0 -0.32933965142182292 -0.47777380670114528 0 -0.32054712240525829 -0.47546959342145068 0 -0.31034337757368669 -0.50000000000000133 0 -0.32750579650535672 -0.48798687004089669 0 -0.33387795429423722 -0.5 0 -0.31034337757368669 -0.50000000000000133 0 -0.32054712240525829 -0.47546959342145068 0 -0.32750579650535672 -0.48798687004089669 0 -0.31034337757368669 -0.50000000000000133 0 -0.32750579650535672 -0.48798687004089669 0 -0.34342087683177741 -0.48669095008188618 0 -0.33387795429423722 -0.5 0 -0.33709504481289931 -0.46474263175187808 0 -0.32933965142182292 -0.47777380670114528 0 -0.35181335970555933 -0.47167232718529989 0 -0.34342087683177741 -0.48669095008188618 0 -0.32933965142182292 -0.47777380670114528 0 -0.35181335970555933 -0.47167232718529989 0 -0.32750579650535672 -0.48798687004089669 0 -0.34342087683177741 -0.48669095008188618 0 -0.32933965142182292 -0.47777380670114528 0 -0.33709504481289931 -0.46474263175187808 0 -0.32054712240525829 -0.47546959342145068 0 -0.32933965142182292 -0.47777380670114528 0 -0.32933965142182292 -0.47777380670114528 0 -0.35181335970555933 -0.47167232718529989 0 -0.34342087683177741 -0.48669095008188618 0 -0.35181335970555933 -0.47167232718529989 0 -0.35979455825166368 -0.48519290092039941 0 -0.34342087683177741 -0.48669095008188618 0 -0.35741253101478748 -0.5 0 -0.35979455825166368 -0.48519290092039941 0 -0.34342087683177741 -0.48669095008188618 0 -0.33387795429423722 -0.5 0 -0.35741253101478748 -0.5 0 -0.38094710773533791 -0.49999999999999839 0 -0.35741253101478748 -0.5 0 -0.37240076261097882 -0.48974555046165519 0 -0.35741253101478748 -0.5 0 -0.35979455825166368 -0.48519290092039941 0 -0.37240076261097882 -0.48974555046165519 0 -0.35181335970555933 -0.47167232718529989 0 -0.35979455825166368 -0.48519290092039941 0 -0.37411677223754131 -0.47733161267270968 0 -0.35181335970555933 -0.47167232718529989 0 -0.37411677223754131 -0.47733161267270968 0 -0.37428706798929601 -0.46557084766945539 0 -0.35979455825166368 -0.48519290092039941 0 -0.37240076261097882 -0.48974555046165519 0 -0.37411677223754131 -0.47733161267270968 0 -0.37411677223754131 -0.47733161267270968 0 -0.37428706798929601 -0.46557084766945539 0 -0.35181335970555933 -0.47167232718529989 0 -0.37428706798929601 -0.46557084766945539 0 -0.35302422329502631 -0.44785824460859458 0 -0.35181335970555933 -0.47167232718529989 0 -0.37428706798929601 -0.46557084766945539 0 -0.33709504481289931 -0.46474263175187808 0 -0.35181335970555933 -0.47167232718529989 0 -0.35302422329502631 -0.44785824460859458 0 -0.37428706798929601 -0.46557084766945539 0 -0.35302422329502631 -0.44785824460859458 0 -0.37472313619600889 -0.43545561783144832 0 -0.37428706798929601 -0.46557084766945539 0 -0.37472313619600889 -0.43545561783144832 0 -0.35302422329502631 -0.44785824460859458 0 -0.37472313619600889 -0.43545561783144832 0 -0.36076670325611282 -0.42019275678090617 0 -0.37515920440272033 -0.40534038799344108 0 -0.37472313619600889 -0.43545561783144832 0 -0.36076670325611282 -0.42019275678090617 0 -0.37515920440272033 -0.40534038799344108 0 -0.36076670325611282 -0.42019275678090617 0 -0.35115835689997099 -0.40187837368579798 0 -0.37515920440272033 -0.40534038799344108 0 -0.37472313619600889 -0.43545561783144832 0 -0.36076670325611282 -0.42019275678090617 0 -0.35115835689997099 -0.40187837368579798 0 -0.34095461206840061 -0.42640878026434909 0 -0.34815033243380111 -0.40144447968524521 0 -0.35115835689997099 -0.40187837368579798 0 -0.34095461206840061 -0.42640878026434909 0 -0.35115835689997099 -0.40187837368579798 0 -0.34095461206840061 -0.42640878026434909 0 -0.35302422329502631 -0.44785824460859458 0 -0.36076670325611282 -0.42019275678090617 0 -0.34095461206840061 -0.42640878026434909 0 -0.37543310808941849 -0.38642437359143528 0 -0.36100598543278789 -0.37820409176948921 0 -0.35115835689997099 -0.40187837368579798 0 -0.37543310808941849 -0.38642437359143528 0 -0.37568304780698558 -0.36916333065311507 0 -0.36100598543278789 -0.37820409176948921 0 -0.37543310808941849 -0.38642437359143528 0 -0.36100598543278789 -0.37820409176948921 0 -0.37515920440272033 -0.40534038799344108 0 -0.37543310808941849 -0.38642437359143528 0 -0.35115835689997099 -0.40187837368579798 0 -0.37515920440272033 -0.40534038799344108 0 -0.35115835689997099 -0.40187837368579798 0 -0.35115835689997099 -0.40187837368579798 0 -0.34646966066369161 -0.38533898881774881 0 -0.34316085436749 -0.39382471367395527 0 -0.34815033243380111 -0.40144447968524521 0 -0.35115835689997099 -0.40187837368579798 0 -0.34316085436749 -0.39382471367395527 0 -0.34815033243380111 -0.40144447968524521 0 -0.35115835689997099 -0.40187837368579798 0 -0.33937201587241012 -0.36587749477948078 0 -0.36100598543278789 -0.37820409176948921 0 -0.34646966066369161 -0.38533898881774881 0 -0.36100598543278789 -0.37820409176948921 0 -0.35115835689997099 -0.40187837368579798 0 -0.36100598543278789 -0.37820409176948921 0 -0.35115835689997099 -0.40187837368579798 0 -0.34646966066369161 -0.38533898881774881 0 -0.33937201587241012 -0.36587749477948078 0 -0.32803705280137402 -0.37447550275240871 0 -0.34646966066369161 -0.38533898881774881 0 -0.32803705280137402 -0.37447550275240871 0 -0.34646966066369161 -0.38533898881774881 0 -0.32931529664348408 -0.38869437358142001 0 -0.34646966066369161 -0.38533898881774881 0 -0.32931529664348408 -0.38869437358142001 0 -0.34316085436749 -0.39382471367395527 0 -0.34815033243380111 -0.40144447968524521 0 -0.33486919938690762 -0.39884665705885908 0 -0.32944617452305069 -0.41182817437998842 0 -0.32931529664348408 -0.38869437358142001 0 -0.34316085436749 -0.39382471367395527 0 -0.33486919938690762 -0.39884665705885908 0 -0.32931529664348408 -0.38869437358142001 0 -0.33486919938690762 -0.39884665705885908 0 -0.32365381597648563 -0.39942827076698811 0 -0.34815033243380111 -0.40144447968524521 0 -0.34316085436749 -0.39382471367395527 0 -0.33486919938690762 -0.39884665705885908 0 -0.33486919938690762 -0.39884665705885908 0 -0.32365381597648563 -0.39942827076698811 0 -0.32944617452305069 -0.41182817437998842 0 -0.32931529664348408 -0.38869437358142001 0 -0.32365381597648563 -0.39942827076698811 0 -0.30988209993594379 -0.39542680479545339 0 -0.32365381597648563 -0.39942827076698811 0 -0.30595412674790001 -0.41636475829844438 0 -0.30988209993594379 -0.39542680479545339 0 -0.31381007312398762 -0.37448885129246268 0 -0.32931529664348408 -0.38869437358142001 0 -0.30988209993594379 -0.39542680479545339 0 -0.31381007312398762 -0.37448885129246268 0 -0.32803705280137402 -0.37447550275240871 0 -0.32931529664348408 -0.38869437358142001 0 -0.34095461206840061 -0.42640878026434909 0 -0.32944617452305069 -0.41182817437998842 0 -0.3206124180200437 -0.43193612962395289 0 -0.33075086723682939 -0.45093918684289991 0 -0.34095461206840061 -0.42640878026434909 0 -0.3206124180200437 -0.43193612962395289 0 -0.34815033243380111 -0.40144447968524521 0 -0.34095461206840061 -0.42640878026434909 0 -0.32944617452305069 -0.41182817437998842 0 -0.32944617452305069 -0.41182817437998842 0 -0.3206124180200437 -0.43193612962395289 0 -0.30595412674790001 -0.41636475829844438 0 -0.32365381597648563 -0.39942827076698811 0 -0.32944617452305069 -0.41182817437998842 0 -0.30595412674790001 -0.41636475829844438 0 -0.3206124180200437 -0.43193612962395289 0 -0.30595412674790001 -0.41636475829844438 0 -0.29602166034141808 -0.43748304283089118 0 -0.30595412674790001 -0.41636475829844438 0 -0.28680587137917263 -0.41476105187328532 0 -0.29502227998321778 -0.40112933436643161 0 -0.30595412674790001 -0.41636475829844438 0 -0.28680587137917263 -0.41476105187328532 0 -0.29602166034141808 -0.43748304283089118 0 -0.28680587137917263 -0.41476105187328532 0 -0.29602166034141808 -0.43748304283089118 0 -0.27149625348017281 -0.42637325053463759 0 -0.29602166034141808 -0.43748304283089118 0 -0.27149625348017281 -0.42637325053463759 0 -0.29602166034141808 -0.43748304283089118 0 -0.27149625348017281 -0.42637325053463759 0 -0.27906578537949278 -0.44687665772048962 0 -0.31381007312398762 -0.37448885129246268 0 -0.30988209993594379 -0.39542680479545339 0 -0.31381007312398762 -0.37448885129246268 0 -0.30988209993594379 -0.39542680479545339 0 -0.29196992941862432 -0.3825632544476108 0 -0.30595412674790001 -0.41636475829844438 0 -0.30988209993594379 -0.39542680479545339 0 -0.30595412674790001 -0.41636475829844438 0 -0.30988209993594379 -0.39542680479545339 0 -0.29502227998321778 -0.40112933436643161 0 -0.30988209993594379 -0.39542680479545339 0 -0.29502227998321778 -0.40112933436643161 0 -0.29196992941862432 -0.3825632544476108 0 -0.28680587137917263 -0.41476105187328532 0 -0.29502227998321778 -0.40112933436643161 0 -0.2806661672136338 -0.39648987600255969 0 -0.29502227998321778 -0.40112933436643161 0 -0.29196992941862432 -0.3825632544476108 0 -0.2806661672136338 -0.39648987600255969 0 -0.27675503022224163 -0.36681377825091099 0 -0.29196992941862432 -0.3825632544476108 0 -0.26924588117792803 -0.38334910629271668 0 -0.29196992941862432 -0.3825632544476108 0 -0.26924588117792803 -0.38334910629271668 0 -0.2806661672136338 -0.39648987600255969 0 -0.27675503022224163 -0.36681377825091099 0 -0.26924588117792803 -0.38334910629271668 0 -0.25812358553267323 -0.37605355791306738 0 -0.28680587137917263 -0.41476105187328532 0 -0.2806661672136338 -0.39648987600255969 0 -0.26326431180229581 -0.40282557300305732 0 -0.26924588117792803 -0.38334910629271668 0 -0.2806661672136338 -0.39648987600255969 0 -0.26326431180229581 -0.40282557300305732 0 -0.26326431180229581 -0.40282557300305732 0 -0.2504897110532438 -0.38524934403489181 0 -0.24394706363899241 -0.39877073912243299 0 -0.26326431180229581 -0.40282557300305732 0 -0.24697084661892749 -0.41526345823838401 0 -0.24394706363899241 -0.39877073912243299 0 -0.26924588117792803 -0.38334910629271668 0 -0.26326431180229581 -0.40282557300305732 0 -0.2504897110532438 -0.38524934403489181 0 -0.26924588117792803 -0.38334910629271668 0 -0.2504897110532438 -0.38524934403489181 0 -0.25812358553267323 -0.37605355791306738 0 -0.2504897110532438 -0.38524934403489181 0 -0.25812358553267323 -0.37605355791306738 0 -0.24839247009954951 -0.37292447016044328 0 -0.28680587137917263 -0.41476105187328532 0 -0.26326431180229581 -0.40282557300305732 0 -0.27149625348017281 -0.42637325053463759 0 -0.27149625348017281 -0.42637325053463759 0 -0.24697084661892749 -0.41526345823838401 0 -0.26326431180229581 -0.40282557300305732 0 -0.27149625348017281 -0.42637325053463759 0 -0.24697084661892749 -0.41526345823838401 0 -0.27149625348017281 -0.42637325053463759 0 -0.25687425522332558 -0.44642006451091643 0 -0.24697084661892749 -0.41526345823838401 0 -0.25687425522332558 -0.44642006451091643 0 -0.27607931301277078 -0.46657199895299017 0 -0.25409384940020791 -0.47271975939701871 0 -0.25687425522332558 -0.44642006451091643 0 -0.27607931301277078 -0.46657199895299017 0 -0.27906578537949278 -0.44687665772048962 0 -0.27149625348017281 -0.42637325053463759 0 -0.25687425522332558 -0.44642006451091643 0 -0.27906578537949278 -0.44687665772048962 0 -0.29602166034141808 -0.43748304283089118 0 -0.27906578537949278 -0.44687665772048962 0 -0.29968055871002541 -0.46203125713240301 0 -0.27607931301277078 -0.46657199895299017 0 -0.27906578537949278 -0.44687665772048962 0 -0.29968055871002541 -0.46203125713240301 0 -0.31571728338184601 -0.45752087103574601 0 -0.29968055871002541 -0.46203125713240301 0 -0.30706080135445341 -0.45057148265483188 0 -0.31571728338184601 -0.45752087103574601 0 -0.32054712240525829 -0.47546959342145068 0 -0.29968055871002541 -0.46203125713240301 0 -0.32054706720266329 -0.44859283512714471 0 -0.29602166034141808 -0.43748304283089118 0 -0.32054706720266329 -0.44859283512714471 0 -0.3206124180200437 -0.43193612962395289 0 -0.29602166034141808 -0.43748304283089118 0 -0.32054706720266329 -0.44859283512714471 0 -0.29602166034141808 -0.43748304283089118 0 -0.30706080135445341 -0.45057148265483188 0 -0.29602166034141808 -0.43748304283089118 0 -0.29968055871002541 -0.46203125713240301 0 -0.30706080135445341 -0.45057148265483188 0 -0.32054712240525829 -0.47546959342145068 0 -0.31034337757368669 -0.50000000000000133 0 -0.2941570887960146 -0.48201569375099518 0 -0.32054712240525829 -0.47546959342145068 0 -0.29968055871002541 -0.46203125713240301 0 -0.2941570887960146 -0.48201569375099518 0 -0.27607931301277078 -0.46657199895299017 0 -0.29968055871002541 -0.46203125713240301 0 -0.2941570887960146 -0.48201569375099518 0 -0.2941570887960146 -0.48201569375099518 0 -0.28248249767631262 -0.5 0 -0.27039562620846602 -0.48462576079096858 0 -0.31034337757368669 -0.50000000000000133 0 -0.2941570887960146 -0.48201569375099518 0 -0.28248249767631262 -0.5 0 -0.28248249767631262 -0.5 0 -0.27039562620846602 -0.48462576079096858 0 -0.25462161777893849 -0.5 0 -0.27607931301277078 -0.46657199895299017 0 -0.2941570887960146 -0.48201569375099518 0 -0.27039562620846602 -0.48462576079096858 0 -0.27607931301277078 -0.46657199895299017 0 -0.27039562620846602 -0.48462576079096858 0 -0.25409384940020791 -0.47271975939701871 0 -0.27039562620846602 -0.48462576079096858 0 -0.25409384940020791 -0.47271975939701871 0 -0.25462161777893849 -0.5 0 -0.25462161777893849 -0.5 0 -0.23155232774708009 -0.47932355884050398 0 -0.22676073788156451 -0.5 0 -0.25409384940020791 -0.47271975939701871 0 -0.25462161777893849 -0.5 0 -0.23155232774708009 -0.47932355884050398 0 -0.25409384940020791 -0.47271975939701871 0 -0.23155232774708009 -0.47932355884050398 0 -0.2350399564306665 -0.45937717328673289 0 -0.23155232774708009 -0.47932355884050398 0 -0.2350399564306665 -0.45937717328673289 0 -0.2080224731694312 -0.47403962225972662 0 -0.23155232774708009 -0.47932355884050398 0 -0.22676073788156451 -0.5 0 -0.2080224731694312 -0.47403962225972662 0 -0.25687425522332558 -0.44642006451091643 0 -0.2350399564306665 -0.45937717328673289 0 -0.23180750449586429 -0.4343742486430574 0 -0.25687425522332558 -0.44642006451091643 0 -0.25409384940020791 -0.47271975939701871 0 -0.2350399564306665 -0.45937717328673289 0 -0.2350399564306665 -0.45937717328673289 0 -0.21590660946663959 -0.44883644739355771 0 -0.2080224731694312 -0.47403962225972662 0 -0.2350399564306665 -0.45937717328673289 0 -0.21590660946663959 -0.44883644739355771 0 -0.23180750449586429 -0.4343742486430574 0 -0.21590660946663959 -0.44883644739355771 0 -0.1943898331460783 -0.4473597119794826 0 -0.20910912931781811 -0.42543372189632289 0 -0.21590660946663959 -0.44883644739355771 0 -0.1943898331460783 -0.4473597119794826 0 -0.2080224731694312 -0.47403962225972662 0 -0.1943898331460783 -0.4473597119794826 0 -0.2080224731694312 -0.47403962225972662 0 -0.17967053697433849 -0.46928570206264231 0 -0.22676073788156451 -0.5 0 -0.2080224731694312 -0.47403962225972662 0 -0.19889985798419041 -0.5 0 -0.2080224731694312 -0.47403962225972662 0 -0.1821948971586228 -0.48648437486529872 0 -0.17967053697433849 -0.46928570206264231 0 -0.2080224731694312 -0.47403962225972662 0 -0.19889985798419041 -0.5 0 -0.1821948971586228 -0.48648437486529872 0 -0.19889985798419041 -0.5 0 -0.1821948971586228 -0.48648437486529872 0 -0.17103897808681609 -0.49999999999999778 0 -0.1821948971586228 -0.48648437486529872 0 -0.17103897808681609 -0.49999999999999778 0 -0.16495124080259491 -0.49121169214579941 0 -0.17103897808681609 -0.49999999999999778 0 -0.16495124080259491 -0.49121169214579941 0 -0.17103897808681609 -0.49999999999999778 0 -0.16495124080259491 -0.49121169214579941 0 -0.15905149781887321 -0.49999999999999961 0 -0.16495124080259491 -0.49121169214579941 0 -0.15905149781887321 -0.49999999999999961 0 -0.1545750311736096 -0.49062041690426861 0 -0.16495124080259491 -0.49121169214579941 0 -0.15905149781887321 -0.49999999999999961 0 -0.16495124080259491 -0.49121169214579941 0 -0.16530166315622061 -0.47155300009798301 0 -0.17967053697433849 -0.46928570206264231 0 -0.16495124080259491 -0.49121169214579941 0 -0.16530166315622061 -0.47155300009798301 0 -0.15083103946930049 -0.47082765280793248 0 -0.16495124080259491 -0.49121169214579941 0 -0.1545750311736096 -0.49062041690426861 0 -0.15083103946930049 -0.47082765280793248 0 -0.16495124080259491 -0.49121169214579941 0 -0.15083103946930049 -0.47082765280793248 0 -0.16495124080259491 -0.49121169214579941 0 -0.17967053697433849 -0.46928570206264231 0 -0.1821948971586228 -0.48648437486529872 0 -0.16495124080259491 -0.49121169214579941 0 -0.17967053697433849 -0.46928570206264231 0 -0.1943898331460783 -0.4473597119794826 0 -0.17967053697433849 -0.46928570206264231 0 -0.1943898331460783 -0.4473597119794826 0 -0.17967053697433849 -0.46928570206264231 0 -0.1657538353786501 -0.45488695337555668 0 -0.1943898331460783 -0.4473597119794826 0 -0.1657538353786501 -0.45488695337555668 0 -0.1755027511393909 -0.43471579892562301 0 -0.1657538353786501 -0.45488695337555668 0 -0.15761868306950341 -0.43586407366366631 0 -0.1755027511393909 -0.43471579892562301 0 -0.16530166315622061 -0.47155300009798301 0 -0.1657538353786501 -0.45488695337555668 0 -0.15083103946930049 -0.47082765280793248 0 -0.16530166315622061 -0.47155300009798301 0 -0.17967053697433849 -0.46928570206264231 0 -0.1657538353786501 -0.45488695337555668 0 -0.13671083813600751 -0.45044361347006462 0 -0.15083103946930049 -0.47082765280793248 0 -0.13671083813600751 -0.45044361347006462 0 -0.13441782301728619 -0.47175980973682791 0 -0.15083103946930049 -0.47082765280793248 0 -0.1657538353786501 -0.45488695337555668 0 -0.13671083813600751 -0.45044361347006462 0 -0.15083103946930049 -0.47082765280793248 0 -0.13671083813600751 -0.45044361347006462 0 -0.13816776916695811 -0.432543871779144 0 -0.15761868306950341 -0.43586407366366631 0 -0.1657538353786501 -0.45488695337555668 0 -0.13671083813600751 -0.45044361347006462 0 -0.15761868306950341 -0.43586407366366631 0 -0.13671083813600751 -0.45044361347006462 0 -0.13816776916695811 -0.432543871779144 0 -0.1225906368027144 -0.43005957413219659 0 -0.13671083813600751 -0.45044361347006462 0 -0.1225906368027144 -0.43005957413219659 0 -0.13671083813600751 -0.45044361347006462 0 -0.13441782301728619 -0.47175980973682791 0 -0.1201929706126502 -0.46127799294672761 0 -0.13441782301728619 -0.47175980973682791 0 -0.12605423818426559 -0.48707922202292669 0 -0.14429533434837091 -0.48908967660720287 0 -0.13441782301728619 -0.47175980973682791 0 -0.12605423818426559 -0.48707922202292669 0 -0.1201929706126502 -0.46127799294672761 0 -0.1295391708778694 -0.5 0 -0.12605423818426559 -0.48707922202292669 0 -0.14429533434837091 -0.48908967660720287 0 -0.15905149781887321 -0.49999999999999961 0 -0.1295391708778694 -0.5 0 -0.14429533434837091 -0.48908967660720287 0 -0.15905149781887321 -0.49999999999999961 0 -0.14429533434837091 -0.48908967660720287 0 -0.1545750311736096 -0.49062041690426861 0 -0.14429533434837091 -0.48908967660720287 0 -0.1545750311736096 -0.49062041690426861 0 -0.15083103946930049 -0.47082765280793248 0 -0.13441782301728619 -0.47175980973682791 0 -0.14429533434837091 -0.48908967660720287 0 -0.15083103946930049 -0.47082765280793248 0 -0.15345949684661231 -0.4053237642064671 0 -0.15136585988972451 -0.39002590355483568 0 -0.13982663417143551 -0.39933000433158738 0 -0.15136585988972451 -0.39002590355483568 0 -0.1368738238800834 -0.3880397179408614 0 -0.13982663417143551 -0.39933000433158738 0 -0.15345949684661231 -0.4053237642064671 0 -0.13982663417143551 -0.39933000433158738 0 -0.1398029654186671 -0.41064466143528439 0 -0.15136585988972451 -0.39002590355483568 0 -0.1368738238800834 -0.3880397179408614 0 -0.13959568407155781 -0.37291875636350952 0 -0.15136585988972451 -0.39002590355483568 0 -0.15951650330528561 -0.37856285477961621 0 -0.13959568407155781 -0.37291875636350952 0 -0.1368738238800834 -0.3880397179408614 0 -0.12625141541498519 -0.38197991289387551 0 -0.13959568407155781 -0.37291875636350952 0 -0.1368738238800834 -0.3880397179408614 0 -0.12625141541498519 -0.38197991289387551 0 -0.1273295258527142 -0.39594401256049883 0 -0.1368738238800834 -0.3880397179408614 0 -0.1273295258527142 -0.39594401256049883 0 -0.13982663417143551 -0.39933000433158738 0 -0.13982663417143551 -0.39933000433158738 0 -0.1295768038857959 -0.40463739140698729 0 -0.1398029654186671 -0.41064466143528439 0 -0.1273295258527142 -0.39594401256049883 0 -0.13982663417143551 -0.39933000433158738 0 -0.1295768038857959 -0.40463739140698729 0 -0.1273295258527142 -0.39594401256049883 0 -0.1295768038857959 -0.40463739140698729 0 -0.1219584454402414 -0.40406961642135292 0 -0.1295768038857959 -0.40463739140698729 0 -0.1296119374269841 -0.41417592727859581 0 -0.1225700411049412 -0.40994677461386392 0 -0.1296119374269841 -0.41417592727859581 0 -0.12315425937001 -0.41747458531602638 0 -0.1225700411049412 -0.40994677461386392 0 -0.1296119374269841 -0.41417592727859581 0 -0.13713184062407599 -0.42036644340313623 0 -0.12908399078123631 -0.42243277819987513 0 -0.1296119374269841 -0.41417592727859581 0 -0.12908399078123631 -0.42243277819987513 0 -0.12315425937001 -0.41747458531602638 0 -0.1296119374269841 -0.41417592727859581 0 -0.13713184062407599 -0.42036644340313623 0 -0.1398029654186671 -0.41064466143528439 0 -0.1295768038857959 -0.40463739140698729 0 -0.1296119374269841 -0.41417592727859581 0 -0.1398029654186671 -0.41064466143528439 0 -0.12908399078123631 -0.42243277819987513 0 -0.13816776916695811 -0.432543871779144 0 -0.1225906368027144 -0.43005957413219659 0 -0.13713184062407599 -0.42036644340313623 0 -0.12908399078123631 -0.42243277819987513 0 -0.13816776916695811 -0.432543871779144 0 -0.13816776916695811 -0.432543871779144 0 -0.14921107955709881 -0.42003443798493328 0 -0.15761868306950341 -0.43586407366366631 0 -0.13713184062407599 -0.42036644340313623 0 -0.13816776916695811 -0.432543871779144 0 -0.14921107955709881 -0.42003443798493328 0 -0.15345949684661231 -0.4053237642064671 0 -0.1398029654186671 -0.41064466143528439 0 -0.14921107955709881 -0.42003443798493328 0 -0.13713184062407599 -0.42036644340313623 0 -0.1398029654186671 -0.41064466143528439 0 -0.14921107955709881 -0.42003443798493328 0 -0.15345949684661231 -0.4053237642064671 0 -0.14921107955709881 -0.42003443798493328 0 -0.17009787391258249 -0.41611158199907422 0 -0.14921107955709881 -0.42003443798493328 0 -0.17009787391258249 -0.41611158199907422 0 -0.15761868306950341 -0.43586407366366631 0 -0.17009787391258249 -0.41611158199907422 0 -0.15761868306950341 -0.43586407366366631 0 -0.1755027511393909 -0.43471579892562301 0 -0.1943898331460783 -0.4473597119794826 0 -0.1755027511393909 -0.43471579892562301 0 -0.18951413900105801 -0.42212105940109063 0 -0.17009787391258249 -0.41611158199907422 0 -0.1755027511393909 -0.43471579892562301 0 -0.18951413900105801 -0.42212105940109063 0 -0.17009787391258249 -0.41611158199907422 0 -0.18562609472684241 -0.40161550393767448 0 -0.18951413900105801 -0.42212105940109063 0 -0.18562609472684241 -0.40161550393767448 0 -0.16863204450281991 -0.39380366607865908 0 -0.18254917963999329 -0.38971973427100182 0 -0.17009787391258249 -0.41611158199907422 0 -0.18562609472684241 -0.40161550393767448 0 -0.16863204450281991 -0.39380366607865908 0 -0.18562609472684241 -0.40161550393767448 0 -0.18254917963999329 -0.38971973427100182 0 -0.19364364155811911 -0.391297223908462 0 -0.15345949684661231 -0.4053237642064671 0 -0.17009787391258249 -0.41611158199907422 0 -0.16863204450281991 -0.39380366607865908 0 -0.15345949684661231 -0.4053237642064671 0 -0.15136585988972451 -0.39002590355483568 0 -0.16863204450281991 -0.39380366607865908 0 -0.15951650330528561 -0.37856285477961621 0 -0.17625218554490921 -0.38180729220612769 0 -0.1663610822414904 -0.3702523776444529 0 -0.16863204450281991 -0.39380366607865908 0 -0.15951650330528561 -0.37856285477961621 0 -0.17625218554490921 -0.38180729220612769 0 -0.15136585988972451 -0.39002590355483568 0 -0.16863204450281991 -0.39380366607865908 0 -0.15951650330528561 -0.37856285477961621 0 -0.17625218554490921 -0.38180729220612769 0 -0.1663610822414904 -0.3702523776444529 0 -0.18579747934449059 -0.37379744869579251 0 -0.16863204450281991 -0.39380366607865908 0 -0.17625218554490921 -0.38180729220612769 0 -0.18254917963999329 -0.38971973427100182 0 -0.17625218554490921 -0.38180729220612769 0 -0.18254917963999329 -0.38971973427100182 0 -0.18859193186727599 -0.38007498522408562 0 -0.17625218554490921 -0.38180729220612769 0 -0.18859193186727599 -0.38007498522408562 0 -0.18579747934449059 -0.37379744869579251 0 -0.18859193186727599 -0.38007498522408562 0 -0.2014200033848125 -0.37119512976538899 0 -0.18859193186727599 -0.38007498522408562 0 -0.2014200033848125 -0.37119512976538899 0 -0.18579747934449059 -0.37379744869579251 0 -0.18859193186727599 -0.38007498522408562 0 -0.1989719328316337 -0.38216032023399737 0 -0.2014200033848125 -0.37119512976538899 0 -0.1989719328316337 -0.38216032023399737 0 -0.20694960464083431 -0.38128159833907621 0 -0.2014200033848125 -0.37119512976538899 0 -0.1989719328316337 -0.38216032023399737 0 -0.19364364155811911 -0.391297223908462 0 -0.20620014074293039 -0.39180645285032889 0 -0.18859193186727599 -0.38007498522408562 0 -0.1989719328316337 -0.38216032023399737 0 -0.19364364155811911 -0.391297223908462 0 -0.18254917963999329 -0.38971973427100182 0 -0.18859193186727599 -0.38007498522408562 0 -0.19364364155811911 -0.391297223908462 0 -0.18562609472684241 -0.40161550393767448 0 -0.19364364155811911 -0.391297223908462 0 -0.20208872018367391 -0.4070926974887904 0 -0.19364364155811911 -0.391297223908462 0 -0.20620014074293039 -0.39180645285032889 0 -0.20208872018367391 -0.4070926974887904 0 -0.20620014074293039 -0.39180645285032889 0 -0.21479853281951461 -0.38638530273916921 0 -0.22382842548955789 -0.4035077318131633 0 -0.20620014074293039 -0.39180645285032889 0 -0.20208872018367391 -0.4070926974887904 0 -0.22382842548955789 -0.4035077318131633 0 -0.21479853281951461 -0.38638530273916921 0 -0.20694960464083431 -0.38128159833907621 0 -0.21335741342528061 -0.3748607861064962 0 -0.21479853281951461 -0.38638530273916921 0 -0.22412886374227589 -0.38235217247817599 0 -0.21335741342528061 -0.3748607861064962 0 -0.20694960464083431 -0.38128159833907621 0 -0.2014200033848125 -0.37119512976538899 0 -0.21335741342528061 -0.3748607861064962 0 -0.20620014074293039 -0.39180645285032889 0 -0.21479853281951461 -0.38638530273916921 0 -0.20694960464083431 -0.38128159833907621 0 -0.1989719328316337 -0.38216032023399737 0 -0.20620014074293039 -0.39180645285032889 0 -0.20694960464083431 -0.38128159833907621 0 -0.1943898331460783 -0.4473597119794826 0 -0.20910912931781811 -0.42543372189632289 0 -0.1943898331460783 -0.4473597119794826 0 -0.18951413900105801 -0.42212105940109063 0 -0.20910912931781811 -0.42543372189632289 0 -0.18951413900105801 -0.42212105940109063 0 -0.20208872018367391 -0.4070926974887904 0 -0.20910912931781811 -0.42543372189632289 0 -0.18562609472684241 -0.40161550393767448 0 -0.18951413900105801 -0.42212105940109063 0 -0.20208872018367391 -0.4070926974887904 0 -0.20208872018367391 -0.4070926974887904 0 -0.20910912931781811 -0.42543372189632289 0 -0.22382842548955789 -0.4035077318131633 0 -0.20910912931781811 -0.42543372189632289 0 -0.22382842548955789 -0.4035077318131633 0 -0.21590660946663959 -0.44883644739355771 0 -0.20910912931781811 -0.42543372189632289 0 -0.23180750449586429 -0.4343742486430574 0 -0.20910912931781811 -0.42543372189632289 0 -0.23180750449586429 -0.4343742486430574 0 -0.22382842548955789 -0.4035077318131633 0 -0.23180750449586429 -0.4343742486430574 0 -0.24697084661892749 -0.41526345823838401 0 -0.22382842548955789 -0.4035077318131633 0 -0.25687425522332558 -0.44642006451091643 0 -0.23180750449586429 -0.4343742486430574 0 -0.24697084661892749 -0.41526345823838401 0 -0.22412886374227589 -0.38235217247817599 0 -0.2351820232309369 -0.38700758852266848 0 -0.22952037500089251 -0.37311519752493849 0 -0.22412886374227589 -0.38235217247817599 0 -0.22186900287429051 -0.37074082218821958 0 -0.21335741342528061 -0.3748607861064962 0 -0.22412886374227589 -0.38235217247817599 0 -0.22952037500089251 -0.37311519752493849 0 -0.22186900287429051 -0.37074082218821958 0 -0.22382842548955789 -0.4035077318131633 0 -0.24394706363899241 -0.39877073912243299 0 -0.2351820232309369 -0.38700758852266848 0 -0.21479853281951461 -0.38638530273916921 0 -0.22412886374227589 -0.38235217247817599 0 -0.22382842548955789 -0.4035077318131633 0 -0.22412886374227589 -0.38235217247817599 0 -0.22382842548955789 -0.4035077318131633 0 -0.2351820232309369 -0.38700758852266848 0 -0.24697084661892749 -0.41526345823838401 0 -0.22382842548955789 -0.4035077318131633 0 -0.24394706363899241 -0.39877073912243299 0 -0.2504897110532438 -0.38524934403489181 0 -0.24394706363899241 -0.39877073912243299 0 -0.2351820232309369 -0.38700758852266848 0 -0.2504897110532438 -0.38524934403489181 0 -0.2351820232309369 -0.38700758852266848 0 -0.24036284435674521 -0.37772398595485779 0 -0.2351820232309369 -0.38700758852266848 0 -0.24036284435674521 -0.37772398595485779 0 -0.22952037500089251 -0.37311519752493849 0 -0.2504897110532438 -0.38524934403489181 0 -0.24036284435674521 -0.37772398595485779 0 -0.24839247009954951 -0.37292447016044328 0 -0.24839247009954951 -0.37292447016044328 0 -0.24532753696728959 -0.36501789644951049 0 -0.23861636880082099 -0.36955921174380651 0 -0.24036284435674521 -0.37772398595485779 0 -0.24839247009954951 -0.37292447016044328 0 -0.23861636880082099 -0.36955921174380651 0 -0.25757508569408222 -0.36424633604315798 0 -0.24532753696728959 -0.36501789644951049 0 -0.24650166737573331 -0.3569693529562265 0 -0.24532753696728959 -0.36501789644951049 0 -0.24234943749700691 -0.36154613291017651 0 -0.24650166737573331 -0.3569693529562265 0 -0.24532753696728959 -0.36501789644951049 0 -0.24234943749700691 -0.36154613291017651 0 -0.23928568589256061 -0.36455139619594779 0 -0.24234943749700691 -0.36154613291017651 0 -0.23928568589256061 -0.36455139619594779 0 -0.23696933381926599 -0.3585493042599866 0 -0.24532753696728959 -0.36501789644951049 0 -0.23928568589256061 -0.36455139619594779 0 -0.23861636880082099 -0.36955921174380651 0 -0.23928568589256061 -0.36455139619594779 0 -0.23861636880082099 -0.36955921174380651 0 -0.23345080570298909 -0.36409891217005902 0 -0.23928568589256061 -0.36455139619594779 0 -0.23345080570298909 -0.36409891217005902 0 -0.23696933381926599 -0.3585493042599866 0 -0.24036284435674521 -0.37772398595485779 0 -0.23861636880082099 -0.36955921174380651 0 -0.22952037500089251 -0.37311519752493849 0 -0.23345080570298909 -0.36409891217005902 0 -0.22186900287429051 -0.37074082218821958 0 -0.21424807490234879 -0.36231527430669241 0 -0.22952037500089251 -0.37311519752493849 0 -0.23345080570298909 -0.36409891217005902 0 -0.22186900287429051 -0.37074082218821958 0 -0.23696933381926599 -0.3585493042599866 0 -0.21424807490234879 -0.36231527430669241 0 -0.23861636880082099 -0.36955921174380651 0 -0.22952037500089251 -0.37311519752493849 0 -0.23345080570298909 -0.36409891217005902 0 -0.23345080570298909 -0.36409891217005902 0 -0.23696933381926599 -0.3585493042599866 0 -0.21424807490234879 -0.36231527430669241 0 -0.22913587473404851 -0.35200963246311751 0 -0.2097464541822805 -0.33582260124732738 0 -0.22913587473404851 -0.35200963246311751 0 -0.23696933381926599 -0.3585493042599866 0 -0.21424807490234879 -0.36231527430669241 0 -0.22913587473404851 -0.35200963246311751 0 -0.21998707993494029 -0.33959044394559312 0 -0.22913587473404851 -0.35200963246311751 0 -0.21424807490234879 -0.36231527430669241 0 -0.22913587473404851 -0.35200963246311751 0 -0.23696933381926599 -0.3585493042599866 0 -0.22913587473404851 -0.35200963246311751 0 -0.24881121389389799 -0.33838995723746451 0 -0.22913587473404851 -0.35200963246311751 0 -0.23696933381926599 -0.3585493042599866 0 -0.24650166737573331 -0.3569693529562265 0 -0.22913587473404851 -0.35200963246311751 0 -0.24650166737573331 -0.3569693529562265 0 -0.24881121389389799 -0.33838995723746451 0 -0.23696933381926599 -0.3585493042599866 0 -0.24650166737573331 -0.3569693529562265 0 -0.24234943749700691 -0.36154613291017651 0 -0.23696933381926599 -0.3585493042599866 0 -0.24650166737573331 -0.3569693529562265 0 -0.22913587473404851 -0.35200963246311751 0 -0.24881121389389799 -0.33838995723746451 0 -0.2325545649384867 -0.33453283978227571 0 -0.24881121389389799 -0.33838995723746451 0 -0.2441082332202735 -0.32380704628422963 0 -0.2325545649384867 -0.33453283978227571 0 -0.23613058105125781 -0.31890710479075163 0 -0.2279063026952847 -0.3135077128279592 0 -0.2444966906846206 -0.31181945912301329 0 -0.2441082332202735 -0.32380704628422963 0 -0.23498207165859719 -0.32537142019391418 0 -0.23613058105125781 -0.31890710479075163 0 -0.2441082332202735 -0.32380704628422963 0 -0.23498207165859719 -0.32537142019391418 0 -0.2325545649384867 -0.33453283978227571 0 -0.2441082332202735 -0.32380704628422963 0 -0.23613058105125781 -0.31890710479075163 0 -0.2444966906846206 -0.31181945912301329 0 -0.2279063026952847 -0.3135077128279592 0 -0.2193464910840433 -0.31976030368968739 0 -0.21134622408423179 -0.310554889255794 0 -0.23613058105125781 -0.31890710479075163 0 -0.2279063026952847 -0.3135077128279592 0 -0.22829430606921119 -0.32293804105388452 0 -0.23498207165859719 -0.32537142019391418 0 -0.22829430606921119 -0.32293804105388452 0 -0.2325545649384867 -0.33453283978227571 0 -0.23498207165859719 -0.32537142019391418 0 -0.23613058105125781 -0.31890710479075163 0 -0.22829430606921119 -0.32293804105388452 0 -0.22829430606921119 -0.32293804105388452 0 -0.2193464910840433 -0.31976030368968739 0 -0.22209033975117781 -0.32887735541776358 0 -0.2279063026952847 -0.3135077128279592 0 -0.22829430606921119 -0.32293804105388452 0 -0.2193464910840433 -0.31976030368968739 0 -0.22913587473404851 -0.35200963246311751 0 -0.2325545649384867 -0.33453283978227571 0 -0.21998707993494029 -0.33959044394559312 0 -0.22913587473404851 -0.35200963246311751 0 -0.21998707993494029 -0.33959044394559312 0 -0.2097464541822805 -0.33582260124732738 0 -0.22829430606921119 -0.32293804105388452 0 -0.2325545649384867 -0.33453283978227571 0 -0.22209033975117781 -0.32887735541776358 0 -0.2325545649384867 -0.33453283978227571 0 -0.22209033975117781 -0.32887735541776358 0 -0.21998707993494029 -0.33959044394559312 0 -0.21998707993494029 -0.33959044394559312 0 -0.21026925672920721 -0.32756514861737779 0 -0.22209033975117781 -0.32887735541776358 0 -0.21998707993494029 -0.33959044394559312 0 -0.21026925672920721 -0.32756514861737779 0 -0.21998707993494029 -0.33959044394559312 0 -0.2097464541822805 -0.33582260124732738 0 -0.21026925672920721 -0.32756514861737779 0 -0.2097464541822805 -0.33582260124732738 0 -0.21026925672920721 -0.32756514861737779 0 -0.21026925672920721 -0.32756514861737779 0 -0.21134622408423179 -0.310554889255794 0 -0.19267178705524021 -0.30578920503631912 0 -0.21026925672920721 -0.32756514861737779 0 -0.21134622408423179 -0.310554889255794 0 -0.2097464541822805 -0.33582260124732738 0 -0.21026925672920721 -0.32756514861737779 0 -0.19254159852174429 -0.31996122112867409 0 -0.2193464910840433 -0.31976030368968739 0 -0.21026925672920721 -0.32756514861737779 0 -0.21134622408423179 -0.310554889255794 0 -0.2193464910840433 -0.31976030368968739 0 -0.22209033975117781 -0.32887735541776358 0 -0.21026925672920721 -0.32756514861737779 0 -0.2097464541822805 -0.33582260124732738 0 -0.1943588054861482 -0.32297640251143073 0 -0.19254159852174429 -0.31996122112867409 0 -0.21026925672920721 -0.32756514861737779 0 -0.19267178705524021 -0.30578920503631912 0 -0.21026925672920721 -0.32756514861737779 0 -0.19254159852174429 -0.31996122112867409 0 -0.19267178705524021 -0.30578920503631912 0 -0.2097464541822805 -0.33582260124732738 0 -0.19254159852174429 -0.31996122112867409 0 -0.1943588054861482 -0.32297640251143073 0 -0.18737083868624629 -0.33075534874643497 0 -0.18479650728396149 -0.32227615663527998 0 -0.1943588054861482 -0.32297640251143073 0 -0.19254159852174429 -0.31996122112867409 0 -0.1789711567900161 -0.3101302037755338 0 -0.2097464541822805 -0.33582260124732738 0 -0.19466829689393059 -0.33824472710720138 0 -0.19565175395430129 -0.3512554891803924 0 -0.2097464541822805 -0.33582260124732738 0 -0.1943588054861482 -0.32297640251143073 0 -0.19466829689393059 -0.33824472710720138 0 -0.2097464541822805 -0.33582260124732738 0 -0.1943588054861482 -0.32297640251143073 0 -0.1943588054861482 -0.32297640251143073 0 -0.19466829689393059 -0.33824472710720138 0 -0.18737083868624629 -0.33075534874643497 0 -0.19466829689393059 -0.33824472710720138 0 -0.18164424501215659 -0.34621916084723381 0 -0.18737083868624629 -0.33075534874643497 0 -0.19466829689393059 -0.33824472710720138 0 -0.19565175395430129 -0.3512554891803924 0 -0.18164424501215659 -0.34621916084723381 0 -0.20800359978069241 -0.36335027445133922 0 -0.18480326185087809 -0.36719565018674682 0 -0.19565175395430129 -0.3512554891803924 0 -0.20800359978069241 -0.36335027445133922 0 -0.18480326185087809 -0.36719565018674682 0 -0.2014200033848125 -0.37119512976538899 0 -0.18480326185087809 -0.36719565018674682 0 -0.18579747934449059 -0.37379744869579251 0 -0.2014200033848125 -0.37119512976538899 0 -0.20800359978069241 -0.36335027445133922 0 -0.18480326185087809 -0.36719565018674682 0 -0.2014200033848125 -0.37119512976538899 0 -0.20800359978069241 -0.36335027445133922 0 -0.20803809997708481 -0.36661394692190907 0 -0.20800359978069241 -0.36335027445133922 0 -0.20803809997708481 -0.36661394692190907 0 -0.21424807490234879 -0.36231527430669241 0 -0.20800359978069241 -0.36335027445133922 0 -0.20803809997708481 -0.36661394692190907 0 -0.2014200033848125 -0.37119512976538899 0 -0.20803809997708481 -0.36661394692190907 0 -0.21335741342528061 -0.3748607861064962 0 -0.2014200033848125 -0.37119512976538899 0 -0.20803809997708481 -0.36661394692190907 0 -0.20803809997708481 -0.36661394692190907 0 -0.21335741342528061 -0.3748607861064962 0 -0.21424807490234879 -0.36231527430669241 0 -0.22186900287429051 -0.37074082218821958 0 -0.21335741342528061 -0.3748607861064962 0 -0.21424807490234879 -0.36231527430669241 0 -0.20800359978069241 -0.36335027445133922 0 -0.21424807490234879 -0.36231527430669241 0 -0.20803809997708481 -0.36661394692190907 0 -0.21424807490234879 -0.36231527430669241 0 -0.2097464541822805 -0.33582260124732738 0 -0.19565175395430129 -0.3512554891803924 0 -0.20800359978069241 -0.36335027445133922 0 -0.2097464541822805 -0.33582260124732738 0 -0.20800359978069241 -0.36335027445133922 0 -0.2097464541822805 -0.33582260124732738 0 -0.20800359978069241 -0.36335027445133922 0 -0.21424807490234879 -0.36231527430669241 0 -0.22913587473404851 -0.35200963246311751 0 -0.2097464541822805 -0.33582260124732738 0 -0.21424807490234879 -0.36231527430669241 0 -0.2335542019388327 -0.26090262277066528 0 -0.21472073189145299 -0.25725591714607071 0 -0.22837296648480071 -0.23789375384220129 0 -0.2335542019388327 -0.26090262277066528 0 -0.21357196166535461 -0.27540027352014051 0 -0.21472073189145299 -0.25725591714607071 0 -0.25298377122075039 -0.27518622721876451 0 -0.2335542019388327 -0.26090262277066528 0 -0.25431856302814809 -0.24833495949118861 0 -0.25298377122075039 -0.27518622721876451 0 -0.2335542019388327 -0.26090262277066528 0 -0.23093648268818689 -0.28342115129973 0 -0.2335542019388327 -0.26090262277066528 0 -0.23093648268818689 -0.28342115129973 0 -0.21357196166535461 -0.27540027352014051 0 -0.23093648268818689 -0.28342115129973 0 -0.21242319143925911 -0.29354462989421048 0 -0.21357196166535461 -0.27540027352014051 0 -0.23093648268818689 -0.28342115129973 0 -0.2435111179254994 -0.29490773243705071 0 -0.2284599410619414 -0.30268204450860919 0 -0.23093648268818689 -0.28342115129973 0 -0.2284599410619414 -0.30268204450860919 0 -0.21242319143925911 -0.29354462989421048 0 -0.25298377122075039 -0.27518622721876451 0 -0.23093648268818689 -0.28342115129973 0 -0.2435111179254994 -0.29490773243705071 0 -0.2444966906846206 -0.31181945912301329 0 -0.2284599410619414 -0.30268204450860919 0 -0.2435111179254994 -0.29490773243705071 0 -0.2444966906846206 -0.31181945912301329 0 -0.2284599410619414 -0.30268204450860919 0 -0.26057201890547982 -0.29344093798311832 0 -0.2435111179254994 -0.29490773243705071 0 -0.2444966906846206 -0.31181945912301329 0 -0.2279063026952847 -0.3135077128279592 0 -0.2444966906846206 -0.31181945912301329 0 -0.2284599410619414 -0.30268204450860919 0 -0.2284599410619414 -0.30268204450860919 0 -0.21242319143925911 -0.29354462989421048 0 -0.2279063026952847 -0.3135077128279592 0 -0.2284599410619414 -0.30268204450860919 0 -0.21134622408423179 -0.310554889255794 0 -0.2284599410619414 -0.30268204450860919 0 -0.21134622408423179 -0.310554889255794 0 -0.21242319143925911 -0.29354462989421048 0 -0.21134622408423179 -0.310554889255794 0 -0.19267178705524021 -0.30578920503631912 0 -0.21242319143925911 -0.29354462989421048 0 -0.21134622408423179 -0.310554889255794 0 -0.21242319143925911 -0.29354462989421048 0 -0.19267178705524021 -0.30578920503631912 0 -0.19410774352861071 -0.2831088592208712 0 -0.21242319143925911 -0.29354462989421048 0 -0.19410774352861071 -0.2831088592208712 0 -0.21242319143925911 -0.29354462989421048 0 -0.21357196166535461 -0.27540027352014051 0 -0.19410774352861071 -0.2831088592208712 0 -0.21242319143925911 -0.29354462989421048 0 -0.21242319143925911 -0.29354462989421048 0 -0.21357196166535461 -0.27540027352014051 0 -0.21357196166535461 -0.27540027352014051 0 -0.21472073189145299 -0.25725591714607071 0 -0.19410774352861071 -0.2831088592208712 0 -0.21357196166535461 -0.27540027352014051 0 -0.1965391795889786 -0.26204425282134669 0 -0.19410774352861071 -0.2831088592208712 0 -0.1965391795889786 -0.26204425282134669 0 -0.17579229561796161 -0.27267308854753308 0 -0.1965391795889786 -0.26204425282134669 0 -0.20565562739327201 -0.24334207984173631 0 -0.18863044441395099 -0.24733650333174401 0 -0.1965391795889786 -0.26204425282134669 0 -0.18340152769721799 -0.25642831405215172 0 -0.18863044441395099 -0.24733650333174401 0 -0.1965391795889786 -0.26204425282134669 0 -0.21472073189145299 -0.25725591714607071 0 -0.20565562739327201 -0.24334207984173631 0 -0.21357196166535461 -0.27540027352014051 0 -0.1965391795889786 -0.26204425282134669 0 -0.21472073189145299 -0.25725591714607071 0 -0.15747684770731041 -0.26223731787419863 0 -0.16344648285301799 -0.25937253054906129 0 -0.17579229561796161 -0.27267308854753308 0 -0.1593809120407062 -0.25278805690175971 0 -0.16344648285301799 -0.25937253054906129 0 -0.1534429259631987 -0.25724555178864622 0 -0.1593809120407062 -0.25278805690175971 0 -0.16344648285301799 -0.25937253054906129 0 -0.16709258238786229 -0.25188408856254202 0 -0.1593809120407062 -0.25278805690175971 0 -0.16709258238786229 -0.25188408856254202 0 -0.1601832428566283 -0.24550858739866141 0 -0.15747684770731041 -0.26223731787419863 0 -0.16344648285301799 -0.25937253054906129 0 -0.1534429259631987 -0.25724555178864622 0 -0.16344648285301799 -0.25937253054906129 0 -0.1534429259631987 -0.25724555178864622 0 -0.16344648285301799 -0.25937253054906129 0 -0.17379217291466831 -0.25992581321180469 0 -0.17579229561796161 -0.27267308854753308 0 -0.16344648285301799 -0.25937253054906129 0 -0.16709258238786229 -0.25188408856254202 0 -0.17379217291466831 -0.25992581321180469 0 -0.16709258238786229 -0.25188408856254202 0 -0.17679077873490559 -0.25046109420941731 0 -0.17379217291466831 -0.25992581321180469 0 -0.1965391795889786 -0.26204425282134669 0 -0.18340152769721799 -0.25642831405215172 0 -0.17579229561796161 -0.27267308854753308 0 -0.17679077873490559 -0.25046109420941731 0 -0.18340152769721799 -0.25642831405215172 0 -0.17379217291466831 -0.25992581321180469 0 -0.18340152769721799 -0.25642831405215172 0 -0.17379217291466831 -0.25992581321180469 0 -0.17579229561796161 -0.27267308854753308 0 -0.17679077873490559 -0.25046109420941731 0 -0.18340152769721799 -0.25642831405215172 0 -0.18863044441395099 -0.24733650333174401 0 -0.19410774352861071 -0.2831088592208712 0 -0.17579229561796161 -0.27267308854753308 0 -0.17507431738127369 -0.28401326145526029 0 -0.19410774352861071 -0.2831088592208712 0 -0.17579229561796161 -0.27267308854753308 0 -0.15747684770731041 -0.26223731787419863 0 -0.17507431738127369 -0.28401326145526029 0 -0.15747684770731041 -0.26223731787419863 0 -0.17579229561796161 -0.27267308854753308 0 -0.15747684770731041 -0.26223731787419863 0 -0.17579229561796161 -0.27267308854753308 0 -0.17507431738127369 -0.28401326145526029 0 -0.15747684770731041 -0.26223731787419863 0 -0.1596399504195592 -0.27820623095404468 0 -0.17507431738127369 -0.28401326145526029 0 -0.1596399504195592 -0.27820623095404468 0 -0.1624028041075358 -0.29248408411088062 0 -0.1494793968803598 -0.28070198605355251 0 -0.1624028041075358 -0.29248408411088062 0 -0.15973767967650701 -0.30493196891575292 0 -0.15108397830665751 -0.29236825921418419 0 -0.1624028041075358 -0.29248408411088062 0 -0.17507431738127369 -0.28401326145526029 0 -0.17391538329452061 -0.29489800819007239 0 -0.1596399504195592 -0.27820623095404468 0 -0.1624028041075358 -0.29248408411088062 0 -0.17507431738127369 -0.28401326145526029 0 -0.19267178705524021 -0.30578920503631912 0 -0.19410774352861071 -0.2831088592208712 0 -0.17507431738127369 -0.28401326145526029 0 -0.19267178705524021 -0.30578920503631912 0 -0.17507431738127369 -0.28401326145526029 0 -0.17391538329452061 -0.29489800819007239 0 -0.19267178705524021 -0.30578920503631912 0 -0.17507431738127369 -0.28401326145526029 0 -0.17391538329452061 -0.29489800819007239 0 -0.17532621133471249 -0.30426618216820789 0 -0.19254159852174429 -0.31996122112867409 0 -0.19267178705524021 -0.30578920503631912 0 -0.17532621133471249 -0.30426618216820789 0 -0.19267178705524021 -0.30578920503631912 0 -0.17391538329452061 -0.29489800819007239 0 -0.17532621133471249 -0.30426618216820789 0 -0.19254159852174429 -0.31996122112867409 0 -0.17532621133471249 -0.30426618216820789 0 -0.1789711567900161 -0.3101302037755338 0 -0.19254159852174429 -0.31996122112867409 0 -0.17532621133471249 -0.30426618216820789 0 -0.17532621133471249 -0.30426618216820789 0 -0.15973767967650701 -0.30493196891575292 0 -0.16582550601247259 -0.31644195918285489 0 -0.1624028041075358 -0.29248408411088062 0 -0.17532621133471249 -0.30426618216820789 0 -0.15973767967650701 -0.30493196891575292 0 -0.1624028041075358 -0.29248408411088062 0 -0.17532621133471249 -0.30426618216820789 0 -0.1624028041075358 -0.29248408411088062 0 -0.17391538329452061 -0.29489800819007239 0 -0.17532621133471249 -0.30426618216820789 0 -0.144593184228827 -0.30237793828586917 0 -0.15261731536399281 -0.31699983390472031 0 -0.1327552185807534 -0.31482398186879779 0 -0.15973767967650701 -0.30493196891575292 0 -0.144593184228827 -0.30237793828586917 0 -0.15261731536399281 -0.31699983390472031 0 -0.15973767967650701 -0.30493196891575292 0 -0.144593184228827 -0.30237793828586917 0 -0.15108397830665751 -0.29236825921418419 0 -0.144593184228827 -0.30237793828586917 0 -0.1304175251842298 -0.30012492429455973 0 -0.1327552185807534 -0.31482398186879779 0 -0.1304175251842298 -0.30012492429455973 0 -0.1327552185807534 -0.31482398186879779 0 -0.11567190875339491 -0.3081878681979589 0 -0.1304175251842298 -0.30012492429455973 0 -0.13697378053928061 -0.28594316463020741 0 -0.11725087491461519 -0.29108504565108578 0 -0.144593184228827 -0.30237793828586917 0 -0.1304175251842298 -0.30012492429455973 0 -0.13697378053928061 -0.28594316463020741 0 -0.13697378053928061 -0.28594316463020741 0 -0.15108397830665751 -0.29236825921418419 0 -0.1494793968803598 -0.28070198605355251 0 -0.144593184228827 -0.30237793828586917 0 -0.13697378053928061 -0.28594316463020741 0 -0.15108397830665751 -0.29236825921418419 0 -0.1624028041075358 -0.29248408411088062 0 -0.15108397830665751 -0.29236825921418419 0 -0.1494793968803598 -0.28070198605355251 0 -0.1624028041075358 -0.29248408411088062 0 -0.1494793968803598 -0.28070198605355251 0 -0.15747684770731041 -0.26223731787419863 0 -0.1596399504195592 -0.27820623095404468 0 -0.1503927610565664 -0.27179087804580171 0 -0.1596399504195592 -0.27820623095404468 0 -0.1494793968803598 -0.28070198605355251 0 -0.1503927610565664 -0.27179087804580171 0 -0.15747684770731041 -0.26223731787419863 0 -0.1503927610565664 -0.27179087804580171 0 -0.1469785187108 -0.2635474229235048 0 -0.1503927610565664 -0.27179087804580171 0 -0.13966748117377659 -0.26847157538705668 0 -0.1469785187108 -0.2635474229235048 0 -0.1503927610565664 -0.27179087804580171 0 -0.14153524490660671 -0.2763029116229278 0 -0.13966748117377659 -0.26847157538705668 0 -0.1494793968803598 -0.28070198605355251 0 -0.1503927610565664 -0.27179087804580171 0 -0.14153524490660671 -0.2763029116229278 0 -0.13697378053928061 -0.28594316463020741 0 -0.1494793968803598 -0.28070198605355251 0 -0.14153524490660671 -0.2763029116229278 0 -0.13697378053928061 -0.28594316463020741 0 -0.14153524490660671 -0.2763029116229278 0 -0.13219795163187159 -0.27110871778552531 0 -0.13697378053928061 -0.28594316463020741 0 -0.1173011125765811 -0.2721428964285707 0 -0.13697378053928061 -0.28594316463020741 0 -0.13219795163187159 -0.27110871778552531 0 -0.1173011125765811 -0.2721428964285707 0 -0.13219795163187159 -0.27110871778552531 0 -0.1333337708168415 -0.26377523499205202 0 -0.12600056203783161 -0.26301541000095829 0 -0.13219795163187159 -0.27110871778552531 0 -0.12600056203783161 -0.26301541000095829 0 -0.1173011125765811 -0.2721428964285707 0 -0.13219795163187159 -0.27110871778552531 0 -0.13966748117377659 -0.26847157538705668 0 -0.1333337708168415 -0.26377523499205202 0 -0.14153524490660671 -0.2763029116229278 0 -0.13219795163187159 -0.27110871778552531 0 -0.13966748117377659 -0.26847157538705668 0 -0.13966748117377659 -0.26847157538705668 0 -0.13807993829988649 -0.25979154560904222 0 -0.1333337708168415 -0.26377523499205202 0 -0.13807993829988649 -0.25979154560904222 0 -0.1333337708168415 -0.26377523499205202 0 -0.13072292094084129 -0.25648892617767749 0 -0.12600056203783161 -0.26301541000095829 0 -0.13072292094084129 -0.25648892617767749 0 -0.1187556211832122 -0.25814451816493872 0 -0.1333337708168415 -0.26377523499205202 0 -0.12600056203783161 -0.26301541000095829 0 -0.13072292094084129 -0.25648892617767749 0 -0.13072292094084129 -0.25648892617767749 0 -0.13218950310710981 -0.25272660122947088 0 -0.1187556211832122 -0.25814451816493872 0 -0.13072292094084129 -0.25648892617767749 0 -0.13218950310710981 -0.25272660122947088 0 -0.13218950310710981 -0.25272660122947088 0 -0.1459019403517107 -0.25564217047089421 0 -0.13375162957080131 -0.24871916986845621 0 -0.13218950310710981 -0.25272660122947088 0 -0.1459019403517107 -0.25564217047089421 0 -0.13218950310710981 -0.25272660122947088 0 -0.13375162957080131 -0.24871916986845621 0 -0.1459019403517107 -0.25564217047089421 0 -0.13375162957080131 -0.24871916986845621 0 -0.13807993829988649 -0.25979154560904222 0 -0.13218950310710981 -0.25272660122947088 0 -0.1459019403517107 -0.25564217047089421 0 -0.13807993829988649 -0.25979154560904222 0 -0.13072292094084129 -0.25648892617767749 0 -0.13218950310710981 -0.25272660122947088 0 -0.1459019403517107 -0.25564217047089421 0 -0.1534429259631987 -0.25724555178864622 0 -0.1378886282313006 -0.2381062402767252 0 -0.13966748117377659 -0.26847157538705668 0 -0.13807993829988649 -0.25979154560904222 0 -0.1469785187108 -0.2635474229235048 0 -0.13807993829988649 -0.25979154560904222 0 -0.1459019403517107 -0.25564217047089421 0 -0.1469785187108 -0.2635474229235048 0 -0.15747684770731041 -0.26223731787419863 0 -0.1459019403517107 -0.25564217047089421 0 -0.1534429259631987 -0.25724555178864622 0 -0.15747684770731041 -0.26223731787419863 0 -0.1459019403517107 -0.25564217047089421 0 -0.1469785187108 -0.2635474229235048 0 -0.15747684770731041 -0.26223731787419863 0 -0.1459019403517107 -0.25564217047089421 0 -0.15747684770731041 -0.26223731787419863 0 -0.1534429259631987 -0.25724555178864622 0 -0.1593809120407062 -0.25278805690175971 0 -0.1534429259631987 -0.25724555178864622 0 -0.15289321433053751 -0.246830478479277 0 -0.1459019403517107 -0.25564217047089421 0 -0.1534429259631987 -0.25724555178864622 0 -0.17143624801538501 -0.35840063883308271 0 -0.1580141783998408 -0.34710035810185619 0 -0.15489216358121211 -0.36256913283011211 0 -0.17143624801538501 -0.35840063883308271 0 -0.1580141783998408 -0.34710035810185619 0 -0.18164424501215659 -0.34621916084723381 0 -0.17143624801538501 -0.35840063883308271 0 -0.1663610822414904 -0.3702523776444529 0 -0.15489216358121211 -0.36256913283011211 0 -0.15951650330528561 -0.37856285477961621 0 -0.1663610822414904 -0.3702523776444529 0 -0.15489216358121211 -0.36256913283011211 0 -0.17143624801538501 -0.35840063883308271 0 -0.1663610822414904 -0.3702523776444529 0 -0.18480326185087809 -0.36719565018674682 0 -0.1663610822414904 -0.3702523776444529 0 -0.18480326185087809 -0.36719565018674682 0 -0.1663610822414904 -0.3702523776444529 0 -0.18480326185087809 -0.36719565018674682 0 -0.18579747934449059 -0.37379744869579251 0 -0.18480326185087809 -0.36719565018674682 0 -0.18579747934449059 -0.37379744869579251 0 -0.18480326185087809 -0.36719565018674682 0 -0.18164424501215659 -0.34621916084723381 0 -0.19565175395430129 -0.3512554891803924 0 -0.18480326185087809 -0.36719565018674682 0 -0.18164424501215659 -0.34621916084723381 0 -0.17143624801538501 -0.35840063883308271 0 -0.18480326185087809 -0.36719565018674682 0 -0.18164424501215659 -0.34621916084723381 0 -0.18164424501215659 -0.34621916084723381 0 -0.17848522817343529 -0.32524267150772068 0 -0.1629610955137164 -0.33076913941787212 0 -0.18164424501215659 -0.34621916084723381 0 -0.17848522817343529 -0.32524267150772068 0 -0.18164424501215659 -0.34621916084723381 0 -0.18737083868624629 -0.33075534874643497 0 -0.17848522817343529 -0.32524267150772068 0 -0.17532621133471249 -0.30426618216820789 0 -0.17848522817343529 -0.32524267150772068 0 -0.17532621133471249 -0.30426618216820789 0 -0.1789711567900161 -0.3101302037755338 0 -0.17848522817343529 -0.32524267150772068 0 -0.17532621133471249 -0.30426618216820789 0 -0.17848522817343529 -0.32524267150772068 0 -0.16582550601247259 -0.31644195918285489 0 -0.1943588054861482 -0.32297640251143073 0 -0.1789711567900161 -0.3101302037755338 0 -0.18479650728396149 -0.32227615663527998 0 -0.1789711567900161 -0.3101302037755338 0 -0.18479650728396149 -0.32227615663527998 0 -0.17848522817343529 -0.32524267150772068 0 -0.1943588054861482 -0.32297640251143073 0 -0.1789711567900161 -0.3101302037755338 0 -0.18737083868624629 -0.33075534874643497 0 -0.18479650728396149 -0.32227615663527998 0 -0.17848522817343529 -0.32524267150772068 0 -0.17848522817343529 -0.32524267150772068 0 -0.16582550601247259 -0.31644195918285489 0 -0.1629610955137164 -0.33076913941787212 0 -0.16582550601247259 -0.31644195918285489 0 -0.1629610955137164 -0.33076913941787212 0 -0.15261731536399281 -0.31699983390472031 0 -0.15973767967650701 -0.30493196891575292 0 -0.16582550601247259 -0.31644195918285489 0 -0.15261731536399281 -0.31699983390472031 0 -0.1580141783998408 -0.34710035810185619 0 -0.18164424501215659 -0.34621916084723381 0 -0.1629610955137164 -0.33076913941787212 0 -0.1580141783998408 -0.34710035810185619 0 -0.1629610955137164 -0.33076913941787212 0 -0.14559484309128301 -0.3331209990743299 0 -0.14559484309128301 -0.3331209990743299 0 -0.15261731536399281 -0.31699983390472031 0 -0.1327552185807534 -0.31482398186879779 0 -0.1629610955137164 -0.33076913941787212 0 -0.14559484309128301 -0.3331209990743299 0 -0.15261731536399281 -0.31699983390472031 0 -0.14559484309128301 -0.3331209990743299 0 -0.1327552185807534 -0.31482398186879779 0 -0.12678352480283511 -0.3369129194106073 0 -0.14559484309128301 -0.3331209990743299 0 -0.12678352480283511 -0.3369129194106073 0 -0.14043772588655989 -0.35211976174212622 0 -0.12678352480283511 -0.3369129194106073 0 -0.14043772588655989 -0.35211976174212622 0 -0.1203130985899742 -0.35955571918490481 0 -0.1580141783998408 -0.34710035810185619 0 -0.14043772588655989 -0.35211976174212622 0 -0.15489216358121211 -0.36256913283011211 0 -0.1580141783998408 -0.34710035810185619 0 -0.14559484309128301 -0.3331209990743299 0 -0.14043772588655989 -0.35211976174212622 0 -0.14043772588655989 -0.35211976174212622 0 -0.15489216358121211 -0.36256913283011211 0 -0.13959568407155781 -0.37291875636350952 0 -0.15951650330528561 -0.37856285477961621 0 -0.15489216358121211 -0.36256913283011211 0 -0.13959568407155781 -0.37291875636350952 0 -0.12625141541498519 -0.38197991289387551 0 -0.13959568407155781 -0.37291875636350952 0 -0.1203130985899742 -0.35955571918490481 0 -0.14043772588655989 -0.35211976174212622 0 -0.13959568407155781 -0.37291875636350952 0 -0.1203130985899742 -0.35955571918490481 0 -0.1203130985899742 -0.35955571918490481 0 -0.11384267237711319 -0.38219851895920232 0 -0.1203130985899742 -0.35955571918490481 0 -0.10849363524981311 -0.36442991456039969 0 -0.11384267237711319 -0.38219851895920232 0 -0.12625141541498519 -0.38197991289387551 0 -0.1203130985899742 -0.35955571918490481 0 -0.11384267237711319 -0.38219851895920232 0 -0.10849363524981311 -0.36442991456039969 0 -0.096157591159299352 -0.35547454281719221 0 -0.10176491866177829 -0.38015793077534599 0 -0.096157591159299352 -0.35547454281719221 0 -0.10176491866177829 -0.38015793077534599 0 -0.096157591159299352 -0.35547454281719221 0 -0.10176491866177829 -0.38015793077534599 0 -0.085276019388031976 -0.37619188405436782 0 -0.096157591159299352 -0.35547454281719221 0 -0.10964553082547281 -0.34513317088572909 0 -0.090550263656820479 -0.33079115485903843 0 -0.10849363524981311 -0.36442991456039969 0 -0.096157591159299352 -0.35547454281719221 0 -0.10964553082547281 -0.34513317088572909 0 -0.1203130985899742 -0.35955571918490481 0 -0.10849363524981311 -0.36442991456039969 0 -0.10964553082547281 -0.34513317088572909 0 -0.12678352480283511 -0.3369129194106073 0 -0.1203130985899742 -0.35955571918490481 0 -0.10964553082547281 -0.34513317088572909 0 -0.12678352480283511 -0.3369129194106073 0 -0.1203130985899742 -0.35955571918490481 0 -0.12678352480283511 -0.3369129194106073 0 -0.10964553082547281 -0.34513317088572909 0 -0.1112875311940303 -0.32576775904759792 0 -0.1327552185807534 -0.31482398186879779 0 -0.12678352480283511 -0.3369129194106073 0 -0.1112875311940303 -0.32576775904759792 0 -0.1327552185807534 -0.31482398186879779 0 -0.1112875311940303 -0.32576775904759792 0 -0.11567190875339491 -0.3081878681979589 0 -0.1112875311940303 -0.32576775904759792 0 -0.1011365257202933 -0.31403431577096802 0 -0.11567190875339491 -0.3081878681979589 0 -0.1112875311940303 -0.32576775904759792 0 -0.1011365257202933 -0.31403431577096802 0 -0.090550263656820479 -0.33079115485903843 0 -0.10964553082547281 -0.34513317088572909 0 -0.1112875311940303 -0.32576775904759792 0 -0.090550263656820479 -0.33079115485903843 0 -0.096157591159299352 -0.35547454281719221 0 -0.090550263656820479 -0.33079115485903843 0 -0.096157591159299352 -0.35547454281719221 0 -0.090550263656820479 -0.33079115485903843 0 -0.073144777225565616 -0.33606175945158517 0 -0.090550263656820479 -0.33079115485903843 0 -0.084942936154341619 -0.30610776690088481 0 -0.090550263656820479 -0.33079115485903843 0 -0.073144777225565616 -0.33606175945158517 0 -0.084942936154341619 -0.30610776690088481 0 -0.1011365257202933 -0.31403431577096802 0 -0.090550263656820479 -0.33079115485903843 0 -0.084942936154341619 -0.30610776690088481 0 -0.073144777225565616 -0.33606175945158517 0 -0.084942936154341619 -0.30610776690088481 0 -0.060613113796085999 -0.32288269869712272 0 -0.073144777225565616 -0.33606175945158517 0 -0.076755031766953086 -0.35884624094615858 0 -0.063306301319701316 -0.35299520754669739 0 -0.076755031766953086 -0.35884624094615858 0 -0.063306301319701316 -0.35299520754669739 0 -0.065890469742167113 -0.37350781086095058 0 -0.076755031766953086 -0.35884624094615858 0 -0.065890469742167113 -0.37350781086095058 0 -0.085276019388031976 -0.37619188405436782 0 -0.096157591159299352 -0.35547454281719221 0 -0.076755031766953086 -0.35884624094615858 0 -0.085276019388031976 -0.37619188405436782 0 -0.096157591159299352 -0.35547454281719221 0 -0.073144777225565616 -0.33606175945158517 0 -0.076755031766953086 -0.35884624094615858 0 -0.097628444613881649 -0.25834262822693399 0 -0.1173011125765811 -0.2721428964285707 0 -0.097628444613881649 -0.25834262822693399 0 -0.1187556211832122 -0.25814451816493872 0 -0.1098930818979398 -0.24798588601512411 0 -0.13218950310710981 -0.25272660122947088 0 -0.1187556211832122 -0.25814451816493872 0 -0.1098930818979398 -0.24798588601512411 0 -0.097628444613881649 -0.25834262822693399 0 -0.1187556211832122 -0.25814451816493872 0 -0.1173011125765811 -0.2721428964285707 0 -0.13218950310710981 -0.25272660122947088 0 -0.1098930818979398 -0.24798588601512411 0 -0.12600056203783161 -0.26301541000095829 0 -0.1187556211832122 -0.25814451816493872 0 -0.1173011125765811 -0.2721428964285707 0 -0.097628444613881649 -0.25834262822693399 0 -0.1173011125765811 -0.2721428964285707 0 -0.090762408808148426 -0.27102181932101072 0 -0.1173011125765811 -0.2721428964285707 0 -0.096655829275762523 -0.28444542957314378 0 -0.090762408808148426 -0.27102181932101072 0 -0.096655829275762523 -0.28444542957314378 0 -0.10322998884287909 -0.29931702984935987 0 -0.084942936154341619 -0.30610776690088481 0 -0.096655829275762523 -0.28444542957314378 0 -0.11725087491461519 -0.29108504565108578 0 -0.10322998884287909 -0.29931702984935987 0 -0.13697378053928061 -0.28594316463020741 0 -0.1173011125765811 -0.2721428964285707 0 -0.11725087491461519 -0.29108504565108578 0 -0.1173011125765811 -0.2721428964285707 0 -0.096655829275762523 -0.28444542957314378 0 -0.11725087491461519 -0.29108504565108578 0 -0.11725087491461519 -0.29108504565108578 0 -0.11567190875339491 -0.3081878681979589 0 -0.10322998884287909 -0.29931702984935987 0 -0.1304175251842298 -0.30012492429455973 0 -0.11725087491461519 -0.29108504565108578 0 -0.11567190875339491 -0.3081878681979589 0 -0.1011365257202933 -0.31403431577096802 0 -0.10322998884287909 -0.29931702984935987 0 -0.084942936154341619 -0.30610776690088481 0 -0.1011365257202933 -0.31403431577096802 0 -0.11567190875339491 -0.3081878681979589 0 -0.10322998884287909 -0.29931702984935987 0 -0.084942936154341619 -0.30610776690088481 0 -0.066237696895848033 -0.30175990202967712 0 -0.078368201618682937 -0.28822753231137022 0 -0.084942936154341619 -0.30610776690088481 0 -0.066237696895848033 -0.30175990202967712 0 -0.060613113796085999 -0.32288269869712272 0 -0.066237696895848033 -0.30175990202967712 0 -0.078368201618682937 -0.28822753231137022 0 -0.057136779716869042 -0.28712205926022771 0 -0.078368201618682937 -0.28822753231137022 0 -0.072744725061100565 -0.27289296274949931 0 -0.057136779716869042 -0.28712205926022771 0 -0.096655829275762523 -0.28444542957314378 0 -0.084942936154341619 -0.30610776690088481 0 -0.078368201618682937 -0.28822753231137022 0 -0.096655829275762523 -0.28444542957314378 0 -0.078368201618682937 -0.28822753231137022 0 -0.090762408808148426 -0.27102181932101072 0 -0.078368201618682937 -0.28822753231137022 0 -0.090762408808148426 -0.27102181932101072 0 -0.072744725061100565 -0.27289296274949931 0 -0.090762408808148426 -0.27102181932101072 0 -0.072744725061100565 -0.27289296274949931 0 -0.081281336266817772 -0.26097832242812891 0 -0.072744725061100565 -0.27289296274949931 0 -0.067161912638977472 -0.25903173736147111 0 -0.055745381016590281 -0.2682223094504298 0 -0.072744725061100565 -0.27289296274949931 0 -0.067161912638977472 -0.25903173736147111 0 -0.081281336266817772 -0.26097832242812891 0 -0.067161912638977472 -0.25903173736147111 0 -0.081281336266817772 -0.26097832242812891 0 -0.077955776651182085 -0.24454236002529731 0 -0.067161912638977472 -0.25903173736147111 0 -0.056939497423126581 -0.24878681181634871 0 -0.077955776651182085 -0.24454236002529731 0 -0.097628444613881649 -0.25834262822693399 0 -0.081281336266817772 -0.26097832242812891 0 -0.077955776651182085 -0.24454236002529731 0 -0.097628444613881649 -0.25834262822693399 0 -0.090762408808148426 -0.27102181932101072 0 -0.081281336266817772 -0.26097832242812891 0 -0.097628444613881649 -0.25834262822693399 0 -0.077955776651182085 -0.24454236002529731 0 -0.025857267464119819 -0.25506418495113531 0 -0.050191684441297867 -0.2485850187836515 0 -0.034199021844566052 -0.25740496373097072 0 -0.056939497423126581 -0.24878681181634871 0 -0.034199021844566052 -0.25740496373097072 0 -0.041398382443623198 -0.25192549838374201 0 -0.056939497423126581 -0.24878681181634871 0 -0.041398382443623198 -0.25192549838374201 0 -0.025857267464119819 -0.25506418495113531 0 -0.050191684441297867 -0.2485850187836515 0 -0.034199021844566052 -0.25740496373097072 0 -0.048255079716108998 -0.25800015923011232 0 -0.056939497423126581 -0.24878681181634871 0 -0.034199021844566052 -0.25740496373097072 0 -0.041398382443623198 -0.25192549838374201 0 -0.025857267464119819 -0.25506418495113531 0 -0.041398382443623198 -0.25192549838374201 0 -0.025857267464119819 -0.25506418495113531 0 -0.034199021844566052 -0.25740496373097072 0 -0.037307574571523318 -0.26201401924185519 0 -0.024854767991187229 -0.26705994663832661 0 -0.037307574571523318 -0.26201401924185519 0 -0.048255079716108998 -0.25800015923011232 0 -0.046606779304586107 -0.26584835010199509 0 -0.034199021844566052 -0.25740496373097072 0 -0.037307574571523318 -0.26201401924185519 0 -0.048255079716108998 -0.25800015923011232 0 -0.05702546769870083 -0.25851025446459042 0 -0.048255079716108998 -0.25800015923011232 0 -0.056939497423126581 -0.24878681181634871 0 -0.041398382443623198 -0.25192549838374201 0 -0.056939497423126581 -0.24878681181634871 0 -0.067161912638977472 -0.25903173736147111 0 -0.05702546769870083 -0.25851025446459042 0 -0.056939497423126581 -0.24878681181634871 0 -0.067161912638977472 -0.25903173736147111 0 -0.05702546769870083 -0.25851025446459042 0 -0.055745381016590281 -0.2682223094504298 0 -0.05702546769870083 -0.25851025446459042 0 -0.048255079716108998 -0.25800015923011232 0 -0.055745381016590281 -0.2682223094504298 0 -0.048255079716108998 -0.25800015923011232 0 -0.055745381016590281 -0.2682223094504298 0 -0.046606779304586107 -0.26584835010199509 0 -0.055745381016590281 -0.2682223094504298 0 -0.045119081914121867 -0.27515691248558288 0 -0.046606779304586107 -0.26584835010199509 0 -0.055745381016590281 -0.2682223094504298 0 -0.045119081914121867 -0.27515691248558288 0 -0.057136779716869042 -0.28712205926022771 0 -0.072744725061100565 -0.27289296274949931 0 -0.055745381016590281 -0.2682223094504298 0 -0.057136779716869042 -0.28712205926022771 0 -0.037307574571523318 -0.26201401924185519 0 -0.034478529498429812 -0.28951379058442123 0 -0.037307574571523318 -0.26201401924185519 0 -0.034478529498429812 -0.28951379058442123 0 -0.024854767991187229 -0.26705994663832661 0 -0.037307574571523318 -0.26201401924185519 0 -0.045119081914121867 -0.27515691248558288 0 -0.034478529498429812 -0.28951379058442123 0 -0.037307574571523318 -0.26201401924185519 0 -0.045119081914121867 -0.27515691248558288 0 -0.046606779304586107 -0.26584835010199509 0 -0.045119081914121867 -0.27515691248558288 0 -0.034478529498429812 -0.28951379058442123 0 -0.057136779716869042 -0.28712205926022771 0 -0.034478529498429812 -0.28951379058442123 0 -0.057136779716869042 -0.28712205926022771 0 -0.05012745319326059 -0.30445945297878008 0 -0.066237696895848033 -0.30175990202967712 0 -0.05012745319326059 -0.30445945297878008 0 -0.060613113796085999 -0.32288269869712272 0 -0.066237696895848033 -0.30175990202967712 0 -0.057136779716869042 -0.28712205926022771 0 -0.05012745319326059 -0.30445945297878008 0 -0.034478529498429812 -0.28951379058442123 0 -0.05012745319326059 -0.30445945297878008 0 -0.031649484425336299 -0.31701356192698721 0 -0.034478529498429812 -0.28951379058442123 0 -0.031649484425336299 -0.31701356192698721 0 -0.034478529498429812 -0.28951379058442123 0 -0.020284114256294641 -0.29759304008048471 0 -0.031649484425336299 -0.31701356192698721 0 -0.020284114256294641 -0.29759304008048471 0 -0.01007927323019326 -0.3103345258507364 0 -0.031649484425336299 -0.31701356192698721 0 -0.020284114256294641 -0.29759304008048471 0 -0.01007927323019326 -0.3103345258507364 0 -0.0080748459131490501 -0.2914060437848453 0 -0.01007927323019326 -0.3103345258507364 0 -0.0080748459131490501 -0.2914060437848453 0 0.0017563221397047381 -0.2997067901486577 0 -0.020284114256294641 -0.29759304008048471 0 -0.0080748459131490501 -0.2914060437848453 0 -0.017138438214364771 -0.27969727825543328 0 -0.0080748459131490501 -0.2914060437848453 0 -0.002848760243290064 -0.27761611820401882 0 0.0066437179820165657 -0.2861171845936395 0 -0.0080748459131490501 -0.2914060437848453 0 -0.017138438214364771 -0.27969727825543328 0 -0.002848760243290064 -0.27761611820401882 0 -0.034478529498429812 -0.28951379058442123 0 -0.020284114256294641 -0.29759304008048471 0 -0.017138438214364771 -0.27969727825543328 0 -0.034478529498429812 -0.28951379058442123 0 -0.024854767991187229 -0.26705994663832661 0 -0.017138438214364771 -0.27969727825543328 0 -0.024854767991187229 -0.26705994663832661 0 -0.01588915841142927 -0.27169793716392882 0 -0.01145854626600548 -0.26602311564559261 0 -0.024854767991187229 -0.26705994663832661 0 -0.01588915841142927 -0.27169793716392882 0 -0.017138438214364771 -0.27969727825543328 0 -0.017138438214364771 -0.27969727825543328 0 -0.011833725783772399 -0.27375861231724341 0 -0.002848760243290064 -0.27761611820401882 0 -0.01145854626600548 -0.26602311564559261 0 0.01128192931255503 -0.27464126756021451 0 -0.002848760243290064 -0.27761611820401882 0 -0.01145854626600548 -0.26602311564559261 0 0.01128192931255503 -0.27464126756021451 0 -0.01588915841142927 -0.27169793716392882 0 -0.017138438214364771 -0.27969727825543328 0 -0.011833725783772399 -0.27375861231724341 0 -0.011833725783772399 -0.27375861231724341 0 -0.002848760243290064 -0.27761611820401882 0 -0.01145854626600548 -0.26602311564559261 0 -0.01588915841142927 -0.27169793716392882 0 -0.011833725783772399 -0.27375861231724341 0 -0.01145854626600548 -0.26602311564559261 0 -0.01269776775011346 -0.25850600500130039 0 -0.0051360078472848583 -0.25701396995817721 0 0.0057158633005241696 -0.26337829885565528 0 -0.01145854626600548 -0.26602311564559261 0 -0.01269776775011346 -0.25850600500130039 0 0.0057158633005241696 -0.26337829885565528 0 -0.01269776775011346 -0.25850600500130039 0 0.0057158633005241696 -0.26337829885565528 0 -0.0009620894167222515 -0.25496392916579452 0 -0.0051360078472848583 -0.25701396995817721 0 0.0057158633005241696 -0.26337829885565528 0 -0.0071971320314794382 -0.2528457057960789 0 -0.01082738352359053 -0.24876902592697839 0 -0.0029313858115674811 -0.24854412401401971 0 -0.0009620894167222515 -0.25496392916579452 0 -0.0071971320314794382 -0.2528457057960789 0 -0.0029313858115674811 -0.24854412401401971 0 -0.0009620894167222515 -0.25496392916579452 0 -0.0051360078472848583 -0.25701396995817721 0 -0.0071971320314794382 -0.2528457057960789 0 -0.0051360078472848583 -0.25701396995817721 0 -0.0071971320314794382 -0.2528457057960789 0 -0.0094143843739788544 -0.25459574361389747 0 -0.0071971320314794382 -0.2528457057960789 0 -0.0094143843739788544 -0.25459574361389747 0 -0.01082738352359053 -0.24876902592697839 0 -0.01269776775011346 -0.25850600500130039 0 -0.0094143843739788544 -0.25459574361389747 0 -0.01082738352359053 -0.24876902592697839 0 -0.01269776775011346 -0.25850600500130039 0 -0.0051360078472848583 -0.25701396995817721 0 -0.0094143843739788544 -0.25459574361389747 0 -0.01269776775011346 -0.25850600500130039 0 -0.025857267464119819 -0.25506418495113531 0 -0.034199021844566052 -0.25740496373097072 0 -0.01145854626600548 -0.26602311564559261 0 -0.025857267464119819 -0.25506418495113531 0 -0.01269776775011346 -0.25850600500130039 0 -0.025857267464119819 -0.25506418495113531 0 -0.02368513365757598 -0.23851275990414511 0 -0.034199021844566052 -0.25740496373097072 0 -0.024854767991187229 -0.26705994663832661 0 -0.01145854626600548 -0.26602311564559261 0 -0.034199021844566052 -0.25740496373097072 0 -0.01145854626600548 -0.26602311564559261 0 -0.01145854626600548 -0.26602311564559261 0 -0.01269776775011346 -0.25850600500130039 0 -0.025857267464119819 -0.25506418495113531 0 -0.046940286889098168 -0.35955036210978841 0 -0.050269733973634309 -0.3392354021108881 0 -0.02882043935224279 -0.34451333326955308 0 -0.046940286889098168 -0.35955036210978841 0 -0.02882043935224279 -0.34451333326955308 0 -0.026419717968229769 -0.36867473508972981 0 -0.046940286889098168 -0.35955036210978841 0 -0.026419717968229769 -0.36867473508972981 0 -0.046935058978613817 -0.3783756837809118 0 -0.065890469742167113 -0.37350781086095058 0 -0.046940286889098168 -0.35955036210978841 0 -0.046935058978613817 -0.3783756837809118 0 -0.063306301319701316 -0.35299520754669739 0 -0.065890469742167113 -0.37350781086095058 0 -0.046940286889098168 -0.35955036210978841 0 -0.063306301319701316 -0.35299520754669739 0 -0.046940286889098168 -0.35955036210978841 0 -0.050269733973634309 -0.3392354021108881 0 -0.073144777225565616 -0.33606175945158517 0 -0.063306301319701316 -0.35299520754669739 0 -0.050269733973634309 -0.3392354021108881 0 -0.073144777225565616 -0.33606175945158517 0 -0.050269733973634309 -0.3392354021108881 0 -0.060613113796085999 -0.32288269869712272 0 -0.050269733973634309 -0.3392354021108881 0 -0.060613113796085999 -0.32288269869712272 0 -0.031649484425336299 -0.31701356192698721 0 -0.05012745319326059 -0.30445945297878008 0 -0.060613113796085999 -0.32288269869712272 0 -0.031649484425336299 -0.31701356192698721 0 -0.050269733973634309 -0.3392354021108881 0 -0.031649484425336299 -0.31701356192698721 0 -0.02882043935224279 -0.34451333326955308 0 -0.031649484425336299 -0.31701356192698721 0 -0.02882043935224279 -0.34451333326955308 0 -0.031649484425336299 -0.31701356192698721 0 -0.0038616663111063101 -0.33241552487502413 0 -0.02882043935224279 -0.34451333326955308 0 -0.01007927323019326 -0.3103345258507364 0 -0.031649484425336299 -0.31701356192698721 0 -0.0038616663111063101 -0.33241552487502413 0 -0.01007927323019326 -0.3103345258507364 0 -0.0038616663111063101 -0.33241552487502413 0 0.0094652366165251054 -0.31053241408104548 0 -0.0038616663111063101 -0.33241552487502413 0 -0.0043130761299947744 -0.35643483176966217 0 -0.02882043935224279 -0.34451333326955308 0 -0.0043130761299947744 -0.35643483176966217 0 -0.02882043935224279 -0.34451333326955308 0 -0.026419717968229769 -0.36867473508972981 0 -0.0043130761299947744 -0.35643483176966217 0 -0.026419717968229769 -0.36867473508972981 0 -0.0064694903547723136 -0.38059021958606692 0 -0.0064694903547723136 -0.38059021958606692 0 -0.0080625817845775948 -0.40608726553411861 0 -0.026496984295852101 -0.39226102623928111 0 -0.0064694903547723136 -0.38059021958606692 0 -0.0080625817845775948 -0.40608726553411861 0 0.009690974369139977 -0.39295199195252922 0 -0.0080625817845775948 -0.40608726553411861 0 -0.026496984295852101 -0.39226102623928111 0 -0.029852467816379728 -0.41236872525256307 0 -0.026419717968229769 -0.36867473508972981 0 -0.0064694903547723136 -0.38059021958606692 0 -0.026496984295852101 -0.39226102623928111 0 -0.026496984295852101 -0.39226102623928111 0 -0.048213792324517578 -0.39768762776665978 0 -0.046935058978613817 -0.3783756837809118 0 -0.026419717968229769 -0.36867473508972981 0 -0.026496984295852101 -0.39226102623928111 0 -0.046935058978613817 -0.3783756837809118 0 -0.026496984295852101 -0.39226102623928111 0 -0.048213792324517578 -0.39768762776665978 0 -0.029852467816379728 -0.41236872525256307 0 -0.048213792324517578 -0.39768762776665978 0 -0.065379196062645584 -0.39052657147488062 0 -0.06528413140028641 -0.40548789039177052 0 -0.048213792324517578 -0.39768762776665978 0 -0.046935058978613817 -0.3783756837809118 0 -0.065379196062645584 -0.39052657147488062 0 -0.065890469742167113 -0.37350781086095058 0 -0.046935058978613817 -0.3783756837809118 0 -0.065379196062645584 -0.39052657147488062 0 -0.052630130657334448 -0.42871109396582502 0 -0.036803499053157718 -0.43392585985635063 0 -0.055908543568221357 -0.44353945242809251 0 -0.052630130657334448 -0.42871109396582502 0 -0.048282499091199083 -0.41684649723306111 0 -0.065713266975248902 -0.42040157794015642 0 -0.052630130657334448 -0.42871109396582502 0 -0.055908543568221357 -0.44353945242809251 0 -0.077753046024815156 -0.43509142098737241 0 -0.048282499091199083 -0.41684649723306111 0 -0.06528413140028641 -0.40548789039177052 0 -0.065713266975248902 -0.42040157794015642 0 -0.048213792324517578 -0.39768762776665978 0 -0.048282499091199083 -0.41684649723306111 0 -0.06528413140028641 -0.40548789039177052 0 -0.048213792324517578 -0.39768762776665978 0 -0.048282499091199083 -0.41684649723306111 0 -0.029852467816379728 -0.41236872525256307 0 -0.048282499091199083 -0.41684649723306111 0 -0.036803499053157718 -0.43392585985635063 0 -0.029852467816379728 -0.41236872525256307 0 -0.052630130657334448 -0.42871109396582502 0 -0.048282499091199083 -0.41684649723306111 0 -0.036803499053157718 -0.43392585985635063 0 -0.036803499053157718 -0.43392585985635063 0 -0.01686747062211669 -0.42668809062348251 0 -0.022482277956740859 -0.44034230556013138 0 -0.036803499053157718 -0.43392585985635063 0 -0.01686747062211669 -0.42668809062348251 0 -0.029852467816379728 -0.41236872525256307 0 -0.0080625817845775948 -0.40608726553411861 0 -0.01686747062211669 -0.42668809062348251 0 -0.029852467816379728 -0.41236872525256307 0 -0.0080625817845775948 -0.40608726553411861 0 -0.01686747062211669 -0.42668809062348251 0 0.01224976062295041 -0.42183763890738629 0 -0.01686747062211669 -0.42668809062348251 0 -0.008216644178786571 -0.4466179140804285 0 0.01224976062295041 -0.42183763890738629 0 -0.008216644178786571 -0.4466179140804285 0 -0.0021957942935651631 -0.46571035637089769 0 -0.016151777162071251 -0.46269316979172348 0 -0.0021957942935651631 -0.46571035637089769 0 -0.016151777162071251 -0.46269316979172348 0 -0.01292321871024151 -0.47600360382280887 0 -0.008216644178786571 -0.4466179140804285 0 -0.016151777162071251 -0.46269316979172348 0 -0.028753682251359231 -0.45370767630375852 0 -0.016151777162071251 -0.46269316979172348 0 -0.030722049445265721 -0.46513815794063051 0 -0.025757536927686689 -0.47561542944709773 0 -0.016151777162071251 -0.46269316979172348 0 -0.030722049445265721 -0.46513815794063051 0 -0.028753682251359231 -0.45370767630375852 0 -0.036803499053157718 -0.43392585985635063 0 -0.028753682251359231 -0.45370767630375852 0 -0.022482277956740859 -0.44034230556013138 0 -0.01686747062211669 -0.42668809062348251 0 -0.008216644178786571 -0.4466179140804285 0 -0.022482277956740859 -0.44034230556013138 0 -0.008216644178786571 -0.4466179140804285 0 -0.028753682251359231 -0.45370767630375852 0 -0.022482277956740859 -0.44034230556013138 0 -0.011489863113854141 -0.5 0 -0.010144146689038991 -0.48941639725935437 0 0.012735562036971701 -0.48508522326900949 0 -0.010144146689038991 -0.48941639725935437 0 -0.00065605929082254884 -0.47874224407546379 0 -0.01292321871024151 -0.47600360382280887 0 -0.010144146689038991 -0.48941639725935437 0 -0.01292321871024151 -0.47600360382280887 0 -0.022633997898264431 -0.48384402599231691 0 -0.0021957942935651631 -0.46571035637089769 0 -0.00065605929082254884 -0.47874224407546379 0 -0.01292321871024151 -0.47600360382280887 0 -0.016151777162071251 -0.46269316979172348 0 -0.01292321871024151 -0.47600360382280887 0 -0.025757536927686689 -0.47561542944709773 0 -0.025757536927686689 -0.47561542944709773 0 -0.022633997898264431 -0.48384402599231691 0 -0.032724513000240443 -0.48384135401243772 0 -0.01292321871024151 -0.47600360382280887 0 -0.025757536927686689 -0.47561542944709773 0 -0.022633997898264431 -0.48384402599231691 0 -0.011489863113854141 -0.5 0 -0.010144146689038991 -0.48941639725935437 0 -0.033023855415049652 -0.49374757124969931 0 -0.010144146689038991 -0.48941639725935437 0 -0.022633997898264431 -0.48384402599231691 0 -0.033023855415049652 -0.49374757124969931 0 -0.011489863113854141 -0.5 0 -0.041002190054857779 -0.5 0 -0.033023855415049652 -0.49374757124969931 0 -0.010144146689038991 -0.48941639725935437 0 -0.033023855415049652 -0.49374757124969931 0 -0.022633997898264431 -0.48384402599231691 0 -0.033023855415049652 -0.49374757124969931 0 -0.032724513000240443 -0.48384135401243772 0 -0.041002190054857779 -0.5 0 -0.040644419244316249 -0.48874723383863622 0 -0.055758353525359711 -0.48944453406372251 0 -0.041002190054857779 -0.5 0 -0.033023855415049652 -0.49374757124969931 0 -0.040644419244316249 -0.48874723383863622 0 -0.033023855415049652 -0.49374757124969931 0 -0.040644419244316249 -0.48874723383863622 0 -0.032724513000240443 -0.48384135401243772 0 -0.040644419244316249 -0.48874723383863622 0 -0.040713184226073652 -0.47670270986732172 0 -0.055758353525359711 -0.48944453406372251 0 -0.040644419244316249 -0.48874723383863622 0 -0.040713184226073652 -0.47670270986732172 0 -0.032724513000240443 -0.48384135401243772 0 -0.025757536927686689 -0.47561542944709773 0 -0.040713184226073652 -0.47670270986732172 0 -0.032724513000240443 -0.48384135401243772 0 -0.030722049445265721 -0.46513815794063051 0 -0.025757536927686689 -0.47561542944709773 0 -0.040713184226073652 -0.47670270986732172 0 -0.040713184226073652 -0.47670270986732172 0 -0.05604151524233808 -0.47085547185542692 0 -0.042137987481662489 -0.46199998676314519 0 -0.040713184226073652 -0.47670270986732172 0 -0.05604151524233808 -0.47085547185542692 0 -0.055758353525359711 -0.48944453406372251 0 -0.05604151524233808 -0.47085547185542692 0 -0.055758353525359711 -0.48944453406372251 0 -0.068357021366280857 -0.47830767763467641 0 -0.041002190054857779 -0.5 0 -0.055758353525359711 -0.48944453406372251 0 -0.070514516995861642 -0.5 0 -0.036803499053157718 -0.43392585985635063 0 -0.028753682251359231 -0.45370767630375852 0 -0.042591220718736618 -0.44931976272637059 0 -0.036803499053157718 -0.43392585985635063 0 -0.042591220718736618 -0.44931976272637059 0 -0.055908543568221357 -0.44353945242809251 0 -0.028753682251359231 -0.45370767630375852 0 -0.042591220718736618 -0.44931976272637059 0 -0.042137987481662489 -0.46199998676314519 0 -0.030722049445265721 -0.46513815794063051 0 -0.028753682251359231 -0.45370767630375852 0 -0.042137987481662489 -0.46199998676314519 0 -0.030722049445265721 -0.46513815794063051 0 -0.040713184226073652 -0.47670270986732172 0 -0.042137987481662489 -0.46199998676314519 0 -0.042591220718736618 -0.44931976272637059 0 -0.042137987481662489 -0.46199998676314519 0 -0.054601469153056192 -0.45704509188174619 0 -0.05604151524233808 -0.47085547185542692 0 -0.054601469153056192 -0.45704509188174619 0 -0.071896784036839162 -0.45711427830285839 0 -0.05604151524233808 -0.47085547185542692 0 -0.042137987481662489 -0.46199998676314519 0 -0.054601469153056192 -0.45704509188174619 0 -0.054601469153056192 -0.45704509188174619 0 -0.055908543568221357 -0.44353945242809251 0 -0.071896784036839162 -0.45711427830285839 0 -0.042591220718736618 -0.44931976272637059 0 -0.054601469153056192 -0.45704509188174619 0 -0.055908543568221357 -0.44353945242809251 0 -0.055908543568221357 -0.44353945242809251 0 -0.071896784036839162 -0.45711427830285839 0 -0.077753046024815156 -0.43509142098737241 0 -0.071896784036839162 -0.45711427830285839 0 -0.087573937031005744 -0.47412410395137422 0 -0.093954286744555499 -0.45179652052777369 0 -0.087573937031005744 -0.47412410395137422 0 -0.093954286744555499 -0.45179652052777369 0 -0.071896784036839162 -0.45711427830285839 0 -0.093954286744555499 -0.45179652052777369 0 -0.077753046024815156 -0.43509142098737241 0 -0.093954286744555499 -0.45179652052777369 0 -0.10033463645810529 -0.42946893710417328 0 -0.077753046024815156 -0.43509142098737241 0 -0.055758353525359711 -0.48944453406372251 0 -0.070514516995861642 -0.5 0 -0.068357021366280857 -0.47830767763467641 0 -0.05604151524233808 -0.47085547185542692 0 -0.071896784036839162 -0.45711427830285839 0 -0.068357021366280857 -0.47830767763467641 0 -0.071896784036839162 -0.45711427830285839 0 -0.068357021366280857 -0.47830767763467641 0 -0.087573937031005744 -0.47412410395137422 0 -0.070514516995861642 -0.5 0 -0.068357021366280857 -0.47830767763467641 0 -0.087573937031005744 -0.47412410395137422 0 -0.070514516995861642 -0.5 0 -0.087573937031005744 -0.47412410395137422 0 -0.10002684393686551 -0.5 0 -0.087573937031005744 -0.47412410395137422 0 -0.10002684393686551 -0.5 0 -0.10780494223314389 -0.47765854937150709 0 -0.087573937031005744 -0.47412410395137422 0 -0.10780494223314389 -0.47765854937150709 0 -0.1029954147344513 -0.46359439800738522 0 -0.12605423818426559 -0.48707922202292669 0 -0.10780494223314389 -0.47765854937150709 0 -0.1201929706126502 -0.46127799294672761 0 -0.12605423818426559 -0.48707922202292669 0 -0.1201929706126502 -0.46127799294672761 0 -0.12605423818426559 -0.48707922202292669 0 -0.10002684393686551 -0.5 0 -0.10780494223314389 -0.47765854937150709 0 -0.1295391708778694 -0.5 0 -0.12605423818426559 -0.48707922202292669 0 -0.10002684393686551 -0.5 0 -0.093954286744555499 -0.45179652052777369 0 -0.10033463645810529 -0.42946893710417328 0 -0.10636180231815941 -0.44832292249131772 0 -0.11433170304103479 -0.43547676387052858 0 -0.10033463645810529 -0.42946893710417328 0 -0.10636180231815941 -0.44832292249131772 0 -0.093954286744555499 -0.45179652052777369 0 -0.10033463645810529 -0.42946893710417328 0 -0.087573937031005744 -0.47412410395137422 0 -0.093954286744555499 -0.45179652052777369 0 -0.1029954147344513 -0.46359439800738522 0 -0.10636180231815941 -0.44832292249131772 0 -0.093954286744555499 -0.45179652052777369 0 -0.1029954147344513 -0.46359439800738522 0 -0.10780494223314389 -0.47765854937150709 0 -0.1029954147344513 -0.46359439800738522 0 -0.1201929706126502 -0.46127799294672761 0 -0.10636180231815941 -0.44832292249131772 0 -0.1029954147344513 -0.46359439800738522 0 -0.1201929706126502 -0.46127799294672761 0 -0.13671083813600751 -0.45044361347006462 0 -0.1201929706126502 -0.46127799294672761 0 -0.11433170304103479 -0.43547676387052858 0 -0.10636180231815941 -0.44832292249131772 0 -0.1201929706126502 -0.46127799294672761 0 -0.11433170304103479 -0.43547676387052858 0 -0.13671083813600751 -0.45044361347006462 0 -0.1225906368027144 -0.43005957413219659 0 -0.11433170304103479 -0.43547676387052858 0 -0.1201929706126502 -0.46127799294672761 0 -0.11433170304103479 -0.43547676387052858 0 -0.1225906368027144 -0.43005957413219659 0 -0.11433170304103479 -0.43547676387052858 0 -0.10847043546942051 -0.40967553479432928 0 -0.11433170304103479 -0.43547676387052858 0 -0.10847043546942051 -0.40967553479432928 0 -0.12908399078123631 -0.42243277819987513 0 -0.1225906368027144 -0.43005957413219659 0 -0.12315425937001 -0.41747458531602638 0 -0.11433170304103479 -0.43547676387052858 0 -0.10033463645810529 -0.42946893710417328 0 -0.10847043546942051 -0.40967553479432928 0 -0.10033463645810529 -0.42946893710417328 0 -0.094107383989168333 -0.41562629379671062 0 -0.1067149861716557 -0.40714135368057303 0 -0.10033463645810529 -0.42946893710417328 0 -0.1067149861716557 -0.40714135368057303 0 -0.10847043546942051 -0.40967553479432928 0 -0.10033463645810529 -0.42946893710417328 0 -0.1067149861716557 -0.40714135368057303 0 -0.094107383989168333 -0.41562629379671062 0 -0.1067149861716557 -0.40714135368057303 0 -0.093615658715422545 -0.40476526464288082 0 -0.10847043546942051 -0.40967553479432928 0 -0.1105756132387118 -0.40676785322215941 0 -0.1073722461642546 -0.40484131873350049 0 -0.10847043546942051 -0.40967553479432928 0 -0.1073722461642546 -0.40484131873350049 0 -0.1067149861716557 -0.40714135368057303 0 -0.10847043546942051 -0.40967553479432928 0 -0.1073722461642546 -0.40484131873350049 0 -0.1067149861716557 -0.40714135368057303 0 -0.10847043546942051 -0.40967553479432928 0 -0.1225906368027144 -0.43005957413219659 0 -0.1163272184937543 -0.41351727508190028 0 -0.12315425937001 -0.41747458531602638 0 -0.10847043546942051 -0.40967553479432928 0 -0.1125412123036873 -0.40894162881917728 0 -0.1163272184937543 -0.41351727508190028 0 -0.1125412123036873 -0.40894162881917728 0 -0.1105756132387118 -0.40676785322215941 0 -0.1147915820128618 -0.40580585217832088 0 -0.1225906368027144 -0.43005957413219659 0 -0.10847043546942051 -0.40967553479432928 0 -0.1163272184937543 -0.41351727508190028 0 -0.10847043546942051 -0.40967553479432928 0 -0.1125412123036873 -0.40894162881917728 0 -0.1105756132387118 -0.40676785322215941 0 -0.1225906368027144 -0.43005957413219659 0 -0.10847043546942051 -0.40967553479432928 0 -0.1125412123036873 -0.40894162881917728 0 -0.1163272184937543 -0.41351727508190028 0 -0.1147915820128618 -0.40580585217832088 0 -0.1225700411049412 -0.40994677461386392 0 -0.1219584454402414 -0.40406961642135292 0 -0.1147915820128618 -0.40580585217832088 0 -0.1163272184937543 -0.41351727508190028 0 -0.1225700411049412 -0.40994677461386392 0 -0.1147915820128618 -0.40580585217832088 0 -0.1163272184937543 -0.41351727508190028 0 -0.12315425937001 -0.41747458531602638 0 -0.1225700411049412 -0.40994677461386392 0 -0.1273295258527142 -0.39594401256049883 0 -0.1219584454402414 -0.40406961642135292 0 -0.1190781430676657 -0.39944145851713192 0 -0.11305295545189779 -0.39895005080087959 0 -0.11384267237711319 -0.38219851895920232 0 -0.1073722461642546 -0.40484131873350049 0 -0.1295768038857959 -0.40463739140698729 0 -0.1225700411049412 -0.40994677461386392 0 -0.1219584454402414 -0.40406961642135292 0 -0.1182582065806136 -0.392437760624607 0 -0.11305295545189779 -0.39895005080087959 0 -0.11384267237711319 -0.38219851895920232 0 -0.11384267237711319 -0.38219851895920232 0 -0.1073722461642546 -0.40484131873350049 0 -0.1219584454402414 -0.40406961642135292 0 -0.1190781430676657 -0.39944145851713192 0 -0.1147915820128618 -0.40580585217832088 0 -0.1273295258527142 -0.39594401256049883 0 -0.1190781430676657 -0.39944145851713192 0 -0.1182582065806136 -0.392437760624607 0 -0.1190781430676657 -0.39944145851713192 0 -0.1182582065806136 -0.392437760624607 0 -0.11305295545189779 -0.39895005080087959 0 -0.1105756132387118 -0.40676785322215941 0 -0.1114480992169309 -0.40409126873371493 0 -0.1073722461642546 -0.40484131873350049 0 -0.1105756132387118 -0.40676785322215941 0 -0.1114480992169309 -0.40409126873371493 0 -0.1147915820128618 -0.40580585217832088 0 -0.11305295545189779 -0.39895005080087959 0 -0.1114480992169309 -0.40409126873371493 0 -0.1147915820128618 -0.40580585217832088 0 -0.11305295545189779 -0.39895005080087959 0 -0.1114480992169309 -0.40409126873371493 0 -0.1073722461642546 -0.40484131873350049 0 -0.1190781430676657 -0.39944145851713192 0 -0.11305295545189779 -0.39895005080087959 0 -0.1147915820128618 -0.40580585217832088 0 -0.12625141541498519 -0.38197991289387551 0 -0.1182582065806136 -0.392437760624607 0 -0.11384267237711319 -0.38219851895920232 0 -0.12625141541498519 -0.38197991289387551 0 -0.1273295258527142 -0.39594401256049883 0 -0.1182582065806136 -0.392437760624607 0 -0.11384267237711319 -0.38219851895920232 0 -0.10176491866177829 -0.38015793077534599 0 -0.1073722461642546 -0.40484131873350049 0 -0.10176491866177829 -0.38015793077534599 0 -0.095995502779844255 -0.39166661886747001 0 -0.085276019388031976 -0.37619188405436782 0 -0.10849363524981311 -0.36442991456039969 0 -0.11384267237711319 -0.38219851895920232 0 -0.10176491866177829 -0.38015793077534599 0 -0.10176491866177829 -0.38015793077534599 0 -0.1073722461642546 -0.40484131873350049 0 -0.095995502779844255 -0.39166661886747001 0 -0.10176491866177829 -0.38015793077534599 0 -0.1073722461642546 -0.40484131873350049 0 -0.1067149861716557 -0.40714135368057303 0 -0.1073722461642546 -0.40484131873350049 0 -0.095995502779844255 -0.39166661886747001 0 -0.1067149861716557 -0.40714135368057303 0 -0.1073722461642546 -0.40484131873350049 0 -0.1067149861716557 -0.40714135368057303 0 -0.095995502779844255 -0.39166661886747001 0 -0.1067149861716557 -0.40714135368057303 0 -0.095995502779844255 -0.39166661886747001 0 -0.093615658715422545 -0.40476526464288082 0 -0.093615658715422545 -0.40476526464288082 0 -0.081664681120336771 -0.39582842074610342 0 -0.082451352827770552 -0.41163664718976212 0 -0.095995502779844255 -0.39166661886747001 0 -0.093615658715422545 -0.40476526464288082 0 -0.081664681120336771 -0.39582842074610342 0 -0.095995502779844255 -0.39166661886747001 0 -0.081664681120336771 -0.39582842074610342 0 -0.085276019388031976 -0.37619188405436782 0 -0.081664681120336771 -0.39582842074610342 0 -0.085276019388031976 -0.37619188405436782 0 -0.074552591578295357 -0.38401367178407558 0 -0.095995502779844255 -0.39166661886747001 0 -0.085276019388031976 -0.37619188405436782 0 -0.081664681120336771 -0.39582842074610342 0 -0.065379196062645584 -0.39052657147488062 0 -0.074552591578295357 -0.38401367178407558 0 -0.065890469742167113 -0.37350781086095058 0 -0.085276019388031976 -0.37619188405436782 0 -0.074552591578295357 -0.38401367178407558 0 -0.065890469742167113 -0.37350781086095058 0 -0.065379196062645584 -0.39052657147488062 0 -0.074552591578295357 -0.38401367178407558 0 -0.081664681120336771 -0.39582842074610342 0 -0.06528413140028641 -0.40548789039177052 0 -0.082451352827770552 -0.41163664718976212 0 -0.081664681120336771 -0.39582842074610342 0 -0.065379196062645584 -0.39052657147488062 0 -0.06528413140028641 -0.40548789039177052 0 -0.065713266975248902 -0.42040157794015642 0 -0.085028608260126398 -0.42320905853578622 0 -0.082451352827770552 -0.41163664718976212 0 -0.06528413140028641 -0.40548789039177052 0 -0.065713266975248902 -0.42040157794015642 0 -0.082451352827770552 -0.41163664718976212 0 -0.065713266975248902 -0.42040157794015642 0 -0.077753046024815156 -0.43509142098737241 0 -0.085028608260126398 -0.42320905853578622 0 -0.052630130657334448 -0.42871109396582502 0 -0.065713266975248902 -0.42040157794015642 0 -0.077753046024815156 -0.43509142098737241 0 -0.10033463645810529 -0.42946893710417328 0 -0.077753046024815156 -0.43509142098737241 0 -0.085028608260126398 -0.42320905853578622 0 -0.10033463645810529 -0.42946893710417328 0 -0.094107383989168333 -0.41562629379671062 0 -0.085028608260126398 -0.42320905853578622 0 -0.094107383989168333 -0.41562629379671062 0 -0.085028608260126398 -0.42320905853578622 0 -0.082451352827770552 -0.41163664718976212 0 -0.094107383989168333 -0.41562629379671062 0 -0.093615658715422545 -0.40476526464288082 0 -0.082451352827770552 -0.41163664718976212 0 -0.080832567710134945 -0.085265223789800185 0 -0.09573268077664969 -0.090624673380050064 0 -0.094924188455715333 -0.074372309221374736 0 -0.080832567710134945 -0.085265223789800185 0 -0.0944050220014645 -0.1050702242089397 0 -0.09573268077664969 -0.090624673380050064 0 -0.094924188455715333 -0.074372309221374736 0 -0.077079431972146645 -0.050953682142663811 0 -0.080832567710134945 -0.085265223789800185 0 -0.077460787511610923 -0.070469280456870842 0 -0.094924188455715333 -0.074372309221374736 0 -0.077460787511610923 -0.070469280456870842 0 -0.094924188455715333 -0.074372309221374736 0 -0.078535685693175539 -0.061573663464548622 0 -0.080832567710134945 -0.085265223789800185 0 -0.072736864716213656 -0.076885636419884412 0 -0.077460787511610923 -0.070469280456870842 0 -0.072736864716213656 -0.076885636419884412 0 -0.077460787511610923 -0.070469280456870842 0 -0.067174029152377468 -0.071022972744677337 0 -0.077460787511610923 -0.070469280456870842 0 -0.067174029152377468 -0.071022972744677337 0 -0.070308423821052124 -0.061023041189074957 0 -0.077460787511610923 -0.070469280456870842 0 -0.078535685693175539 -0.061573663464548622 0 -0.070308423821052124 -0.061023041189074957 0 -0.067174029152377468 -0.071022972744677337 0 -0.070308423821052124 -0.061023041189074957 0 -0.060830035872249492 -0.064558057335980773 0 -0.072736864716213656 -0.076885636419884412 0 -0.067174029152377468 -0.071022972744677337 0 -0.063732237529271596 -0.080733089011810297 0 -0.067174029152377468 -0.071022972744677337 0 -0.063732237529271596 -0.080733089011810297 0 -0.058000192015007383 -0.073011667883306972 0 -0.080832567710134945 -0.085265223789800185 0 -0.063732237529271596 -0.080733089011810297 0 -0.066023591375222151 -0.09957098179305135 0 -0.080832567710134945 -0.085265223789800185 0 -0.072736864716213656 -0.076885636419884412 0 -0.063732237529271596 -0.080733089011810297 0 -0.066023591375222151 -0.09957098179305135 0 -0.069466171350113709 -0.1135628440840601 0 -0.0944050220014645 -0.1050702242089397 0 -0.066023591375222151 -0.09957098179305135 0 -0.069466171350113709 -0.1135628440840601 0 -0.054384952187449757 -0.110609208962567 0 -0.077516787342341589 -0.1242022911324857 0 -0.069466171350113709 -0.1135628440840601 0 -0.059238207921678762 -0.13024384051707169 0 -0.077516787342341589 -0.1242022911324857 0 -0.093262550211769629 -0.1231040070079162 0 -0.0944050220014645 -0.1050702242089397 0 -0.077516787342341589 -0.1242022911324857 0 -0.069466171350113709 -0.1135628440840601 0 -0.0944050220014645 -0.1050702242089397 0 -0.066023591375222151 -0.09957098179305135 0 -0.0944050220014645 -0.1050702242089397 0 -0.080832567710134945 -0.085265223789800185 0 -0.066023591375222151 -0.09957098179305135 0 -0.0944050220014645 -0.1050702242089397 0 -0.0944050220014645 -0.1050702242089397 0 -0.1071147179002416 -0.1244919901550422 0 -0.11276894493928399 -0.097790936300085646 0 -0.0944050220014645 -0.1050702242089397 0 -0.11276894493928399 -0.097790936300085646 0 -0.09573268077664969 -0.090624673380050064 0 -0.093262550211769629 -0.1231040070079162 0 -0.0944050220014645 -0.1050702242089397 0 -0.1071147179002416 -0.1244919901550422 0 -0.1071147179002416 -0.1244919901550422 0 -0.11276894493928399 -0.097790936300085646 0 -0.1306137014228527 -0.1212095633787966 0 -0.11276894493928399 -0.097790936300085646 0 -0.1306137014228527 -0.1212095633787966 0 -0.112702195828283 -0.076339248342475546 0 -0.13438499311011279 -0.096174695905308166 0 -0.11276894493928399 -0.097790936300085646 0 -0.112702195828283 -0.076339248342475546 0 -0.13438499311011279 -0.096174695905308166 0 -0.11276894493928399 -0.097790936300085646 0 -0.094924188455715333 -0.074372309221374736 0 -0.112702195828283 -0.076339248342475546 0 -0.11276894493928399 -0.097790936300085646 0 -0.094924188455715333 -0.074372309221374736 0 -0.11276894493928399 -0.097790936300085646 0 -0.09573268077664969 -0.090624673380050064 0 -0.094924188455715333 -0.074372309221374736 0 -0.094924188455715333 -0.074372309221374736 0 -0.1026030192468113 -0.064894788769428779 0 -0.112702195828283 -0.076339248342475546 0 -0.094924188455715333 -0.074372309221374736 0 -0.1026030192468113 -0.064894788769428779 0 -0.090333769324138391 -0.059362086744932152 0 -0.1026030192468113 -0.064894788769428779 0 -0.112702195828283 -0.076339248342475546 0 -0.1158705629695205 -0.060236298698018297 0 -0.112702195828283 -0.076339248342475546 0 -0.1158705629695205 -0.060236298698018297 0 -0.13497135686491851 -0.078315161523928284 0 -0.1158705629695205 -0.060236298698018297 0 -0.1150956899200111 -0.045830426672337207 0 -0.1070798181065768 -0.041876824406217303 0 -0.1158705629695205 -0.060236298698018297 0 -0.1150956899200111 -0.045830426672337207 0 -0.12809376798702951 -0.047905065599393698 0 -0.1163329610324388 -0.034474533447810513 0 -0.12530131535501859 -0.034952786400489197 0 -0.12809376798702951 -0.047905065599393698 0 -0.11023593420079281 -0.033339602888773932 0 -0.1150956899200111 -0.045830426672337207 0 -0.12809376798702951 -0.047905065599393698 0 -0.11023593420079281 -0.033339602888773932 0 -0.1163329610324388 -0.034474533447810513 0 -0.12809376798702951 -0.047905065599393698 0 -0.11023593420079281 -0.033339602888773932 0 -0.12809376798702951 -0.047905065599393698 0 -0.1163329610324388 -0.034474533447810513 0 -0.1221370268088495 -0.025998648103035 0 -0.12530131535501859 -0.034952786400489197 0 -0.11023593420079281 -0.033339602888773932 0 -0.1150956899200111 -0.045830426672337207 0 -0.1070798181065768 -0.041876824406217303 0 -0.11023593420079281 -0.033339602888773932 0 -0.1163329610324388 -0.034474533447810513 0 -0.097427134368436918 -0.027820357899848831 0 -0.11023593420079281 -0.033339602888773932 0 -0.1070798181065768 -0.041876824406217303 0 -0.097427134368436918 -0.027820357899848831 0 -0.1070798181065768 -0.041876824406217303 0 -0.096769769074122519 -0.04215743587210824 0 -0.097427134368436918 -0.027820357899848831 0 -0.1158705629695205 -0.060236298698018297 0 -0.1070798181065768 -0.041876824406217303 0 -0.096769769074122519 -0.04215743587210824 0 -0.1026030192468113 -0.064894788769428779 0 -0.1158705629695205 -0.060236298698018297 0 -0.099264754381345577 -0.055060356505970513 0 -0.1158705629695205 -0.060236298698018297 0 -0.096769769074122519 -0.04215743587210824 0 -0.099264754381345577 -0.055060356505970513 0 -0.096769769074122519 -0.04215743587210824 0 -0.099264754381345577 -0.055060356505970513 0 -0.090746651292135133 -0.048651172445365112 0 -0.1158705629695205 -0.060236298698018297 0 -0.096769769074122519 -0.04215743587210824 0 -0.1026030192468113 -0.064894788769428779 0 -0.099264754381345577 -0.055060356505970513 0 -0.090333769324138391 -0.059362086744932152 0 -0.1029392013539359 -0.0085751277431150782 0 -0.12735709500343681 0.004015926865657337 0 -0.1236693299605585 -0.0137973575501921 0 -0.1110604598185659 -0.0207882196779367 0 -0.1029392013539359 -0.0085751277431150782 0 -0.1236693299605585 -0.0137973575501921 0 -0.1029392013539359 -0.0085751277431150782 0 -0.12735709500343681 0.004015926865657337 0 -0.1236693299605585 -0.0137973575501921 0 -0.1110604598185659 -0.0207882196779367 0 -0.1221370268088495 -0.025998648103035 0 -0.1163329610324388 -0.034474533447810513 0 -0.1221370268088495 -0.025998648103035 0 -0.11173939550707281 -0.027270439782157759 0 -0.1110604598185659 -0.0207882196779367 0 -0.1221370268088495 -0.025998648103035 0 -0.11173939550707281 -0.027270439782157759 0 -0.1163329610324388 -0.034474533447810513 0 -0.097427134368436918 -0.027820357899848831 0 -0.1110604598185659 -0.0207882196779367 0 -0.097427134368436918 -0.027820357899848831 0 -0.1029392013539359 -0.0085751277431150782 0 -0.1163329610324388 -0.034474533447810513 0 -0.11173939550707281 -0.027270439782157759 0 -0.097427134368436918 -0.027820357899848831 0 -0.1110604598185659 -0.0207882196779367 0 -0.11173939550707281 -0.027270439782157759 0 -0.097427134368436918 -0.027820357899848831 0 -0.1029392013539359 -0.0085751277431150782 0 -0.086097875964997059 -0.0058870606910941042 0 -0.078521307704434995 -0.021166182351887271 0 -0.1029392013539359 -0.0085751277431150782 0 -0.078521307704434995 -0.021166182351887271 0 -0.1029392013539359 -0.0085751277431150782 0 -0.086097875964997059 -0.0058870606910941042 0 -0.091682611010439896 0.0063963380850077774 0 -0.086097875964997059 -0.0058870606910941042 0 -0.073830544796709738 -0.0078542708917730738 0 -0.078933949510919491 0.00072378658541613432 0 -0.086097875964997059 -0.0058870606910941042 0 -0.078521307704434995 -0.021166182351887271 0 -0.073830544796709738 -0.0078542708917730738 0 -0.097427134368436918 -0.027820357899848831 0 -0.078521307704434995 -0.021166182351887271 0 -0.097427134368436918 -0.027820357899848831 0 -0.078521307704434995 -0.021166182351887271 0 -0.077668975178724509 -0.024078573046198169 0 -0.097427134368436918 -0.027820357899848831 0 -0.1029392013539359 -0.0085751277431150782 0 -0.078521307704434995 -0.021166182351887271 0 -0.078521307704434995 -0.021166182351887271 0 -0.055132092173872667 -0.033226800447327051 0 -0.05822397002114936 -0.01402224463886402 0 -0.078521307704434995 -0.021166182351887271 0 -0.055132092173872667 -0.033226800447327051 0 -0.077668975178724509 -0.024078573046198169 0 -0.075465350998538308 -0.032772608828030472 0 -0.055132092173872667 -0.033226800447327051 0 -0.078521307704434995 -0.021166182351887271 0 -0.077668975178724509 -0.024078573046198169 0 -0.055132092173872667 -0.033226800447327051 0 -0.078521307704434995 -0.021166182351887271 0 -0.05822397002114936 -0.01402224463886402 0 -0.078521307704434995 -0.021166182351887271 0 -0.073830544796709738 -0.0078542708917730738 0 -0.05822397002114936 -0.01402224463886402 0 -0.073830544796709738 -0.0078542708917730738 0 -0.05822397002114936 -0.01402224463886402 0 -0.068462160169621672 0.0025537029525893409 0 -0.073830544796709738 -0.0078542708917730738 0 -0.078933949510919491 0.00072378658541613432 0 -0.068462160169621672 0.0025537029525893409 0 -0.094924188455715333 -0.074372309221374736 0 -0.090333769324138391 -0.059362086744932152 0 -0.077079431972146645 -0.050953682142663811 0 -0.094924188455715333 -0.074372309221374736 0 -0.078535685693175539 -0.061573663464548622 0 -0.077079431972146645 -0.050953682142663811 0 -0.084868245962835154 -0.053326759561897898 0 -0.090333769324138391 -0.059362086744932152 0 -0.077079431972146645 -0.050953682142663811 0 -0.084868245962835154 -0.053326759561897898 0 -0.080876314157704687 -0.04955372347343575 0 -0.082849096915408454 -0.045583035938281863 0 -0.080876314157704687 -0.04955372347343575 0 -0.078708481780428496 -0.048351416250899462 0 -0.082849096915408454 -0.045583035938281863 0 -0.080876314157704687 -0.04955372347343575 0 -0.078708481780428496 -0.048351416250899462 0 -0.077079431972146645 -0.050953682142663811 0 -0.084868245962835154 -0.053326759561897898 0 -0.080876314157704687 -0.04955372347343575 0 -0.077079431972146645 -0.050953682142663811 0 -0.084868245962835154 -0.053326759561897898 0 -0.090746651292135133 -0.048651172445365112 0 -0.082849096915408454 -0.045583035938281863 0 -0.084868245962835154 -0.053326759561897898 0 -0.090333769324138391 -0.059362086744932152 0 -0.090746651292135133 -0.048651172445365112 0 -0.099264754381345577 -0.055060356505970513 0 -0.090333769324138391 -0.059362086744932152 0 -0.090746651292135133 -0.048651172445365112 0 -0.096769769074122519 -0.04215743587210824 0 -0.088481073739883592 -0.043344290748051233 0 -0.083558777677868248 -0.036985518736449702 0 -0.096769769074122519 -0.04215743587210824 0 -0.097427134368436918 -0.027820357899848831 0 -0.077668975178724509 -0.024078573046198169 0 -0.096769769074122519 -0.04215743587210824 0 -0.077668975178724509 -0.024078573046198169 0 -0.083558777677868248 -0.036985518736449702 0 -0.096769769074122519 -0.04215743587210824 0 -0.077668975178724509 -0.024078573046198169 0 -0.090746651292135133 -0.048651172445365112 0 -0.088481073739883592 -0.043344290748051233 0 -0.082849096915408454 -0.045583035938281863 0 -0.096769769074122519 -0.04215743587210824 0 -0.090746651292135133 -0.048651172445365112 0 -0.088481073739883592 -0.043344290748051233 0 -0.077668975178724509 -0.024078573046198169 0 -0.083558777677868248 -0.036985518736449702 0 -0.075465350998538308 -0.032772608828030472 0 -0.083558777677868248 -0.036985518736449702 0 -0.082849096915408454 -0.045583035938281863 0 -0.075062618692292638 -0.040325846155841297 0 -0.088481073739883592 -0.043344290748051233 0 -0.083558777677868248 -0.036985518736449702 0 -0.082849096915408454 -0.045583035938281863 0 -0.082849096915408454 -0.045583035938281863 0 -0.078067002861142085 -0.04575568247049161 0 -0.075062618692292638 -0.040325846155841297 0 -0.078708481780428496 -0.048351416250899462 0 -0.082849096915408454 -0.045583035938281863 0 -0.078067002861142085 -0.04575568247049161 0 -0.075647814056438792 -0.048762431536943832 0 -0.055132092173872667 -0.033226800447327051 0 -0.078067002861142085 -0.04575568247049161 0 -0.075062618692292638 -0.040325846155841297 0 -0.075647814056438792 -0.048762431536943832 0 -0.075062618692292638 -0.040325846155841297 0 -0.075465350998538308 -0.032772608828030472 0 -0.055132092173872667 -0.033226800447327051 0 -0.075647814056438792 -0.048762431536943832 0 -0.061428605263776047 -0.046553119166432878 0 -0.055132092173872667 -0.033226800447327051 0 -0.075062618692292638 -0.040325846155841297 0 -0.075647814056438792 -0.048762431536943832 0 -0.055132092173872667 -0.033226800447327051 0 -0.083558777677868248 -0.036985518736449702 0 -0.075062618692292638 -0.040325846155841297 0 -0.075465350998538308 -0.032772608828030472 0 -0.065722760200719738 -0.052253177456942877 0 -0.075647814056438792 -0.048762431536943832 0 -0.061428605263776047 -0.046553119166432878 0 -0.065722760200719738 -0.052253177456942877 0 -0.07269306068786438 -0.052406879740114577 0 -0.069833853901725543 -0.055329661047837618 0 -0.065722760200719738 -0.052253177456942877 0 -0.07269306068786438 -0.052406879740114577 0 -0.075647814056438792 -0.048762431536943832 0 -0.07269306068786438 -0.052406879740114577 0 -0.073703714626092445 -0.056102563442451223 0 -0.069833853901725543 -0.055329661047837618 0 -0.07269306068786438 -0.052406879740114577 0 -0.077079431972146645 -0.050953682142663811 0 -0.073703714626092445 -0.056102563442451223 0 -0.078708481780428496 -0.048351416250899462 0 -0.077079431972146645 -0.050953682142663811 0 -0.075647814056438792 -0.048762431536943832 0 -0.07269306068786438 -0.052406879740114577 0 -0.077079431972146645 -0.050953682142663811 0 -0.075647814056438792 -0.048762431536943832 0 -0.078708481780428496 -0.048351416250899462 0 -0.078067002861142085 -0.04575568247049161 0 -0.075647814056438792 -0.048762431536943832 0 -0.078535685693175539 -0.061573663464548622 0 -0.073703714626092445 -0.056102563442451223 0 -0.070308423821052124 -0.061023041189074957 0 -0.078535685693175539 -0.061573663464548622 0 -0.077079431972146645 -0.050953682142663811 0 -0.073703714626092445 -0.056102563442451223 0 -0.073703714626092445 -0.056102563442451223 0 -0.070308423821052124 -0.061023041189074957 0 -0.069833853901725543 -0.055329661047837618 0 -0.070308423821052124 -0.061023041189074957 0 -0.064391701294429504 -0.057679717025484439 0 -0.060830035872249492 -0.064558057335980773 0 -0.070308423821052124 -0.061023041189074957 0 -0.069833853901725543 -0.055329661047837618 0 -0.064391701294429504 -0.057679717025484439 0 -0.065722760200719738 -0.052253177456942877 0 -0.069833853901725543 -0.055329661047837618 0 -0.064391701294429504 -0.057679717025484439 0 -0.064391701294429504 -0.057679717025484439 0 -0.055978059279945473 -0.056388284161067823 0 -0.060830035872249492 -0.064558057335980773 0 -0.065722760200719738 -0.052253177456942877 0 -0.064391701294429504 -0.057679717025484439 0 -0.055978059279945473 -0.056388284161067823 0 -0.055978059279945473 -0.056388284161067823 0 -0.041230103293456458 -0.058058117591144771 0 -0.049479852383656611 -0.067543566470139038 0 -0.055978059279945473 -0.056388284161067823 0 -0.049741921456861897 -0.048697412542500033 0 -0.041230103293456458 -0.058058117591144771 0 -0.055978059279945473 -0.056388284161067823 0 -0.049741921456861897 -0.048697412542500033 0 -0.061428605263776047 -0.046553119166432878 0 -0.065722760200719738 -0.052253177456942877 0 -0.055978059279945473 -0.056388284161067823 0 -0.061428605263776047 -0.046553119166432878 0 -0.049741921456861897 -0.048697412542500033 0 -0.061428605263776047 -0.046553119166432878 0 -0.055132092173872667 -0.033226800447327051 0 -0.049741921456861897 -0.048697412542500033 0 -0.055132092173872667 -0.033226800447327051 0 -0.032367863380537598 -0.044965144957206583 0 -0.055132092173872667 -0.033226800447327051 0 -0.032367863380537598 -0.044965144957206583 0 -0.055132092173872667 -0.033226800447327051 0 -0.032367863380537598 -0.044965144957206583 0 -0.031233838643279398 -0.031193199633022049 0 -0.049741921456861897 -0.048697412542500033 0 -0.032367863380537598 -0.044965144957206583 0 -0.041230103293456458 -0.058058117591144771 0 -0.032367863380537598 -0.044965144957206583 0 -0.041230103293456458 -0.058058117591144771 0 -0.026902341230915561 -0.060374551747501753 0 -0.05822397002114936 -0.01402224463886402 0 -0.057836245250817257 0.0062936453779614283 0 -0.044352522143416888 0.0050416822031405977 0 -0.05822397002114936 -0.01402224463886402 0 -0.037926632337863607 -0.0068783069258408786 0 -0.05822397002114936 -0.01402224463886402 0 -0.068462160169621672 0.0025537029525893409 0 -0.057836245250817257 0.0062936453779614283 0 -0.055132092173872667 -0.033226800447327051 0 -0.05822397002114936 -0.01402224463886402 0 -0.036243114184870161 -0.018923029155399909 0 -0.055132092173872667 -0.033226800447327051 0 -0.036243114184870161 -0.018923029155399909 0 -0.031233838643279398 -0.031193199633022049 0 -0.055132092173872667 -0.033226800447327051 0 -0.036243114184870161 -0.018923029155399909 0 -0.05822397002114936 -0.01402224463886402 0 -0.036243114184870161 -0.018923029155399909 0 -0.037926632337863607 -0.0068783069258408786 0 -0.05822397002114936 -0.01402224463886402 0 -0.037926632337863607 -0.0068783069258408786 0 -0.044352522143416888 0.0050416822031405977 0 -0.036243114184870161 -0.018923029155399909 0 -0.037926632337863607 -0.0068783069258408786 0 -0.029121832422534862 -0.0067169982391169078 0 -0.037926632337863607 -0.0068783069258408786 0 -0.029539197120254941 -0.00051038393964639519 0 -0.029121832422534862 -0.0067169982391169078 0 -0.037926632337863607 -0.0068783069258408786 0 -0.029539197120254941 -0.00051038393964639519 0 -0.03614709390981162 0.0015378833132510439 0 -0.037926632337863607 -0.0068783069258408786 0 -0.03614709390981162 0.0015378833132510439 0 -0.044352522143416888 0.0050416822031405977 0 -0.036243114184870161 -0.018923029155399909 0 -0.017354136195868258 -0.0046192578634720229 0 -0.01819617019275287 -0.0061732580868559192 0 -0.036243114184870161 -0.018923029155399909 0 -0.017354136195868258 -0.0046192578634720229 0 -0.029121832422534862 -0.0067169982391169078 0 -0.036243114184870161 -0.018923029155399909 0 -0.01819617019275287 -0.0061732580868559192 0 -0.019637671972121611 -0.02148729346067638 0 -0.036243114184870161 -0.018923029155399909 0 -0.017354136195868258 -0.0046192578634720229 0 -0.017354136195868258 -0.0046192578634720229 0 -0.01819617019275287 -0.0061732580868559192 0 -0.013500839782477779 -0.0058155532537883976 0 -0.017354136195868258 -0.0046192578634720229 0 -0.01819617019275287 -0.0061732580868559192 0 -0.017354136195868258 -0.0046192578634720229 0 -0.024546082273817361 -0.00265401331122534 0 -0.02112675760807068 0.0030512678310729521 0 -0.024546082273817361 -0.00265401331122534 0 -0.029539197120254941 -0.00051038393964639519 0 -0.02112675760807068 0.0030512678310729521 0 -0.017354136195868258 -0.0046192578634720229 0 -0.024546082273817361 -0.00265401331122534 0 -0.029121832422534862 -0.0067169982391169078 0 -0.024546082273817361 -0.00265401331122534 0 -0.029539197120254941 -0.00051038393964639519 0 -0.029121832422534862 -0.0067169982391169078 0 -0.01819617019275287 -0.0061732580868559192 0 -0.019637671972121611 -0.02148729346067638 0 -0.011008321991883009 -0.01057962122923565 0 -0.036243114184870161 -0.018923029155399909 0 -0.019637671972121611 -0.02148729346067638 0 -0.031233838643279398 -0.031193199633022049 0 -0.019637671972121611 -0.02148729346067638 0 -0.031233838643279398 -0.031193199633022049 0 -0.016064986363794779 -0.036441041599790329 0 -0.0077215053668332834 -0.022860670268973711 0 -0.00118246574067416 -0.01324232368796026 0 0.0015263381015913891 -0.033415212413580753 0 -0.0077215053668332834 -0.022860670268973711 0 -0.016064986363794779 -0.036441041599790329 0 0.0015263381015913891 -0.033415212413580753 0 -0.019637671972121611 -0.02148729346067638 0 -0.0077215053668332834 -0.022860670268973711 0 -0.016064986363794779 -0.036441041599790329 0 -0.019637671972121611 -0.02148729346067638 0 -0.0077215053668332834 -0.022860670268973711 0 -0.011008321991883009 -0.01057962122923565 0 -0.011008321991883009 -0.01057962122923565 0 -0.00118246574067416 -0.01324232368796026 0 -0.0072764121498596901 -0.0036325873431357339 0 -0.0077215053668332834 -0.022860670268973711 0 -0.011008321991883009 -0.01057962122923565 0 -0.00118246574067416 -0.01324232368796026 0 -0.00118246574067416 -0.01324232368796026 0 -0.0072764121498596901 -0.0036325873431357339 0 0.0012074066645448821 -0.00065723147797176382 0 -0.0072764121498596901 -0.0036325873431357339 0 -0.013500839782477779 -0.0058155532537883976 0 -0.013607688627124061 -0.00178224205395049 0 -0.011008321991883009 -0.01057962122923565 0 -0.0072764121498596901 -0.0036325873431357339 0 -0.013500839782477779 -0.0058155532537883976 0 -0.01819617019275287 -0.0061732580868559192 0 -0.011008321991883009 -0.01057962122923565 0 -0.013500839782477779 -0.0058155532537883976 0 -0.017354136195868258 -0.0046192578634720229 0 -0.013500839782477779 -0.0058155532537883976 0 -0.013607688627124061 -0.00178224205395049 0 -0.017354136195868258 -0.0046192578634720229 0 -0.013607688627124061 -0.00178224205395049 0 -0.032367863380537598 -0.044965144957206583 0 -0.0096036345872028556 -0.056703489467087059 0 -0.032367863380537598 -0.044965144957206583 0 -0.026902341230915561 -0.060374551747501753 0 -0.0096036345872028556 -0.056703489467087059 0 -0.032367863380537598 -0.044965144957206583 0 -0.031233838643279398 -0.031193199633022049 0 -0.016064986363794779 -0.036441041599790329 0 -0.032367863380537598 -0.044965144957206583 0 -0.016064986363794779 -0.036441041599790329 0 -0.0096036345872028556 -0.056703489467087059 0 -0.0096036345872028556 -0.056703489467087059 0 0.0015263381015913891 -0.033415212413580753 0 -0.016064986363794779 -0.036441041599790329 0 -0.0096036345872028556 -0.056703489467087059 0 0.0015263381015913891 -0.033415212413580753 0 -0.0096036345872028556 -0.056703489467087059 0 0.0015263381015913891 -0.033415212413580753 0 0.007298405735321048 -0.051477207310420908 0 -0.0096036345872028556 -0.056703489467087059 0 0.0052181775422467033 -0.064346337314722044 0 -0.0096036345872028556 -0.056703489467087059 0 -0.0043762627118289626 -0.071729097412358583 0 0.0052181775422467033 -0.064346337314722044 0 -0.0043762627118289626 -0.071729097412358583 0 -0.0092607301227374331 -0.088572496961274561 0 -0.01646375475339092 -0.071057556949349329 0 -0.0096036345872028556 -0.056703489467087059 0 -0.01646375475339092 -0.071057556949349329 0 -0.0096036345872028556 -0.056703489467087059 0 -0.0043762627118289626 -0.071729097412358583 0 -0.01646375475339092 -0.071057556949349329 0 -0.0092607301227374331 -0.088572496961274561 0 -0.00044729776891663488 -0.1011528385718463 0 0.0042106568376920582 -0.081118225430045127 0 -0.0043762627118289626 -0.071729097412358583 0 -0.0092607301227374331 -0.088572496961274561 0 0.0042106568376920582 -0.081118225430045127 0 -0.0092607301227374331 -0.088572496961274561 0 -0.037642160748979789 -0.094071739377162955 0 -0.0092607301227374331 -0.088572496961274561 0 -0.023323874919582349 -0.085411624431610003 0 -0.01646375475339092 -0.071057556949349329 0 -0.0092607301227374331 -0.088572496961274561 0 -0.023323874919582349 -0.085411624431610003 0 -0.037642160748979789 -0.094071739377162955 0 -0.023323874919582349 -0.085411624431610003 0 -0.01646375475339092 -0.071057556949349329 0 -0.023323874919582349 -0.085411624431610003 0 -0.01646375475339092 -0.071057556949349329 0 -0.034846350139989962 -0.07108844977272101 0 -0.026902341230915561 -0.060374551747501753 0 -0.01646375475339092 -0.071057556949349329 0 -0.034846350139989962 -0.07108844977272101 0 -0.026902341230915561 -0.060374551747501753 0 -0.0096036345872028556 -0.056703489467087059 0 -0.01646375475339092 -0.071057556949349329 0 -0.041230103293456458 -0.058058117591144771 0 -0.026902341230915561 -0.060374551747501753 0 -0.034846350139989962 -0.07108844977272101 0 -0.041230103293456458 -0.058058117591144771 0 -0.034846350139989962 -0.07108844977272101 0 -0.049479852383656611 -0.067543566470139038 0 -0.034846350139989962 -0.07108844977272101 0 -0.048784805137481749 -0.081200653853927454 0 -0.049479852383656611 -0.067543566470139038 0 -0.023323874919582349 -0.085411624431610003 0 -0.034846350139989962 -0.07108844977272101 0 -0.036149297736508462 -0.082943116858855345 0 -0.023323874919582349 -0.085411624431610003 0 -0.036149297736508462 -0.082943116858855345 0 -0.037642160748979789 -0.094071739377162955 0 -0.036149297736508462 -0.082943116858855345 0 -0.048784805137481749 -0.081200653853927454 0 -0.037642160748979789 -0.094071739377162955 0 -0.034846350139989962 -0.07108844977272101 0 -0.036149297736508462 -0.082943116858855345 0 -0.048784805137481749 -0.081200653853927454 0 -0.063732237529271596 -0.080733089011810297 0 -0.066023591375222151 -0.09957098179305135 0 -0.048784805137481749 -0.081200653853927454 0 -0.066023591375222151 -0.09957098179305135 0 -0.048784805137481749 -0.081200653853927454 0 -0.037642160748979789 -0.094071739377162955 0 -0.063732237529271596 -0.080733089011810297 0 -0.048784805137481749 -0.081200653853927454 0 -0.058000192015007383 -0.073011667883306972 0 -0.055978059279945473 -0.056388284161067823 0 -0.060830035872249492 -0.064558057335980773 0 -0.049479852383656611 -0.067543566470139038 0 -0.058000192015007383 -0.073011667883306972 0 -0.060830035872249492 -0.064558057335980773 0 -0.049479852383656611 -0.067543566470139038 0 -0.067174029152377468 -0.071022972744677337 0 -0.058000192015007383 -0.073011667883306972 0 -0.060830035872249492 -0.064558057335980773 0 -0.048784805137481749 -0.081200653853927454 0 -0.058000192015007383 -0.073011667883306972 0 -0.049479852383656611 -0.067543566470139038 0 -0.069466171350113709 -0.1135628440840601 0 -0.054384952187449757 -0.110609208962567 0 -0.059238207921678762 -0.13024384051707169 0 -0.054384952187449757 -0.110609208962567 0 -0.059238207921678762 -0.13024384051707169 0 -0.032945469352336033 -0.1293562392835419 0 -0.066023591375222151 -0.09957098179305135 0 -0.054384952187449757 -0.110609208962567 0 -0.037642160748979789 -0.094071739377162955 0 -0.066023591375222151 -0.09957098179305135 0 -0.037642160748979789 -0.094071739377162955 0 -0.054384952187449757 -0.110609208962567 0 -0.037642160748979789 -0.094071739377162955 0 -0.035661083064217503 -0.11124856921529409 0 -0.054384952187449757 -0.110609208962567 0 -0.032945469352336033 -0.1293562392835419 0 -0.054384952187449757 -0.110609208962567 0 -0.035661083064217503 -0.11124856921529409 0 -0.032945469352336033 -0.1293562392835419 0 -0.01767174996810443 -0.1109570892379047 0 -0.012892303975098539 -0.12786221844410239 0 -0.032945469352336033 -0.1293562392835419 0 -0.035661083064217503 -0.11124856921529409 0 -0.01767174996810443 -0.1109570892379047 0 -0.032945469352336033 -0.1293562392835419 0 -0.0092607301227374331 -0.088572496961274561 0 -0.037642160748979789 -0.094071739377162955 0 -0.01767174996810443 -0.1109570892379047 0 -0.037642160748979789 -0.094071739377162955 0 -0.035661083064217503 -0.11124856921529409 0 -0.01767174996810443 -0.1109570892379047 0 -0.01767174996810443 -0.1109570892379047 0 -0.00044729776891663488 -0.1011528385718463 0 0.005085065621477718 -0.1151057880332567 0 -0.0092607301227374331 -0.088572496961274561 0 -0.01767174996810443 -0.1109570892379047 0 -0.00044729776891663488 -0.1011528385718463 0 -0.01767174996810443 -0.1109570892379047 0 -0.012892303975098539 -0.12786221844410239 0 0.005085065621477718 -0.1151057880332567 0 -0.012892303975098539 -0.12786221844410239 0 0.0027021066240326768 -0.1317064378292063 0 0.005085065621477718 -0.1151057880332567 0 -0.011505986517222349 -0.14810326960451681 0 -0.033736789854580403 -0.16402697950055581 0 -0.032945469352336033 -0.1293562392835419 0 -0.012892303975098539 -0.12786221844410239 0 -0.011505986517222349 -0.14810326960451681 0 0.0027021066240326768 -0.1317064378292063 0 -0.011505986517222349 -0.14810326960451681 0 -0.032945469352336033 -0.1293562392835419 0 -0.012892303975098539 -0.12786221844410239 0 -0.011505986517222349 -0.14810326960451681 0 -0.032945469352336033 -0.1293562392835419 0 -0.011505986517222349 -0.14810326960451681 0 0.009933496317892726 -0.16685029992549011 0 -0.011505986517222349 -0.14810326960451681 0 -0.0085976242789068957 -0.177408956520272 0 0.009933496317892726 -0.16685029992549011 0 -0.0085976242789068957 -0.177408956520272 0 -0.003739977245034012 -0.19168309442994089 0 -0.02712874487570623 -0.18796761311505439 0 -0.0085976242789068957 -0.177408956520272 0 -0.003739977245034012 -0.19168309442994089 0 0.0034571977838801569 -0.17702496179755631 0 -0.0085976242789068957 -0.177408956520272 0 -0.02712874487570623 -0.18796761311505439 0 -0.0085976242789068957 -0.177408956520272 0 -0.033736789854580403 -0.16402697950055581 0 -0.02712874487570623 -0.18796761311505439 0 -0.011505986517222349 -0.14810326960451681 0 -0.0085976242789068957 -0.177408956520272 0 -0.033736789854580403 -0.16402697950055581 0 -0.033736789854580403 -0.16402697950055581 0 -0.041678182321736049 -0.18065303021324261 0 -0.02712874487570623 -0.18796761311505439 0 -0.033736789854580403 -0.16402697950055581 0 -0.041678182321736049 -0.18065303021324261 0 -0.060187329084152079 -0.17209125852752319 0 -0.041678182321736049 -0.18065303021324261 0 -0.060187329084152079 -0.17209125852752319 0 -0.045659865472505487 -0.198526269709837 0 -0.060187329084152079 -0.17209125852752319 0 -0.045659865472505487 -0.198526269709837 0 -0.033736789854580403 -0.16402697950055581 0 -0.060187329084152079 -0.17209125852752319 0 -0.051699405537506939 -0.14899167338562519 0 -0.060187329084152079 -0.17209125852752319 0 -0.051699405537506939 -0.14899167338562519 0 -0.072389231474787458 -0.1492400490994332 0 -0.051699405537506939 -0.14899167338562519 0 -0.059238207921678762 -0.13024384051707169 0 -0.072389231474787458 -0.1492400490994332 0 -0.033736789854580403 -0.16402697950055581 0 -0.051699405537506939 -0.14899167338562519 0 -0.032945469352336033 -0.1293562392835419 0 -0.051699405537506939 -0.14899167338562519 0 -0.059238207921678762 -0.13024384051707169 0 -0.032945469352336033 -0.1293562392835419 0 -0.025857267464119819 -0.25506418495113531 0 -0.02368513365757598 -0.23851275990414511 0 -0.036167443228362108 -0.24337299090061551 0 -0.01269776775011346 -0.25850600500130039 0 -0.02368513365757598 -0.23851275990414511 0 -0.01269776775011346 -0.25850600500130039 0 -0.02368513365757598 -0.23851275990414511 0 -0.01082738352359053 -0.24876902592697839 0 -0.02368513365757598 -0.23851275990414511 0 -0.0067432183097289999 -0.239968376336817 0 -0.0090267388034834407 -0.23007068799598671 0 -0.02368513365757598 -0.23851275990414511 0 -0.01082738352359053 -0.24876902592697839 0 -0.0067432183097289999 -0.239968376336817 0 -0.01082738352359053 -0.24876902592697839 0 -0.0029313858115674811 -0.24854412401401971 0 -0.0067432183097289999 -0.239968376336817 0 -0.0029313858115674811 -0.24854412401401971 0 -0.0067432183097289999 -0.239968376336817 0 0.0026199421412959989 -0.2430643023623929 0 -0.0067432183097289999 -0.239968376336817 0 0.0026199421412959989 -0.2430643023623929 0 0.0017465435191736189 -0.23378549097037141 0 -0.0067432183097289999 -0.239968376336817 0 -0.0090267388034834407 -0.23007068799598671 0 0.0017465435191736189 -0.23378549097037141 0 -0.0090267388034834407 -0.23007068799598671 0 -0.00080535468136348092 -0.21995366459000901 0 -0.01839049427805331 -0.2195873775130934 0 -0.0090267388034834407 -0.23007068799598671 0 -0.00080535468136348092 -0.21995366459000901 0 0.0017465435191736189 -0.23378549097037141 0 -0.02368513365757598 -0.23851275990414511 0 -0.0090267388034834407 -0.23007068799598671 0 -0.01839049427805331 -0.2195873775130934 0 -0.02368513365757598 -0.23851275990414511 0 -0.01839049427805331 -0.2195873775130934 0 -0.034672499565036527 -0.2185195148069887 0 -0.02368513365757598 -0.23851275990414511 0 -0.034672499565036527 -0.2185195148069887 0 -0.01839049427805331 -0.2195873775130934 0 -0.027127261386640289 -0.20489204062456881 0 -0.034672499565036527 -0.2185195148069887 0 -0.01839049427805331 -0.2195873775130934 0 -0.027127261386640289 -0.20489204062456881 0 -0.01084996336714465 -0.20584666152463099 0 -0.00080535468136348092 -0.21995366459000901 0 -0.01839049427805331 -0.2195873775130934 0 -0.01084996336714465 -0.20584666152463099 0 -0.00080535468136348092 -0.21995366459000901 0 -0.01084996336714465 -0.20584666152463099 0 0.01016515501406726 -0.20926501301563591 0 -0.01084996336714465 -0.20584666152463099 0 -0.003739977245034012 -0.19168309442994089 0 0.01016515501406726 -0.20926501301563591 0 -0.01084996336714465 -0.20584666152463099 0 -0.003739977245034012 -0.19168309442994089 0 -0.02712874487570623 -0.18796761311505439 0 -0.027127261386640289 -0.20489204062456881 0 -0.01084996336714465 -0.20584666152463099 0 -0.02712874487570623 -0.18796761311505439 0 -0.041678182321736049 -0.18065303021324261 0 -0.02712874487570623 -0.18796761311505439 0 -0.045659865472505487 -0.198526269709837 0 -0.02712874487570623 -0.18796761311505439 0 -0.045659865472505487 -0.198526269709837 0 -0.027127261386640289 -0.20489204062456881 0 -0.02712874487570623 -0.18796761311505439 0 -0.045659865472505487 -0.198526269709837 0 -0.045659865472505487 -0.198526269709837 0 -0.067682806497079445 -0.21107449474949169 0 -0.062708331551170268 -0.19442045911658551 0 -0.060187329084152079 -0.17209125852752319 0 -0.045659865472505487 -0.198526269709837 0 -0.062708331551170268 -0.19442045911658551 0 -0.045659865472505487 -0.198526269709837 0 -0.067682806497079445 -0.21107449474949169 0 -0.045659865472505487 -0.198526269709837 0 -0.054546183461555722 -0.22015285450131489 0 -0.067682806497079445 -0.21107449474949169 0 -0.045659865472505487 -0.198526269709837 0 -0.034672499565036527 -0.2185195148069887 0 -0.054546183461555722 -0.22015285450131489 0 -0.045659865472505487 -0.198526269709837 0 -0.034672499565036527 -0.2185195148069887 0 -0.027127261386640289 -0.20489204062456881 0 -0.045659865472505487 -0.198526269709837 0 -0.034672499565036527 -0.2185195148069887 0 -0.034672499565036527 -0.2185195148069887 0 -0.044145410485190079 -0.23242073182379891 0 -0.054546183461555722 -0.22015285450131489 0 -0.02368513365757598 -0.23851275990414511 0 -0.034672499565036527 -0.2185195148069887 0 -0.044145410485190079 -0.23242073182379891 0 -0.044145410485190079 -0.23242073182379891 0 -0.054546183461555722 -0.22015285450131489 0 -0.061280333386656921 -0.23284462843810469 0 -0.061280333386656921 -0.23284462843810469 0 -0.050191684441297867 -0.2485850187836515 0 -0.071591358857016049 -0.2429226102204386 0 -0.050191684441297867 -0.2485850187836515 0 -0.071591358857016049 -0.2429226102204386 0 -0.056939497423126581 -0.24878681181634871 0 -0.050191684441297867 -0.2485850187836515 0 -0.071591358857016049 -0.2429226102204386 0 -0.044145410485190079 -0.23242073182379891 0 -0.061280333386656921 -0.23284462843810469 0 -0.050191684441297867 -0.2485850187836515 0 -0.041398382443623198 -0.25192549838374201 0 -0.056939497423126581 -0.24878681181634871 0 -0.050191684441297867 -0.2485850187836515 0 -0.044145410485190079 -0.23242073182379891 0 -0.050191684441297867 -0.2485850187836515 0 -0.036167443228362108 -0.24337299090061551 0 -0.02368513365757598 -0.23851275990414511 0 -0.044145410485190079 -0.23242073182379891 0 -0.036167443228362108 -0.24337299090061551 0 -0.025857267464119819 -0.25506418495113531 0 -0.050191684441297867 -0.2485850187836515 0 -0.036167443228362108 -0.24337299090061551 0 -0.097628444613881649 -0.25834262822693399 0 -0.087470553331264578 -0.24262075389877999 0 -0.077955776651182085 -0.24454236002529731 0 -0.087470553331264578 -0.24262075389877999 0 -0.087928467376508473 -0.23859976953689591 0 -0.1005617376665941 -0.23997685579502359 0 -0.087928467376508473 -0.23859976953689591 0 -0.07453604668454375 -0.2421434382925548 0 -0.07383618536286593 -0.22753148747966839 0 -0.087928467376508473 -0.23859976953689591 0 -0.07453604668454375 -0.2421434382925548 0 -0.087928467376508473 -0.23859976953689591 0 -0.077955776651182085 -0.24454236002529731 0 -0.07453604668454375 -0.2421434382925548 0 -0.087470553331264578 -0.24262075389877999 0 -0.087928467376508473 -0.23859976953689591 0 -0.077955776651182085 -0.24454236002529731 0 -0.087470553331264578 -0.24262075389877999 0 -0.077955776651182085 -0.24454236002529731 0 -0.056939497423126581 -0.24878681181634871 0 -0.077955776651182085 -0.24454236002529731 0 -0.071591358857016049 -0.2429226102204386 0 -0.056939497423126581 -0.24878681181634871 0 -0.077955776651182085 -0.24454236002529731 0 -0.077955776651182085 -0.24454236002529731 0 -0.071591358857016049 -0.2429226102204386 0 -0.07453604668454375 -0.2421434382925548 0 -0.077955776651182085 -0.24454236002529731 0 -0.07453604668454375 -0.2421434382925548 0 -0.071591358857016049 -0.2429226102204386 0 -0.07453604668454375 -0.2421434382925548 0 -0.056939497423126581 -0.24878681181634871 0 -0.071591358857016049 -0.2429226102204386 0 -0.061280333386656921 -0.23284462843810469 0 -0.071591358857016049 -0.2429226102204386 0 -0.07453604668454375 -0.2421434382925548 0 -0.061280333386656921 -0.23284462843810469 0 -0.07453604668454375 -0.2421434382925548 0 -0.07383618536286593 -0.22753148747966839 0 -0.089705747521653334 -0.22362271978914661 0 -0.067682806497079445 -0.21107449474949169 0 -0.054546183461555722 -0.22015285450131489 0 -0.061280333386656921 -0.23284462843810469 0 -0.07383618536286593 -0.22753148747966839 0 -0.054546183461555722 -0.22015285450131489 0 -0.07383618536286593 -0.22753148747966839 0 -0.067682806497079445 -0.21107449474949169 0 -0.061280333386656921 -0.23284462843810469 0 -0.07453604668454375 -0.2421434382925548 0 -0.07383618536286593 -0.22753148747966839 0 -0.087928467376508473 -0.23859976953689591 0 -0.07383618536286593 -0.22753148747966839 0 -0.089705747521653334 -0.22362271978914661 0 -0.087928467376508473 -0.23859976953689591 0 -0.089705747521653334 -0.22362271978914661 0 -0.1005617376665941 -0.23997685579502359 0 -0.089705747521653334 -0.22362271978914661 0 -0.067682806497079445 -0.21107449474949169 0 -0.089705747521653334 -0.22362271978914661 0 -0.084027466008495671 -0.20735524824550181 0 -0.09921486728828334 -0.20109800384388701 0 -0.089705747521653334 -0.22362271978914661 0 -0.084027466008495671 -0.20735524824550181 0 -0.067682806497079445 -0.21107449474949169 0 -0.084027466008495671 -0.20735524824550181 0 -0.067682806497079445 -0.21107449474949169 0 -0.079506442726966622 -0.19362577459948219 0 -0.067682806497079445 -0.21107449474949169 0 -0.062708331551170268 -0.19442045911658551 0 -0.079506442726966622 -0.19362577459948219 0 -0.079506442726966622 -0.19362577459948219 0 -0.09921486728828334 -0.20109800384388701 0 -0.089369030920126963 -0.1732707743578942 0 -0.084027466008495671 -0.20735524824550181 0 -0.079506442726966622 -0.19362577459948219 0 -0.09921486728828334 -0.20109800384388701 0 -0.09921486728828334 -0.20109800384388701 0 -0.1156293974943295 -0.1822747327150937 0 -0.1210853022939376 -0.205467400633562 0 -0.1156293974943295 -0.1822747327150937 0 -0.13505851963374399 -0.18906788910329131 0 -0.09921486728828334 -0.20109800384388701 0 -0.1210853022939376 -0.205467400633562 0 -0.1156293974943295 -0.1822747327150937 0 -0.1210853022939376 -0.205467400633562 0 -0.10755849924533691 -0.2178899443088799 0 -0.11989889803527461 -0.22145143588075511 0 -0.1210853022939376 -0.205467400633562 0 -0.11989889803527461 -0.22145143588075511 0 -0.13086176299679239 -0.21746526838305219 0 -0.089705747521653334 -0.22362271978914661 0 -0.09921486728828334 -0.20109800384388701 0 -0.10755849924533691 -0.2178899443088799 0 -0.09921486728828334 -0.20109800384388701 0 -0.1210853022939376 -0.205467400633562 0 -0.10755849924533691 -0.2178899443088799 0 -0.089705747521653334 -0.22362271978914661 0 -0.11172868854622731 -0.23617094482880149 0 -0.1005617376665941 -0.23997685579502359 0 -0.089705747521653334 -0.22362271978914661 0 -0.11172868854622731 -0.23617094482880149 0 -0.089705747521653334 -0.22362271978914661 0 -0.10755849924533691 -0.2178899443088799 0 -0.11172868854622731 -0.23617094482880149 0 -0.11989889803527461 -0.22145143588075511 0 -0.11172868854622731 -0.23617094482880149 0 -0.127825895831608 -0.22987551408160201 0 -0.10755849924533691 -0.2178899443088799 0 -0.11989889803527461 -0.22145143588075511 0 -0.11172868854622731 -0.23617094482880149 0 -0.13218950310710981 -0.25272660122947088 0 -0.1218823470606431 -0.24640061544388489 0 -0.1098930818979398 -0.24798588601512411 0 -0.11172868854622731 -0.23617094482880149 0 -0.13375162957080131 -0.24871916986845621 0 -0.11172868854622731 -0.23617094482880149 0 -0.1218823470606431 -0.24640061544388489 0 -0.13375162957080131 -0.24871916986845621 0 -0.11172868854622731 -0.23617094482880149 0 -0.13375162957080131 -0.24871916986845621 0 -0.127825895831608 -0.22987551408160201 0 -0.11172868854622731 -0.23617094482880149 0 -0.1218823470606431 -0.24640061544388489 0 -0.1098930818979398 -0.24798588601512411 0 -0.097628444613881649 -0.25834262822693399 0 -0.087470553331264578 -0.24262075389877999 0 -0.1098930818979398 -0.24798588601512411 0 -0.087470553331264578 -0.24262075389877999 0 -0.1098930818979398 -0.24798588601512411 0 -0.1005617376665941 -0.23997685579502359 0 -0.087470553331264578 -0.24262075389877999 0 -0.1098930818979398 -0.24798588601512411 0 -0.11172868854622731 -0.23617094482880149 0 -0.1098930818979398 -0.24798588601512411 0 -0.1005617376665941 -0.23997685579502359 0 -0.087470553331264578 -0.24262075389877999 0 -0.1005617376665941 -0.23997685579502359 0 -0.072389231474787458 -0.1492400490994332 0 -0.089369030920126963 -0.1732707743578942 0 -0.096011965921864201 -0.14265464397282879 0 -0.077516787342341589 -0.1242022911324857 0 -0.093262550211769629 -0.1231040070079162 0 -0.096011965921864201 -0.14265464397282879 0 -0.077516787342341589 -0.1242022911324857 0 -0.072389231474787458 -0.1492400490994332 0 -0.096011965921864201 -0.14265464397282879 0 -0.077516787342341589 -0.1242022911324857 0 -0.059238207921678762 -0.13024384051707169 0 -0.072389231474787458 -0.1492400490994332 0 -0.060187329084152079 -0.17209125852752319 0 -0.072389231474787458 -0.1492400490994332 0 -0.089369030920126963 -0.1732707743578942 0 -0.060187329084152079 -0.17209125852752319 0 -0.079506442726966622 -0.19362577459948219 0 -0.089369030920126963 -0.1732707743578942 0 -0.060187329084152079 -0.17209125852752319 0 -0.062708331551170268 -0.19442045911658551 0 -0.079506442726966622 -0.19362577459948219 0 -0.089369030920126963 -0.1732707743578942 0 -0.1107512355661594 -0.16096683979900789 0 -0.096011965921864201 -0.14265464397282879 0 -0.09921486728828334 -0.20109800384388701 0 -0.089369030920126963 -0.1732707743578942 0 -0.1156293974943295 -0.1822747327150937 0 -0.089369030920126963 -0.1732707743578942 0 -0.1156293974943295 -0.1822747327150937 0 -0.1107512355661594 -0.16096683979900789 0 -0.1156293974943295 -0.1822747327150937 0 -0.13204392770037571 -0.1634514615863005 0 -0.1156293974943295 -0.1822747327150937 0 -0.1107512355661594 -0.16096683979900789 0 -0.13204392770037571 -0.1634514615863005 0 -0.1107512355661594 -0.16096683979900789 0 -0.12070185579410091 -0.1431825863629223 0 -0.13204392770037571 -0.1634514615863005 0 -0.1107512355661594 -0.16096683979900789 0 -0.12070185579410091 -0.1431825863629223 0 -0.096011965921864201 -0.14265464397282879 0 -0.1071147179002416 -0.1244919901550422 0 -0.12070185579410091 -0.1431825863629223 0 -0.096011965921864201 -0.14265464397282879 0 -0.093262550211769629 -0.1231040070079162 0 -0.1071147179002416 -0.1244919901550422 0 -0.096011965921864201 -0.14265464397282879 0 -0.1071147179002416 -0.1244919901550422 0 -0.12070185579410091 -0.1431825863629223 0 -0.1306137014228527 -0.1212095633787966 0 -0.12070185579410091 -0.1431825863629223 0 -0.14845845790642179 -0.14462819045750719 0 -0.1306137014228527 -0.1212095633787966 0 -0.14845845790642179 -0.14462819045750719 0 -0.1306137014228527 -0.1212095633787966 0 -0.15036797716661271 -0.14243845987679379 0 -0.14845845790642179 -0.14462819045750719 0 -0.1306137014228527 -0.1212095633787966 0 -0.15406265534163929 -0.1294064941378926 0 -0.15036797716661271 -0.14243845987679379 0 -0.1306137014228527 -0.1212095633787966 0 -0.15406265534163929 -0.1294064941378926 0 -0.15036797716661271 -0.14243845987679379 0 -0.1564494690737798 -0.13971242061594299 0 -0.1543278084257422 -0.1453912472931165 0 -0.14845845790642179 -0.14462819045750719 0 -0.15894149653025619 -0.15184230729274609 0 -0.15519343748037609 -0.14309809199123349 0 -0.15036797716661271 -0.14243845987679379 0 -0.1564494690737798 -0.13971242061594299 0 -0.1543278084257422 -0.1453912472931165 0 -0.15519343748037609 -0.14309809199123349 0 -0.15036797716661271 -0.14243845987679379 0 -0.1543278084257422 -0.1453912472931165 0 -0.15036797716661271 -0.14243845987679379 0 -0.14845845790642179 -0.14462819045750719 0 -0.15036797716661271 -0.14243845987679379 0 -0.14845845790642179 -0.14462819045750719 0 -0.12070185579410091 -0.1431825863629223 0 -0.14845845790642179 -0.14462819045750719 0 -0.13204392770037571 -0.1634514615863005 0 -0.14845845790642179 -0.14462819045750719 0 -0.13204392770037571 -0.1634514615863005 0 -0.13204392770037571 -0.1634514615863005 0 -0.1475860696211248 -0.17640031700015249 0 -0.13505851963374399 -0.18906788910329131 0 -0.1156293974943295 -0.1822747327150937 0 -0.13204392770037571 -0.1634514615863005 0 -0.13505851963374399 -0.18906788910329131 0 -0.1475860696211248 -0.17640031700015249 0 -0.1655722477793394 -0.1670875310098065 0 -0.15496537504316019 -0.19429807729602311 0 -0.1475860696211248 -0.17640031700015249 0 -0.13505851963374399 -0.18906788910329131 0 -0.15496537504316019 -0.19429807729602311 0 -0.1475860696211248 -0.17640031700015249 0 -0.14862352044039201 -0.16347018067920821 0 -0.1655722477793394 -0.1670875310098065 0 -0.14845845790642179 -0.14462819045750719 0 -0.13204392770037571 -0.1634514615863005 0 -0.14862352044039201 -0.16347018067920821 0 -0.14845845790642179 -0.14462819045750719 0 -0.14862352044039201 -0.16347018067920821 0 -0.1655722477793394 -0.1670875310098065 0 -0.13204392770037571 -0.1634514615863005 0 -0.1475860696211248 -0.17640031700015249 0 -0.14862352044039201 -0.16347018067920821 0 -0.1655722477793394 -0.1670875310098065 0 -0.1716614177265566 -0.15146656102038991 0 -0.1655722477793394 -0.1670875310098065 0 -0.15894149653025619 -0.15184230729274609 0 -0.1716614177265566 -0.15146656102038991 0 -0.1655722477793394 -0.1670875310098065 0 -0.17557921295501691 -0.18022020591375351 0 -0.1689483943248192 -0.19264195369377959 0 -0.1655722477793394 -0.1670875310098065 0 -0.15496537504316019 -0.19429807729602311 0 -0.1689483943248192 -0.19264195369377959 0 -0.1655722477793394 -0.1670875310098065 0 -0.15496537504316019 -0.19429807729602311 0 -0.1655722477793394 -0.1670875310098065 0 -0.17557921295501691 -0.18022020591375351 0 -0.17557921295501691 -0.18022020591375351 0 -0.18239484980351819 -0.16464781923938721 0 -0.1907059301477185 -0.18468107337543721 0 -0.1655722477793394 -0.1670875310098065 0 -0.17557921295501691 -0.18022020591375351 0 -0.18239484980351819 -0.16464781923938721 0 -0.1655722477793394 -0.1670875310098065 0 -0.18239484980351819 -0.16464781923938721 0 -0.1716614177265566 -0.15146656102038991 0 -0.18239484980351819 -0.16464781923938721 0 -0.1716614177265566 -0.15146656102038991 0 -0.1894311146879058 -0.1465309504005988 0 -0.17775058767377289 -0.13584559103097291 0 -0.1716614177265566 -0.15146656102038991 0 -0.1894311146879058 -0.1465309504005988 0 -0.17775058767377289 -0.13584559103097291 0 -0.1716614177265566 -0.15146656102038991 0 -0.17775058767377289 -0.13584559103097291 0 -0.1894311146879058 -0.1465309504005988 0 -0.17775058767377289 -0.13584559103097291 0 -0.19823449762692411 -0.13229999761030051 0 -0.18534812722118199 -0.1163550958908785 0 -0.17775058767377289 -0.13584559103097291 0 -0.18534812722118199 -0.1163550958908785 0 -0.15406265534163929 -0.1294064941378926 0 -0.16394560233522651 -0.1386698702264933 0 -0.15606779039194271 -0.1160101434681408 0 -0.17775058767377289 -0.13584559103097291 0 -0.16394560233522651 -0.1386698702264933 0 -0.15606779039194271 -0.1160101434681408 0 -0.17775058767377289 -0.13584559103097291 0 -0.15606779039194271 -0.1160101434681408 0 -0.15406265534163929 -0.1294064941378926 0 -0.16394560233522651 -0.1386698702264933 0 -0.1564494690737798 -0.13971242061594299 0 -0.16394560233522651 -0.1386698702264933 0 -0.1564494690737798 -0.13971242061594299 0 -0.15962849525536979 -0.1448502401790808 0 -0.14845845790642179 -0.14462819045750719 0 -0.1655722477793394 -0.1670875310098065 0 -0.14845845790642179 -0.14462819045750719 0 -0.1655722477793394 -0.1670875310098065 0 -0.15894149653025619 -0.15184230729274609 0 -0.15519343748037609 -0.14309809199123349 0 -0.1564494690737798 -0.13971242061594299 0 -0.15962849525536979 -0.1448502401790808 0 -0.1543278084257422 -0.1453912472931165 0 -0.15519343748037609 -0.14309809199123349 0 -0.15962849525536979 -0.1448502401790808 0 -0.1543278084257422 -0.1453912472931165 0 -0.15962849525536979 -0.1448502401790808 0 -0.15894149653025619 -0.15184230729274609 0 -0.15962849525536979 -0.1448502401790808 0 -0.15894149653025619 -0.15184230729274609 0 -0.1716614177265566 -0.15146656102038991 0 -0.17775058767377289 -0.13584559103097291 0 -0.16394560233522651 -0.1386698702264933 0 -0.1716614177265566 -0.15146656102038991 0 -0.16394560233522651 -0.1386698702264933 0 -0.15962849525536979 -0.1448502401790808 0 -0.1716614177265566 -0.15146656102038991 0 -0.1534429259631987 -0.25724555178864622 0 -0.15289321433053751 -0.246830478479277 0 -0.1378886282313006 -0.2381062402767252 0 -0.1534429259631987 -0.25724555178864622 0 -0.1378886282313006 -0.2381062402767252 0 -0.15348527020851541 -0.23913552791147211 0 -0.1378886282313006 -0.2381062402767252 0 -0.15430752157141919 -0.22794821467022949 0 -0.15289321433053751 -0.246830478479277 0 -0.15348527020851541 -0.23913552791147211 0 -0.1601832428566283 -0.24550858739866141 0 -0.15289321433053751 -0.246830478479277 0 -0.15348527020851541 -0.23913552791147211 0 -0.1378886282313006 -0.2381062402767252 0 -0.1459019403517107 -0.25564217047089421 0 -0.13375162957080131 -0.24871916986845621 0 -0.1378886282313006 -0.2381062402767252 0 -0.13375162957080131 -0.24871916986845621 0 -0.1378886282313006 -0.2381062402767252 0 -0.127825895831608 -0.22987551408160201 0 -0.13375162957080131 -0.24871916986845621 0 -0.1378886282313006 -0.2381062402767252 0 -0.13218950310710981 -0.25272660122947088 0 -0.1218823470606431 -0.24640061544388489 0 -0.13375162957080131 -0.24871916986845621 0 -0.127825895831608 -0.22987551408160201 0 -0.14435850230698141 -0.22150862358223991 0 -0.13086176299679239 -0.21746526838305219 0 -0.1378886282313006 -0.2381062402767252 0 -0.127825895831608 -0.22987551408160201 0 -0.14435850230698141 -0.22150862358223991 0 -0.11989889803527461 -0.22145143588075511 0 -0.127825895831608 -0.22987551408160201 0 -0.13086176299679239 -0.21746526838305219 0 -0.1378886282313006 -0.2381062402767252 0 -0.14435850230698141 -0.22150862358223991 0 -0.14435850230698141 -0.22150862358223991 0 -0.15430752157141919 -0.22794821467022949 0 -0.16410544360365359 -0.21493654602220469 0 -0.1378886282313006 -0.2381062402767252 0 -0.14435850230698141 -0.22150862358223991 0 -0.15430752157141919 -0.22794821467022949 0 -0.14435850230698141 -0.22150862358223991 0 -0.15496537504316019 -0.19429807729602311 0 -0.14435850230698141 -0.22150862358223991 0 -0.1373527607074172 -0.20563907323320921 0 -0.15496537504316019 -0.19429807729602311 0 -0.14435850230698141 -0.22150862358223991 0 -0.15496537504316019 -0.19429807729602311 0 -0.16410544360365359 -0.21493654602220469 0 -0.14435850230698141 -0.22150862358223991 0 -0.1373527607074172 -0.20563907323320921 0 -0.13086176299679239 -0.21746526838305219 0 -0.1210853022939376 -0.205467400633562 0 -0.1373527607074172 -0.20563907323320921 0 -0.13086176299679239 -0.21746526838305219 0 -0.1210853022939376 -0.205467400633562 0 -0.1373527607074172 -0.20563907323320921 0 -0.13505851963374399 -0.18906788910329131 0 -0.1373527607074172 -0.20563907323320921 0 -0.13505851963374399 -0.18906788910329131 0 -0.15496537504316019 -0.19429807729602311 0 -0.1689483943248192 -0.19264195369377959 0 -0.17994482166635981 -0.2014366202218163 0 -0.16410544360365359 -0.21493654602220469 0 -0.15496537504316019 -0.19429807729602311 0 -0.1689483943248192 -0.19264195369377959 0 -0.16410544360365359 -0.21493654602220469 0 -0.17557921295501691 -0.18022020591375351 0 -0.1689483943248192 -0.19264195369377959 0 -0.17994482166635981 -0.2014366202218163 0 -0.17557921295501691 -0.18022020591375351 0 -0.17994482166635981 -0.2014366202218163 0 -0.1907059301477185 -0.18468107337543721 0 -0.17994482166635981 -0.2014366202218163 0 -0.1784102433228649 -0.21681777692650089 0 -0.16410544360365359 -0.21493654602220469 0 -0.17994482166635981 -0.2014366202218163 0 -0.18904495760185211 -0.20873870471059999 0 -0.19252771524915421 -0.19930647688205899 0 -0.17994482166635981 -0.2014366202218163 0 -0.1784102433228649 -0.21681777692650089 0 -0.18904495760185211 -0.20873870471059999 0 -0.1784102433228649 -0.21681777692650089 0 -0.19175951728552271 -0.21959172261586679 0 -0.18904495760185211 -0.20873870471059999 0 -0.15430752157141919 -0.22794821467022949 0 -0.16410544360365359 -0.21493654602220469 0 -0.16877954452522659 -0.2255120540677526 0 -0.15430752157141919 -0.22794821467022949 0 -0.16877954452522659 -0.2255120540677526 0 -0.16324537569009509 -0.2357306359809743 0 -0.15348527020851541 -0.23913552791147211 0 -0.15430752157141919 -0.22794821467022949 0 -0.16324537569009509 -0.2357306359809743 0 -0.16877954452522659 -0.2255120540677526 0 -0.17781387366555559 -0.23090770197000129 0 -0.16324537569009509 -0.2357306359809743 0 -0.1784102433228649 -0.21681777692650089 0 -0.16410544360365359 -0.21493654602220469 0 -0.16877954452522659 -0.2255120540677526 0 -0.1784102433228649 -0.21681777692650089 0 -0.16877954452522659 -0.2255120540677526 0 -0.17781387366555559 -0.23090770197000129 0 -0.1784102433228649 -0.21681777692650089 0 -0.17781387366555559 -0.23090770197000129 0 -0.19175951728552271 -0.21959172261586679 0 -0.17781387366555559 -0.23090770197000129 0 -0.1805311654956796 -0.2411950136452527 0 -0.19410287643929239 -0.23312434657521411 0 -0.17781387366555559 -0.23090770197000129 0 -0.1805311654956796 -0.2411950136452527 0 -0.16955513552828311 -0.24305067226283769 0 -0.17679077873490559 -0.25046109420941731 0 -0.1805311654956796 -0.2411950136452527 0 -0.18863044441395099 -0.24733650333174401 0 -0.17679077873490559 -0.25046109420941731 0 -0.1805311654956796 -0.2411950136452527 0 -0.16955513552828311 -0.24305067226283769 0 -0.16709258238786229 -0.25188408856254202 0 -0.17679077873490559 -0.25046109420941731 0 -0.16955513552828311 -0.24305067226283769 0 -0.16709258238786229 -0.25188408856254202 0 -0.16955513552828311 -0.24305067226283769 0 -0.1601832428566283 -0.24550858739866141 0 -0.17781387366555559 -0.23090770197000129 0 -0.16955513552828311 -0.24305067226283769 0 -0.16324537569009509 -0.2357306359809743 0 -0.16955513552828311 -0.24305067226283769 0 -0.16324537569009509 -0.2357306359809743 0 -0.1601832428566283 -0.24550858739866141 0 -0.15348527020851541 -0.23913552791147211 0 -0.16324537569009509 -0.2357306359809743 0 -0.1601832428566283 -0.24550858739866141 0 -0.1593809120407062 -0.25278805690175971 0 -0.15289321433053751 -0.246830478479277 0 -0.1601832428566283 -0.24550858739866141 0 -0.20565562739327201 -0.24334207984173631 0 -0.19410287643929239 -0.23312434657521411 0 -0.21201774175915139 -0.2290986139018284 0 -0.21472073189145299 -0.25725591714607071 0 -0.20565562739327201 -0.24334207984173631 0 -0.22837296648480071 -0.23789375384220129 0 -0.20565562739327201 -0.24334207984173631 0 -0.21201774175915139 -0.2290986139018284 0 -0.22837296648480071 -0.23789375384220129 0 -0.20565562739327201 -0.24334207984173631 0 -0.18863044441395099 -0.24733650333174401 0 -0.19410287643929239 -0.23312434657521411 0 -0.1805311654956796 -0.2411950136452527 0 -0.18863044441395099 -0.24733650333174401 0 -0.19410287643929239 -0.23312434657521411 0 -0.17781387366555559 -0.23090770197000129 0 -0.19410287643929239 -0.23312434657521411 0 -0.19175951728552271 -0.21959172261586679 0 -0.19410287643929239 -0.23312434657521411 0 -0.19175951728552271 -0.21959172261586679 0 -0.20443040571370949 -0.21985141578154491 0 -0.21201774175915139 -0.2290986139018284 0 -0.20443040571370949 -0.21985141578154491 0 -0.22630383013383959 -0.21240708539258099 0 -0.19410287643929239 -0.23312434657521411 0 -0.21201774175915139 -0.2290986139018284 0 -0.20443040571370949 -0.21985141578154491 0 -0.20157622681128409 -0.2075672839719423 0 -0.21557055542943429 -0.1904257004922347 0 -0.22630383013383959 -0.21240708539258099 0 -0.20157622681128409 -0.2075672839719423 0 -0.22630383013383959 -0.21240708539258099 0 -0.20443040571370949 -0.21985141578154491 0 -0.20157622681128409 -0.2075672839719423 0 -0.22630383013383959 -0.21240708539258099 0 -0.19175951728552271 -0.21959172261586679 0 -0.20443040571370949 -0.21985141578154491 0 -0.20157622681128409 -0.2075672839719423 0 -0.19175951728552271 -0.21959172261586679 0 -0.20157622681128409 -0.2075672839719423 0 -0.19175951728552271 -0.21959172261586679 0 -0.18904495760185211 -0.20873870471059999 0 -0.20157622681128409 -0.2075672839719423 0 -0.18904495760185211 -0.20873870471059999 0 -0.20157622681128409 -0.2075672839719423 0 -0.19252771524915421 -0.19930647688205899 0 -0.17994482166635981 -0.2014366202218163 0 -0.19252771524915421 -0.19930647688205899 0 -0.1907059301477185 -0.18468107337543721 0 -0.20157622681128409 -0.2075672839719423 0 -0.19252771524915421 -0.19930647688205899 0 -0.20187756758401409 -0.19506767240709361 0 -0.19252771524915421 -0.19930647688205899 0 -0.20187756758401409 -0.19506767240709361 0 -0.1907059301477185 -0.18468107337543721 0 -0.20157622681128409 -0.2075672839719423 0 -0.21557055542943429 -0.1904257004922347 0 -0.20187756758401409 -0.19506767240709361 0 -0.21557055542943429 -0.1904257004922347 0 -0.2038146335316797 -0.1820121315948606 0 -0.20157622681128409 -0.2075672839719423 0 -0.20187756758401409 -0.19506767240709361 0 -0.21557055542943429 -0.1904257004922347 0 -0.21557055542943429 -0.1904257004922347 0 -0.23533053747689989 -0.1962925907305976 0 -0.22630383013383959 -0.21240708539258099 0 -0.23533053747689989 -0.1962925907305976 0 -0.25103143345639523 -0.21724688681321891 0 -0.25418198431724581 -0.18809916394242601 0 -0.22630383013383959 -0.21240708539258099 0 -0.25103143345639523 -0.21724688681321891 0 -0.23533053747689989 -0.1962925907305976 0 -0.22630383013383959 -0.21240708539258099 0 -0.25103143345639523 -0.21724688681321891 0 -0.21201774175915139 -0.2290986139018284 0 -0.22630383013383959 -0.21240708539258099 0 -0.22837296648480071 -0.23789375384220129 0 -0.22630383013383959 -0.21240708539258099 0 -0.22837296648480071 -0.23789375384220129 0 -0.25103143345639523 -0.21724688681321891 0 -0.22837296648480071 -0.23789375384220129 0 -0.25431856302814809 -0.24833495949118861 0 -0.25103143345639523 -0.21724688681321891 0 -0.2335542019388327 -0.26090262277066528 0 -0.22837296648480071 -0.23789375384220129 0 -0.25431856302814809 -0.24833495949118861 0 -0.20708483324238849 -0.15128624944667929 0 -0.22647357207813959 -0.15205360930679629 0 -0.2195633859389316 -0.1340578990397249 0 -0.20708483324238849 -0.15128624944667929 0 -0.19823449762692411 -0.13229999761030051 0 -0.2195633859389316 -0.1340578990397249 0 -0.19823449762692411 -0.13229999761030051 0 -0.2195633859389316 -0.1340578990397249 0 -0.21022893699736381 -0.1097241998529486 0 -0.17775058767377289 -0.13584559103097291 0 -0.19823449762692411 -0.13229999761030051 0 -0.1894311146879058 -0.1465309504005988 0 -0.20708483324238849 -0.15128624944667929 0 -0.1894311146879058 -0.1465309504005988 0 -0.19351686899232889 -0.15854259719770419 0 -0.20708483324238849 -0.15128624944667929 0 -0.19823449762692411 -0.13229999761030051 0 -0.1894311146879058 -0.1465309504005988 0 -0.20708483324238849 -0.15128624944667929 0 -0.19351686899232889 -0.15854259719770419 0 -0.19880271024428661 -0.17007658736909009 0 -0.18239484980351819 -0.16464781923938721 0 -0.1894311146879058 -0.1465309504005988 0 -0.19351686899232889 -0.15854259719770419 0 -0.18239484980351819 -0.16464781923938721 0 -0.19351686899232889 -0.15854259719770419 0 -0.19880271024428661 -0.17007658736909009 0 -0.18239484980351819 -0.16464781923938721 0 -0.19880271024428661 -0.17007658736909009 0 -0.1907059301477185 -0.18468107337543721 0 -0.19880271024428661 -0.17007658736909009 0 -0.1907059301477185 -0.18468107337543721 0 -0.2038146335316797 -0.1820121315948606 0 -0.20187756758401409 -0.19506767240709361 0 -0.1907059301477185 -0.18468107337543721 0 -0.2038146335316797 -0.1820121315948606 0 -0.21557055542943429 -0.1904257004922347 0 -0.2038146335316797 -0.1820121315948606 0 -0.21355186476225221 -0.16985639920369799 0 -0.19880271024428661 -0.17007658736909009 0 -0.2038146335316797 -0.1820121315948606 0 -0.21355186476225221 -0.16985639920369799 0 -0.20708483324238849 -0.15128624944667929 0 -0.21355186476225221 -0.16985639920369799 0 -0.22647357207813959 -0.15205360930679629 0 -0.20708483324238849 -0.15128624944667929 0 -0.19880271024428661 -0.17007658736909009 0 -0.21355186476225221 -0.16985639920369799 0 -0.22956488404758479 -0.1732841170125273 0 -0.2435592126657353 -0.1561425335328199 0 -0.22647357207813959 -0.15205360930679629 0 -0.21355186476225221 -0.16985639920369799 0 -0.22956488404758479 -0.1732841170125273 0 -0.22647357207813959 -0.15205360930679629 0 -0.21557055542943429 -0.1904257004922347 0 -0.21355186476225221 -0.16985639920369799 0 -0.22956488404758479 -0.1732841170125273 0 -0.21557055542943429 -0.1904257004922347 0 -0.22956488404758479 -0.1732841170125273 0 -0.21557055542943429 -0.1904257004922347 0 -0.23533053747689989 -0.1962925907305976 0 -0.22956488404758479 -0.1732841170125273 0 -0.23533053747689989 -0.1962925907305976 0 -0.22956488404758479 -0.1732841170125273 0 -0.25418198431724581 -0.18809916394242601 0 -0.22956488404758479 -0.1732841170125273 0 -0.25418198431724581 -0.18809916394242601 0 -0.2565438833259911 -0.1687602707777138 0 -0.22956488404758479 -0.1732841170125273 0 -0.2435592126657353 -0.1561425335328199 0 -0.22956488404758479 -0.1732841170125273 0 -0.2435592126657353 -0.1561425335328199 0 -0.2565438833259911 -0.1687602707777138 0 -0.2435592126657353 -0.1561425335328199 0 -0.22647357207813959 -0.15205360930679629 0 -0.2432602079730701 -0.13485583854350039 0 -0.22647357207813959 -0.15205360930679629 0 -0.2195633859389316 -0.1340578990397249 0 -0.2432602079730701 -0.13485583854350039 0 -0.2195633859389316 -0.1340578990397249 0 -0.2432602079730701 -0.13485583854350039 0 -0.23065476516460279 -0.11957242830579699 0 -0.2432602079730701 -0.13485583854350039 0 -0.2499653418643101 -0.1102460646797562 0 -0.23065476516460279 -0.11957242830579699 0 -0.2499653418643101 -0.1102460646797562 0 -0.2308399038819596 -0.1034577205422559 0 -0.23065476516460279 -0.11957242830579699 0 -0.2308399038819596 -0.1034577205422559 0 -0.25308440776240432 -0.086371671251396109 0 -0.2499653418643101 -0.1102460646797562 0 -0.2308399038819596 -0.1034577205422559 0 -0.25308440776240432 -0.086371671251396109 0 -0.2308399038819596 -0.1034577205422559 0 -0.21022893699736381 -0.1097241998529486 0 -0.21520721362926831 -0.098298511723915558 0 -0.2308399038819596 -0.1034577205422559 0 -0.22013457808717909 -0.089221868029860679 0 -0.21520721362926831 -0.098298511723915558 0 -0.2308399038819596 -0.1034577205422559 0 -0.23065476516460279 -0.11957242830579699 0 -0.21022893699736381 -0.1097241998529486 0 -0.2195633859389316 -0.1340578990397249 0 -0.23065476516460279 -0.11957242830579699 0 -0.21022893699736381 -0.1097241998529486 0 -0.2335598957907816 -0.079883889973887123 0 -0.24475965461883589 -0.059498385283178377 0 -0.2582325144520296 -0.070050845257802419 0 -0.2335598957907816 -0.079883889973887123 0 -0.2582325144520296 -0.070050845257802419 0 -0.25308440776240432 -0.086371671251396109 0 -0.2308399038819596 -0.1034577205422559 0 -0.2335598957907816 -0.079883889973887123 0 -0.25308440776240432 -0.086371671251396109 0 -0.2308399038819596 -0.1034577205422559 0 -0.22013457808717909 -0.089221868029860679 0 -0.2335598957907816 -0.079883889973887123 0 -0.22013457808717909 -0.089221868029860679 0 -0.2335598957907816 -0.079883889973887123 0 -0.21963876375789801 -0.077814354495200549 0 -0.2335598957907816 -0.079883889973887123 0 -0.21595644614104051 -0.065738508165203102 0 -0.24475965461883589 -0.059498385283178377 0 -0.21595644614104051 -0.065738508165203102 0 -0.24475965461883589 -0.059498385283178377 0 -0.2335598957907816 -0.079883889973887123 0 -0.21963876375789801 -0.077814354495200549 0 -0.21595644614104051 -0.065738508165203102 0 -0.20438945881064449 -0.068244458930106389 0 -0.21100771399754009 -0.086966924160961745 0 -0.21595644614104051 -0.065738508165203102 0 -0.21100771399754009 -0.086966924160961745 0 -0.20438945881064449 -0.068244458930106389 0 -0.21595644614104051 -0.065738508165203102 0 -0.21100771399754009 -0.086966924160961745 0 -0.21963876375789801 -0.077814354495200549 0 -0.21595644614104051 -0.065738508165203102 0 -0.21100771399754009 -0.086966924160961745 0 -0.20438945881064449 -0.068244458930106389 0 -0.21595644614104051 -0.065738508165203102 0 -0.20438945881064449 -0.068244458930106389 0 -0.21595644614104051 -0.065738508165203102 0 -0.20711132549122371 -0.057203435059411119 0 -0.20438945881064449 -0.068244458930106389 0 -0.21100771399754009 -0.086966924160961745 0 -0.19851231957361129 -0.085310821531315487 0 -0.22013457808717909 -0.089221868029860679 0 -0.21963876375789801 -0.077814354495200549 0 -0.21100771399754009 -0.086966924160961745 0 -0.22013457808717909 -0.089221868029860679 0 -0.21100771399754009 -0.086966924160961745 0 -0.21520721362926831 -0.098298511723915558 0 -0.21100771399754009 -0.086966924160961745 0 -0.19851231957361129 -0.085310821531315487 0 -0.20550431009004061 -0.095676697317907802 0 -0.21100771399754009 -0.086966924160961745 0 -0.21520721362926831 -0.098298511723915558 0 -0.20550431009004061 -0.095676697317907802 0 -0.19851231957361129 -0.085310821531315487 0 -0.18118326058104209 -0.08825419183970401 0 -0.18409944718507371 -0.07264022497537044 0 -0.19851231957361129 -0.085310821531315487 0 -0.19294566676858971 -0.096864600750783431 0 -0.18118326058104209 -0.08825419183970401 0 -0.19851231957361129 -0.085310821531315487 0 -0.20550431009004061 -0.095676697317907802 0 -0.19294566676858971 -0.096864600750783431 0 -0.20438945881064449 -0.068244458930106389 0 -0.19851231957361129 -0.085310821531315487 0 -0.18409944718507371 -0.07264022497537044 0 -0.20438945881064449 -0.068244458930106389 0 -0.18409944718507371 -0.07264022497537044 0 -0.18769526278089041 -0.057829612445021099 0 -0.20438945881064449 -0.068244458930106389 0 -0.18409944718507371 -0.07264022497537044 0 -0.21022893699736381 -0.1097241998529486 0 -0.21520721362926831 -0.098298511723915558 0 -0.20550431009004061 -0.095676697317907802 0 -0.21022893699736381 -0.1097241998529486 0 -0.20550431009004061 -0.095676697317907802 0 -0.19294566676858971 -0.096864600750783431 0 -0.19294566676858971 -0.096864600750783431 0 -0.18534812722118199 -0.1163550958908785 0 -0.21022893699736381 -0.1097241998529486 0 -0.19294566676858971 -0.096864600750783431 0 -0.18534812722118199 -0.1163550958908785 0 -0.19823449762692411 -0.13229999761030051 0 -0.21022893699736381 -0.1097241998529486 0 -0.18534812722118199 -0.1163550958908785 0 -0.18534812722118199 -0.1163550958908785 0 -0.17423934197139679 -0.1017815859784342 0 -0.15606779039194271 -0.1160101434681408 0 -0.17775058767377289 -0.13584559103097291 0 -0.18534812722118199 -0.1163550958908785 0 -0.15606779039194271 -0.1160101434681408 0 -0.16057304666404501 -0.10079887419961479 0 -0.17423934197139679 -0.1017815859784342 0 -0.15606779039194271 -0.1160101434681408 0 -0.16057304666404501 -0.10079887419961479 0 -0.16746185343044401 -0.091445336260546128 0 -0.1570966781871318 -0.090327755750333361 0 -0.16057304666404501 -0.10079887419961479 0 -0.17423934197139679 -0.1017815859784342 0 -0.16746185343044401 -0.091445336260546128 0 -0.17423934197139679 -0.1017815859784342 0 -0.18118326058104209 -0.08825419183970401 0 -0.16746185343044401 -0.091445336260546128 0 -0.19294566676858971 -0.096864600750783431 0 -0.18534812722118199 -0.1163550958908785 0 -0.17423934197139679 -0.1017815859784342 0 -0.19294566676858971 -0.096864600750783431 0 -0.17423934197139679 -0.1017815859784342 0 -0.18118326058104209 -0.08825419183970401 0 -0.18118326058104209 -0.08825419183970401 0 -0.18409944718507371 -0.07264022497537044 0 -0.16915717098214109 -0.081397787743409861 0 -0.18118326058104209 -0.08825419183970401 0 -0.16746185343044401 -0.091445336260546128 0 -0.16915717098214109 -0.081397787743409861 0 -0.18409944718507371 -0.07264022497537044 0 -0.1702117591297739 -0.06777753321031553 0 -0.16380943555950259 -0.077035991020633382 0 -0.18409944718507371 -0.07264022497537044 0 -0.16380943555950259 -0.077035991020633382 0 -0.16915717098214109 -0.081397787743409861 0 -0.18409944718507371 -0.07264022497537044 0 -0.17187825396406881 -0.057945450019426657 0 -0.18769526278089041 -0.057829612445021099 0 -0.18409944718507371 -0.07264022497537044 0 -0.16380943555950259 -0.077035991020633382 0 -0.18409944718507371 -0.07264022497537044 0 -0.1702117591297739 -0.06777753321031553 0 -0.17187825396406881 -0.057945450019426657 0 -0.16380943555950259 -0.077035991020633382 0 -0.16105989981045041 -0.063488466825831633 0 -0.14595160177326619 -0.062470528310013429 0 -0.1702117591297739 -0.06777753321031553 0 -0.16105989981045041 -0.063488466825831633 0 -0.17187825396406881 -0.057945450019426657 0 -0.1702117591297739 -0.06777753321031553 0 -0.16380943555950259 -0.077035991020633382 0 -0.16105989981045041 -0.063488466825831633 0 -0.16380943555950259 -0.077035991020633382 0 -0.16109871639751261 -0.084134952385501949 0 -0.14796844382834351 -0.080467891152587012 0 -0.16746185343044401 -0.091445336260546128 0 -0.16915717098214109 -0.081397787743409861 0 -0.16109871639751261 -0.084134952385501949 0 -0.16380943555950259 -0.077035991020633382 0 -0.16915717098214109 -0.081397787743409861 0 -0.16109871639751261 -0.084134952385501949 0 -0.16380943555950259 -0.077035991020633382 0 -0.16915717098214109 -0.081397787743409861 0 -0.16746185343044401 -0.091445336260546128 0 -0.16109871639751261 -0.084134952385501949 0 -0.1570966781871318 -0.090327755750333361 0 -0.16380943555950259 -0.077035991020633382 0 -0.14796844382834351 -0.080467891152587012 0 -0.14796844382834351 -0.080467891152587012 0 -0.13497135686491851 -0.078315161523928284 0 -0.1484932433812913 -0.094043062253026791 0 -0.1570966781871318 -0.090327755750333361 0 -0.14796844382834351 -0.080467891152587012 0 -0.1484932433812913 -0.094043062253026791 0 -0.16109871639751261 -0.084134952385501949 0 -0.1570966781871318 -0.090327755750333361 0 -0.14796844382834351 -0.080467891152587012 0 -0.16380943555950259 -0.077035991020633382 0 -0.14796844382834351 -0.080467891152587012 0 -0.14595160177326619 -0.062470528310013429 0 -0.16380943555950259 -0.077035991020633382 0 -0.14595160177326619 -0.062470528310013429 0 -0.14796844382834351 -0.080467891152587012 0 -0.13497135686491851 -0.078315161523928284 0 -0.14595160177326619 -0.062470528310013429 0 -0.1158705629695205 -0.060236298698018297 0 -0.13497135686491851 -0.078315161523928284 0 -0.1158705629695205 -0.060236298698018297 0 -0.13497135686491851 -0.078315161523928284 0 -0.13122182239868371 -0.062231763532838429 0 -0.13497135686491851 -0.078315161523928284 0 -0.13122182239868371 -0.062231763532838429 0 -0.14595160177326619 -0.062470528310013429 0 -0.112702195828283 -0.076339248342475546 0 -0.13497135686491851 -0.078315161523928284 0 -0.13438499311011279 -0.096174695905308166 0 -0.13497135686491851 -0.078315161523928284 0 -0.13438499311011279 -0.096174695905308166 0 -0.1484932433812913 -0.094043062253026791 0 -0.11276894493928399 -0.097790936300085646 0 -0.13438499311011279 -0.096174695905308166 0 -0.1306137014228527 -0.1212095633787966 0 -0.13438499311011279 -0.096174695905308166 0 -0.1306137014228527 -0.1212095633787966 0 -0.15606779039194271 -0.1160101434681408 0 -0.15406265534163929 -0.1294064941378926 0 -0.1306137014228527 -0.1212095633787966 0 -0.15606779039194271 -0.1160101434681408 0 -0.13438499311011279 -0.096174695905308166 0 -0.15606779039194271 -0.1160101434681408 0 -0.1484932433812913 -0.094043062253026791 0 -0.16057304666404501 -0.10079887419961479 0 -0.15606779039194271 -0.1160101434681408 0 -0.1484932433812913 -0.094043062253026791 0 -0.13438499311011279 -0.096174695905308166 0 -0.15606779039194271 -0.1160101434681408 0 -0.16057304666404501 -0.10079887419961479 0 -0.1570966781871318 -0.090327755750333361 0 -0.1484932433812913 -0.094043062253026791 0 -0.14513665439653431 -0.02122229521611602 0 -0.15148395360685291 -0.031475856168514699 0 -0.16129500549156001 -0.024264335985147129 0 -0.14513665439653431 -0.02122229521611602 0 -0.1346415055917565 -0.031432898451717602 0 -0.15148395360685291 -0.031475856168514699 0 -0.14513665439653431 -0.02122229521611602 0 -0.15327979458335059 -0.01391829646419882 0 -0.16129500549156001 -0.024264335985147129 0 -0.1412848112475209 -0.008091449167619497 0 -0.15773416148281841 -0.0035868741371463562 0 -0.14801408494475049 0.0031182785745780331 0 -0.15327979458335059 -0.01391829646419882 0 -0.1412848112475209 -0.008091449167619497 0 -0.15773416148281841 -0.0035868741371463562 0 -0.14513665439653431 -0.02122229521611602 0 -0.15327979458335059 -0.01391829646419882 0 -0.1412848112475209 -0.008091449167619497 0 -0.1236693299605585 -0.0137973575501921 0 -0.1412848112475209 -0.008091449167619497 0 -0.12735709500343681 0.004015926865657337 0 -0.1412848112475209 -0.008091449167619497 0 -0.12735709500343681 0.004015926865657337 0 -0.14801408494475049 0.0031182785745780331 0 -0.1236693299605585 -0.0137973575501921 0 -0.1412848112475209 -0.008091449167619497 0 -0.13426109495296229 -0.02049569832685658 0 -0.1236693299605585 -0.0137973575501921 0 -0.1221370268088495 -0.025998648103035 0 -0.13426109495296229 -0.02049569832685658 0 -0.14513665439653431 -0.02122229521611602 0 -0.1412848112475209 -0.008091449167619497 0 -0.13426109495296229 -0.02049569832685658 0 -0.14513665439653431 -0.02122229521611602 0 -0.13426109495296229 -0.02049569832685658 0 -0.1346415055917565 -0.031432898451717602 0 -0.1221370268088495 -0.025998648103035 0 -0.12530131535501859 -0.034952786400489197 0 -0.1346415055917565 -0.031432898451717602 0 -0.1221370268088495 -0.025998648103035 0 -0.13426109495296229 -0.02049569832685658 0 -0.1346415055917565 -0.031432898451717602 0 -0.12530131535501859 -0.034952786400489197 0 -0.1346415055917565 -0.031432898451717602 0 -0.12809376798702951 -0.047905065599393698 0 -0.1346415055917565 -0.031432898451717602 0 -0.12809376798702951 -0.047905065599393698 0 -0.14629371500633531 -0.042796653234188263 0 -0.12809376798702951 -0.047905065599393698 0 -0.14595160177326619 -0.062470528310013429 0 -0.12809376798702951 -0.047905065599393698 0 -0.14595160177326619 -0.062470528310013429 0 -0.14629371500633531 -0.042796653234188263 0 -0.13122182239868371 -0.062231763532838429 0 -0.12809376798702951 -0.047905065599393698 0 -0.14595160177326619 -0.062470528310013429 0 -0.1158705629695205 -0.060236298698018297 0 -0.13122182239868371 -0.062231763532838429 0 -0.12809376798702951 -0.047905065599393698 0 -0.14595160177326619 -0.062470528310013429 0 -0.14629371500633531 -0.042796653234188263 0 -0.15696853651444401 -0.052603520026387289 0 -0.16105989981045041 -0.063488466825831633 0 -0.14595160177326619 -0.062470528310013429 0 -0.15696853651444401 -0.052603520026387289 0 -0.15148395360685291 -0.031475856168514699 0 -0.14629371500633531 -0.042796653234188263 0 -0.16402488563849801 -0.041062174760887443 0 -0.1346415055917565 -0.031432898451717602 0 -0.15148395360685291 -0.031475856168514699 0 -0.14629371500633531 -0.042796653234188263 0 -0.14629371500633531 -0.042796653234188263 0 -0.16402488563849801 -0.041062174760887443 0 -0.15696853651444401 -0.052603520026387289 0 -0.15148395360685291 -0.031475856168514699 0 -0.16402488563849801 -0.041062174760887443 0 -0.16129500549156001 -0.024264335985147129 0 -0.16402488563849801 -0.041062174760887443 0 -0.17409393016306191 -0.030370879776367592 0 -0.16129500549156001 -0.024264335985147129 0 -0.16402488563849801 -0.041062174760887443 0 -0.15696853651444401 -0.052603520026387289 0 -0.17187825396406881 -0.057945450019426657 0 -0.16105989981045041 -0.063488466825831633 0 -0.15696853651444401 -0.052603520026387289 0 -0.17187825396406881 -0.057945450019426657 0 -0.16402488563849801 -0.041062174760887443 0 -0.17187825396406881 -0.057945450019426657 0 -0.18133558272394029 -0.043618149437272283 0 -0.17187825396406881 -0.057945450019426657 0 -0.18133558272394029 -0.043618149437272283 0 -0.18769526278089041 -0.057829612445021099 0 -0.18133558272394029 -0.043618149437272283 0 -0.17409393016306191 -0.030370879776367592 0 -0.18915768363079971 -0.025155098795753519 0 -0.16402488563849801 -0.041062174760887443 0 -0.18133558272394029 -0.043618149437272283 0 -0.17409393016306191 -0.030370879776367592 0 -0.17409393016306191 -0.030370879776367592 0 -0.17549551533112251 -0.014893414490097231 0 -0.18915768363079971 -0.025155098795753519 0 -0.16129500549156001 -0.024264335985147129 0 -0.16350931143073591 -0.01273440345064396 0 -0.17549551533112251 -0.014893414490097231 0 -0.17409393016306191 -0.030370879776367592 0 -0.16129500549156001 -0.024264335985147129 0 -0.17549551533112251 -0.014893414490097231 0 -0.15327979458335059 -0.01391829646419882 0 -0.16129500549156001 -0.024264335985147129 0 -0.16350931143073591 -0.01273440345064396 0 -0.15773416148281841 -0.0035868741371463562 0 -0.16716832075785379 -0.0032078365625175 0 -0.1619193683370386 0.0066468078375689294 0 -0.15773416148281841 -0.0035868741371463562 0 -0.16350931143073591 -0.01273440345064396 0 -0.16716832075785379 -0.0032078365625175 0 -0.15327979458335059 -0.01391829646419882 0 -0.15773416148281841 -0.0035868741371463562 0 -0.16350931143073591 -0.01273440345064396 0 -0.16350931143073591 -0.01273440345064396 0 -0.16716832075785379 -0.0032078365625175 0 -0.17549551533112251 -0.014893414490097231 0 -0.17549551533112251 -0.014893414490097231 0 -0.18154179604087481 -0.0036104187285780349 0 -0.18915768363079971 -0.025155098795753519 0 -0.18154179604087481 -0.0036104187285780349 0 -0.18915768363079971 -0.025155098795753519 0 -0.17549551533112251 -0.014893414490097231 0 -0.17584419881677341 0.0071523107965592754 0 -0.17549551533112251 -0.014893414490097231 0 -0.18154179604087481 -0.0036104187285780349 0 -0.17584419881677341 0.0071523107965592754 0 -0.16716832075785379 -0.0032078365625175 0 -0.17549551533112251 -0.014893414490097231 0 -0.17584419881677341 0.0071523107965592754 0 -0.18154179604087481 -0.0036104187285780349 0 -0.19066530249761049 -0.0041303576494283751 0 -0.18915768363079971 -0.025155098795753519 0 -0.18154179604087481 -0.0036104187285780349 0 -0.19066530249761049 -0.0041303576494283751 0 -0.18717715497560061 0.0062623078557712403 0 -0.19066530249761049 -0.0041303576494283751 0 -0.1989264366345522 -0.0080023544535597537 0 -0.18915768363079971 -0.025155098795753519 0 -0.19066530249761049 -0.0041303576494283751 0 -0.1989264366345522 -0.0080023544535597537 0 -0.1965234412062255 0.0098537758749781944 0 -0.1989264366345522 -0.0080023544535597537 0 -0.2007918169376324 -0.0191738513677071 0 -0.20680177871376751 -0.0119671669755851 0 -0.18915768363079971 -0.025155098795753519 0 -0.2007918169376324 -0.0191738513677071 0 -0.21013076049929519 -0.028334228638799381 0 -0.1989264366345522 -0.0080023544535597537 0 -0.18915768363079971 -0.025155098795753519 0 -0.2007918169376324 -0.0191738513677071 0 -0.2007918169376324 -0.0191738513677071 0 -0.21013076049929519 -0.028334228638799381 0 -0.20680177871376751 -0.0119671669755851 0 -0.21013076049929519 -0.028334228638799381 0 -0.21702438745170211 -0.0043907958627755336 0 -0.21921501925093501 -0.017985606360015789 0 -0.21013076049929519 -0.028334228638799381 0 -0.21702438745170211 -0.0043907958627755336 0 -0.21013076049929519 -0.028334228638799381 0 -0.22271521407306469 -0.037269361340154371 0 -0.21921501925093501 -0.017985606360015789 0 -0.21013076049929519 -0.028334228638799381 0 -0.21702438745170211 -0.0043907958627755336 0 -0.20680177871376751 -0.0119671669755851 0 -0.1989264366345522 -0.0080023544535597537 0 -0.20680177871376751 -0.0119671669755851 0 -0.20713549204565579 6.5395444916274768e-05 0 -0.21702438745170211 -0.0043907958627755336 0 -0.20680177871376751 -0.0119671669755851 0 -0.20713549204565579 6.5395444916274768e-05 0 -0.20438945881064449 -0.068244458930106389 0 -0.1967735712207245 -0.046699778862929052 0 -0.20438945881064449 -0.068244458930106389 0 -0.18769526278089041 -0.057829612445021099 0 -0.1967735712207245 -0.046699778862929052 0 -0.20438945881064449 -0.068244458930106389 0 -0.1967735712207245 -0.046699778862929052 0 -0.20711132549122371 -0.057203435059411119 0 -0.18133558272394029 -0.043618149437272283 0 -0.18769526278089041 -0.057829612445021099 0 -0.1967735712207245 -0.046699778862929052 0 -0.18133558272394029 -0.043618149437272283 0 -0.18915768363079971 -0.025155098795753519 0 -0.1967735712207245 -0.046699778862929052 0 -0.18915768363079971 -0.025155098795753519 0 -0.1967735712207245 -0.046699778862929052 0 -0.18915768363079971 -0.025155098795753519 0 -0.21013076049929519 -0.028334228638799381 0 -0.1967735712207245 -0.046699778862929052 0 -0.21013076049929519 -0.028334228638799381 0 -0.21132582579248671 -0.048130994279405613 0 -0.22271521407306469 -0.037269361340154371 0 -0.21013076049929519 -0.028334228638799381 0 -0.1967735712207245 -0.046699778862929052 0 -0.21132582579248671 -0.048130994279405613 0 -0.21595644614104051 -0.065738508165203102 0 -0.21132582579248671 -0.048130994279405613 0 -0.22271521407306469 -0.037269361340154371 0 -0.21595644614104051 -0.065738508165203102 0 -0.21132582579248671 -0.048130994279405613 0 -0.20711132549122371 -0.057203435059411119 0 -0.1967735712207245 -0.046699778862929052 0 -0.21132582579248671 -0.048130994279405613 0 -0.20711132549122371 -0.057203435059411119 0 -0.21595644614104051 -0.065738508165203102 0 -0.2284172135094342 -0.053659916570315727 0 -0.24475965461883589 -0.059498385283178377 0 -0.21595644614104051 -0.065738508165203102 0 -0.2284172135094342 -0.053659916570315727 0 -0.22271521407306469 -0.037269361340154371 0 -0.21595644614104051 -0.065738508165203102 0 -0.22271521407306469 -0.037269361340154371 0 -0.2284172135094342 -0.053659916570315727 0 -0.22271521407306469 -0.037269361340154371 0 -0.23903543051913109 -0.043198085603962481 0 -0.22271521407306469 -0.037269361340154371 0 -0.23903543051913109 -0.043198085603962481 0 -0.24161885061771041 -0.026720350447010301 0 -0.23903543051913109 -0.043198085603962481 0 -0.24161885061771041 -0.026720350447010301 0 -0.25766621977661042 -0.038842414379153638 0 -0.23903543051913109 -0.043198085603962481 0 -0.24475965461883589 -0.059498385283178377 0 -0.25766621977661042 -0.038842414379153638 0 -0.2284172135094342 -0.053659916570315727 0 -0.23903543051913109 -0.043198085603962481 0 -0.24475965461883589 -0.059498385283178377 0 -0.22947398200509031 -0.0088002145151058891 0 -0.22867745033346079 0.0038692188645070222 0 -0.2401015516947359 0.00075261550232862703 0 -0.21702438745170211 -0.0043907958627755336 0 -0.22947398200509031 -0.0088002145151058891 0 -0.22867745033346079 0.0038692188645070222 0 -0.21702438745170211 -0.0043907958627755336 0 -0.22947398200509031 -0.0088002145151058891 0 -0.21921501925093501 -0.017985606360015789 0 -0.22271521407306469 -0.037269361340154371 0 -0.22947398200509031 -0.0088002145151058891 0 -0.21921501925093501 -0.017985606360015789 0 -0.22271521407306469 -0.037269361340154371 0 -0.22947398200509031 -0.0088002145151058891 0 -0.22271521407306469 -0.037269361340154371 0 -0.22947398200509031 -0.0088002145151058891 0 -0.24161885061771041 -0.026720350447010301 0 -0.22947398200509031 -0.0088002145151058891 0 -0.24161885061771041 -0.026720350447010301 0 -0.2437457614006571 -0.011962382738850049 0 -0.24161885061771041 -0.026720350447010301 0 -0.2437457614006571 -0.011962382738850049 0 -0.2598032925822476 -0.0188915667982569 0 -0.22947398200509031 -0.0088002145151058891 0 -0.2437457614006571 -0.011962382738850049 0 -0.2401015516947359 0.00075261550232862703 0 -0.2437457614006571 -0.011962382738850049 0 -0.25267499080189931 -0.0034516002120552492 0 -0.2401015516947359 0.00075261550232862703 0 -0.25267499080189931 -0.0034516002120552492 0 -0.2598032925822476 -0.0188915667982569 0 -0.26909988492935111 -0.0018655285383734981 0 -0.2437457614006571 -0.011962382738850049 0 -0.25267499080189931 -0.0034516002120552492 0 -0.2598032925822476 -0.0188915667982569 0 -0.2598032925822476 -0.0188915667982569 0 -0.27267419604841259 -0.026924212746328481 0 -0.25766621977661042 -0.038842414379153638 0 -0.24161885061771041 -0.026720350447010301 0 -0.2598032925822476 -0.0188915667982569 0 -0.25766621977661042 -0.038842414379153638 0 -0.2598032925822476 -0.0188915667982569 0 -0.27267419604841259 -0.026924212746328481 0 -0.27804425228895369 -0.016131696666228459 0 -0.27267419604841259 -0.026924212746328481 0 -0.27804425228895369 -0.016131696666228459 0 -0.28378415359151371 -0.031280105512012511 0 -0.27804425228895369 -0.016131696666228459 0 -0.26909988492935111 -0.0018655285383734981 0 -0.2917254884257266 -0.0017566381736345419 0 -0.2598032925822476 -0.0188915667982569 0 -0.27804425228895369 -0.016131696666228459 0 -0.26909988492935111 -0.0018655285383734981 0 -0.27804425228895369 -0.016131696666228459 0 -0.2917254884257266 -0.0017566381736345419 0 -0.2928870998243559 -0.020527937726781 0 -0.27804425228895369 -0.016131696666228459 0 -0.2928870998243559 -0.020527937726781 0 -0.28378415359151371 -0.031280105512012511 0 -0.2928870998243559 -0.020527937726781 0 -0.29943422057661201 -0.032203920876667472 0 -0.28378415359151371 -0.031280105512012511 0 -0.2928870998243559 -0.020527937726781 0 -0.31144738423897378 -0.02126732740536201 0 -0.29943422057661201 -0.032203920876667472 0 -0.31144738423897378 -0.02126732740536201 0 -0.31110423911055801 -0.035316851109560482 0 -0.29943422057661201 -0.032203920876667472 0 -0.2917254884257266 -0.0017566381736345419 0 -0.31144738423897378 -0.02126732740536201 0 -0.31177688145040278 0.0050359958776742568 0 -0.2917254884257266 -0.0017566381736345419 0 -0.2928870998243559 -0.020527937726781 0 -0.31144738423897378 -0.02126732740536201 0 -0.2917254884257266 -0.0017566381736345419 0 -0.31144738423897378 -0.02126732740536201 0 -0.30323190850646392 -0.052883144282766713 0 -0.3023660715744253 -0.047018139519123002 0 -0.29757341552329353 -0.05219957266967655 0 -0.29931176789370939 -0.061629941742321552 0 -0.30659897303184058 -0.057135789817405573 0 -0.30728911182784302 -0.064893595009923935 0 -0.30323190850646392 -0.052883144282766713 0 -0.29931176789370939 -0.061629941742321552 0 -0.30659897303184058 -0.057135789817405573 0 -0.30323190850646392 -0.052883144282766713 0 -0.29757341552329353 -0.05219957266967655 0 -0.29931176789370939 -0.061629941742321552 0 -0.30659897303184058 -0.057135789817405573 0 -0.30728911182784302 -0.064893595009923935 0 -0.31405483352543062 -0.056831087900065053 0 -0.30323190850646392 -0.052883144282766713 0 -0.3023660715744253 -0.047018139519123002 0 -0.31025625293594222 -0.050033124508212908 0 -0.30659897303184058 -0.057135789817405573 0 -0.31025625293594222 -0.050033124508212908 0 -0.31405483352543062 -0.056831087900065053 0 -0.30323190850646392 -0.052883144282766713 0 -0.30659897303184058 -0.057135789817405573 0 -0.31025625293594222 -0.050033124508212908 0 -0.3023660715744253 -0.047018139519123002 0 -0.31110423911055801 -0.035316851109560482 0 -0.29943422057661201 -0.032203920876667472 0 -0.3023660715744253 -0.047018139519123002 0 -0.29943422057661201 -0.032203920876667472 0 -0.29166722635019171 -0.038853801873014321 0 -0.29943422057661201 -0.032203920876667472 0 -0.29166722635019171 -0.038853801873014321 0 -0.28378415359151371 -0.031280105512012511 0 -0.3023660715744253 -0.047018139519123002 0 -0.29166722635019171 -0.038853801873014321 0 -0.28390051605192418 -0.042754285685484159 0 -0.29166722635019171 -0.038853801873014321 0 -0.28378415359151371 -0.031280105512012511 0 -0.28390051605192418 -0.042754285685484159 0 -0.3023660715744253 -0.047018139519123002 0 -0.28390051605192418 -0.042754285685484159 0 -0.27356286309663053 -0.053258262401150697 0 -0.3023660715744253 -0.047018139519123002 0 -0.27356286309663053 -0.053258262401150697 0 -0.29757341552329353 -0.05219957266967655 0 -0.27356286309663053 -0.053258262401150697 0 -0.27532891164284878 -0.069285621960536392 0 -0.29757341552329353 -0.05219957266967655 0 -0.27532891164284878 -0.069285621960536392 0 -0.3023660715744253 -0.047018139519123002 0 -0.29757341552329353 -0.05219957266967655 0 -0.27356286309663053 -0.053258262401150697 0 -0.29757341552329353 -0.05219957266967655 0 -0.29931176789370939 -0.061629941742321552 0 -0.27532891164284878 -0.069285621960536392 0 -0.27267419604841259 -0.026924212746328481 0 -0.27375437843427658 -0.039043607324579933 0 -0.25766621977661042 -0.038842414379153638 0 -0.27356286309663053 -0.053258262401150697 0 -0.27375437843427658 -0.039043607324579933 0 -0.25766621977661042 -0.038842414379153638 0 -0.28378415359151371 -0.031280105512012511 0 -0.28390051605192418 -0.042754285685484159 0 -0.27375437843427658 -0.039043607324579933 0 -0.27267419604841259 -0.026924212746328481 0 -0.28378415359151371 -0.031280105512012511 0 -0.27375437843427658 -0.039043607324579933 0 -0.28390051605192418 -0.042754285685484159 0 -0.27356286309663053 -0.053258262401150697 0 -0.27375437843427658 -0.039043607324579933 0 -0.24475965461883589 -0.059498385283178377 0 -0.27356286309663053 -0.053258262401150697 0 -0.2582325144520296 -0.070050845257802419 0 -0.24475965461883589 -0.059498385283178377 0 -0.27356286309663053 -0.053258262401150697 0 -0.24475965461883589 -0.059498385283178377 0 -0.27356286309663053 -0.053258262401150697 0 -0.25766621977661042 -0.038842414379153638 0 -0.2582325144520296 -0.070050845257802419 0 -0.25308440776240432 -0.086371671251396109 0 -0.27532891164284878 -0.069285621960536392 0 -0.25308440776240432 -0.086371671251396109 0 -0.27532891164284878 -0.069285621960536392 0 -0.25308440776240432 -0.086371671251396109 0 -0.27361062541114611 -0.085405998149086934 0 -0.26907394573302829 -0.10103393024372311 0 -0.27361062541114611 -0.085405998149086934 0 -0.26907394573302829 -0.10103393024372311 0 -0.28494676303449051 -0.09097811142482605 0 -0.25308440776240432 -0.086371671251396109 0 -0.27361062541114611 -0.085405998149086934 0 -0.27532891164284878 -0.069285621960536392 0 -0.27356286309663053 -0.053258262401150697 0 -0.2582325144520296 -0.070050845257802419 0 -0.27532891164284878 -0.069285621960536392 0 -0.27361062541114611 -0.085405998149086934 0 -0.27532891164284878 -0.069285621960536392 0 -0.28561909888295839 -0.079360655864953042 0 -0.2432602079730701 -0.13485583854350039 0 -0.2499653418643101 -0.1102460646797562 0 -0.26490928006600228 -0.12397715003998409 0 -0.2499653418643101 -0.1102460646797562 0 -0.26490928006600228 -0.12397715003998409 0 -0.26907394573302829 -0.10103393024372311 0 -0.2499653418643101 -0.1102460646797562 0 -0.25308440776240432 -0.086371671251396109 0 -0.26907394573302829 -0.10103393024372311 0 -0.26907394573302829 -0.10103393024372311 0 -0.28789548083438649 -0.11161882002010511 0 -0.28494676303449051 -0.09097811142482605 0 -0.26490928006600228 -0.12397715003998409 0 -0.28789548083438649 -0.11161882002010511 0 -0.28428672055728371 -0.13281235115180859 0 -0.26490928006600228 -0.12397715003998409 0 -0.26907394573302829 -0.10103393024372311 0 -0.28789548083438649 -0.11161882002010511 0 -0.28789548083438649 -0.11161882002010511 0 -0.28428672055728371 -0.13281235115180859 0 -0.30877835781368662 -0.12931532841693749 0 -0.28789548083438649 -0.11161882002010511 0 -0.29765529442092259 -0.094840601490837839 0 -0.28494676303449051 -0.09097811142482605 0 -0.30761934067920371 -0.1042503242997595 0 -0.29765529442092259 -0.094840601490837839 0 -0.30832877355579341 -0.086934752854072747 0 -0.30761934067920371 -0.1042503242997595 0 -0.30832877355579341 -0.086934752854072747 0 -0.31968159473222052 -0.091584555267719248 0 -0.28789548083438649 -0.11161882002010511 0 -0.30761934067920371 -0.1042503242997595 0 -0.29765529442092259 -0.094840601490837839 0 -0.28789548083438649 -0.11161882002010511 0 -0.30761934067920371 -0.1042503242997595 0 -0.30877835781368662 -0.12931532841693749 0 -0.29931176789370939 -0.061629941742321552 0 -0.27532891164284878 -0.069285621960536392 0 -0.29568251685582603 -0.071589435967753134 0 -0.27532891164284878 -0.069285621960536392 0 -0.29568251685582603 -0.071589435967753134 0 -0.28561909888295839 -0.079360655864953042 0 -0.29568251685582603 -0.071589435967753134 0 -0.28561909888295839 -0.079360655864953042 0 -0.29849490204505058 -0.081938345925378783 0 -0.27361062541114611 -0.085405998149086934 0 -0.28561909888295839 -0.079360655864953042 0 -0.28494676303449051 -0.09097811142482605 0 -0.29765529442092259 -0.094840601490837839 0 -0.28494676303449051 -0.09097811142482605 0 -0.29849490204505058 -0.081938345925378783 0 -0.28561909888295839 -0.079360655864953042 0 -0.28494676303449051 -0.09097811142482605 0 -0.29849490204505058 -0.081938345925378783 0 -0.29849490204505058 -0.081938345925378783 0 -0.30832877355579341 -0.086934752854072747 0 -0.3066986514807607 -0.074546990101646726 0 -0.29765529442092259 -0.094840601490837839 0 -0.29849490204505058 -0.081938345925378783 0 -0.30832877355579341 -0.086934752854072747 0 -0.30832877355579341 -0.086934752854072747 0 -0.3066986514807607 -0.074546990101646726 0 -0.31636087034116728 -0.076704125898778439 0 -0.3066986514807607 -0.074546990101646726 0 -0.31411021802290889 -0.069356746280106005 0 -0.31636087034116728 -0.076704125898778439 0 -0.29568251685582603 -0.071589435967753134 0 -0.29849490204505058 -0.081938345925378783 0 -0.3066986514807607 -0.074546990101646726 0 -0.29568251685582603 -0.071589435967753134 0 -0.3066986514807607 -0.074546990101646726 0 -0.30728911182784302 -0.064893595009923935 0 -0.29931176789370939 -0.061629941742321552 0 -0.29568251685582603 -0.071589435967753134 0 -0.30728911182784302 -0.064893595009923935 0 -0.3066986514807607 -0.074546990101646726 0 -0.30728911182784302 -0.064893595009923935 0 -0.31411021802290889 -0.069356746280106005 0 -0.30728911182784302 -0.064893595009923935 0 -0.31630436981946819 -0.062936971351065629 0 -0.31411021802290889 -0.069356746280106005 0 -0.31630436981946819 -0.062936971351065629 0 -0.31411021802290889 -0.069356746280106005 0 -0.32389808664530562 -0.067702049039115322 0 -0.31630436981946819 -0.062936971351065629 0 -0.32389808664530562 -0.067702049039115322 0 -0.32481687078849097 -0.058022226865728103 0 -0.32389808664530562 -0.067702049039115322 0 -0.3259684841043719 -0.075020057435826168 0 -0.31636087034116728 -0.076704125898778439 0 -0.31411021802290889 -0.069356746280106005 0 -0.32389808664530562 -0.067702049039115322 0 -0.31636087034116728 -0.076704125898778439 0 -0.30832877355579341 -0.086934752854072747 0 -0.32608803180755441 -0.084321365842938284 0 -0.30832877355579341 -0.086934752854072747 0 -0.31968159473222052 -0.091584555267719248 0 -0.32608803180755441 -0.084321365842938284 0 -0.30832877355579341 -0.086934752854072747 0 -0.31636087034116728 -0.076704125898778439 0 -0.32608803180755441 -0.084321365842938284 0 -0.31968159473222052 -0.091584555267719248 0 -0.32608803180755441 -0.084321365842938284 0 -0.3259684841043719 -0.075020057435826168 0 -0.31636087034116728 -0.076704125898778439 0 -0.32608803180755441 -0.084321365842938284 0 -0.31968159473222052 -0.091584555267719248 0 -0.32608803180755441 -0.084321365842938284 0 -0.34030971713070318 -0.087052614945596102 0 -0.32608803180755441 -0.084321365842938284 0 -0.34030971713070318 -0.087052614945596102 0 -0.34745734249292459 -0.081176736816750444 0 -0.32608803180755441 -0.084321365842938284 0 -0.33752694762346008 -0.07135268896247253 0 -0.34745734249292459 -0.081176736816750444 0 -0.32608803180755441 -0.084321365842938284 0 -0.34745734249292459 -0.081176736816750444 0 -0.33752694762346008 -0.07135268896247253 0 -0.3489658634393657 -0.058384012082006782 0 -0.33645864726091979 -0.05858208772264157 0 -0.33752694762346008 -0.07135268896247253 0 -0.3489658634393657 -0.058384012082006782 0 -0.32389808664530562 -0.067702049039115322 0 -0.33752694762346008 -0.07135268896247253 0 -0.33645864726091979 -0.05858208772264157 0 -0.3259684841043719 -0.075020057435826168 0 -0.32608803180755441 -0.084321365842938284 0 -0.33752694762346008 -0.07135268896247253 0 -0.32608803180755441 -0.084321365842938284 0 -0.33752694762346008 -0.07135268896247253 0 -0.32389808664530562 -0.067702049039115322 0 -0.3259684841043719 -0.075020057435826168 0 -0.33752694762346008 -0.07135268896247253 0 -0.32454403747219479 -0.1081839716812668 0 -0.30877835781368662 -0.12931532841693749 0 -0.30761934067920371 -0.1042503242997595 0 -0.32454403747219479 -0.1081839716812668 0 -0.30877835781368662 -0.12931532841693749 0 -0.32454403747219479 -0.1081839716812668 0 -0.33570809008837621 -0.11845594114356341 0 -0.30877835781368662 -0.12931532841693749 0 -0.30761934067920371 -0.1042503242997595 0 -0.31968159473222052 -0.091584555267719248 0 -0.32454403747219479 -0.1081839716812668 0 -0.34030971713070318 -0.087052614945596102 0 -0.32454403747219479 -0.1081839716812668 0 -0.34278855512837281 -0.1049294584887832 0 -0.31968159473222052 -0.091584555267719248 0 -0.34030971713070318 -0.087052614945596102 0 -0.32454403747219479 -0.1081839716812668 0 -0.34030971713070318 -0.087052614945596102 0 -0.32454403747219479 -0.1081839716812668 0 -0.32454403747219479 -0.1081839716812668 0 -0.34278855512837281 -0.1049294584887832 0 -0.33570809008837621 -0.11845594114356341 0 -0.33570809008837621 -0.11845594114356341 0 -0.35404294059136687 -0.1217835462641018 0 -0.33688620478323589 -0.13358080389391511 0 -0.34278855512837281 -0.1049294584887832 0 -0.35404294059136687 -0.1217835462641018 0 -0.35932798989652742 -0.1047455147758234 0 -0.34278855512837281 -0.1049294584887832 0 -0.33570809008837621 -0.11845594114356341 0 -0.35404294059136687 -0.1217835462641018 0 -0.34278855512837281 -0.1049294584887832 0 -0.35932798989652742 -0.1047455147758234 0 -0.35079718399447979 -0.093651592615473511 0 -0.34030971713070318 -0.087052614945596102 0 -0.34278855512837281 -0.1049294584887832 0 -0.35079718399447979 -0.093651592615473511 0 -0.35932798989652742 -0.1047455147758234 0 -0.35079718399447979 -0.093651592615473511 0 -0.36132419909701757 -0.091459041133748031 0 -0.35932798989652742 -0.1047455147758234 0 -0.37367929427193591 -0.1014825750548952 0 -0.37212838853434238 -0.11808059788504249 0 -0.35932798989652742 -0.1047455147758234 0 -0.37367929427193591 -0.1014825750548952 0 -0.36132419909701757 -0.091459041133748031 0 -0.35404294059136687 -0.1217835462641018 0 -0.37212838853434238 -0.11808059788504249 0 -0.37028068739271691 -0.13083580994494901 0 -0.35404294059136687 -0.1217835462641018 0 -0.35932798989652742 -0.1047455147758234 0 -0.37212838853434238 -0.11808059788504249 0 -0.35069420168351129 -0.07223638641294812 0 -0.34745734249292459 -0.081176736816750444 0 -0.36882665317829499 -0.078032107790563188 0 -0.36882665317829499 -0.078032107790563188 0 -0.3489658634393657 -0.058384012082006782 0 -0.35069420168351129 -0.07223638641294812 0 -0.36882665317829499 -0.078032107790563188 0 -0.3489658634393657 -0.058384012082006782 0 -0.33752694762346008 -0.07135268896247253 0 -0.35069420168351129 -0.07223638641294812 0 -0.3489658634393657 -0.058384012082006782 0 -0.33752694762346008 -0.07135268896247253 0 -0.35069420168351129 -0.07223638641294812 0 -0.34745734249292459 -0.081176736816750444 0 -0.34745734249292459 -0.081176736816750444 0 -0.36882665317829499 -0.078032107790563188 0 -0.34745734249292459 -0.081176736816750444 0 -0.36132419909701757 -0.091459041133748031 0 -0.36882665317829499 -0.078032107790563188 0 -0.34030971713070318 -0.087052614945596102 0 -0.34745734249292459 -0.081176736816750444 0 -0.35079718399447979 -0.093651592615473511 0 -0.34745734249292459 -0.081176736816750444 0 -0.35079718399447979 -0.093651592615473511 0 -0.36132419909701757 -0.091459041133748031 0 -0.37367929427193591 -0.1014825750548952 0 -0.36132419909701757 -0.091459041133748031 0 -0.36882665317829499 -0.078032107790563188 0 -0.36882665317829499 -0.078032107790563188 0 -0.36862349457690058 -0.057461967220355487 0 -0.3489658634393657 -0.058384012082006782 0 -0.36882665317829499 -0.078032107790563188 0 -0.36862349457690058 -0.057461967220355487 0 -0.37947166312044489 -0.067272628224985004 0 -0.36862349457690058 -0.057461967220355487 0 -0.3489658634393657 -0.058384012082006782 0 -0.36066681755822472 -0.045118253717945672 0 -0.36862349457690058 -0.057461967220355487 0 -0.37355784227175309 -0.045246792894939887 0 -0.3815482533063424 -0.052412606119804542 0 -0.36862349457690058 -0.057461967220355487 0 -0.36066681755822472 -0.045118253717945672 0 -0.37355784227175309 -0.045246792894939887 0 -0.3489658634393657 -0.058384012082006782 0 -0.36066681755822472 -0.045118253717945672 0 -0.3489658634393657 -0.058384012082006782 0 -0.34511111307690212 -0.046137334811030092 0 -0.36066681755822472 -0.045118253717945672 0 -0.35304062521722218 -0.036039659744318157 0 -0.3553139768507978 -0.023567241021099371 0 -0.33371347875736079 -0.040226824134751989 0 -0.34511111307690212 -0.046137334811030092 0 -0.35304062521722218 -0.036039659744318157 0 -0.33371347875736079 -0.040226824134751989 0 -0.34511111307690212 -0.046137334811030092 0 -0.35304062521722218 -0.036039659744318157 0 -0.36066681755822472 -0.045118253717945672 0 -0.36066681755822472 -0.045118253717945672 0 -0.37236777167708351 -0.031852495353884333 0 -0.35304062521722218 -0.036039659744318157 0 -0.37236777167708351 -0.031852495353884333 0 -0.35304062521722218 -0.036039659744318157 0 -0.36066681755822472 -0.045118253717945672 0 -0.37236777167708351 -0.031852495353884333 0 -0.36066681755822472 -0.045118253717945672 0 -0.37355784227175309 -0.045246792894939887 0 -0.37236777167708351 -0.031852495353884333 0 -0.37236777167708351 -0.031852495353884333 0 -0.3739022591900184 -0.02415390189740213 0 -0.36770044175442279 -0.02036669541201027 0 -0.37236777167708351 -0.031852495353884333 0 -0.36770044175442279 -0.02036669541201027 0 -0.3553139768507978 -0.023567241021099371 0 -0.36770044175442279 -0.02036669541201027 0 -0.35847393927256738 -0.010652033510738681 0 -0.38297625517291389 -0.017448943304264108 0 -0.35304062521722218 -0.036039659744318157 0 -0.37236777167708351 -0.031852495353884333 0 -0.3553139768507978 -0.023567241021099371 0 -0.3739022591900184 -0.02415390189740213 0 -0.36770044175442279 -0.02036669541201027 0 -0.38297625517291389 -0.017448943304264108 0 -0.36770044175442279 -0.02036669541201027 0 -0.35847393927256738 -0.010652033510738681 0 -0.3553139768507978 -0.023567241021099371 0 -0.35847393927256738 -0.010652033510738681 0 -0.38297625517291389 -0.017448943304264108 0 -0.37278444596104371 -0.0079457960458173115 0 -0.35847393927256738 -0.010652033510738681 0 -0.38297625517291389 -0.017448943304264108 0 -0.37474494217865062 -0.0022388935110706832 0 -0.37278444596104371 -0.0079457960458173115 0 -0.36307869926690151 -0.00068504054922277494 0 -0.37278444596104371 -0.0079457960458173115 0 -0.36307869926690151 -0.00068504054922277494 0 -0.35847393927256738 -0.010652033510738681 0 -0.36307869926690151 -0.00068504054922277494 0 -0.34718119132474479 -0.01384164818341615 0 -0.36064890389212972 0.0125435277679194 0 -0.36307869926690151 -0.00068504054922277494 0 -0.35847393927256738 -0.010652033510738681 0 -0.34718119132474479 -0.01384164818341615 0 -0.34718119132474479 -0.01384164818341615 0 -0.36064890389212972 0.0125435277679194 0 -0.34718119132474479 -0.01384164818341615 0 -0.3553139768507978 -0.023567241021099371 0 -0.33371347875736079 -0.040226824134751989 0 -0.35847393927256738 -0.010652033510738681 0 -0.34718119132474479 -0.01384164818341615 0 -0.3553139768507978 -0.023567241021099371 0 -0.34718119132474479 -0.01384164818341615 0 -0.33035884889608558 -0.02420969997450095 0 -0.33371347875736079 -0.040226824134751989 0 -0.34718119132474479 -0.01384164818341615 0 -0.33371347875736079 -0.040226824134751989 0 -0.34718119132474479 -0.01384164818341615 0 -0.32828291010712762 -0.0049346835118845543 0 -0.34055428987364128 0.0059527955302196532 0 -0.34718119132474479 -0.01384164818341615 0 -0.33035884889608558 -0.02420969997450095 0 -0.32828291010712762 -0.0049346835118845543 0 -0.31144738423897378 -0.02126732740536201 0 -0.32828291010712762 -0.0049346835118845543 0 -0.31177688145040278 0.0050359958776742568 0 -0.31144738423897378 -0.02126732740536201 0 -0.33116928005221918 -0.040778016637091109 0 -0.31144738423897378 -0.02126732740536201 0 -0.33035884889608558 -0.02420969997450095 0 -0.32828291010712762 -0.0049346835118845543 0 -0.31144738423897378 -0.02126732740536201 0 -0.33035884889608558 -0.02420969997450095 0 -0.33116928005221918 -0.040778016637091109 0 -0.3023660715744253 -0.047018139519123002 0 -0.31110423911055801 -0.035316851109560482 0 -0.33116928005221918 -0.040778016637091109 0 -0.3023660715744253 -0.047018139519123002 0 -0.31025625293594222 -0.050033124508212908 0 -0.33116928005221918 -0.040778016637091109 0 -0.3023660715744253 -0.047018139519123002 0 -0.33116928005221918 -0.040778016637091109 0 -0.31144738423897378 -0.02126732740536201 0 -0.31110423911055801 -0.035316851109560482 0 -0.33116928005221918 -0.040778016637091109 0 -0.31025625293594222 -0.050033124508212908 0 -0.31770057673851387 -0.05020147555903863 0 -0.33116928005221918 -0.040778016637091109 0 -0.31025625293594222 -0.050033124508212908 0 -0.31770057673851387 -0.05020147555903863 0 -0.31405483352543062 -0.056831087900065053 0 -0.31770057673851387 -0.05020147555903863 0 -0.31405483352543062 -0.056831087900065053 0 -0.31936567051967829 -0.054711673150449433 0 -0.31630436981946819 -0.062936971351065629 0 -0.31936567051967829 -0.054711673150449433 0 -0.32481687078849097 -0.058022226865728103 0 -0.30728911182784302 -0.064893595009923935 0 -0.31630436981946819 -0.062936971351065629 0 -0.31405483352543062 -0.056831087900065053 0 -0.31630436981946819 -0.062936971351065629 0 -0.31405483352543062 -0.056831087900065053 0 -0.31936567051967829 -0.054711673150449433 0 -0.31770057673851387 -0.05020147555903863 0 -0.32448711316898249 -0.050622394842538963 0 -0.33116928005221918 -0.040778016637091109 0 -0.31936567051967829 -0.054711673150449433 0 -0.32481687078849097 -0.058022226865728103 0 -0.32448711316898249 -0.050622394842538963 0 -0.31770057673851387 -0.05020147555903863 0 -0.31936567051967829 -0.054711673150449433 0 -0.32448711316898249 -0.050622394842538963 0 -0.32481687078849097 -0.058022226865728103 0 -0.32770904195502032 -0.053173566283506987 0 -0.32448711316898249 -0.050622394842538963 0 -0.32770904195502032 -0.053173566283506987 0 -0.32448711316898249 -0.050622394842538963 0 -0.32972533979495861 -0.048040159006195682 0 -0.3489658634393657 -0.058384012082006782 0 -0.34511111307690212 -0.046137334811030092 0 -0.3326728772282519 -0.042265511425067279 0 -0.32972533979495861 -0.048040159006195682 0 -0.33645864726091979 -0.05858208772264157 0 -0.3326728772282519 -0.042265511425067279 0 -0.3489658634393657 -0.058384012082006782 0 -0.3326728772282519 -0.042265511425067279 0 -0.32770904195502032 -0.053173566283506987 0 -0.32972533979495861 -0.048040159006195682 0 -0.33645864726091979 -0.05858208772264157 0 -0.3489658634393657 -0.058384012082006782 0 -0.33645864726091979 -0.05858208772264157 0 -0.3326728772282519 -0.042265511425067279 0 -0.32389808664530562 -0.067702049039115322 0 -0.32481687078849097 -0.058022226865728103 0 -0.33645864726091979 -0.05858208772264157 0 -0.32481687078849097 -0.058022226865728103 0 -0.32770904195502032 -0.053173566283506987 0 -0.33645864726091979 -0.05858208772264157 0 -0.34511111307690212 -0.046137334811030092 0 -0.33371347875736079 -0.040226824134751989 0 -0.3326728772282519 -0.042265511425067279 0 -0.33035884889608558 -0.02420969997450095 0 -0.33116928005221918 -0.040778016637091109 0 -0.33371347875736079 -0.040226824134751989 0 -0.35304062521722218 -0.036039659744318157 0 -0.33371347875736079 -0.040226824134751989 0 -0.32448711316898249 -0.050622394842538963 0 -0.32972533979495861 -0.048040159006195682 0 -0.33116928005221918 -0.040778016637091109 0 -0.33116928005221918 -0.040778016637091109 0 -0.3326728772282519 -0.042265511425067279 0 -0.32972533979495861 -0.048040159006195682 0 -0.3326728772282519 -0.042265511425067279 0 -0.32972533979495861 -0.048040159006195682 0 -0.33116928005221918 -0.040778016637091109 0 -0.3326728772282519 -0.042265511425067279 0 -0.33116928005221918 -0.040778016637091109 0 -0.33371347875736079 -0.040226824134751989 0 -0.33116928005221918 -0.040778016637091109 0 -0.33371347875736079 -0.040226824134751989 0 -0.3326728772282519 -0.042265511425067279 0 -0.33371347875736079 -0.040226824134751989 0 -0.3326728772282519 -0.042265511425067279 0 -0.2907170577323625 -0.25177677077710309 0 -0.30853150187083839 -0.25429835417001312 0 -0.30748271917561598 -0.2431056607245809 0 -0.30748271917561598 -0.2431056607245809 0 -0.3004866401015065 -0.2269264896544945 0 -0.32066485276457768 -0.2334308190911655 0 -0.2907170577323625 -0.25177677077710309 0 -0.30748271917561598 -0.2431056607245809 0 -0.3004866401015065 -0.2269264896544945 0 -0.30853150187083839 -0.25429835417001312 0 -0.30748271917561598 -0.2431056607245809 0 -0.32023222063025569 -0.2489608815952247 0 -0.3004866401015065 -0.2269264896544945 0 -0.27575903677895092 -0.22208668823385669 0 -0.3004866401015065 -0.2269264896544945 0 -0.27309361240676189 -0.24179026653703889 0 -0.27575903677895092 -0.22208668823385669 0 -0.3004866401015065 -0.2269264896544945 0 -0.27575903677895092 -0.22208668823385669 0 -0.29482007196541532 -0.2089319155152673 0 -0.2907170577323625 -0.25177677077710309 0 -0.3004866401015065 -0.2269264896544945 0 -0.27309361240676189 -0.24179026653703889 0 -0.27309361240676189 -0.24179026653703889 0 -0.25431856302814809 -0.24833495949118861 0 -0.25103143345639523 -0.21724688681321891 0 -0.27575903677895092 -0.22208668823385669 0 -0.25103143345639523 -0.21724688681321891 0 -0.27309361240676189 -0.24179026653703889 0 -0.27575903677895092 -0.22208668823385669 0 -0.25103143345639523 -0.21724688681321891 0 -0.27575903677895092 -0.22208668823385669 0 -0.25103143345639523 -0.21724688681321891 0 -0.27708552823660842 -0.19790031786117671 0 -0.25103143345639523 -0.21724688681321891 0 -0.25418198431724581 -0.18809916394242601 0 -0.27708552823660842 -0.19790031786117671 0 -0.27708552823660842 -0.19790031786117671 0 -0.29482007196541532 -0.2089319155152673 0 -0.30195969341908391 -0.19078830755985379 0 -0.29482007196541532 -0.2089319155152673 0 -0.30195969341908391 -0.19078830755985379 0 -0.32674672588845421 -0.2120308859258328 0 -0.3004866401015065 -0.2269264896544945 0 -0.29482007196541532 -0.2089319155152673 0 -0.32674672588845421 -0.2120308859258328 0 -0.27575903677895092 -0.22208668823385669 0 -0.27708552823660842 -0.19790031786117671 0 -0.29482007196541532 -0.2089319155152673 0 -0.30195969341908391 -0.19078830755985379 0 -0.30674796742087651 -0.1684647150882764 0 -0.32123008678095788 -0.18729232698745699 0 -0.30674796742087651 -0.1684647150882764 0 -0.2930126781551784 -0.15044668515260809 0 -0.3206808779707625 -0.15110047818677941 0 -0.27724699849667023 -0.17157804188827869 0 -0.2930126781551784 -0.15044668515260809 0 -0.30674796742087651 -0.1684647150882764 0 -0.27724699849667023 -0.17157804188827869 0 -0.2930126781551784 -0.15044668515260809 0 -0.27708552823660842 -0.19790031786117671 0 -0.30195969341908391 -0.19078830755985379 0 -0.27724699849667023 -0.17157804188827869 0 -0.30195969341908391 -0.19078830755985379 0 -0.30674796742087651 -0.1684647150882764 0 -0.27724699849667023 -0.17157804188827869 0 -0.25418198431724581 -0.18809916394242601 0 -0.27708552823660842 -0.19790031786117671 0 -0.27724699849667023 -0.17157804188827869 0 -0.25418198431724581 -0.18809916394242601 0 -0.2565438833259911 -0.1687602707777138 0 -0.27724699849667023 -0.17157804188827869 0 -0.2435592126657353 -0.1561425335328199 0 -0.2565438833259911 -0.1687602707777138 0 -0.26683780591716472 -0.14870377212940841 0 -0.27724699849667023 -0.17157804188827869 0 -0.26683780591716472 -0.14870377212940841 0 -0.2930126781551784 -0.15044668515260809 0 -0.2565438833259911 -0.1687602707777138 0 -0.27724699849667023 -0.17157804188827869 0 -0.26683780591716472 -0.14870377212940841 0 -0.2435592126657353 -0.1561425335328199 0 -0.2432602079730701 -0.13485583854350039 0 -0.26683780591716472 -0.14870377212940841 0 -0.2432602079730701 -0.13485583854350039 0 -0.26490928006600228 -0.12397715003998409 0 -0.26683780591716472 -0.14870377212940841 0 -0.26490928006600228 -0.12397715003998409 0 -0.26683780591716472 -0.14870377212940841 0 -0.28428672055728371 -0.13281235115180859 0 -0.28428672055728371 -0.13281235115180859 0 -0.2930126781551784 -0.15044668515260809 0 -0.30877835781368662 -0.12931532841693749 0 -0.26683780591716472 -0.14870377212940841 0 -0.28428672055728371 -0.13281235115180859 0 -0.2930126781551784 -0.15044668515260809 0 -0.2930126781551784 -0.15044668515260809 0 -0.30877835781368662 -0.12931532841693749 0 -0.3206808779707625 -0.15110047818677941 0 -0.2930126781551784 -0.15044668515260809 0 -0.30877835781368662 -0.12931532841693749 0 -0.33570809008837621 -0.11845594114356341 0 -0.30877835781368662 -0.12931532841693749 0 -0.33688620478323589 -0.13358080389391511 0 -0.30877835781368662 -0.12931532841693749 0 -0.3206808779707625 -0.15110047818677941 0 -0.33688620478323589 -0.13358080389391511 0 -0.3206808779707625 -0.15110047818677941 0 -0.33688620478323589 -0.13358080389391511 0 -0.34399943231138669 -0.15408109000358611 0 -0.33688620478323589 -0.13358080389391511 0 -0.35929992868189681 -0.1386942596847188 0 -0.35404294059136687 -0.1217835462641018 0 -0.33688620478323589 -0.13358080389391511 0 -0.35929992868189681 -0.1386942596847188 0 -0.35404294059136687 -0.1217835462641018 0 -0.35929992868189681 -0.1386942596847188 0 -0.37028068739271691 -0.13083580994494901 0 -0.35929992868189681 -0.1386942596847188 0 -0.37028068739271691 -0.13083580994494901 0 -0.3804539816512269 -0.14482329966991631 0 -0.35929992868189681 -0.1386942596847188 0 -0.3804539816512269 -0.14482329966991631 0 -0.35929992868189681 -0.1386942596847188 0 -0.3655172116091886 -0.15688196674787641 0 -0.3804539816512269 -0.14482329966991631 0 -0.3655172116091886 -0.15688196674787641 0 -0.3804539816512269 -0.14482329966991631 0 -0.3655172116091886 -0.15688196674787641 0 -0.37839901512320262 -0.15996290040625341 0 -0.3804539816512269 -0.14482329966991631 0 -0.33688620478323589 -0.13358080389391511 0 -0.35929992868189681 -0.1386942596847188 0 -0.34399943231138669 -0.15408109000358611 0 -0.35929992868189681 -0.1386942596847188 0 -0.34399943231138669 -0.15408109000358611 0 -0.3655172116091886 -0.15688196674787641 0 -0.34399943231138669 -0.15408109000358611 0 -0.35323542112630057 -0.1671812377988513 0 -0.3655172116091886 -0.15688196674787641 0 -0.3655172116091886 -0.15688196674787641 0 -0.37378547386561772 -0.17392500984250869 0 -0.37839901512320262 -0.15996290040625341 0 -0.35323542112630057 -0.1671812377988513 0 -0.3655172116091886 -0.15688196674787641 0 -0.37378547386561772 -0.17392500984250869 0 -0.37378547386561772 -0.17392500984250869 0 -0.35240556330307887 -0.18479875362473361 0 -0.36895563931783232 -0.19259611207654981 0 -0.35323542112630057 -0.1671812377988513 0 -0.37378547386561772 -0.17392500984250869 0 -0.35240556330307887 -0.18479875362473361 0 -0.35323542112630057 -0.1671812377988513 0 -0.35240556330307887 -0.18479875362473361 0 -0.33400288196205857 -0.17193246321376471 0 -0.35240556330307887 -0.18479875362473361 0 -0.33400288196205857 -0.17193246321376471 0 -0.33669316521431608 -0.19324526314955739 0 -0.33400288196205857 -0.17193246321376471 0 -0.32123008678095788 -0.18729232698745699 0 -0.33669316521431608 -0.19324526314955739 0 -0.3206808779707625 -0.15110047818677941 0 -0.34399943231138669 -0.15408109000358611 0 -0.33400288196205857 -0.17193246321376471 0 -0.34399943231138669 -0.15408109000358611 0 -0.35323542112630057 -0.1671812377988513 0 -0.33400288196205857 -0.17193246321376471 0 -0.30674796742087651 -0.1684647150882764 0 -0.3206808779707625 -0.15110047818677941 0 -0.33400288196205857 -0.17193246321376471 0 -0.30674796742087651 -0.1684647150882764 0 -0.33400288196205857 -0.17193246321376471 0 -0.32123008678095788 -0.18729232698745699 0 -0.30195969341908391 -0.19078830755985379 0 -0.32123008678095788 -0.18729232698745699 0 -0.32674672588845421 -0.2120308859258328 0 -0.32674672588845421 -0.2120308859258328 0 -0.35024140450074381 -0.20994798342056251 0 -0.32674672588845421 -0.2120308859258328 0 -0.33669316521431608 -0.19324526314955739 0 -0.35024140450074381 -0.20994798342056251 0 -0.32674672588845421 -0.2120308859258328 0 -0.35024140450074381 -0.20994798342056251 0 -0.3377174746324717 -0.2284461722996495 0 -0.32123008678095788 -0.18729232698745699 0 -0.32674672588845421 -0.2120308859258328 0 -0.33669316521431608 -0.19324526314955739 0 -0.35240556330307887 -0.18479875362473361 0 -0.36895563931783232 -0.19259611207654981 0 -0.35024140450074381 -0.20994798342056251 0 -0.35240556330307887 -0.18479875362473361 0 -0.33669316521431608 -0.19324526314955739 0 -0.35024140450074381 -0.20994798342056251 0 -0.36895563931783232 -0.19259611207654981 0 -0.37373608311303341 -0.20786508091529229 0 -0.35024140450074381 -0.20994798342056251 0 -0.37373608311303341 -0.20786508091529229 0 -0.35024140450074381 -0.20994798342056251 0 -0.37373608311303341 -0.20786508091529229 0 -0.35024140450074381 -0.20994798342056251 0 -0.36602803805366552 -0.21914337572849349 0 -0.37373608311303341 -0.20786508091529229 0 -0.36602803805366552 -0.21914337572849349 0 -0.37785639846487218 -0.21906994256996459 0 -0.35024140450074381 -0.20994798342056251 0 -0.357966965356528 -0.23170644806675769 0 -0.3377174746324717 -0.2284461722996495 0 -0.35024140450074381 -0.20994798342056251 0 -0.357966965356528 -0.23170644806675769 0 -0.36602803805366552 -0.21914337572849349 0 -0.357966965356528 -0.23170644806675769 0 -0.36602803805366552 -0.21914337572849349 0 -0.36983275924353248 -0.22875232439276311 0 -0.36602803805366552 -0.21914337572849349 0 -0.36983275924353248 -0.22875232439276311 0 -0.37785639846487218 -0.21906994256996459 0 -0.357966965356528 -0.23170644806675769 0 -0.36983275924353248 -0.22875232439276311 0 -0.37747963509906429 -0.24508953120583671 0 -0.35872453044413888 -0.25078889886649508 0 -0.357966965356528 -0.23170644806675769 0 -0.37747963509906429 -0.24508953120583671 0 -0.357966965356528 -0.23170644806675769 0 -0.34395992200845399 -0.24382677409400949 0 -0.3377174746324717 -0.2284461722996495 0 -0.35872453044413888 -0.25078889886649508 0 -0.357966965356528 -0.23170644806675769 0 -0.34395992200845399 -0.24382677409400949 0 -0.33345250408021371 -0.25331871279766999 0 -0.34395992200845399 -0.24382677409400949 0 -0.33132333615916232 -0.2411148243472106 0 -0.33345250408021371 -0.25331871279766999 0 -0.33132333615916232 -0.2411148243472106 0 -0.32023222063025569 -0.2489608815952247 0 -0.34395992200845399 -0.24382677409400949 0 -0.33132333615916232 -0.2411148243472106 0 -0.3377174746324717 -0.2284461722996495 0 -0.32674672588845421 -0.2120308859258328 0 -0.3377174746324717 -0.2284461722996495 0 -0.32066485276457768 -0.2334308190911655 0 -0.33132333615916232 -0.2411148243472106 0 -0.3377174746324717 -0.2284461722996495 0 -0.32066485276457768 -0.2334308190911655 0 -0.3004866401015065 -0.2269264896544945 0 -0.32674672588845421 -0.2120308859258328 0 -0.32066485276457768 -0.2334308190911655 0 -0.30748271917561598 -0.2431056607245809 0 -0.32066485276457768 -0.2334308190911655 0 -0.32023222063025569 -0.2489608815952247 0 -0.33132333615916232 -0.2411148243472106 0 -0.32066485276457768 -0.2334308190911655 0 -0.32023222063025569 -0.2489608815952247 0 -0.43445882011373449 -0.25478651907497341 0 -0.43806130733353449 -0.23541812032183559 0 -0.43445882011373449 -0.25478651907497341 0 -0.4258852610480256 -0.24284815888716721 0 -0.43806130733353449 -0.23541812032183559 0 -0.4258852610480256 -0.24284815888716721 0 -0.42538833238501789 -0.2333934851751748 0 -0.41698539980062188 -0.23875950084572559 0 -0.43445882011373449 -0.25478651907497341 0 -0.4258852610480256 -0.24284815888716721 0 -0.42335340856967768 -0.24893549408922019 0 -0.4258852610480256 -0.24284815888716721 0 -0.42538833238501789 -0.2333934851751748 0 -0.43806130733353449 -0.23541812032183559 0 -0.43091611572645672 -0.22699763907763329 0 -0.42538833238501789 -0.2333934851751748 0 -0.43806130733353449 -0.23541812032183559 0 -0.43091611572645672 -0.22699763907763329 0 -0.44166379455333399 -0.21604972156869759 0 -0.43806130733353449 -0.23541812032183559 0 -0.43091611572645672 -0.22699763907763329 0 -0.43133498143110582 -0.21921018883561361 0 -0.44166379455333399 -0.21604972156869759 0 -0.43133498143110582 -0.21921018883561361 0 -0.4232485836513401 -0.22477446532261011 0 -0.4232102070061276 -0.21869015764887889 0 -0.43091611572645672 -0.22699763907763329 0 -0.43133498143110582 -0.21921018883561361 0 -0.4232485836513401 -0.22477446532261011 0 -0.43091611572645672 -0.22699763907763329 0 -0.4232485836513401 -0.22477446532261011 0 -0.42538833238501789 -0.2333934851751748 0 -0.4232485836513401 -0.22477446532261011 0 -0.42538833238501789 -0.2333934851751748 0 -0.41731365953457839 -0.2310953018814938 0 -0.4232485836513401 -0.22477446532261011 0 -0.41731365953457839 -0.2310953018814938 0 -0.4121948509493269 -0.2247325638453028 0 -0.41731365953457839 -0.2310953018814938 0 -0.4080561583250083 -0.23272886934204159 0 -0.41698539980062188 -0.23875950084572559 0 -0.4232485836513401 -0.22477446532261011 0 -0.4121948509493269 -0.2247325638453028 0 -0.41685681033243982 -0.21746512418924929 0 -0.4232485836513401 -0.22477446532261011 0 -0.41685681033243982 -0.21746512418924929 0 -0.4232102070061276 -0.21869015764887889 0 -0.4121948509493269 -0.2247325638453028 0 -0.4080561583250083 -0.23272886934204159 0 -0.39971520205611372 -0.2221352637332015 0 -0.4121948509493269 -0.2247325638453028 0 -0.40807454407470489 -0.21592977391801271 0 -0.41685681033243982 -0.21746512418924929 0 -0.4121948509493269 -0.2247325638453028 0 -0.39971520205611372 -0.2221352637332015 0 -0.40807454407470489 -0.21592977391801271 0 -0.41731365953457839 -0.2310953018814938 0 -0.4121948509493269 -0.2247325638453028 0 -0.4080561583250083 -0.23272886934204159 0 -0.4080561583250083 -0.23272886934204159 0 -0.40983148527785651 -0.24118391776602099 0 -0.41698539980062188 -0.23875950084572559 0 -0.42538833238501789 -0.2333934851751748 0 -0.41731365953457839 -0.2310953018814938 0 -0.41698539980062188 -0.23875950084572559 0 -0.40983148527785651 -0.24118391776602099 0 -0.41698539980062188 -0.23875950084572559 0 -0.41627810448972868 -0.24641300060905449 0 -0.4258852610480256 -0.24284815888716721 0 -0.42335340856967768 -0.24893549408922019 0 -0.41627810448972868 -0.24641300060905449 0 -0.4258852610480256 -0.24284815888716721 0 -0.41698539980062188 -0.23875950084572559 0 -0.41627810448972868 -0.24641300060905449 0 -0.41679144862722167 -0.25169429778568547 0 -0.42335340856967768 -0.24893549408922019 0 -0.41627810448972868 -0.24641300060905449 0 -0.41385673751816382 -0.25312989710486528 0 -0.41627810448972868 -0.24641300060905449 0 -0.4086566941719203 -0.24778871483445111 0 -0.40983148527785651 -0.24118391776602099 0 -0.41627810448972868 -0.24641300060905449 0 -0.4086566941719203 -0.24778871483445111 0 -0.40282532782868952 -0.25224285689579767 0 -0.4086566941719203 -0.24778871483445111 0 -0.40022281387448849 -0.24084313907701979 0 -0.40983148527785651 -0.24118391776602099 0 -0.4086566941719203 -0.24778871483445111 0 -0.40022281387448849 -0.24084313907701979 0 -0.4080561583250083 -0.23272886934204159 0 -0.40983148527785651 -0.24118391776602099 0 -0.40022281387448849 -0.24084313907701979 0 -0.40022281387448849 -0.24084313907701979 0 -0.3903832871219331 -0.2411545733314838 0 -0.38772777019650018 -0.2315142496456449 0 -0.3938256931015453 -0.25037754026629511 0 -0.40022281387448849 -0.24084313907701979 0 -0.3903832871219331 -0.2411545733314838 0 -0.3938256931015453 -0.25037754026629511 0 -0.3903832871219331 -0.2411545733314838 0 -0.37747963509906429 -0.24508953120583671 0 -0.3903832871219331 -0.2411545733314838 0 -0.37747963509906429 -0.24508953120583671 0 -0.38772777019650018 -0.2315142496456449 0 -0.37747963509906429 -0.24508953120583671 0 -0.37785639846487218 -0.21906994256996459 0 -0.37747963509906429 -0.24508953120583671 0 -0.37785639846487218 -0.21906994256996459 0 -0.38772777019650018 -0.2315142496456449 0 -0.36983275924353248 -0.22875232439276311 0 -0.37747963509906429 -0.24508953120583671 0 -0.37785639846487218 -0.21906994256996459 0 -0.37785639846487218 -0.21906994256996459 0 -0.38772777019650018 -0.2315142496456449 0 -0.38790285805175961 -0.2167146319195192 0 -0.4080561583250083 -0.23272886934204159 0 -0.40022281387448849 -0.24084313907701979 0 -0.39971520205611372 -0.2221352637332015 0 -0.40022281387448849 -0.24084313907701979 0 -0.39971520205611372 -0.2221352637332015 0 -0.38772777019650018 -0.2315142496456449 0 -0.39971520205611372 -0.2221352637332015 0 -0.38790285805175961 -0.2167146319195192 0 -0.40022281387448849 -0.24084313907701979 0 -0.38772777019650018 -0.2315142496456449 0 -0.39971520205611372 -0.2221352637332015 0 -0.39971520205611372 -0.2221352637332015 0 -0.39723076172532301 -0.205782178410022 0 -0.40807454407470489 -0.21592977391801271 0 -0.39971520205611372 -0.2221352637332015 0 -0.39723076172532301 -0.205782178410022 0 -0.38790285805175961 -0.2167146319195192 0 -0.39723076172532301 -0.205782178410022 0 -0.41303892827123678 -0.21093405469715851 0 -0.40807454407470489 -0.21592977391801271 0 -0.37373608311303341 -0.20786508091529229 0 -0.39723076172532301 -0.205782178410022 0 -0.38370630256805799 -0.1971119561512929 0 -0.37373608311303341 -0.20786508091529229 0 -0.39723076172532301 -0.205782178410022 0 -0.38790285805175961 -0.2167146319195192 0 -0.37373608311303341 -0.20786508091529229 0 -0.39723076172532301 -0.205782178410022 0 -0.37373608311303341 -0.20786508091529229 0 -0.37785639846487218 -0.21906994256996459 0 -0.38790285805175961 -0.2167146319195192 0 -0.36895563931783232 -0.19259611207654981 0 -0.38370630256805799 -0.1971119561512929 0 -0.3831693110633177 -0.1873742460103984 0 -0.36895563931783232 -0.19259611207654981 0 -0.37373608311303341 -0.20786508091529229 0 -0.38370630256805799 -0.1971119561512929 0 -0.38370630256805799 -0.1971119561512929 0 -0.39543971762078378 -0.19194216334420211 0 -0.3831693110633177 -0.1873742460103984 0 -0.39723076172532301 -0.205782178410022 0 -0.38370630256805799 -0.1971119561512929 0 -0.39543971762078378 -0.19194216334420211 0 -0.39723076172532301 -0.205782178410022 0 -0.39543971762078378 -0.19194216334420211 0 -0.40534117689708921 -0.19634387975323889 0 -0.39543971762078378 -0.19194216334420211 0 -0.40534117689708921 -0.19634387975323889 0 -0.40730162077548249 -0.18407395049314179 0 -0.39723076172532301 -0.205782178410022 0 -0.40534117689708921 -0.19634387975323889 0 -0.42072544033761272 -0.20369927590475301 0 -0.42032122747045741 -0.1927313373696285 0 -0.42072544033761272 -0.20369927590475301 0 -0.40730162077548249 -0.18407395049314179 0 -0.42072544033761272 -0.20369927590475301 0 -0.40730162077548249 -0.18407395049314179 0 -0.40534117689708921 -0.19634387975323889 0 -0.42072544033761272 -0.20369927590475301 0 -0.40730162077548249 -0.18407395049314179 0 -0.39723076172532301 -0.205782178410022 0 -0.41303892827123678 -0.21093405469715851 0 -0.42072544033761272 -0.20369927590475301 0 -0.39723076172532301 -0.205782178410022 0 -0.42072544033761272 -0.20369927590475301 0 -0.41303892827123678 -0.21093405469715851 0 -0.40807454407470489 -0.21592977391801271 0 -0.41685681033243982 -0.21746512418924929 0 -0.41303892827123678 -0.21093405469715851 0 -0.41685681033243982 -0.21746512418924929 0 -0.42140045260962489 -0.21331085224804261 0 -0.41685681033243982 -0.21746512418924929 0 -0.42140045260962489 -0.21331085224804261 0 -0.4232102070061276 -0.21869015764887889 0 -0.41303892827123678 -0.21093405469715851 0 -0.42140045260962489 -0.21331085224804261 0 -0.42072544033761272 -0.20369927590475301 0 -0.42512182626149492 -0.2033095177213731 0 -0.43378961613155448 -0.20908682079381441 0 -0.44184138868315109 -0.20247798044170351 0 -0.42072544033761272 -0.20369927590475301 0 -0.42512182626149492 -0.2033095177213731 0 -0.43133498143110582 -0.21921018883561361 0 -0.42072544033761272 -0.20369927590475301 0 -0.42512182626149492 -0.2033095177213731 0 -0.43133498143110582 -0.21921018883561361 0 -0.42512182626149492 -0.2033095177213731 0 -0.43378961613155448 -0.20908682079381441 0 -0.43133498143110582 -0.21921018883561361 0 -0.42140045260962489 -0.21331085224804261 0 -0.4232102070061276 -0.21869015764887889 0 -0.43133498143110582 -0.21921018883561361 0 -0.42072544033761272 -0.20369927590475301 0 -0.43133498143110582 -0.21921018883561361 0 -0.42140045260962489 -0.21331085224804261 0 -0.42072544033761272 -0.20369927590475301 0 -0.43133498143110582 -0.21921018883561361 0 -0.43378961613155448 -0.20908682079381441 0 -0.44166379455333399 -0.21604972156869759 0 -0.42032122747045741 -0.1927313373696285 0 -0.44184138868315109 -0.20247798044170351 0 -0.42032122747045741 -0.1927313373696285 0 -0.43099962817645188 -0.18319011649723049 0 -0.43833565968517207 -0.19112957676178299 0 -0.42032122747045741 -0.1927313373696285 0 -0.42512182626149492 -0.2033095177213731 0 -0.44184138868315109 -0.20247798044170351 0 -0.42032122747045741 -0.1927313373696285 0 -0.43833565968517207 -0.19112957676178299 0 -0.44184138868315109 -0.20247798044170351 0 -0.42032122747045741 -0.1927313373696285 0 -0.42072544033761272 -0.20369927590475301 0 -0.42512182626149492 -0.2033095177213731 0 -0.42549584187692119 -0.17333418479170171 0 -0.43099962817645188 -0.18319011649723049 0 -0.41834400919125792 -0.18158621355319651 0 -0.42032122747045741 -0.1927313373696285 0 -0.43099962817645188 -0.18319011649723049 0 -0.41834400919125792 -0.18158621355319651 0 -0.43099962817645188 -0.18319011649723049 0 -0.43495901877196291 -0.17485617288990979 0 -0.44455133712372419 -0.18300714728765441 0 -0.42549584187692119 -0.17333418479170171 0 -0.43099962817645188 -0.18319011649723049 0 -0.43495901877196291 -0.17485617288990979 0 -0.42549584187692119 -0.17333418479170171 0 -0.43495901877196291 -0.17485617288990979 0 -0.43155613508544272 -0.1669321437644439 0 -0.43495901877196291 -0.17485617288990979 0 -0.43155613508544272 -0.1669321437644439 0 -0.44219215159727421 -0.16781727210851849 0 -0.43155613508544272 -0.1669321437644439 0 -0.43166640735559808 -0.1552039120346444 0 -0.44219215159727421 -0.16781727210851849 0 -0.43155613508544272 -0.1669321437644439 0 -0.4214232379976206 -0.16216052115063159 0 -0.43166640735559808 -0.1552039120346444 0 -0.42549584187692119 -0.17333418479170171 0 -0.43155613508544272 -0.1669321437644439 0 -0.4214232379976206 -0.16216052115063159 0 -0.42549584187692119 -0.17333418479170171 0 -0.4214232379976206 -0.16216052115063159 0 -0.41110577652129249 -0.1670682470007229 0 -0.4214232379976206 -0.16216052115063159 0 -0.41110577652129249 -0.1670682470007229 0 -0.40669002996807779 -0.1495058137550834 0 -0.41110577652129249 -0.1670682470007229 0 -0.41834400919125792 -0.18158621355319651 0 -0.40730162077548249 -0.18407395049314179 0 -0.42549584187692119 -0.17333418479170171 0 -0.41110577652129249 -0.1670682470007229 0 -0.41834400919125792 -0.18158621355319651 0 -0.42032122747045741 -0.1927313373696285 0 -0.41834400919125792 -0.18158621355319651 0 -0.40730162077548249 -0.18407395049314179 0 -0.39543971762078378 -0.19194216334420211 0 -0.40730162077548249 -0.18407395049314179 0 -0.39267839793348491 -0.17927693187167279 0 -0.40730162077548249 -0.18407395049314179 0 -0.39267839793348491 -0.17927693187167279 0 -0.39387780121335469 -0.16444862508152899 0 -0.40730162077548249 -0.18407395049314179 0 -0.39387780121335469 -0.16444862508152899 0 -0.37378547386561772 -0.17392500984250869 0 -0.36895563931783232 -0.19259611207654981 0 -0.3831693110633177 -0.1873742460103984 0 -0.37378547386561772 -0.17392500984250869 0 -0.39267839793348491 -0.17927693187167279 0 -0.3831693110633177 -0.1873742460103984 0 -0.37378547386561772 -0.17392500984250869 0 -0.39267839793348491 -0.17927693187167279 0 -0.39387780121335469 -0.16444862508152899 0 -0.39543971762078378 -0.19194216334420211 0 -0.39267839793348491 -0.17927693187167279 0 -0.3831693110633177 -0.1873742460103984 0 -0.37378547386561772 -0.17392500984250869 0 -0.37839901512320262 -0.15996290040625341 0 -0.39387780121335469 -0.16444862508152899 0 -0.37839901512320262 -0.15996290040625341 0 -0.39387780121335469 -0.16444862508152899 0 -0.3804539816512269 -0.14482329966991631 0 -0.41110577652129249 -0.1670682470007229 0 -0.39387780121335469 -0.16444862508152899 0 -0.40669002996807779 -0.1495058137550834 0 -0.41110577652129249 -0.1670682470007229 0 -0.40730162077548249 -0.18407395049314179 0 -0.39387780121335469 -0.16444862508152899 0 -0.39387780121335469 -0.16444862508152899 0 -0.3804539816512269 -0.14482329966991631 0 -0.40669002996807779 -0.1495058137550834 0 -0.3804539816512269 -0.14482329966991631 0 -0.39647179587780151 -0.13189450107720049 0 -0.40669002996807779 -0.1495058137550834 0 -0.3804539816512269 -0.14482329966991631 0 -0.40669002996807779 -0.1495058137550834 0 -0.39387780121335469 -0.16444862508152899 0 -0.3804539816512269 -0.14482329966991631 0 -0.3804539816512269 -0.14482329966991631 0 -0.38278168804071749 -0.12940228238898679 0 -0.39647179587780151 -0.13189450107720049 0 -0.3804539816512269 -0.14482329966991631 0 -0.39647179587780151 -0.13189450107720049 0 -0.37212838853434238 -0.11808059788504249 0 -0.37028068739271691 -0.13083580994494901 0 -0.38278168804071749 -0.12940228238898679 0 -0.37028068739271691 -0.13083580994494901 0 -0.3804539816512269 -0.14482329966991631 0 -0.38278168804071749 -0.12940228238898679 0 -0.38278168804071749 -0.12940228238898679 0 -0.39647179587780151 -0.13189450107720049 0 -0.39044023874876249 -0.11757149150947201 0 -0.39647179587780151 -0.13189450107720049 0 -0.40828286160401828 -0.1310364195873514 0 -0.40669002996807779 -0.1495058137550834 0 -0.39647179587780151 -0.13189450107720049 0 -0.40828286160401828 -0.1310364195873514 0 -0.41122993917504558 -0.1199812866788818 0 -0.39647179587780151 -0.13189450107720049 0 -0.41122993917504558 -0.1199812866788818 0 -0.40828286160401828 -0.1310364195873514 0 -0.41930562378398423 -0.12797048681614909 0 -0.41122993917504558 -0.1199812866788818 0 -0.41930562378398423 -0.12797048681614909 0 -0.41533589961201212 -0.13938201891822019 0 -0.4273858072007774 -0.14414008567558009 0 -0.40828286160401828 -0.1310364195873514 0 -0.41533589961201212 -0.13938201891822019 0 -0.40669002996807779 -0.1495058137550834 0 -0.40828286160401828 -0.1310364195873514 0 -0.41930562378398423 -0.12797048681614909 0 -0.41533589961201212 -0.13938201891822019 0 -0.40669002996807779 -0.1495058137550834 0 -0.43166640735559808 -0.1552039120346444 0 -0.4214232379976206 -0.16216052115063159 0 -0.40669002996807779 -0.1495058137550834 0 -0.43166640735559808 -0.1552039120346444 0 -0.41533589961201212 -0.13938201891822019 0 -0.40669002996807779 -0.1495058137550834 0 -0.4273858072007774 -0.14414008567558009 0 -0.40669002996807779 -0.1495058137550834 0 -0.4273858072007774 -0.14414008567558009 0 -0.43166640735559808 -0.1552039120346444 0 -0.43166640735559808 -0.1552039120346444 0 -0.43525592456887258 -0.14374997194848471 0 -0.44410307239699631 -0.15282998285397989 0 -0.4273858072007774 -0.14414008567558009 0 -0.43166640735559808 -0.1552039120346444 0 -0.43525592456887258 -0.14374997194848471 0 -0.41930562378398423 -0.12797048681614909 0 -0.43525592456887258 -0.14374997194848471 0 -0.41930562378398423 -0.12797048681614909 0 -0.4273858072007774 -0.14414008567558009 0 -0.43525592456887258 -0.14374997194848471 0 -0.41930562378398423 -0.12797048681614909 0 -0.4273858072007774 -0.14414008567558009 0 -0.41930562378398423 -0.12797048681614909 0 -0.43525592456887258 -0.14374997194848471 0 -0.43389101300267191 -0.13422730327376839 0 -0.41930562378398423 -0.12797048681614909 0 -0.43389101300267191 -0.13422730327376839 0 -0.4149348530849476 -0.1169905694289516 0 -0.43389101300267191 -0.13422730327376839 0 -0.4149348530849476 -0.1169905694289516 0 -0.43389101300267191 -0.13422730327376839 0 -0.43160182387889101 -0.1187955019330571 0 -0.44085253015216358 -0.1237950587173612 0 -0.43389101300267191 -0.13422730327376839 0 -0.44872577578551592 -0.13320174295465559 0 -0.452847172920396 -0.1514640371185853 0 -0.44872577578551592 -0.13320174295465559 0 -0.45896755277767909 -0.12575633132281341 0 -0.45000974795797011 -0.119430952696417 0 -0.44872577578551592 -0.13320174295465559 0 -0.45000974795797011 -0.119430952696417 0 -0.44085253015216358 -0.1237950587173612 0 -0.43389101300267191 -0.13422730327376839 0 -0.44872577578551592 -0.13320174295465559 0 -0.44085253015216358 -0.1237950587173612 0 -0.43525592456887258 -0.14374997194848471 0 -0.43389101300267191 -0.13422730327376839 0 -0.452847172920396 -0.1514640371185853 0 -0.43525592456887258 -0.14374997194848471 0 -0.44410307239699631 -0.15282998285397989 0 -0.452847172920396 -0.1514640371185853 0 -0.44872577578551592 -0.13320174295465559 0 -0.452847172920396 -0.1514640371185853 0 -0.456386085566235 -0.14096643446963419 0 -0.43389101300267191 -0.13422730327376839 0 -0.452847172920396 -0.1514640371185853 0 -0.44410307239699631 -0.15282998285397989 0 -0.452847172920396 -0.1514640371185853 0 -0.45664278474311831 -0.16090201031420531 0 -0.452847172920396 -0.1514640371185853 0 -0.456386085566235 -0.14096643446963419 0 -0.46738274896045578 -0.15003021006820461 0 -0.452847172920396 -0.1514640371185853 0 -0.46738274896045578 -0.15003021006820461 0 -0.45664278474311831 -0.16090201031420531 0 -0.456386085566235 -0.14096643446963419 0 -0.46738274896045578 -0.15003021006820461 0 -0.47200539146090159 -0.13839174763128981 0 -0.456386085566235 -0.14096643446963419 0 -0.47200539146090159 -0.13839174763128981 0 -0.47750202174635031 -0.1215216316744509 0 -0.456386085566235 -0.14096643446963419 0 -0.45896755277767909 -0.12575633132281341 0 -0.47750202174635031 -0.1215216316744509 0 -0.456386085566235 -0.14096643446963419 0 -0.47750202174635031 -0.1215216316744509 0 -0.44872577578551592 -0.13320174295465559 0 -0.456386085566235 -0.14096643446963419 0 -0.45896755277767909 -0.12575633132281341 0 -0.47200539146090159 -0.13839174763128981 0 -0.48675070957056549 -0.14104871431286931 0 -0.47750202174635031 -0.1215216316744509 0 -0.50000000000000011 -0.12648838757554831 0 -0.48675070957056549 -0.14104871431286931 0 -0.5 -0.15043640832747529 0 -0.50000000000000011 -0.12648838757554831 0 -0.48675070957056549 -0.14104871431286931 0 -0.47750202174635031 -0.1215216316744509 0 -0.48675070957056549 -0.14104871431286931 0 -0.5 -0.15043640832747529 0 -0.48062174440056549 -0.15969986187448909 0 -0.46738274896045578 -0.15003021006820461 0 -0.47200539146090159 -0.13839174763128981 0 -0.48675070957056549 -0.14104871431286931 0 -0.48675070957056549 -0.14104871431286931 0 -0.48062174440056549 -0.15969986187448909 0 -0.46738274896045578 -0.15003021006820461 0 -0.48675070957056549 -0.14104871431286931 0 -0.48062174440056549 -0.15969986187448909 0 -0.48062174440056549 -0.15969986187448909 0 -0.46548313673471758 -0.16971310035941381 0 -0.46753260370971428 -0.1600862956540782 0 -0.46738274896045578 -0.15003021006820461 0 -0.48062174440056549 -0.15969986187448909 0 -0.46753260370971428 -0.1600862956540782 0 -0.48062174440056549 -0.15969986187448909 0 -0.47449277923056221 -0.17835100943610771 0 -0.46548313673471758 -0.16971310035941381 0 -0.48062174440056549 -0.15969986187448909 0 -0.47449277923056221 -0.17835100943610771 0 -0.5 -0.15043640832747529 0 -0.48062174440056549 -0.15969986187448909 0 -0.49999999999999828 -0.17438442907940241 0 -0.48062174440056549 -0.15969986187448909 0 -0.49999999999999828 -0.17438442907940241 0 -0.47449277923056221 -0.17835100943610771 0 -0.49999999999999828 -0.17438442907940241 0 -0.47449277923056221 -0.17835100943610771 0 -0.49999999999999828 -0.17438442907940241 0 -0.47449277923056221 -0.17835100943610771 0 -0.48549376880548989 -0.19132810400505559 0 -0.47449277923056221 -0.17835100943610771 0 -0.46892716456320649 -0.19528781647494389 0 -0.47449277923056221 -0.17835100943610771 0 -0.45952205817714309 -0.18067907836188021 0 -0.46892716456320649 -0.19528781647494389 0 -0.45952205817714309 -0.18067907836188021 0 -0.46548313673471758 -0.16971310035941381 0 -0.45289664290439807 -0.17180374819378549 0 -0.47449277923056221 -0.17835100943610771 0 -0.45952205817714309 -0.18067907836188021 0 -0.47449277923056221 -0.17835100943610771 0 -0.45952205817714309 -0.18067907836188021 0 -0.46548313673471758 -0.16971310035941381 0 -0.46548313673471758 -0.16971310035941381 0 -0.46753260370971428 -0.1600862956540782 0 -0.45664278474311831 -0.16090201031420531 0 -0.46738274896045578 -0.15003021006820461 0 -0.46753260370971428 -0.1600862956540782 0 -0.45664278474311831 -0.16090201031420531 0 -0.46548313673471758 -0.16971310035941381 0 -0.45664278474311831 -0.16090201031420531 0 -0.45289664290439807 -0.17180374819378549 0 -0.45664278474311831 -0.16090201031420531 0 -0.45289664290439807 -0.17180374819378549 0 -0.44219215159727421 -0.16781727210851849 0 -0.43166640735559808 -0.1552039120346444 0 -0.45664278474311831 -0.16090201031420531 0 -0.44219215159727421 -0.16781727210851849 0 -0.43166640735559808 -0.1552039120346444 0 -0.45664278474311831 -0.16090201031420531 0 -0.43166640735559808 -0.1552039120346444 0 -0.44410307239699631 -0.15282998285397989 0 -0.45664278474311831 -0.16090201031420531 0 -0.43495901877196291 -0.17485617288990979 0 -0.44219215159727421 -0.16781727210851849 0 -0.44455133712372419 -0.18300714728765441 0 -0.43099962817645188 -0.18319011649723049 0 -0.44455133712372419 -0.18300714728765441 0 -0.43833565968517207 -0.19112957676178299 0 -0.45952205817714309 -0.18067907836188021 0 -0.44455133712372419 -0.18300714728765441 0 -0.45396471697207569 -0.194241302212698 0 -0.45952205817714309 -0.18067907836188021 0 -0.44455133712372419 -0.18300714728765441 0 -0.45952205817714309 -0.18067907836188021 0 -0.45289664290439807 -0.17180374819378549 0 -0.44455133712372419 -0.18300714728765441 0 -0.45289664290439807 -0.17180374819378549 0 -0.44219215159727421 -0.16781727210851849 0 -0.44455133712372419 -0.18300714728765441 0 -0.44455133712372419 -0.18300714728765441 0 -0.43833565968517207 -0.19112957676178299 0 -0.45396471697207569 -0.194241302212698 0 -0.43833565968517207 -0.19112957676178299 0 -0.44184138868315109 -0.20247798044170351 0 -0.45396471697207569 -0.194241302212698 0 -0.44184138868315109 -0.20247798044170351 0 -0.46336154989584488 -0.2122246235137781 0 -0.45396471697207569 -0.194241302212698 0 -0.44184138868315109 -0.20247798044170351 0 -0.46336154989584488 -0.2122246235137781 0 -0.45338394269579491 -0.2190794284651259 0 -0.43378961613155448 -0.20908682079381441 0 -0.44184138868315109 -0.20247798044170351 0 -0.44166379455333399 -0.21604972156869759 0 -0.44184138868315109 -0.20247798044170351 0 -0.44166379455333399 -0.21604972156869759 0 -0.45338394269579491 -0.2190794284651259 0 -0.44184138868315109 -0.20247798044170351 0 -0.46336154989584488 -0.2122246235137781 0 -0.46336154989584488 -0.2122246235137781 0 -0.46892716456320649 -0.19528781647494389 0 -0.46336154989584488 -0.2122246235137781 0 -0.45396471697207569 -0.194241302212698 0 -0.46892716456320649 -0.19528781647494389 0 -0.45952205817714309 -0.18067907836188021 0 -0.45396471697207569 -0.194241302212698 0 -0.46892716456320649 -0.19528781647494389 0 -0.47449277923056221 -0.17835100943610771 0 -0.46892716456320649 -0.19528781647494389 0 -0.48549376880548989 -0.19132810400505559 0 -0.46892716456320649 -0.19528781647494389 0 -0.48549376880548989 -0.19132810400505559 0 -0.47978640147694102 -0.20418872613165631 0 -0.5 -0.20182215567114031 0 -0.48549376880548989 -0.19132810400505559 0 -0.47978640147694102 -0.20418872613165631 0 -0.49999999999999828 -0.17438442907940241 0 -0.5 -0.20182215567114031 0 -0.48549376880548989 -0.19132810400505559 0 -0.5 -0.20182215567114031 0 -0.48114952412016337 -0.22028093099336349 0 -0.49893749834448198 -0.22833723847294871 0 -0.5 -0.20182215567114031 0 -0.47978640147694102 -0.20418872613165631 0 -0.48114952412016337 -0.22028093099336349 0 -0.46336154989584488 -0.2122246235137781 0 -0.48114952412016337 -0.22028093099336349 0 -0.46336154989584488 -0.2122246235137781 0 -0.47978640147694102 -0.20418872613165631 0 -0.48114952412016337 -0.22028093099336349 0 -0.46336154989584488 -0.2122246235137781 0 -0.46892716456320649 -0.19528781647494389 0 -0.47978640147694102 -0.20418872613165631 0 -0.46336154989584488 -0.2122246235137781 0 -0.48114952412016337 -0.22028093099336349 0 -0.46857810181099829 -0.22486784275082261 0 -0.48114952412016337 -0.22028093099336349 0 -0.48798868478634799 -0.231470988200419 0 -0.47142395938804471 -0.23802335247430181 0 -0.48114952412016337 -0.22028093099336349 0 -0.47142395938804471 -0.23802335247430181 0 -0.46857810181099829 -0.22486784275082261 0 -0.48114952412016337 -0.22028093099336349 0 -0.48798868478634799 -0.231470988200419 0 -0.49893749834448198 -0.22833723847294871 0 -0.48114952412016337 -0.22028093099336349 0 -0.49893749834448198 -0.22833723847294871 0 -0.48798868478634799 -0.231470988200419 0 -0.49893749834448198 -0.22833723847294871 0 -0.4875835208682564 -0.24248539692068891 0 -0.5 -0.25669760885461612 0 -0.49893749834448198 -0.22833723847294871 0 -0.4875835208682564 -0.24248539692068891 0 -0.48798868478634799 -0.231470988200419 0 -0.4875835208682564 -0.24248539692068891 0 -0.47142395938804471 -0.23802335247430181 0 -0.47878778985378329 -0.25835102983948688 0 -0.4875835208682564 -0.24248539692068891 0 -0.47142395938804471 -0.23802335247430181 0 -0.45662330498375908 -0.25656877445722759 0 -0.47142395938804471 -0.23802335247430181 0 -0.45034617445999431 -0.24335722649563979 0 -0.47142395938804471 -0.23802335247430181 0 -0.45735065046854989 -0.23051648340969341 0 -0.45034617445999431 -0.24335722649563979 0 -0.46336154989584488 -0.2122246235137781 0 -0.46857810181099829 -0.22486784275082261 0 -0.45735065046854989 -0.23051648340969341 0 -0.46336154989584488 -0.2122246235137781 0 -0.45735065046854989 -0.23051648340969341 0 -0.47142395938804471 -0.23802335247430181 0 -0.46857810181099829 -0.22486784275082261 0 -0.45735065046854989 -0.23051648340969341 0 -0.46336154989584488 -0.2122246235137781 0 -0.45338394269579491 -0.2190794284651259 0 -0.45735065046854989 -0.23051648340969341 0 -0.45338394269579491 -0.2190794284651259 0 -0.45735065046854989 -0.23051648340969341 0 -0.43806130733353449 -0.23541812032183559 0 -0.44166379455333399 -0.21604972156869759 0 -0.43806130733353449 -0.23541812032183559 0 -0.44166379455333399 -0.21604972156869759 0 -0.45338394269579491 -0.2190794284651259 0 -0.43806130733353449 -0.23541812032183559 0 -0.45735065046854989 -0.23051648340969341 0 -0.45034617445999431 -0.24335722649563979 0 -0.43806130733353449 -0.23541812032183559 0 -0.43445882011373449 -0.25478651907497341 0 -0.45034617445999431 -0.24335722649563979 0 -0.43806130733353449 -0.23541812032183559 0 -0.41324955929443102 -0.038374170610562031 0 -0.41005136228565903 -0.05540387285823338 0 -0.42435348212729052 -0.04457483879584373 0 -0.41324955929443102 -0.038374170610562031 0 -0.41005136228565903 -0.05540387285823338 0 -0.39900851660089293 -0.046429079601448257 0 -0.41324955929443102 -0.038374170610562031 0 -0.40747857107326091 -0.02424585309778798 0 -0.40045416304880688 -0.034240371911693122 0 -0.41005136228565903 -0.05540387285823338 0 -0.4246600563061857 -0.059067830999859447 0 -0.41422906440869389 -0.068128229862373102 0 -0.41005136228565903 -0.05540387285823338 0 -0.4246600563061857 -0.059067830999859447 0 -0.42435348212729052 -0.04457483879584373 0 -0.4246600563061857 -0.059067830999859447 0 -0.42435348212729052 -0.04457483879584373 0 -0.43957367317472601 -0.045089571971719818 0 -0.4246600563061857 -0.059067830999859447 0 -0.43957367317472601 -0.045089571971719818 0 -0.44544580640037118 -0.056213229689383748 0 -0.41324955929443102 -0.038374170610562031 0 -0.42435348212729052 -0.04457483879584373 0 -0.42981912379901888 -0.030443092666165631 0 -0.42435348212729052 -0.04457483879584373 0 -0.42981912379901888 -0.030443092666165631 0 -0.43957367317472601 -0.045089571971719818 0 -0.41302196833726168 -0.01226972299954816 0 -0.4392085005598273 -0.024676348383282701 0 -0.42659341977192161 -0.010103830507352861 0 -0.41302196833726168 -0.01226972299954816 0 -0.4392085005598273 -0.024676348383282701 0 -0.42981912379901888 -0.030443092666165631 0 -0.41673372021425997 -0.022240754673565791 0 -0.4392085005598273 -0.024676348383282701 0 -0.41302196833726168 -0.01226972299954816 0 -0.41673372021425997 -0.022240754673565791 0 -0.4392085005598273 -0.024676348383282701 0 -0.43741768347029059 -0.01288367903972009 0 -0.42659341977192161 -0.010103830507352861 0 -0.4392085005598273 -0.024676348383282701 0 -0.4441818909265971 -0.00998157505946092 0 -0.42578104856505677 0.0031949168855625672 0 -0.43741768347029059 -0.01288367903972009 0 -0.4441818909265971 -0.00998157505946092 0 -0.42578104856505677 0.0031949168855625672 0 -0.43741768347029059 -0.01288367903972009 0 -0.42659341977192161 -0.010103830507352861 0 -0.42578104856505677 0.0031949168855625672 0 -0.43741768347029059 -0.01288367903972009 0 -0.42578104856505677 0.0031949168855625672 0 -0.42659341977192161 -0.010103830507352861 0 -0.41753789792717189 -0.0038843189997757009 0 -0.42578104856505677 0.0031949168855625672 0 -0.42659341977192161 -0.010103830507352861 0 -0.41753789792717189 -0.0038843189997757009 0 -0.41302196833726168 -0.01226972299954816 0 -0.41753789792717189 -0.0038843189997757009 0 -0.41302196833726168 -0.01226972299954816 0 -0.40771050441737638 -0.0035262849216432719 0 -0.41753789792717189 -0.0038843189997757009 0 -0.40771050441737638 -0.0035262849216432719 0 -0.41105156913745711 0.0034129409419674369 0 -0.42981912379901888 -0.030443092666165631 0 -0.40747857107326091 -0.02424585309778798 0 -0.41324955929443102 -0.038374170610562031 0 -0.42981912379901888 -0.030443092666165631 0 -0.40747857107326091 -0.02424585309778798 0 -0.42981912379901888 -0.030443092666165631 0 -0.41673372021425997 -0.022240754673565791 0 -0.40747857107326091 -0.02424585309778798 0 -0.41302196833726168 -0.01226972299954816 0 -0.41673372021425997 -0.022240754673565791 0 -0.40747857107326091 -0.02424585309778798 0 -0.41673372021425997 -0.022240754673565791 0 -0.40747857107326091 -0.02424585309778798 0 -0.40747857107326091 -0.02424585309778798 0 -0.38992317137517202 -0.02804917422583518 0 -0.40747857107326091 -0.02424585309778798 0 -0.38992317137517202 -0.02804917422583518 0 -0.38297625517291389 -0.017448943304264108 0 -0.40747857107326091 -0.02424585309778798 0 -0.38992317137517202 -0.02804917422583518 0 -0.40045416304880688 -0.034240371911693122 0 -0.40747857107326091 -0.02424585309778798 0 -0.39567459441968961 -0.012635194689989219 0 -0.38297625517291389 -0.017448943304264108 0 -0.40747857107326091 -0.02424585309778798 0 -0.38297625517291389 -0.017448943304264108 0 -0.41302196833726168 -0.01226972299954816 0 -0.40747857107326091 -0.02424585309778798 0 -0.39567459441968961 -0.012635194689989219 0 -0.41302196833726168 -0.01226972299954816 0 -0.40771050441737638 -0.0035262849216432719 0 -0.38683543611469601 0.0001369023841863784 0 -0.41302196833726168 -0.01226972299954816 0 -0.39567459441968961 -0.012635194689989219 0 -0.38683543611469601 0.0001369023841863784 0 -0.41302196833726168 -0.01226972299954816 0 -0.38683543611469601 0.0001369023841863784 0 -0.40771050441737638 -0.0035262849216432719 0 -0.38683543611469601 0.0001369023841863784 0 -0.40226596945639398 0.0014711925349297271 0 -0.39567459441968961 -0.012635194689989219 0 -0.38502252263107412 -0.0084426060797158468 0 -0.38683543611469601 0.0001369023841863784 0 -0.39567459441968961 -0.012635194689989219 0 -0.38502252263107412 -0.0084426060797158468 0 -0.38297625517291389 -0.017448943304264108 0 -0.38502252263107412 -0.0084426060797158468 0 -0.38009964520605882 -0.0090403485437739461 0 -0.38297625517291389 -0.017448943304264108 0 -0.37278444596104371 -0.0079457960458173115 0 -0.38009964520605882 -0.0090403485437739461 0 -0.38297625517291389 -0.017448943304264108 0 -0.37474494217865062 -0.0022388935110706832 0 -0.38502252263107412 -0.0084426060797158468 0 -0.38683543611469601 0.0001369023841863784 0 -0.37474494217865062 -0.0022388935110706832 0 -0.38502252263107412 -0.0084426060797158468 0 -0.38009964520605882 -0.0090403485437739461 0 -0.37474494217865062 -0.0022388935110706832 0 -0.37278444596104371 -0.0079457960458173115 0 -0.38009964520605882 -0.0090403485437739461 0 -0.37236777167708351 -0.031852495353884333 0 -0.38992317137517202 -0.02804917422583518 0 -0.37990921189048049 -0.023302515363219579 0 -0.37236777167708351 -0.031852495353884333 0 -0.38992317137517202 -0.02804917422583518 0 -0.38992317137517202 -0.02804917422583518 0 -0.38297625517291389 -0.017448943304264108 0 -0.37990921189048049 -0.023302515363219579 0 -0.3739022591900184 -0.02415390189740213 0 -0.38297625517291389 -0.017448943304264108 0 -0.37990921189048049 -0.023302515363219579 0 -0.37236777167708351 -0.031852495353884333 0 -0.3739022591900184 -0.02415390189740213 0 -0.37990921189048049 -0.023302515363219579 0 -0.37236777167708351 -0.031852495353884333 0 -0.37990921189048049 -0.023302515363219579 0 -0.38458287424021398 -0.039388642062709187 0 -0.39900851660089293 -0.046429079601448257 0 -0.3815482533063424 -0.052412606119804542 0 -0.37355784227175309 -0.045246792894939887 0 -0.37236777167708351 -0.031852495353884333 0 -0.38458287424021398 -0.039388642062709187 0 -0.37236777167708351 -0.031852495353884333 0 -0.38992317137517202 -0.02804917422583518 0 -0.38458287424021398 -0.039388642062709187 0 -0.37355784227175309 -0.045246792894939887 0 -0.38458287424021398 -0.039388642062709187 0 -0.3815482533063424 -0.052412606119804542 0 -0.38458287424021398 -0.039388642062709187 0 -0.39900851660089293 -0.046429079601448257 0 -0.40045416304880688 -0.034240371911693122 0 -0.38992317137517202 -0.02804917422583518 0 -0.38458287424021398 -0.039388642062709187 0 -0.40045416304880688 -0.034240371911693122 0 -0.41324955929443102 -0.038374170610562031 0 -0.39900851660089293 -0.046429079601448257 0 -0.40045416304880688 -0.034240371911693122 0 -0.39900851660089293 -0.046429079601448257 0 -0.39626447370361728 -0.06091275685647668 0 -0.3815482533063424 -0.052412606119804542 0 -0.41005136228565903 -0.05540387285823338 0 -0.39626447370361728 -0.06091275685647668 0 -0.40517181862379281 -0.066558370858305557 0 -0.41005136228565903 -0.05540387285823338 0 -0.39900851660089293 -0.046429079601448257 0 -0.39626447370361728 -0.06091275685647668 0 -0.36862349457690058 -0.057461967220355487 0 -0.3815482533063424 -0.052412606119804542 0 -0.37947166312044489 -0.067272628224985004 0 -0.3815482533063424 -0.052412606119804542 0 -0.37947166312044489 -0.067272628224985004 0 -0.39260231949431601 -0.074533368335879327 0 -0.36882665317829499 -0.078032107790563188 0 -0.39260231949431601 -0.074533368335879327 0 -0.39626447370361728 -0.06091275685647668 0 -0.3815482533063424 -0.052412606119804542 0 -0.39260231949431601 -0.074533368335879327 0 -0.3815482533063424 -0.052412606119804542 0 -0.39260231949431601 -0.074533368335879327 0 -0.36882665317829499 -0.078032107790563188 0 -0.37947166312044489 -0.067272628224985004 0 -0.39260231949431601 -0.074533368335879327 0 -0.36882665317829499 -0.078032107790563188 0 -0.39260231949431601 -0.074533368335879327 0 -0.39002829617667018 -0.099006697234722524 0 -0.36882665317829499 -0.078032107790563188 0 -0.39002829617667018 -0.099006697234722524 0 -0.37367929427193591 -0.1014825750548952 0 -0.36882665317829499 -0.078032107790563188 0 -0.39002829617667018 -0.099006697234722524 0 -0.39260231949431601 -0.074533368335879327 0 -0.39002829617667018 -0.099006697234722524 0 -0.39510370691593599 -0.098958215311000047 0 -0.39260231949431601 -0.074533368335879327 0 -0.40274583300482147 -0.094831984843681591 0 -0.39260231949431601 -0.074533368335879327 0 -0.39510370691593599 -0.098958215311000047 0 -0.40274583300482147 -0.094831984843681591 0 -0.40361170428446441 -0.083317353290434007 0 -0.39260231949431601 -0.074533368335879327 0 -0.40274583300482147 -0.094831984843681591 0 -0.40361170428446441 -0.083317353290434007 0 -0.39867569396630093 -0.073639632925658519 0 -0.40696916935602839 -0.074517235882718885 0 -0.39867569396630093 -0.073639632925658519 0 -0.40517181862379281 -0.066558370858305557 0 -0.40696916935602839 -0.074517235882718885 0 -0.39626447370361728 -0.06091275685647668 0 -0.39867569396630093 -0.073639632925658519 0 -0.40517181862379281 -0.066558370858305557 0 -0.39626447370361728 -0.06091275685647668 0 -0.39867569396630093 -0.073639632925658519 0 -0.39260231949431601 -0.074533368335879327 0 -0.40361170428446441 -0.083317353290434007 0 -0.39867569396630093 -0.073639632925658519 0 -0.39260231949431601 -0.074533368335879327 0 -0.39867569396630093 -0.073639632925658519 0 -0.39260231949431601 -0.074533368335879327 0 -0.37212838853434238 -0.11808059788504249 0 -0.38278168804071749 -0.12940228238898679 0 -0.39044023874876249 -0.11757149150947201 0 -0.37367929427193591 -0.1014825750548952 0 -0.37212838853434238 -0.11808059788504249 0 -0.39044023874876249 -0.11757149150947201 0 -0.37367929427193591 -0.1014825750548952 0 -0.39044023874876249 -0.11757149150947201 0 -0.39002829617667018 -0.099006697234722524 0 -0.39510370691593599 -0.098958215311000047 0 -0.40274583300482147 -0.094831984843681591 0 -0.41288934651532883 -0.11513060135148299 0 -0.39002829617667018 -0.099006697234722524 0 -0.39510370691593599 -0.098958215311000047 0 -0.41122993917504558 -0.1199812866788818 0 -0.39510370691593599 -0.098958215311000047 0 -0.41288934651532883 -0.11513060135148299 0 -0.39647179587780151 -0.13189450107720049 0 -0.39044023874876249 -0.11757149150947201 0 -0.41122993917504558 -0.1199812866788818 0 -0.39002829617667018 -0.099006697234722524 0 -0.41122993917504558 -0.1199812866788818 0 -0.39044023874876249 -0.11757149150947201 0 -0.39002829617667018 -0.099006697234722524 0 -0.41122993917504558 -0.1199812866788818 0 -0.39510370691593599 -0.098958215311000047 0 -0.41122993917504558 -0.1199812866788818 0 -0.41288934651532883 -0.11513060135148299 0 -0.41930562378398423 -0.12797048681614909 0 -0.41122993917504558 -0.1199812866788818 0 -0.4149348530849476 -0.1169905694289516 0 -0.41930562378398423 -0.12797048681614909 0 -0.41122993917504558 -0.1199812866788818 0 -0.41930562378398423 -0.12797048681614909 0 -0.4149348530849476 -0.1169905694289516 0 -0.41122993917504558 -0.1199812866788818 0 -0.41288934651532883 -0.11513060135148299 0 -0.4149348530849476 -0.1169905694289516 0 -0.41122993917504558 -0.1199812866788818 0 -0.4149348530849476 -0.1169905694289516 0 -0.41288934651532883 -0.11513060135148299 0 -0.4149348530849476 -0.1169905694289516 0 -0.41288934651532883 -0.11513060135148299 0 -0.4149348530849476 -0.1169905694289516 0 -0.41458672172207622 -0.10427776634057311 0 -0.40274583300482147 -0.094831984843681591 0 -0.41288934651532883 -0.11513060135148299 0 -0.4149348530849476 -0.1169905694289516 0 -0.41458672172207622 -0.10427776634057311 0 -0.43059848591229039 -0.1043464168163742 0 -0.40274583300482147 -0.094831984843681591 0 -0.41288934651532883 -0.11513060135148299 0 -0.41458672172207622 -0.10427776634057311 0 -0.41458672172207622 -0.10427776634057311 0 -0.41348552386521947 -0.090840815536544176 0 -0.43025813067654672 -0.08737754853092726 0 -0.40274583300482147 -0.094831984843681591 0 -0.41458672172207622 -0.10427776634057311 0 -0.41348552386521947 -0.090840815536544176 0 -0.43059848591229039 -0.1043464168163742 0 -0.43025813067654672 -0.08737754853092726 0 -0.44626211873963212 -0.091702264203795431 0 -0.41458672172207622 -0.10427776634057311 0 -0.43059848591229039 -0.1043464168163742 0 -0.43025813067654672 -0.08737754853092726 0 -0.41458672172207622 -0.10427776634057311 0 -0.43025813067654672 -0.08737754853092726 0 -0.4149348530849476 -0.1169905694289516 0 -0.43059848591229039 -0.1043464168163742 0 -0.43160182387889101 -0.1187955019330571 0 -0.4149348530849476 -0.1169905694289516 0 -0.43059848591229039 -0.1043464168163742 0 -0.43389101300267191 -0.13422730327376839 0 -0.4149348530849476 -0.1169905694289516 0 -0.43160182387889101 -0.1187955019330571 0 -0.43059848591229039 -0.1043464168163742 0 -0.43160182387889101 -0.1187955019330571 0 -0.44003429013576911 -0.11331979272890801 0 -0.43160182387889101 -0.1187955019330571 0 -0.44085253015216358 -0.1237950587173612 0 -0.44003429013576911 -0.11331979272890801 0 -0.41422906440869389 -0.068128229862373102 0 -0.41539885585273961 -0.080089681603359497 0 -0.42594434486026628 -0.073522222089585226 0 -0.4246600563061857 -0.059067830999859447 0 -0.41422906440869389 -0.068128229862373102 0 -0.42594434486026628 -0.073522222089585226 0 -0.41005136228565903 -0.05540387285823338 0 -0.40517181862379281 -0.066558370858305557 0 -0.41422906440869389 -0.068128229862373102 0 -0.40517181862379281 -0.066558370858305557 0 -0.41422906440869389 -0.068128229862373102 0 -0.40696916935602839 -0.074517235882718885 0 -0.41422906440869389 -0.068128229862373102 0 -0.40696916935602839 -0.074517235882718885 0 -0.41539885585273961 -0.080089681603359497 0 -0.41348552386521947 -0.090840815536544176 0 -0.41539885585273961 -0.080089681603359497 0 -0.43025813067654672 -0.08737754853092726 0 -0.40361170428446441 -0.083317353290434007 0 -0.41348552386521947 -0.090840815536544176 0 -0.41539885585273961 -0.080089681603359497 0 -0.40361170428446441 -0.083317353290434007 0 -0.40696916935602839 -0.074517235882718885 0 -0.41539885585273961 -0.080089681603359497 0 -0.40361170428446441 -0.083317353290434007 0 -0.40274583300482147 -0.094831984843681591 0 -0.41348552386521947 -0.090840815536544176 0 -0.41539885585273961 -0.080089681603359497 0 -0.43025813067654672 -0.08737754853092726 0 -0.42594434486026628 -0.073522222089585226 0 -0.4246600563061857 -0.059067830999859447 0 -0.44592953963101739 -0.07047733072128165 0 -0.43025813067654672 -0.08737754853092726 0 -0.42594434486026628 -0.073522222089585226 0 -0.44592953963101739 -0.07047733072128165 0 -0.4246600563061857 -0.059067830999859447 0 -0.42594434486026628 -0.073522222089585226 0 -0.44592953963101739 -0.07047733072128165 0 -0.44592953963101739 -0.07047733072128165 0 -0.45893666683642192 -0.056450303318209168 0 -0.44592953963101739 -0.07047733072128165 0 -0.44626211873963212 -0.091702264203795431 0 -0.46192575156697407 -0.079058111591217034 0 -0.43025813067654672 -0.08737754853092726 0 -0.44592953963101739 -0.07047733072128165 0 -0.43025813067654672 -0.08737754853092726 0 -0.44592953963101739 -0.07047733072128165 0 -0.44626211873963212 -0.091702264203795431 0 -0.44626211873963212 -0.091702264203795431 0 -0.46631049206888459 -0.091444160656324658 0 -0.46192575156697407 -0.079058111591217034 0 -0.44626211873963212 -0.091702264203795431 0 -0.46192575156697407 -0.079058111591217034 0 -0.46631049206888459 -0.091444160656324658 0 -0.46192575156697407 -0.079058111591217034 0 -0.47702460168979111 -0.087157524427869615 0 -0.44592953963101739 -0.07047733072128165 0 -0.46192575156697407 -0.079058111591217034 0 -0.45893666683642192 -0.056450303318209168 0 -0.46192575156697407 -0.079058111591217034 0 -0.47491389520024407 -0.068573693827893439 0 -0.45893666683642192 -0.056450303318209168 0 -0.46192575156697407 -0.079058111591217034 0 -0.47491389520024407 -0.068573693827893439 0 -0.44592953963101739 -0.07047733072128165 0 -0.46192575156697407 -0.079058111591217034 0 -0.45000974795797011 -0.119430952696417 0 -0.44085253015216358 -0.1237950587173612 0 -0.44003429013576911 -0.11331979272890801 0 -0.45000974795797011 -0.119430952696417 0 -0.44003429013576911 -0.11331979272890801 0 -0.44926481423485548 -0.10476542824413421 0 -0.43059848591229039 -0.1043464168163742 0 -0.44626211873963212 -0.091702264203795431 0 -0.43059848591229039 -0.1043464168163742 0 -0.44626211873963212 -0.091702264203795431 0 -0.44926481423485548 -0.10476542824413421 0 -0.43059848591229039 -0.1043464168163742 0 -0.44003429013576911 -0.11331979272890801 0 -0.44926481423485548 -0.10476542824413421 0 -0.44626211873963212 -0.091702264203795431 0 -0.44926481423485548 -0.10476542824413421 0 -0.46153012095291662 -0.1019472767233552 0 -0.44626211873963212 -0.091702264203795431 0 -0.46631049206888459 -0.091444160656324658 0 -0.46153012095291662 -0.1019472767233552 0 -0.46631049206888459 -0.091444160656324658 0 -0.46153012095291662 -0.1019472767233552 0 -0.4710589232177344 -0.098453604121520433 0 -0.46153012095291662 -0.1019472767233552 0 -0.46221413283232399 -0.11366089481890911 0 -0.47430793409480421 -0.10627177682285049 0 -0.44926481423485548 -0.10476542824413421 0 -0.46153012095291662 -0.1019472767233552 0 -0.46221413283232399 -0.11366089481890911 0 -0.45896755277767909 -0.12575633132281341 0 -0.46221413283232399 -0.11366089481890911 0 -0.47750202174635031 -0.1215216316744509 0 -0.45000974795797011 -0.119430952696417 0 -0.44926481423485548 -0.10476542824413421 0 -0.46221413283232399 -0.11366089481890911 0 -0.45896755277767909 -0.12575633132281341 0 -0.45000974795797011 -0.119430952696417 0 -0.46221413283232399 -0.11366089481890911 0 -0.47750202174635031 -0.1215216316744509 0 -0.47430793409480421 -0.10627177682285049 0 -0.48673501487359588 -0.1010237797652184 0 -0.46221413283232399 -0.11366089481890911 0 -0.47750202174635031 -0.1215216316744509 0 -0.47430793409480421 -0.10627177682285049 0 -0.47430793409480421 -0.10627177682285049 0 -0.47745372589702628 -0.099742000537211661 0 -0.48673501487359588 -0.1010237797652184 0 -0.46153012095291662 -0.1019472767233552 0 -0.47430793409480421 -0.10627177682285049 0 -0.4710589232177344 -0.098453604121520433 0 -0.46631049206888459 -0.091444160656324658 0 -0.4710589232177344 -0.098453604121520433 0 -0.47771303140197108 -0.093218841439257433 0 -0.47430793409480421 -0.10627177682285049 0 -0.4710589232177344 -0.098453604121520433 0 -0.47745372589702628 -0.099742000537211661 0 -0.4710589232177344 -0.098453604121520433 0 -0.47745372589702628 -0.099742000537211661 0 -0.47771303140197108 -0.093218841439257433 0 -0.47745372589702628 -0.099742000537211661 0 -0.48673501487359588 -0.1010237797652184 0 -0.47771303140197108 -0.093218841439257433 0 -0.48673501487359588 -0.1010237797652184 0 -0.47771303140197108 -0.093218841439257433 0 -0.47702460168979111 -0.087157524427869615 0 -0.47750202174635031 -0.1215216316744509 0 -0.48673501487359588 -0.1010237797652184 0 -0.4986179579264654 -0.1020768288792674 0 -0.48673501487359588 -0.1010237797652184 0 -0.49842317329231273 -0.098636270432611556 0 -0.47702460168979111 -0.087157524427869615 0 -0.48673501487359588 -0.1010237797652184 0 -0.49842317329231273 -0.098636270432611556 0 -0.4986179579264654 -0.1020768288792674 0 -0.49999999999999939 -0.099482120969144883 0 -0.49842317329231273 -0.098636270432611556 0 -0.4986179579264654 -0.1020768288792674 0 -0.49842317329231273 -0.098636270432611556 0 -0.4986179579264654 -0.1020768288792674 0 -0.49999999999999939 -0.099482120969144883 0 -0.49842317329231273 -0.098636270432611556 0 -0.50000000000000011 -0.12648838757554831 0 -0.47750202174635031 -0.1215216316744509 0 -0.4986179579264654 -0.1020768288792674 0 -0.47750202174635031 -0.1215216316744509 0 -0.4986179579264654 -0.1020768288792674 0 -0.47491389520024407 -0.068573693827893439 0 -0.47702460168979111 -0.087157524427869615 0 -0.4847984782487687 -0.075944598732494498 0 -0.47491389520024407 -0.068573693827893439 0 -0.47702460168979111 -0.087157524427869615 0 -0.47967839073812912 -0.064727650616396362 0 -0.4847984782487687 -0.075944598732494498 0 -0.48794163871831331 -0.064119883023254248 0 -0.47967839073812912 -0.064727650616396362 0 -0.47491389520024407 -0.068573693827893439 0 -0.4847984782487687 -0.075944598732494498 0 -0.47967839073812912 -0.064727650616396362 0 -0.47491389520024407 -0.068573693827893439 0 -0.46192575156697407 -0.079058111591217034 0 -0.47702460168979111 -0.087157524427869615 0 -0.46192575156697407 -0.079058111591217034 0 -0.47491389520024407 -0.068573693827893439 0 -0.47702460168979111 -0.087157524427869615 0 -0.46631049206888459 -0.091444160656324658 0 -0.47771303140197108 -0.093218841439257433 0 -0.47702460168979111 -0.087157524427869615 0 -0.47771303140197108 -0.093218841439257433 0 -0.47702460168979111 -0.087157524427869615 0 -0.49842317329231273 -0.098636270432611556 0 -0.49712708577170861 -0.075742961183477536 0 -0.4847984782487687 -0.075944598732494498 0 -0.49999999999999939 -0.099482120969144883 0 -0.49842317329231273 -0.098636270432611556 0 -0.5 -0.078030389970551228 0 -0.49842317329231273 -0.098636270432611556 0 -0.49712708577170861 -0.075742961183477536 0 -0.49842317329231273 -0.098636270432611556 0 -0.5 -0.078030389970551228 0 -0.49712708577170861 -0.075742961183477536 0 -0.49842317329231273 -0.098636270432611556 0 -0.47702460168979111 -0.087157524427869615 0 -0.4847984782487687 -0.075944598732494498 0 -0.49842317329231273 -0.098636270432611556 0 -0.47702460168979111 -0.087157524427869615 0 -0.5 -0.078030389970551228 0 -0.49712708577170861 -0.075742961183477536 0 -0.49999999999999928 -0.056578658971957581 0 -0.49712708577170861 -0.075742961183477536 0 -0.49583099825110311 -0.052849651934343489 0 -0.49712708577170861 -0.075742961183477536 0 -0.48794163871831331 -0.064119883023254248 0 -0.49583099825110311 -0.052849651934343489 0 -0.49712708577170861 -0.075742961183477536 0 -0.4847984782487687 -0.075944598732494498 0 -0.48794163871831331 -0.064119883023254248 0 -0.49712708577170861 -0.075742961183477536 0 -0.49999999999999928 -0.056578658971957581 0 -0.49583099825110311 -0.052849651934343489 0 -0.49583099825110311 -0.052849651934343489 0 -0.47748890114140963 -0.036443372127734748 0 -0.48227324058185622 -0.051334552649559453 0 -0.49999999999999928 -0.056578658971957581 0 -0.49583099825110311 -0.052849651934343489 0 -0.49999999999999928 -0.056578658971957581 0 -0.50000000000000144 -0.053559852644015388 0 -0.49583099825110311 -0.052849651934343489 0 -0.48794163871831331 -0.064119883023254248 0 -0.49583099825110311 -0.052849651934343489 0 -0.48227324058185622 -0.051334552649559453 0 -0.50000000000000144 -0.053559852644015388 0 -0.49583099825110311 -0.052849651934343489 0 -0.48598145264485831 -0.02728491224803695 0 -0.49583099825110311 -0.052849651934343489 0 -0.47748890114140963 -0.036443372127734748 0 -0.48598145264485831 -0.02728491224803695 0 -0.50000000000000144 -0.053559852644015388 0 -0.48598145264485831 -0.02728491224803695 0 -0.50000000000000144 -0.053559852644015388 0 -0.48598145264485831 -0.02728491224803695 0 -0.5 -0.025161366008633609 0 -0.49583099825110311 -0.052849651934343489 0 -0.47748890114140963 -0.036443372127734748 0 -0.47748890114140963 -0.036443372127734748 0 -0.48598145264485831 -0.02728491224803695 0 -0.47748890114140963 -0.036443372127734748 0 -0.47194379404182718 -0.042423275915137587 0 -0.48227324058185622 -0.051334552649559453 0 -0.47748890114140963 -0.036443372127734748 0 -0.47194379404182718 -0.042423275915137587 0 -0.47748890114140963 -0.036443372127734748 0 -0.47194379404182718 -0.042423275915137587 0 -0.47056077858213702 -0.03024644074295027 0 -0.47194379404182718 -0.042423275915137587 0 -0.46539503278239303 -0.037082973767017267 0 -0.47056077858213702 -0.03024644074295027 0 -0.47194379404182718 -0.042423275915137587 0 -0.47056077858213702 -0.03024644074295027 0 -0.47748890114140963 -0.036443372127734748 0 -0.47056077858213702 -0.03024644074295027 0 -0.47748890114140963 -0.036443372127734748 0 -0.47056077858213702 -0.03024644074295027 0 -0.47745882259212458 -0.028728106929589409 0 -0.47967839073812912 -0.064727650616396362 0 -0.47491389520024407 -0.068573693827893439 0 -0.47194379404182718 -0.042423275915137587 0 -0.47967839073812912 -0.064727650616396362 0 -0.47194379404182718 -0.042423275915137587 0 -0.48227324058185622 -0.051334552649559453 0 -0.47491389520024407 -0.068573693827893439 0 -0.47194379404182718 -0.042423275915137587 0 -0.47967839073812912 -0.064727650616396362 0 -0.48794163871831331 -0.064119883023254248 0 -0.48227324058185622 -0.051334552649559453 0 -0.47491389520024407 -0.068573693827893439 0 -0.47194379404182718 -0.042423275915137587 0 -0.45893666683642192 -0.056450303318209168 0 -0.45893666683642192 -0.056450303318209168 0 -0.45743491846808387 -0.04563500224908737 0 -0.44544580640037118 -0.056213229689383748 0 -0.47194379404182718 -0.042423275915137587 0 -0.45893666683642192 -0.056450303318209168 0 -0.45743491846808387 -0.04563500224908737 0 -0.47194379404182718 -0.042423275915137587 0 -0.45893666683642192 -0.056450303318209168 0 -0.46539503278239303 -0.037082973767017267 0 -0.44890774518284438 -0.02927164544362729 0 -0.46539503278239303 -0.037082973767017267 0 -0.45215967652477718 -0.036640332234541717 0 -0.44890774518284438 -0.02927164544362729 0 -0.46539503278239303 -0.037082973767017267 0 -0.44890774518284438 -0.02927164544362729 0 -0.46189821575704781 -0.02986243911986371 0 -0.47194379404182718 -0.042423275915137587 0 -0.46539503278239303 -0.037082973767017267 0 -0.45743491846808387 -0.04563500224908737 0 -0.46539503278239303 -0.037082973767017267 0 -0.46189821575704781 -0.02986243911986371 0 -0.47056077858213702 -0.03024644074295027 0 -0.46539503278239303 -0.037082973767017267 0 -0.45743491846808387 -0.04563500224908737 0 -0.45215967652477718 -0.036640332234541717 0 -0.42981912379901888 -0.030443092666165631 0 -0.45215967652477718 -0.036640332234541717 0 -0.45743491846808387 -0.04563500224908737 0 -0.45215967652477718 -0.036640332234541717 0 -0.43957367317472601 -0.045089571971719818 0 -0.42981912379901888 -0.030443092666165631 0 -0.45215967652477718 -0.036640332234541717 0 -0.43957367317472601 -0.045089571971719818 0 -0.45743491846808387 -0.04563500224908737 0 -0.43957367317472601 -0.045089571971719818 0 -0.44544580640037118 -0.056213229689383748 0 -0.4246600563061857 -0.059067830999859447 0 -0.44592953963101739 -0.07047733072128165 0 -0.44544580640037118 -0.056213229689383748 0 -0.44592953963101739 -0.07047733072128165 0 -0.45893666683642192 -0.056450303318209168 0 -0.44544580640037118 -0.056213229689383748 0 -0.4441818909265971 -0.00998157505946092 0 -0.45588653083934588 0.00041698580085632909 0 -0.44737850259376799 0.0077656591989471307 0 -0.4441818909265971 -0.00998157505946092 0 -0.4570262928383732 -0.018140378997512391 0 -0.45633913854906122 -0.0094275687658610888 0 -0.4441818909265971 -0.00998157505946092 0 -0.45633913854906122 -0.0094275687658610888 0 -0.45588653083934588 0.00041698580085632909 0 -0.43741768347029059 -0.01288367903972009 0 -0.4441818909265971 -0.00998157505946092 0 -0.44890774518284438 -0.02927164544362729 0 -0.42981912379901888 -0.030443092666165631 0 -0.45215967652477718 -0.036640332234541717 0 -0.4392085005598273 -0.024676348383282701 0 -0.4441818909265971 -0.00998157505946092 0 -0.44890774518284438 -0.02927164544362729 0 -0.46258273328813732 -0.023158067004484729 0 -0.43741768347029059 -0.01288367903972009 0 -0.44890774518284438 -0.02927164544362729 0 -0.43741768347029059 -0.01288367903972009 0 -0.4392085005598273 -0.024676348383282701 0 -0.44890774518284438 -0.02927164544362729 0 -0.4392085005598273 -0.024676348383282701 0 -0.44890774518284438 -0.02927164544362729 0 -0.45215967652477718 -0.036640332234541717 0 -0.4392085005598273 -0.024676348383282701 0 -0.44890774518284438 -0.02927164544362729 0 -0.4441818909265971 -0.00998157505946092 0 -0.46258273328813732 -0.023158067004484729 0 -0.46258273328813732 -0.023158067004484729 0 -0.46826183959192841 -0.01000530680732737 0 -0.47056077858213702 -0.03024644074295027 0 -0.4441818909265971 -0.00998157505946092 0 -0.4570262928383732 -0.018140378997512391 0 -0.46258273328813732 -0.023158067004484729 0 -0.4570262928383732 -0.018140378997512391 0 -0.46258273328813732 -0.023158067004484729 0 -0.44890774518284438 -0.02927164544362729 0 -0.46189821575704781 -0.02986243911986371 0 -0.46258273328813732 -0.023158067004484729 0 -0.46258273328813732 -0.023158067004484729 0 -0.47056077858213702 -0.03024644074295027 0 -0.46189821575704781 -0.02986243911986371 0 -0.46258273328813732 -0.023158067004484729 0 -0.47056077858213702 -0.03024644074295027 0 -0.4570262928383732 -0.018140378997512391 0 -0.46258273328813732 -0.023158067004484729 0 -0.46826183959192841 -0.01000530680732737 0 -0.4570262928383732 -0.018140378997512391 0 -0.46826183959192841 -0.01000530680732737 0 -0.45633913854906122 -0.0094275687658610888 0 -0.46826183959192841 -0.01000530680732737 0 -0.45633913854906122 -0.0094275687658610888 0 -0.45588653083934588 0.00041698580085632909 0 -0.46826183959192841 -0.01000530680732737 0 -0.47597217662329228 -0.0085245425598697612 0 -0.4659629006017233 0.010235827128295859 0 -0.46826183959192841 -0.01000530680732737 0 -0.47597217662329228 -0.0085245425598697612 0 -0.47580415800009379 -0.02093770259963601 0 -0.47597217662329228 -0.0085245425598697612 0 -0.48922725890134677 -0.010453537226696331 0 -0.48082517856277007 0.001845263919603602 0 -0.47597217662329228 -0.0085245425598697612 0 -0.47580415800009379 -0.02093770259963601 0 -0.48598145264485831 -0.02728491224803695 0 -0.47597217662329228 -0.0085245425598697612 0 -0.48598145264485831 -0.02728491224803695 0 -0.46826183959192841 -0.01000530680732737 0 -0.47056077858213702 -0.03024644074295027 0 -0.47580415800009379 -0.02093770259963601 0 -0.47597217662329228 -0.0085245425598697612 0 -0.48598145264485831 -0.02728491224803695 0 -0.4893389393206713 -0.02366416211133009 0 -0.46826183959192841 -0.01000530680732737 0 -0.47056077858213702 -0.03024644074295027 0 -0.47056077858213702 -0.03024644074295027 0 -0.47580415800009379 -0.02093770259963601 0 -0.47745882259212458 -0.028728106929589409 0 -0.47580415800009379 -0.02093770259963601 0 -0.47745882259212458 -0.028728106929589409 0 -0.48598145264485831 -0.02728491224803695 0 -0.47748890114140963 -0.036443372127734748 0 -0.47745882259212458 -0.028728106929589409 0 -0.48598145264485831 -0.02728491224803695 0 -0.48598145264485831 -0.02728491224803695 0 -0.4893389393206713 -0.02366416211133009 0 -0.5 -0.025161366008633609 0 -0.48598145264485831 -0.02728491224803695 0 -0.4893389393206713 -0.02366416211133009 0 -0.4893389393206713 -0.02366416211133009 0 -0.5 -0.025161366008633609 0 -0.48922725890134677 -0.010453537226696331 0 -0.48922725890134677 -0.010453537226696331 0 -0.5 0.0032371206267481911 0 -0.48082517856277007 0.001845263919603602 0 -0.5 -0.025161366008633609 0 -0.48922725890134677 -0.010453537226696331 0 -0.5 0.0032371206267481911 0 -0.47597217662329228 -0.0085245425598697612 0 -0.4893389393206713 -0.02366416211133009 0 -0.48922725890134677 -0.010453537226696331 0 -0.5 0.0032371206267481911 0 -0.48596576445654982 0.01457961489688041 0 -0.48082517856277007 0.001845263919603602 0 -0.48596576445654982 0.01457961489688041 0 -0.47541999506787802 0.025418180444172121 0 -0.5 0.031635607262129987 0 -0.5 0.0032371206267481911 0 -0.48596576445654982 0.01457961489688041 0 -0.5 0.031635607262129987 0 -0.48596576445654982 0.01457961489688041 0 -0.47541999506787802 0.025418180444172121 0 -0.47401658579892991 0.013489912392399149 0 -0.47541999506787802 0.025418180444172121 0 -0.46963945276383978 0.01793989872667965 0 -0.47401658579892991 0.013489912392399149 0 -0.47597217662329228 -0.0085245425598697612 0 -0.48082517856277007 0.001845263919603602 0 -0.4659629006017233 0.010235827128295859 0 -0.47401658579892991 0.013489912392399149 0 -0.48082517856277007 0.001845263919603602 0 -0.4659629006017233 0.010235827128295859 0 -0.46963945276383978 0.01793989872667965 0 -0.47401658579892991 0.013489912392399149 0 -0.4659629006017233 0.010235827128295859 0 -0.47597217662329228 -0.0085245425598697612 0 -0.4659629006017233 0.010235827128295859 0 -0.48596576445654982 0.01457961489688041 0 -0.47401658579892991 0.013489912392399149 0 -0.48082517856277007 0.001845263919603602 0 -0.5 0.060034093897511798 0 -0.47816362815030861 0.043832779932641487 0 -0.48068047186290208 0.063626500276227002 0 -0.47541999506787802 0.025418180444172121 0 -0.5 0.031635607262129987 0 -0.47816362815030861 0.043832779932641487 0 -0.5 0.060034093897511798 0 -0.5 0.031635607262129987 0 -0.47816362815030861 0.043832779932641487 0 -0.47541999506787802 0.025418180444172121 0 -0.47816362815030861 0.043832779932641487 0 -0.46442391639916691 0.036471327701905212 0 -0.47816362815030861 0.043832779932641487 0 -0.46119618507356652 0.049359273152949731 0 -0.48068047186290208 0.063626500276227002 0 -0.46119618507356652 0.049359273152949731 0 -0.46103932749027238 0.064238871702306077 0 -0.48068047186290208 0.063626500276227002 0 -0.46119618507356652 0.049359273152949731 0 -0.44286953411296898 0.045255716157198693 0 -0.46103932749027238 0.064238871702306077 0 -0.47816362815030861 0.043832779932641487 0 -0.46119618507356652 0.049359273152949731 0 -0.46442391639916691 0.036471327701905212 0 -0.46119618507356652 0.049359273152949731 0 -0.46442391639916691 0.036471327701905212 0 -0.45082509298125129 0.038608595210277222 0 -0.46442391639916691 0.036471327701905212 0 -0.45082509298125129 0.038608595210277222 0 -0.4583939967914884 0.024422211169287101 0 -0.45082509298125129 0.038608595210277222 0 -0.4583939967914884 0.024422211169287101 0 -0.46119618507356652 0.049359273152949731 0 -0.45082509298125129 0.038608595210277222 0 -0.44286953411296898 0.045255716157198693 0 -0.45082509298125129 0.038608595210277222 0 -0.4405409619944019 0.035432846457562263 0 -0.4458839614772655 0.023387518650519249 0 -0.45082509298125129 0.038608595210277222 0 -0.4405409619944019 0.035432846457562263 0 -0.44286953411296898 0.045255716157198693 0 -0.4405409619944019 0.035432846457562263 0 -0.44286953411296898 0.045255716157198693 0 -0.43229092530358848 0.04451632412921195 0 -0.44286953411296898 0.045255716157198693 0 -0.44282721760043869 0.062046251170956107 0 -0.46103932749027238 0.064238871702306077 0 -0.44286953411296898 0.045255716157198693 0 -0.44282721760043869 0.062046251170956107 0 -0.43188097302969042 0.056955122555226501 0 -0.44286953411296898 0.045255716157198693 0 -0.46103932749027238 0.064238871702306077 0 -0.46826183959192841 -0.01000530680732737 0 -0.45588653083934588 0.00041698580085632909 0 -0.4659629006017233 0.010235827128295859 0 -0.46826183959192841 -0.01000530680732737 0 -0.4659629006017233 0.010235827128295859 0 -0.45609316173783881 0.014082317838893479 0 -0.45588653083934588 0.00041698580085632909 0 -0.4659629006017233 0.010235827128295859 0 -0.46963945276383978 0.01793989872667965 0 -0.4659629006017233 0.010235827128295859 0 -0.4583939967914884 0.024422211169287101 0 -0.4659629006017233 0.010235827128295859 0 -0.4583939967914884 0.024422211169287101 0 -0.47541999506787802 0.025418180444172121 0 -0.46963945276383978 0.01793989872667965 0 -0.4583939967914884 0.024422211169287101 0 -0.47541999506787802 0.025418180444172121 0 -0.46442391639916691 0.036471327701905212 0 -0.4583939967914884 0.024422211169287101 0 -0.45609316173783881 0.014082317838893479 0 -0.4659629006017233 0.010235827128295859 0 -0.4583939967914884 0.024422211169287101 0 -0.45609316173783881 0.014082317838893479 0 -0.4583939967914884 0.024422211169287101 0 -0.4458839614772655 0.023387518650519249 0 -0.45082509298125129 0.038608595210277222 0 -0.4583939967914884 0.024422211169287101 0 -0.4458839614772655 0.023387518650519249 0 -0.4405409619944019 0.035432846457562263 0 -0.4458839614772655 0.023387518650519249 0 -0.43566193494816191 0.02574822372494872 0 -0.4458839614772655 0.023387518650519249 0 -0.4359559447540089 0.01018896392150693 0 -0.43566193494816191 0.02574822372494872 0 -0.4441818909265971 -0.00998157505946092 0 -0.44737850259376799 0.0077656591989471307 0 -0.4359559447540089 0.01018896392150693 0 -0.4458839614772655 0.023387518650519249 0 -0.44737850259376799 0.0077656591989471307 0 -0.4359559447540089 0.01018896392150693 0 -0.45609316173783881 0.014082317838893479 0 -0.4458839614772655 0.023387518650519249 0 -0.44737850259376799 0.0077656591989471307 0 -0.45609316173783881 0.014082317838893479 0 -0.45588653083934588 0.00041698580085632909 0 -0.44737850259376799 0.0077656591989471307 0 -0.4441818909265971 -0.00998157505946092 0 -0.4359559447540089 0.01018896392150693 0 -0.42578104856505677 0.0031949168855625672 0 -0.42578104856505677 0.0031949168855625672 0 -0.41622595309658328 0.016397403714119251 0 -0.42870406893849561 0.019163111370922251 0 -0.4359559447540089 0.01018896392150693 0 -0.42578104856505677 0.0031949168855625672 0 -0.42870406893849561 0.019163111370922251 0 -0.41753789792717189 -0.0038843189997757009 0 -0.42578104856505677 0.0031949168855625672 0 -0.41105156913745711 0.0034129409419674369 0 -0.42578104856505677 0.0031949168855625672 0 -0.40852807671777941 0.0155494406680463 0 -0.41622595309658328 0.016397403714119251 0 -0.42578104856505677 0.0031949168855625672 0 -0.40852807671777941 0.0155494406680463 0 -0.41105156913745711 0.0034129409419674369 0 -0.42578104856505677 0.0031949168855625672 0 -0.40852807671777941 0.0155494406680463 0 -0.42578104856505677 0.0031949168855625672 0 -0.41622595309658328 0.016397403714119251 0 -0.40852807671777941 0.0155494406680463 0 -0.41105156913745711 0.0034129409419674369 0 -0.40262572535869262 0.0089097845909437267 0 -0.40771050441737638 -0.0035262849216432719 0 -0.41105156913745711 0.0034129409419674369 0 -0.40226596945639398 0.0014711925349297271 0 -0.40667085762811028 0.029599890542676258 0 -0.41622595309658328 0.016397403714119251 0 -0.42870406893849561 0.019163111370922251 0 -0.40667085762811028 0.029599890542676258 0 -0.42870406893849561 0.019163111370922251 0 -0.40667085762811028 0.029599890542676258 0 -0.41990433555607742 0.03061685230769556 0 -0.42870406893849561 0.019163111370922251 0 -0.40852807671777941 0.0155494406680463 0 -0.40667085762811028 0.029599890542676258 0 -0.41622595309658328 0.016397403714119251 0 -0.40667085762811028 0.029599890542676258 0 -0.41622595309658328 0.016397403714119251 0 -0.41990433555607742 0.03061685230769556 0 -0.4284463216954002 0.029357354603554459 0 -0.42870406893849561 0.019163111370922251 0 -0.4359559447540089 0.01018896392150693 0 -0.42870406893849561 0.019163111370922251 0 -0.43566193494816191 0.02574822372494872 0 -0.4284463216954002 0.029357354603554459 0 -0.42870406893849561 0.019163111370922251 0 -0.43566193494816191 0.02574822372494872 0 -0.4284463216954002 0.029357354603554459 0 -0.43566193494816191 0.02574822372494872 0 -0.43264023121812112 0.033917661463996759 0 -0.4405409619944019 0.035432846457562263 0 -0.43264023121812112 0.033917661463996759 0 -0.43229092530358848 0.04451632412921195 0 -0.43264023121812112 0.033917661463996759 0 -0.43229092530358848 0.04451632412921195 0 -0.42532103781614489 0.037340924150209003 0 -0.4405409619944019 0.035432846457562263 0 -0.43566193494816191 0.02574822372494872 0 -0.43264023121812112 0.033917661463996759 0 -0.43229092530358848 0.04451632412921195 0 -0.42532103781614489 0.037340924150209003 0 -0.42042490988599091 0.046091327469671317 0 -0.4284463216954002 0.029357354603554459 0 -0.43264023121812112 0.033917661463996759 0 -0.42532103781614489 0.037340924150209003 0 -0.41990433555607742 0.03061685230769556 0 -0.4284463216954002 0.029357354603554459 0 -0.42532103781614489 0.037340924150209003 0 -0.43229092530358848 0.04451632412921195 0 -0.43188097302969042 0.056955122555226501 0 -0.42585725303016408 0.051510102087770737 0 -0.44286953411296898 0.045255716157198693 0 -0.43229092530358848 0.04451632412921195 0 -0.43188097302969042 0.056955122555226501 0 -0.43229092530358848 0.04451632412921195 0 -0.42585725303016408 0.051510102087770737 0 -0.42042490988599091 0.046091327469671317 0 -0.43188097302969042 0.056955122555226501 0 -0.41883220390138681 0.058477634196973202 0 -0.43131469147834472 0.070632617455275076 0 -0.43188097302969042 0.056955122555226501 0 -0.42585725303016408 0.051510102087770737 0 -0.41883220390138681 0.058477634196973202 0 -0.41883220390138681 0.058477634196973202 0 -0.40840220717331749 0.048304634434869917 0 -0.39985653820026013 0.060860810446949978 0 -0.42585725303016408 0.051510102087770737 0 -0.41883220390138681 0.058477634196973202 0 -0.42042490988599091 0.046091327469671317 0 -0.41883220390138681 0.058477634196973202 0 -0.40840220717331749 0.048304634434869917 0 -0.42042490988599091 0.046091327469671317 0 -0.41990433555607742 0.03061685230769556 0 -0.42532103781614489 0.037340924150209003 0 -0.4122967326089878 0.037821593301397609 0 -0.42532103781614489 0.037340924150209003 0 -0.42042490988599091 0.046091327469671317 0 -0.4122967326089878 0.037821593301397609 0 -0.40840220717331749 0.048304634434869917 0 -0.4122967326089878 0.037821593301397609 0 -0.40579981868685489 0.041495006097714962 0 -0.40840220717331749 0.048304634434869917 0 -0.42042490988599091 0.046091327469671317 0 -0.4122967326089878 0.037821593301397609 0 -0.4122967326089878 0.037821593301397609 0 -0.40278544391907911 0.034968452634622761 0 -0.40579981868685489 0.041495006097714962 0 -0.40667085762811028 0.029599890542676258 0 -0.4122967326089878 0.037821593301397609 0 -0.40278544391907911 0.034968452634622761 0 -0.40667085762811028 0.029599890542676258 0 -0.41990433555607742 0.03061685230769556 0 -0.4122967326089878 0.037821593301397609 0 -0.40667085762811028 0.029599890542676258 0 -0.40278544391907911 0.034968452634622761 0 -0.40667085762811028 0.029599890542676258 0 -0.38856614517843069 0.038175802748282091 0 -0.40667085762811028 0.029599890542676258 0 -0.38856614517843069 0.038175802748282091 0 -0.39127510487050182 0.027903964450529759 0 -0.40667085762811028 0.029599890542676258 0 -0.40278544391907911 0.034968452634622761 0 -0.38856614517843069 0.038175802748282091 0 -0.40278544391907911 0.034968452634622761 0 -0.40579981868685489 0.041495006097714962 0 -0.3977250587697031 0.045015474274426849 0 -0.40840220717331749 0.048304634434869917 0 -0.40579981868685489 0.041495006097714962 0 -0.3977250587697031 0.045015474274426849 0 -0.40278544391907911 0.034968452634622761 0 -0.3977250587697031 0.045015474274426849 0 -0.38856614517843069 0.038175802748282091 0 -0.40840220717331749 0.048304634434869917 0 -0.3977250587697031 0.045015474274426849 0 -0.39985653820026013 0.060860810446949978 0 -0.3977250587697031 0.045015474274426849 0 -0.39985653820026013 0.060860810446949978 0 -0.38472691017257071 0.052921849058569698 0 -0.39985653820026013 0.060860810446949978 0 -0.38472691017257071 0.052921849058569698 0 -0.38510762700538009 0.066428587654483159 0 -0.38472691017257071 0.052921849058569698 0 -0.37046143272875132 0.04675171495388801 0 -0.37000681959492809 0.05831264468359916 0 -0.38472691017257071 0.052921849058569698 0 -0.38510762700538009 0.066428587654483159 0 -0.37000681959492809 0.05831264468359916 0 -0.38856614517843069 0.038175802748282091 0 -0.37871402691879819 0.03757115751491092 0 -0.37046143272875132 0.04675171495388801 0 -0.38856614517843069 0.038175802748282091 0 -0.37046143272875132 0.04675171495388801 0 -0.38472691017257071 0.052921849058569698 0 -0.38856614517843069 0.038175802748282091 0 -0.37046143272875132 0.04675171495388801 0 -0.38856614517843069 0.038175802748282091 0 -0.38315308642314733 0.033917821982192238 0 -0.39127510487050182 0.027903964450529759 0 -0.38856614517843069 0.038175802748282091 0 -0.38315308642314733 0.033917821982192238 0 -0.37871402691879819 0.03757115751491092 0 -0.3977250587697031 0.045015474274426849 0 -0.38472691017257071 0.052921849058569698 0 -0.38856614517843069 0.038175802748282091 0 -0.37871402691879819 0.03757115751491092 0 -0.3764786745208083 0.032098692741998169 0 -0.37046143272875132 0.04675171495388801 0 -0.38315308642314733 0.033917821982192238 0 -0.3764786745208083 0.032098692741998169 0 -0.38155727091044611 0.028316364585127811 0 -0.38315308642314733 0.033917821982192238 0 -0.37871402691879819 0.03757115751491092 0 -0.3764786745208083 0.032098692741998169 0 -0.3764786745208083 0.032098692741998169 0 -0.38155727091044611 0.028316364585127811 0 -0.37960108001976323 0.022263106047543741 0 -0.37960108001976323 0.022263106047543741 0 -0.37998819155715241 0.0057865511937031933 0 -0.37123175334181557 0.027162262264614271 0 -0.3764786745208083 0.032098692741998169 0 -0.37960108001976323 0.022263106047543741 0 -0.37123175334181557 0.027162262264614271 0 -0.38155727091044611 0.028316364585127811 0 -0.38533699425949169 0.022674384769296389 0 -0.37960108001976323 0.022263106047543741 0 -0.38155727091044611 0.028316364585127811 0 -0.38533699425949169 0.022674384769296389 0 -0.39127510487050182 0.027903964450529759 0 -0.38315308642314733 0.033917821982192238 0 -0.38155727091044611 0.028316364585127811 0 -0.39127510487050182 0.027903964450529759 0 -0.39054146691731162 0.018060194648231769 0 -0.38533699425949169 0.022674384769296389 0 -0.39127510487050182 0.027903964450529759 0 -0.38533699425949169 0.022674384769296389 0 -0.3837100485794358 0.01682829411504885 0 -0.37960108001976323 0.022263106047543741 0 -0.39054146691731162 0.018060194648231769 0 -0.38533699425949169 0.022674384769296389 0 -0.3837100485794358 0.01682829411504885 0 -0.3837100485794358 0.01682829411504885 0 -0.37960108001976323 0.022263106047543741 0 -0.37998819155715241 0.0057865511937031933 0 -0.37998819155715241 0.0057865511937031933 0 -0.38683543611469601 0.0001369023841863784 0 -0.36064890389212972 0.0125435277679194 0 -0.37998819155715241 0.0057865511937031933 0 -0.38683543611469601 0.0001369023841863784 0 -0.38901012294298121 0.0062908016400105649 0 -0.38683543611469601 0.0001369023841863784 0 -0.38901012294298121 0.0062908016400105649 0 -0.39501457079486157 0.0055715078560810288 0 -0.37998819155715241 0.0057865511937031933 0 -0.38901012294298121 0.0062908016400105649 0 -0.38744744785130802 0.01185902438546781 0 -0.3837100485794358 0.01682829411504885 0 -0.37998819155715241 0.0057865511937031933 0 -0.38744744785130802 0.01185902438546781 0 -0.38901012294298121 0.0062908016400105649 0 -0.38744744785130802 0.01185902438546781 0 -0.39422738021243581 0.01127211946813913 0 -0.39054146691731162 0.018060194648231769 0 -0.3837100485794358 0.01682829411504885 0 -0.38744744785130802 0.01185902438546781 0 -0.39054146691731162 0.018060194648231769 0 -0.39422738021243581 0.01127211946813913 0 -0.39743955081534421 0.016339100765178138 0 -0.39054146691731162 0.018060194648231769 0 -0.38744744785130802 0.01185902438546781 0 -0.39422738021243581 0.01127211946813913 0 -0.39422738021243581 0.01127211946813913 0 -0.39501457079486157 0.0055715078560810288 0 -0.40262572535869262 0.0089097845909437267 0 -0.39422738021243581 0.01127211946813913 0 -0.40262572535869262 0.0089097845909437267 0 -0.39743955081534421 0.016339100765178138 0 -0.38683543611469601 0.0001369023841863784 0 -0.39501457079486157 0.0055715078560810288 0 -0.40226596945639398 0.0014711925349297271 0 -0.38901012294298121 0.0062908016400105649 0 -0.39422738021243581 0.01127211946813913 0 -0.39501457079486157 0.0055715078560810288 0 -0.41105156913745711 0.0034129409419674369 0 -0.40226596945639398 0.0014711925349297271 0 -0.40262572535869262 0.0089097845909437267 0 -0.39501457079486157 0.0055715078560810288 0 -0.40226596945639398 0.0014711925349297271 0 -0.40262572535869262 0.0089097845909437267 0 -0.40852807671777941 0.0155494406680463 0 -0.40262572535869262 0.0089097845909437267 0 -0.39743955081534421 0.016339100765178138 0 -0.40852807671777941 0.0155494406680463 0 -0.39127510487050182 0.027903964450529759 0 -0.40852807671777941 0.0155494406680463 0 -0.40667085762811028 0.029599890542676258 0 -0.39127510487050182 0.027903964450529759 0 -0.40852807671777941 0.0155494406680463 0 -0.39127510487050182 0.027903964450529759 0 -0.39743955081534421 0.016339100765178138 0 -0.39054146691731162 0.018060194648231769 0 -0.39127510487050182 0.027903964450529759 0 -0.39743955081534421 0.016339100765178138 0 -0.39792088922733271 0.1160922105611595 0 -0.40104213778508202 0.092866093853817611 0 -0.41467909406405851 0.1139188519362445 0 -0.39792088922733271 0.1160922105611595 0 -0.3782625711058698 0.101617738696854 0 -0.40104213778508202 0.092866093853817611 0 -0.3782625711058698 0.101617738696854 0 -0.38372255811484618 0.13025780258704611 0 -0.3782625711058698 0.101617738696854 0 -0.38372255811484618 0.13025780258704611 0 -0.36747352968705388 0.12273486311700831 0 -0.39792088922733271 0.1160922105611595 0 -0.3782625711058698 0.101617738696854 0 -0.38372255811484618 0.13025780258704611 0 -0.39792088922733271 0.1160922105611595 0 -0.3782625711058698 0.101617738696854 0 -0.3782625711058698 0.101617738696854 0 -0.40104213778508202 0.092866093853817611 0 -0.37470600383380392 0.082961959162170973 0 -0.39520328107527708 0.075997639864115257 0 -0.40104213778508202 0.092866093853817611 0 -0.37470600383380392 0.082961959162170973 0 -0.3782625711058698 0.101617738696854 0 -0.37470600383380392 0.082961959162170973 0 -0.40104213778508202 0.092866093853817611 0 -0.37470600383380392 0.082961959162170973 0 -0.38510762700538009 0.066428587654483159 0 -0.37000681959492809 0.05831264468359916 0 -0.37470600383380392 0.082961959162170973 0 -0.38510762700538009 0.066428587654483159 0 -0.39520328107527708 0.075997639864115257 0 -0.37470600383380392 0.082961959162170973 0 -0.39985653820026013 0.060860810446949978 0 -0.39520328107527708 0.075997639864115257 0 -0.41322693425173768 0.074694678089132868 0 -0.39985653820026013 0.060860810446949978 0 -0.38510762700538009 0.066428587654483159 0 -0.39520328107527708 0.075997639864115257 0 -0.39520328107527708 0.075997639864115257 0 -0.40104213778508202 0.092866093853817611 0 -0.41322693425173768 0.074694678089132868 0 -0.40104213778508202 0.092866093853817611 0 -0.41322693425173768 0.074694678089132868 0 -0.42957324029363853 0.085693113452461764 0 -0.41883220390138681 0.058477634196973202 0 -0.41322693425173768 0.074694678089132868 0 -0.43131469147834472 0.070632617455275076 0 -0.41883220390138681 0.058477634196973202 0 -0.39985653820026013 0.060860810446949978 0 -0.41322693425173768 0.074694678089132868 0 -0.43131469147834472 0.070632617455275076 0 -0.42957324029363853 0.085693113452461764 0 -0.4470315618909167 0.073148927984774167 0 -0.41322693425173768 0.074694678089132868 0 -0.43131469147834472 0.070632617455275076 0 -0.42957324029363853 0.085693113452461764 0 -0.44282721760043869 0.062046251170956107 0 -0.43188097302969042 0.056955122555226501 0 -0.43131469147834472 0.070632617455275076 0 -0.42957324029363853 0.085693113452461764 0 -0.42737827173636012 0.1027702285454639 0 -0.44343173260412461 0.097571970950778963 0 -0.40104213778508202 0.092866093853817611 0 -0.42737827173636012 0.1027702285454639 0 -0.41467909406405851 0.1139188519362445 0 -0.40104213778508202 0.092866093853817611 0 -0.42737827173636012 0.1027702285454639 0 -0.40104213778508202 0.092866093853817611 0 -0.42957324029363853 0.085693113452461764 0 -0.42737827173636012 0.1027702285454639 0 -0.39792088922733271 0.1160922105611595 0 -0.41467909406405851 0.1139188519362445 0 -0.417579207348795 0.13056668242546571 0 -0.39792088922733271 0.1160922105611595 0 -0.417579207348795 0.13056668242546571 0 -0.41467909406405851 0.1139188519362445 0 -0.42608096723388439 0.1205091241492761 0 -0.417579207348795 0.13056668242546571 0 -0.42737827173636012 0.1027702285454639 0 -0.41467909406405851 0.1139188519362445 0 -0.42608096723388439 0.1205091241492761 0 -0.42737827173636012 0.1027702285454639 0 -0.42608096723388439 0.1205091241492761 0 -0.43826405507869293 0.1195835460605416 0 -0.42608096723388439 0.1205091241492761 0 -0.43826405507869293 0.1195835460605416 0 -0.43293323699752101 0.1317554923945817 0 -0.43826405507869293 0.1195835460605416 0 -0.45371440568763749 0.1126743632371118 0 -0.44901593584904892 0.12912088192892021 0 -0.42737827173636012 0.1027702285454639 0 -0.43826405507869293 0.1195835460605416 0 -0.45371440568763749 0.1126743632371118 0 -0.4523882543875366 0.10983005993361 0 -0.45371440568763749 0.1126743632371118 0 -0.42737827173636012 0.1027702285454639 0 -0.4523882543875366 0.10983005993361 0 -0.44343173260412461 0.097571970950778963 0 -0.42737827173636012 0.1027702285454639 0 -0.4523882543875366 0.10983005993361 0 -0.45371440568763749 0.1126743632371118 0 -0.42737827173636012 0.1027702285454639 0 -0.45371440568763749 0.1126743632371118 0 -0.44343173260412461 0.097571970950778963 0 -0.45084974973894648 0.096020795281878568 0 -0.45306155814551219 0.1028275296158008 0 -0.44343173260412461 0.097571970950778963 0 -0.45084974973894648 0.096020795281878568 0 -0.44733932132275389 0.088290098875458828 0 -0.4523882543875366 0.10983005993361 0 -0.44343173260412461 0.097571970950778963 0 -0.45306155814551219 0.1028275296158008 0 -0.4523882543875366 0.10983005993361 0 -0.45306155814551219 0.1028275296158008 0 -0.45661100561120399 0.109540819014999 0 -0.45306155814551219 0.1028275296158008 0 -0.46084618436187341 0.10490351706993729 0 -0.45661100561120399 0.109540819014999 0 -0.45306155814551219 0.1028275296158008 0 -0.46084618436187341 0.10490351706993729 0 -0.45799439118323759 0.099220837031069903 0 -0.46084618436187341 0.10490351706993729 0 -0.4635407771028337 0.1124237257980706 0 -0.45661100561120399 0.109540819014999 0 -0.45799439118323759 0.099220837031069903 0 -0.46723244863383712 0.097971273043108306 0 -0.45594156200913483 0.091684632610025046 0 -0.45084974973894648 0.096020795281878568 0 -0.45799439118323759 0.099220837031069903 0 -0.45594156200913483 0.091684632610025046 0 -0.45084974973894648 0.096020795281878568 0 -0.45306155814551219 0.1028275296158008 0 -0.45799439118323759 0.099220837031069903 0 -0.46084618436187341 0.10490351706993729 0 -0.45799439118323759 0.099220837031069903 0 -0.46723244863383712 0.097971273043108306 0 -0.46084618436187341 0.10490351706993729 0 -0.46723244863383712 0.097971273043108306 0 -0.46686982756835349 0.1074114054382402 0 -0.46084618436187341 0.10490351706993729 0 -0.46686982756835349 0.1074114054382402 0 -0.4635407771028337 0.1124237257980706 0 -0.45371440568763749 0.1126743632371118 0 -0.46425598871103851 0.13528374379222011 0 -0.4635407771028337 0.1124237257980706 0 -0.45674497769142258 0.1138140594952527 0 -0.46958882025875243 0.12035793204680111 0 -0.46686982756835349 0.1074114054382402 0 -0.4635407771028337 0.1124237257980706 0 -0.47044075898603932 0.11380610730348489 0 -0.4635407771028337 0.1124237257980706 0 -0.46958882025875243 0.12035793204680111 0 -0.47044075898603932 0.11380610730348489 0 -0.45674497769142258 0.1138140594952527 0 -0.45371440568763749 0.1126743632371118 0 -0.46425598871103851 0.13528374379222011 0 -0.45674497769142258 0.1138140594952527 0 -0.46958882025875243 0.12035793204680111 0 -0.46425598871103851 0.13528374379222011 0 -0.4523882543875366 0.10983005993361 0 -0.45661100561120399 0.109540819014999 0 -0.45371440568763749 0.1126743632371118 0 -0.45674497769142258 0.1138140594952527 0 -0.45661100561120399 0.109540819014999 0 -0.45371440568763749 0.1126743632371118 0 -0.45674497769142258 0.1138140594952527 0 -0.45371440568763749 0.1126743632371118 0 -0.4635407771028337 0.1124237257980706 0 -0.45674497769142258 0.1138140594952527 0 -0.45661100561120399 0.109540819014999 0 -0.44282721760043869 0.062046251170956107 0 -0.4470315618909167 0.073148927984774167 0 -0.46103932749027238 0.064238871702306077 0 -0.44282721760043869 0.062046251170956107 0 -0.43131469147834472 0.070632617455275076 0 -0.4470315618909167 0.073148927984774167 0 -0.42957324029363853 0.085693113452461764 0 -0.44343173260412461 0.097571970950778963 0 -0.44733932132275389 0.088290098875458828 0 -0.42957324029363853 0.085693113452461764 0 -0.4470315618909167 0.073148927984774167 0 -0.44733932132275389 0.088290098875458828 0 -0.4470315618909167 0.073148927984774167 0 -0.44733932132275389 0.088290098875458828 0 -0.46047789149500767 0.082617330138573752 0 -0.45084974973894648 0.096020795281878568 0 -0.44733932132275389 0.088290098875458828 0 -0.45594156200913483 0.091684632610025046 0 -0.44733932132275389 0.088290098875458828 0 -0.45594156200913483 0.091684632610025046 0 -0.46047789149500767 0.082617330138573752 0 -0.46723244863383712 0.097971273043108306 0 -0.45594156200913483 0.091684632610025046 0 -0.46047789149500767 0.082617330138573752 0 -0.46047789149500767 0.082617330138573752 0 -0.46103932749027238 0.064238871702306077 0 -0.47920912086757578 0.083222027247413538 0 -0.4470315618909167 0.073148927984774167 0 -0.46047789149500767 0.082617330138573752 0 -0.46103932749027238 0.064238871702306077 0 -0.46103932749027238 0.064238871702306077 0 -0.48068047186290208 0.063626500276227002 0 -0.47920912086757578 0.083222027247413538 0 -0.46103932749027238 0.064238871702306077 0 -0.47920912086757578 0.083222027247413538 0 -0.46723244863383712 0.097971273043108306 0 -0.46047789149500767 0.082617330138573752 0 -0.47920912086757578 0.083222027247413538 0 -0.48068047186290208 0.063626500276227002 0 -0.47920912086757578 0.083222027247413538 0 -0.5 0.088432580532893601 0 -0.47920912086757578 0.083222027247413538 0 -0.49737891424487929 0.102205182792521 0 -0.47920912086757578 0.083222027247413538 0 -0.5 0.088432580532893601 0 -0.49737891424487929 0.102205182792521 0 -0.5 0.060034093897511798 0 -0.48068047186290208 0.063626500276227002 0 -0.5 0.088432580532893601 0 -0.47827810320487629 0.116675775998883 0 -0.48837893466537508 0.1117690854599766 0 -0.4842723158563047 0.1301441798928954 0 -0.47827810320487629 0.116675775998883 0 -0.47512549980118862 0.10796659812409699 0 -0.48837893466537508 0.1117690854599766 0 -0.47827810320487629 0.116675775998883 0 -0.46958882025875243 0.12035793204680111 0 -0.4842723158563047 0.1301441798928954 0 -0.47827810320487629 0.116675775998883 0 -0.47044075898603932 0.11380610730348489 0 -0.47512549980118862 0.10796659812409699 0 -0.46686982756835349 0.1074114054382402 0 -0.47044075898603932 0.11380610730348489 0 -0.47512549980118862 0.10796659812409699 0 -0.47827810320487629 0.116675775998883 0 -0.46958882025875243 0.12035793204680111 0 -0.47044075898603932 0.11380610730348489 0 -0.46723244863383712 0.097971273043108306 0 -0.47512549980118862 0.10796659812409699 0 -0.48162445158666772 0.1005823670901454 0 -0.46723244863383712 0.097971273043108306 0 -0.47920912086757578 0.083222027247413538 0 -0.48162445158666772 0.1005823670901454 0 -0.46723244863383712 0.097971273043108306 0 -0.46686982756835349 0.1074114054382402 0 -0.47512549980118862 0.10796659812409699 0 -0.47512549980118862 0.10796659812409699 0 -0.48162445158666772 0.1005823670901454 0 -0.48837893466537508 0.1117690854599766 0 -0.48162445158666772 0.1005823670901454 0 -0.49737891424487929 0.102205182792521 0 -0.48837893466537508 0.1117690854599766 0 -0.47920912086757578 0.083222027247413538 0 -0.48162445158666772 0.1005823670901454 0 -0.49737891424487929 0.102205182792521 0 -0.5 0.088432580532893601 0 -0.49737891424487929 0.102205182792521 0 -0.5 0.1168310671682755 0 -0.49737891424487929 0.102205182792521 0 -0.5 0.1168310671682755 0 -0.48837893466537508 0.1117690854599766 0 -0.5 0.1168310671682755 0 -0.48837893466537508 0.1117690854599766 0 -0.4842723158563047 0.1301441798928954 0 -0.5 0.1168310671682755 0 -0.4842723158563047 0.1301441798928954 0 -0.5 0.14522955380365729 0 -0.46958882025875243 0.12035793204680111 0 -0.4842723158563047 0.1301441798928954 0 -0.46425598871103851 0.13528374379222011 0 -0.4842723158563047 0.1301441798928954 0 -0.47479757173443998 0.15789312434732811 0 -0.46425598871103851 0.13528374379222011 0 -0.47479757173443998 0.15789312434732811 0 -0.46425598871103851 0.13528374379222011 0 -0.4842723158563047 0.1301441798928954 0 -0.5 0.14522955380365729 0 -0.47479757173443998 0.15789312434732811 0 -0.5 0.14522955380365729 0 -0.49999999999999972 0.17362804043903909 0 -0.47479757173443998 0.15789312434732811 0 -0.49999999999999972 0.17362804043903909 0 -0.47479757173443998 0.15789312434732811 0 -0.49999999999999972 0.17362804043903909 0 -0.49200992699072321 0.1743962810239672 0 -0.47479757173443998 0.15789312434732811 0 -0.48341269367675271 0.17637066895233999 0 -0.49170634683837577 0.1941587336203292 0 -0.49368671912131301 0.1828531969182482 0 -0.49999999999999972 0.17362804043903909 0 -0.5 0.19278741936367841 0 -0.49368671912131301 0.1828531969182482 0 -0.48341269367675271 0.17637066895233999 0 -0.49170634683837577 0.1941587336203292 0 -0.49368671912131301 0.1828531969182482 0 -0.49999999999999972 0.17362804043903909 0 -0.49200992699072321 0.1743962810239672 0 -0.49200992699072321 0.1743962810239672 0 -0.48341269367675271 0.17637066895233999 0 -0.49368671912131301 0.1828531969182482 0 -0.49200992699072321 0.1743962810239672 0 -0.48341269367675271 0.17637066895233999 0 -0.48341269367675271 0.17637066895233999 0 -0.45591042926964898 0.18268667049205081 0 -0.47274380268756999 0.19288508587190861 0 -0.48341269367675271 0.17637066895233999 0 -0.45591042926964898 0.18268667049205081 0 -0.49200992699072321 0.1743962810239672 0 -0.48341269367675271 0.17637066895233999 0 -0.47479757173443998 0.15789312434732811 0 -0.48341269367675271 0.17637066895233999 0 -0.47479757173443998 0.15789312434732811 0 -0.48341269367675271 0.17637066895233999 0 -0.47479757173443998 0.15789312434732811 0 -0.45723956394668003 0.16387676974864759 0 -0.48341269367675271 0.17637066895233999 0 -0.45723956394668003 0.16387676974864759 0 -0.45591042926964898 0.18268667049205081 0 -0.45591042926964898 0.18268667049205081 0 -0.43992511097516529 0.17411109905454999 0 -0.4284081648625454 0.1890026720317621 0 -0.45591042926964898 0.18268667049205081 0 -0.4284081648625454 0.1890026720317621 0 -0.45723956394668003 0.16387676974864759 0 -0.45591042926964898 0.18268667049205081 0 -0.43992511097516529 0.17411109905454999 0 -0.45723956394668003 0.16387676974864759 0 -0.43992511097516529 0.17411109905454999 0 -0.43892522612619872 0.15930650560997939 0 -0.43892522612619872 0.15930650560997939 0 -0.43796764784210812 0.14528805014891141 0 -0.45386540436598038 0.14482430837095511 0 -0.45723956394668003 0.16387676974864759 0 -0.43892522612619872 0.15930650560997939 0 -0.45386540436598038 0.14482430837095511 0 -0.45386540436598038 0.14482430837095511 0 -0.43293323699752101 0.1317554923945817 0 -0.43826405507869293 0.1195835460605416 0 -0.44901593584904892 0.12912088192892021 0 -0.43293323699752101 0.1317554923945817 0 -0.43796764784210812 0.14528805014891141 0 -0.45386540436598038 0.14482430837095511 0 -0.43293323699752101 0.1317554923945817 0 -0.44901593584904892 0.12912088192892021 0 -0.45386540436598038 0.14482430837095511 0 -0.43293323699752101 0.1317554923945817 0 -0.45371440568763749 0.1126743632371118 0 -0.44901593584904892 0.12912088192892021 0 -0.46425598871103851 0.13528374379222011 0 -0.44901593584904892 0.12912088192892021 0 -0.46425598871103851 0.13528374379222011 0 -0.45386540436598038 0.14482430837095511 0 -0.47479757173443998 0.15789312434732811 0 -0.45723956394668003 0.16387676974864759 0 -0.45386540436598038 0.14482430837095511 0 -0.47479757173443998 0.15789312434732811 0 -0.46425598871103851 0.13528374379222011 0 -0.45386540436598038 0.14482430837095511 0 -0.47479757173443998 0.15789312434732811 0 -0.45386540436598038 0.14482430837095511 0 -0.48226153920099157 0.23766317590200001 0 -0.47864167104372218 0.246590621409366 0 -0.48932095354102823 0.25454658797793611 0 -0.47315400564016008 0.2364435414805684 0 -0.47864167104372218 0.246590621409366 0 -0.46938038244821267 0.25133041049185839 0 -0.47315400564016008 0.2364435414805684 0 -0.48226153920099157 0.23766317590200001 0 -0.47864167104372218 0.246590621409366 0 -0.49106398183666961 0.22759324404760359 0 -0.48932095354102823 0.25454658797793611 0 -0.5 0.23810140997737081 0 -0.49106398183666961 0.22759324404760359 0 -0.48932095354102823 0.25454658797793611 0 -0.48226153920099157 0.23766317590200001 0 -0.49106398183666961 0.22759324404760359 0 -0.48932095354102823 0.25454658797793611 0 -0.5 0.23810140997737081 0 -0.49106398183666961 0.22759324404760359 0 -0.50000000000000022 0.21194679828831781 0 -0.49106398183666961 0.22759324404760359 0 -0.47912708394337772 0.2231418845945258 0 -0.48726644121087642 0.21298690825741631 0 -0.48226153920099157 0.23766317590200001 0 -0.49106398183666961 0.22759324404760359 0 -0.47912708394337772 0.2231418845945258 0 -0.47315400564016008 0.2364435414805684 0 -0.48226153920099157 0.23766317590200001 0 -0.47912708394337772 0.2231418845945258 0 -0.47315400564016008 0.2364435414805684 0 -0.47912708394337772 0.2231418845945258 0 -0.46764368341616458 0.22415830119077751 0 -0.47912708394337772 0.2231418845945258 0 -0.47360767850491831 0.20951316246361981 0 -0.46764368341616458 0.22415830119077751 0 -0.47360767850491831 0.20951316246361981 0 -0.48726644121087642 0.21298690825741631 0 -0.49170634683837577 0.1941587336203292 0 -0.47912708394337772 0.2231418845945258 0 -0.47360767850491831 0.20951316246361981 0 -0.48726644121087642 0.21298690825741631 0 -0.49106398183666961 0.22759324404760359 0 -0.50000000000000022 0.21194679828831781 0 -0.48726644121087642 0.21298690825741631 0 -0.50000000000000022 0.21194679828831781 0 -0.48726644121087642 0.21298690825741631 0 -0.49170634683837577 0.1941587336203292 0 -0.50000000000000022 0.21194679828831781 0 -0.49170634683837577 0.1941587336203292 0 -0.50000000000000022 0.21194679828831781 0 -0.5 0.19278741936367841 0 -0.49170634683837577 0.1941587336203292 0 -0.49368671912131301 0.1828531969182482 0 -0.5 0.19278741936367841 0 -0.49170634683837577 0.1941587336203292 0 -0.48341269367675271 0.17637066895233999 0 -0.49170634683837577 0.1941587336203292 0 -0.47274380268756999 0.19288508587190861 0 -0.47360767850491831 0.20951316246361981 0 -0.49170634683837577 0.1941587336203292 0 -0.47274380268756999 0.19288508587190861 0 -0.47360767850491831 0.20951316246361981 0 -0.47274380268756999 0.19288508587190861 0 -0.45820261548712909 0.20353130823034371 0 -0.45591042926964898 0.18268667049205081 0 -0.47274380268756999 0.19288508587190861 0 -0.45820261548712909 0.20353130823034371 0 -0.45591042926964898 0.18268667049205081 0 -0.43516662619925378 0.20614333559983469 0 -0.4284081648625454 0.1890026720317621 0 -0.45591042926964898 0.18268667049205081 0 -0.45820261548712909 0.20353130823034371 0 -0.43516662619925378 0.20614333559983469 0 -0.44192508753596349 0.22328399916790689 0 -0.43516662619925378 0.20614333559983469 0 -0.45032248765871591 0.2151961798839368 0 -0.44192508753596349 0.22328399916790689 0 -0.43516662619925378 0.20614333559983469 0 -0.45032248765871591 0.2151961798839368 0 -0.45820261548712909 0.20353130823034371 0 -0.43516662619925378 0.20614333559983469 0 -0.45032248765871591 0.2151961798839368 0 -0.46109406183397039 0.21551848415653921 0 -0.45620465585954723 0.2251951411450015 0 -0.45032248765871591 0.2151961798839368 0 -0.45820261548712909 0.20353130823034371 0 -0.46109406183397039 0.21551848415653921 0 -0.47360767850491831 0.20951316246361981 0 -0.45820261548712909 0.20353130823034371 0 -0.46109406183397039 0.21551848415653921 0 -0.47360767850491831 0.20951316246361981 0 -0.46109406183397039 0.21551848415653921 0 -0.46764368341616458 0.22415830119077751 0 -0.47315400564016008 0.2364435414805684 0 -0.46764368341616458 0.22415830119077751 0 -0.45925329591452863 0.2407771106774913 0 -0.46764368341616458 0.22415830119077751 0 -0.45620465585954723 0.2251951411450015 0 -0.45925329591452863 0.2407771106774913 0 -0.46109406183397039 0.21551848415653921 0 -0.46764368341616458 0.22415830119077751 0 -0.45620465585954723 0.2251951411450015 0 -0.45032248765871591 0.2151961798839368 0 -0.45620465585954723 0.2251951411450015 0 -0.44192508753596349 0.22328399916790689 0 -0.44192508753596349 0.22328399916790689 0 -0.44062222049055039 0.24203477259657111 0 -0.43146145522804691 0.2313120115293863 0 -0.45620465585954723 0.2251951411450015 0 -0.44062222049055039 0.24203477259657111 0 -0.45620465585954723 0.2251951411450015 0 -0.44192508753596349 0.22328399916790689 0 -0.44062222049055039 0.24203477259657111 0 -0.44062222049055039 0.24203477259657111 0 -0.45046339488490522 0.249057113070103 0 -0.44442574262614493 0.25832327296872359 0 -0.44062222049055039 0.24203477259657111 0 -0.45046339488490522 0.249057113070103 0 -0.45925329591452863 0.2407771106774913 0 -0.45620465585954723 0.2251951411450015 0 -0.44062222049055039 0.24203477259657111 0 -0.45925329591452863 0.2407771106774913 0 -0.45046339488490522 0.249057113070103 0 -0.45925329591452863 0.2407771106774913 0 -0.45807104112411212 0.25534721177055669 0 -0.45925329591452863 0.2407771106774913 0 -0.46938038244821267 0.25133041049185839 0 -0.45807104112411212 0.25534721177055669 0 -0.47315400564016008 0.2364435414805684 0 -0.45925329591452863 0.2407771106774913 0 -0.46938038244821267 0.25133041049185839 0 -0.4198454647722451 0.23985190764030939 0 -0.40081965837488509 0.24074316727492401 0 -0.40585136056822319 0.25674789398696107 0 -0.4198454647722451 0.23985190764030939 0 -0.405480724964072 0.22581663549259839 0 -0.40081965837488509 0.24074316727492401 0 -0.44062222049055039 0.24203477259657111 0 -0.4198454647722451 0.23985190764030939 0 -0.42503978512155383 0.25887440404814072 0 -0.44062222049055039 0.24203477259657111 0 -0.4198454647722451 0.23985190764030939 0 -0.43146145522804691 0.2313120115293863 0 -0.4198454647722451 0.23985190764030939 0 -0.43146145522804691 0.2313120115293863 0 -0.42370673975344808 0.22056464269113771 0 -0.44192508753596349 0.22328399916790689 0 -0.43146145522804691 0.2313120115293863 0 -0.42370673975344808 0.22056464269113771 0 -0.4198454647722451 0.23985190764030939 0 -0.42370673975344808 0.22056464269113771 0 -0.405480724964072 0.22581663549259839 0 -0.42370673975344808 0.22056464269113771 0 -0.40708390191205951 0.20882890034131879 0 -0.405480724964072 0.22581663549259839 0 -0.42370673975344808 0.22056464269113771 0 -0.40708390191205951 0.20882890034131879 0 -0.42107335870595469 0.2022269477122331 0 -0.44192508753596349 0.22328399916790689 0 -0.42370673975344808 0.22056464269113771 0 -0.43516662619925378 0.20614333559983469 0 -0.42370673975344808 0.22056464269113771 0 -0.43516662619925378 0.20614333559983469 0 -0.42107335870595469 0.2022269477122331 0 -0.43516662619925378 0.20614333559983469 0 -0.4284081648625454 0.1890026720317621 0 -0.42107335870595469 0.2022269477122331 0 -0.43516662619925378 0.20614333559983469 0 -0.4284081648625454 0.1890026720317621 0 -0.4284081648625454 0.1890026720317621 0 -0.40915969581062839 0.19342315750049971 0 -0.4284081648625454 0.1890026720317621 0 -0.42107335870595469 0.2022269477122331 0 -0.40915969581062839 0.19342315750049971 0 -0.40708390191205951 0.20882890034131879 0 -0.42107335870595469 0.2022269477122331 0 -0.40915969581062839 0.19342315750049971 0 -0.40708390191205951 0.20882890034131879 0 -0.40915969581062839 0.19342315750049971 0 -0.38991122675871148 0.19784364296923759 0 -0.40915969581062839 0.19342315750049971 0 -0.38991122675871148 0.19784364296923759 0 -0.40915969581062839 0.19342315750049971 0 -0.38991122675871148 0.19784364296923759 0 -0.39569501158598158 0.17813944679546001 0 -0.39158905321283283 0.2136173787495643 0 -0.38435338999826391 0.22831720607051781 0 -0.36414166766971379 0.2074649771098355 0 -0.38991122675871148 0.19784364296923759 0 -0.39158905321283283 0.2136173787495643 0 -0.36414166766971379 0.2074649771098355 0 -0.40708390191205951 0.20882890034131879 0 -0.39158905321283283 0.2136173787495643 0 -0.405480724964072 0.22581663549259839 0 -0.40708390191205951 0.20882890034131879 0 -0.38991122675871148 0.19784364296923759 0 -0.39158905321283283 0.2136173787495643 0 -0.405480724964072 0.22581663549259839 0 -0.38435338999826391 0.22831720607051781 0 -0.40081965837488509 0.24074316727492401 0 -0.39158905321283283 0.2136173787495643 0 -0.405480724964072 0.22581663549259839 0 -0.38435338999826391 0.22831720607051781 0 -0.37619177155740557 0.24036243622333081 0 -0.38790582398472923 0.24962922847932231 0 -0.36318679658289171 0.25196182354824148 0 -0.38435338999826391 0.22831720607051781 0 -0.37619177155740557 0.24036243622333081 0 -0.38790582398472923 0.24962922847932231 0 -0.38435338999826391 0.22831720607051781 0 -0.38790582398472923 0.24962922847932231 0 -0.40081965837488509 0.24074316727492401 0 -0.38790582398472923 0.24962922847932231 0 -0.40081965837488509 0.24074316727492401 0 -0.40585136056822319 0.25674789398696107 0 -0.40926453963391513 0.14045102348790381 0 -0.42614672387873248 0.14526589422012931 0 -0.41883635224822963 0.16472684775983329 0 -0.40926453963391513 0.14045102348790381 0 -0.41883635224822963 0.16472684775983329 0 -0.40926453963391513 0.14045102348790381 0 -0.41883635224822963 0.16472684775983329 0 -0.40029434983296169 0.15790366282291429 0 -0.40926453963391513 0.14045102348790381 0 -0.417579207348795 0.13056668242546571 0 -0.40026410281127539 0.13237877311027449 0 -0.40926453963391513 0.14045102348790381 0 -0.417579207348795 0.13056668242546571 0 -0.42614672387873248 0.14526589422012931 0 -0.417579207348795 0.13056668242546571 0 -0.43293323699752101 0.1317554923945817 0 -0.42614672387873248 0.14526589422012931 0 -0.42608096723388439 0.1205091241492761 0 -0.417579207348795 0.13056668242546571 0 -0.43293323699752101 0.1317554923945817 0 -0.43796764784210812 0.14528805014891141 0 -0.43293323699752101 0.1317554923945817 0 -0.42614672387873248 0.14526589422012931 0 -0.43892522612619872 0.15930650560997939 0 -0.43796764784210812 0.14528805014891141 0 -0.42614672387873248 0.14526589422012931 0 -0.43892522612619872 0.15930650560997939 0 -0.42614672387873248 0.14526589422012931 0 -0.41883635224822963 0.16472684775983329 0 -0.43992511097516529 0.17411109905454999 0 -0.43892522612619872 0.15930650560997939 0 -0.41883635224822963 0.16472684775983329 0 -0.4284081648625454 0.1890026720317621 0 -0.41883635224822963 0.16472684775983329 0 -0.43992511097516529 0.17411109905454999 0 -0.4284081648625454 0.1890026720317621 0 -0.41883635224822963 0.16472684775983329 0 -0.40915969581062839 0.19342315750049971 0 -0.41883635224822963 0.16472684775983329 0 -0.39569501158598158 0.17813944679546001 0 -0.4284081648625454 0.1890026720317621 0 -0.40915969581062839 0.19342315750049971 0 -0.41883635224822963 0.16472684775983329 0 -0.40029434983296169 0.15790366282291429 0 -0.39569501158598158 0.17813944679546001 0 -0.38484252596519369 0.16167484958157691 0 -0.41883635224822963 0.16472684775983329 0 -0.40029434983296169 0.15790366282291429 0 -0.39569501158598158 0.17813944679546001 0 -0.39569501158598158 0.17813944679546001 0 -0.38484252596519369 0.16167484958157691 0 -0.36525228834216061 0.17922160577889321 0 -0.38991122675871148 0.19784364296923759 0 -0.39569501158598158 0.17813944679546001 0 -0.36525228834216061 0.17922160577889321 0 -0.39283331973148827 0.14452614648979731 0 -0.38372255811484618 0.13025780258704611 0 -0.36636290901460722 0.1509782344479508 0 -0.38484252596519369 0.16167484958157691 0 -0.39283331973148827 0.14452614648979731 0 -0.36636290901460722 0.1509782344479508 0 -0.40029434983296169 0.15790366282291429 0 -0.38484252596519369 0.16167484958157691 0 -0.39283331973148827 0.14452614648979731 0 -0.40926453963391513 0.14045102348790381 0 -0.40029434983296169 0.15790366282291429 0 -0.39283331973148827 0.14452614648979731 0 -0.39283331973148827 0.14452614648979731 0 -0.40026410281127539 0.13237877311027449 0 -0.38372255811484618 0.13025780258704611 0 -0.39792088922733271 0.1160922105611595 0 -0.417579207348795 0.13056668242546571 0 -0.40026410281127539 0.13237877311027449 0 -0.39792088922733271 0.1160922105611595 0 -0.40026410281127539 0.13237877311027449 0 -0.38372255811484618 0.13025780258704611 0 -0.40926453963391513 0.14045102348790381 0 -0.39283331973148827 0.14452614648979731 0 -0.40026410281127539 0.13237877311027449 0 -0.38372255811484618 0.13025780258704611 0 -0.36636290901460722 0.1509782344479508 0 -0.36747352968705388 0.12273486311700831 0 -0.36636290901460722 0.1509782344479508 0 -0.36747352968705388 0.12273486311700831 0 -0.35528769071996391 0.12689780186549679 0 -0.36636290901460722 0.1509782344479508 0 -0.36747352968705388 0.12273486311700831 0 -0.35528769071996391 0.12689780186549679 0 -0.33512599087492562 0.1447950320020088 0 -0.35528769071996391 0.12689780186549679 0 -0.35168351666373848 0.14314256241625531 0 -0.33512599087492562 0.1447950320020088 0 -0.35528769071996391 0.12689780186549679 0 -0.33512599087492562 0.1447950320020088 0 -0.34115039425197219 0.12498493974687711 0 -0.35528769071996391 0.12689780186549679 0 -0.35168351666373848 0.14314256241625531 0 -0.36636290901460722 0.1509782344479508 0 -0.35168351666373848 0.14314256241625531 0 -0.36636290901460722 0.1509782344479508 0 -0.34333519974196419 0.16612441953572921 0 -0.38484252596519369 0.16167484958157691 0 -0.36636290901460722 0.1509782344479508 0 -0.36525228834216061 0.17922160577889321 0 -0.36636290901460722 0.1509782344479508 0 -0.36525228834216061 0.17922160577889321 0 -0.36525228834216061 0.17922160577889321 0 -0.34333519974196419 0.16612441953572921 0 -0.34654591437965571 0.19533490523866279 0 -0.36636290901460722 0.1509782344479508 0 -0.36525228834216061 0.17922160577889321 0 -0.34333519974196419 0.16612441953572921 0 -0.34333519974196419 0.16612441953572921 0 -0.31496429102988749 0.16269226213852109 0 -0.33512599087492562 0.1447950320020088 0 -0.34333519974196419 0.16612441953572921 0 -0.34654591437965571 0.19533490523866279 0 -0.32412519241006588 0.1878495682783011 0 -0.31496429102988749 0.16269226213852109 0 -0.32412519241006588 0.1878495682783011 0 -0.34333519974196419 0.16612441953572921 0 -0.31496429102988749 0.16269226213852109 0 -0.32412519241006588 0.1878495682783011 0 -0.31303823693556859 0.17707572181323081 0 -0.31496429102988749 0.16269226213852109 0 -0.32412519241006588 0.1878495682783011 0 -0.31303823693556859 0.17707572181323081 0 -0.32412519241006588 0.1878495682783011 0 -0.3108046026399135 0.18379038091696129 0 -0.31496429102988749 0.16269226213852109 0 -0.31353256245119709 0.1587605055712967 0 -0.31354631638020197 0.13395604467094269 0 -0.33512599087492562 0.1447950320020088 0 -0.3122891553291075 0.14635758184588041 0 -0.31353256245119709 0.1587605055712967 0 -0.33512599087492562 0.1447950320020088 0 -0.3122891553291075 0.14635758184588041 0 -0.31496429102988749 0.16269226213852109 0 -0.31353256245119709 0.1587605055712967 0 -0.33512599087492562 0.1447950320020088 0 -0.31496429102988749 0.16269226213852109 0 -0.33512599087492562 0.1447950320020088 0 -0.31354631638020197 0.13395604467094269 0 -0.32917568526667751 0.12578156900391591 0 -0.33512599087492562 0.1447950320020088 0 -0.31354631638020197 0.13395604467094269 0 -0.32917568526667751 0.12578156900391591 0 -0.32114709127587232 0.11611322513389059 0 -0.32917568526667751 0.12578156900391591 0 -0.33512599087492562 0.1447950320020088 0 -0.34115039425197219 0.12498493974687711 0 -0.35168351666373848 0.14314256241625531 0 -0.34333519974196419 0.16612441953572921 0 -0.33512599087492562 0.1447950320020088 0 -0.36303104699726713 0.23570834844077809 0 -0.34244699517042121 0.23816418055786151 0 -0.36318679658289171 0.25196182354824148 0 -0.34244699517042121 0.23816418055786151 0 -0.36318679658289171 0.25196182354824148 0 -0.33952374355129727 0.25899057541505788 0 -0.37619177155740557 0.24036243622333081 0 -0.36303104699726713 0.23570834844077809 0 -0.36318679658289171 0.25196182354824148 0 -0.38435338999826391 0.22831720607051781 0 -0.37619177155740557 0.24036243622333081 0 -0.36303104699726713 0.23570834844077809 0 -0.38435338999826391 0.22831720607051781 0 -0.36303104699726713 0.23570834844077809 0 -0.36414166766971379 0.2074649771098355 0 -0.36303104699726713 0.23570834844077809 0 -0.36414166766971379 0.2074649771098355 0 -0.36303104699726713 0.23570834844077809 0 -0.35084793517488477 0.2210857468323085 0 -0.34244699517042121 0.23816418055786151 0 -0.36303104699726713 0.23570834844077809 0 -0.35084793517488477 0.2210857468323085 0 -0.36414166766971379 0.2074649771098355 0 -0.35084793517488477 0.2210857468323085 0 -0.36414166766971379 0.2074649771098355 0 -0.34654591437965571 0.19533490523866279 0 -0.36525228834216061 0.17922160577889321 0 -0.36414166766971379 0.2074649771098355 0 -0.38991122675871148 0.19784364296923759 0 -0.36525228834216061 0.17922160577889321 0 -0.36414166766971379 0.2074649771098355 0 -0.36525228834216061 0.17922160577889321 0 -0.36414166766971379 0.2074649771098355 0 -0.34654591437965571 0.19533490523866279 0 -0.32412519241006588 0.1878495682783011 0 -0.33328609379024349 0.2130068744180813 0 -0.34654591437965571 0.19533490523866279 0 -0.32412519241006588 0.1878495682783011 0 -0.33328609379024349 0.2130068744180813 0 -0.32412519241006588 0.1878495682783011 0 -0.33328609379024349 0.2130068744180813 0 -0.31080006153106382 0.20197173666100501 0 -0.32412519241006588 0.1878495682783011 0 -0.31080006153106382 0.20197173666100501 0 -0.3108046026399135 0.18379038091696129 0 -0.33328609379024349 0.2130068744180813 0 -0.31873218963182409 0.22654972870499029 0 -0.31080006153106382 0.20197173666100501 0 -0.35084793517488477 0.2210857468323085 0 -0.34654591437965571 0.19533490523866279 0 -0.33328609379024349 0.2130068744180813 0 -0.35084793517488477 0.2210857468323085 0 -0.33328609379024349 0.2130068744180813 0 -0.34244699517042121 0.23816418055786151 0 -0.33328609379024349 0.2130068744180813 0 -0.34244699517042121 0.23816418055786151 0 -0.33328609379024349 0.2130068744180813 0 -0.31873218963182409 0.22654972870499029 0 -0.34244699517042121 0.23816418055786151 0 -0.31873218963182409 0.22654972870499029 0 -0.32200613725511351 0.24850726385495631 0 -0.34244699517042121 0.23816418055786151 0 -0.31873218963182409 0.22654972870499029 0 -0.32200613725511351 0.24850726385495631 0 -0.30672251365844311 0.23743048015470111 0 -0.32200613725511351 0.24850726385495631 0 -0.34244699517042121 0.23816418055786151 0 -0.33952374355129727 0.25899057541505788 0 -0.29125564533142001 0.24067530578368901 0 -0.30672251365844311 0.23743048015470111 0 -0.30640548876467488 0.25787073169030861 0 -0.32200613725511351 0.24850726385495631 0 -0.30672251365844311 0.23743048015470111 0 -0.30640548876467488 0.25787073169030861 0 -0.29125564533142001 0.24067530578368901 0 -0.30672251365844311 0.23743048015470111 0 -0.29521310730918271 0.21354937073956171 0 -0.31873218963182409 0.22654972870499029 0 -0.30672251365844311 0.23743048015470111 0 -0.29521310730918271 0.21354937073956171 0 -0.29125564533142001 0.24067530578368901 0 -0.29521310730918271 0.21354937073956171 0 -0.29125564533142001 0.24067530578368901 0 -0.29521310730918271 0.21354937073956171 0 -0.27258595833473342 0.22149207507906341 0 -0.29521310730918271 0.21354937073956171 0 -0.28878760701375322 0.1984352968903606 0 -0.27490594785389072 0.20112241201531189 0 -0.31873218963182409 0.22654972870499029 0 -0.29521310730918271 0.21354937073956171 0 -0.31080006153106382 0.20197173666100501 0 -0.29521310730918271 0.21354937073956171 0 -0.29917056928694541 0.1864234356954344 0 -0.29521310730918271 0.21354937073956171 0 -0.31080006153106382 0.20197173666100501 0 -0.29917056928694541 0.1864234356954344 0 -0.31080006153106382 0.20197173666100501 0 -0.3108046026399135 0.18379038091696129 0 -0.29917056928694541 0.1864234356954344 0 -0.28878760701375322 0.1984352968903606 0 -0.29917056928694541 0.1864234356954344 0 -0.28955343229492791 0.1852490896997587 0 -0.29521310730918271 0.21354937073956171 0 -0.28878760701375322 0.1984352968903606 0 -0.29917056928694541 0.1864234356954344 0 -0.28878760701375322 0.1984352968903606 0 -0.27938784373491388 0.18917199981814359 0 -0.28955343229492791 0.1852490896997587 0 -0.27938784373491388 0.18917199981814359 0 -0.27490594785389072 0.20112241201531189 0 -0.26439180367967152 0.18225540552070321 0 -0.28878760701375322 0.1984352968903606 0 -0.27938784373491388 0.18917199981814359 0 -0.27490594785389072 0.20112241201531189 0 -0.27490594785389072 0.20112241201531189 0 -0.25370102580463139 0.2052288024824625 0 -0.26439180367967152 0.18225540552070321 0 -0.25370102580463139 0.2052288024824625 0 -0.26439180367967152 0.18225540552070321 0 -0.23359887481107691 0.1809086922627815 0 -0.27490594785389072 0.20112241201531189 0 -0.25370102580463139 0.2052288024824625 0 -0.27258595833473342 0.22149207507906341 0 -0.29521310730918271 0.21354937073956171 0 -0.27490594785389072 0.20112241201531189 0 -0.27258595833473342 0.22149207507906341 0 -0.29125564533142001 0.24067530578368901 0 -0.27258595833473342 0.22149207507906341 0 -0.26834113505385238 0.23837358332174549 0 -0.27258595833473342 0.22149207507906341 0 -0.25272375818517617 0.22994970808158929 0 -0.26834113505385238 0.23837358332174549 0 -0.25370102580463139 0.2052288024824625 0 -0.27258595833473342 0.22149207507906341 0 -0.25272375818517617 0.22994970808158929 0 -0.25272375818517617 0.22994970808158929 0 -0.25621817608628389 0.2460965770837312 0 -0.26834113505385238 0.23837358332174549 0 -0.25621817608628389 0.2460965770837312 0 -0.26834113505385238 0.23837358332174549 0 -0.26892213733164849 0.25365425058065472 0 -0.29125564533142001 0.24067530578368901 0 -0.26834113505385238 0.23837358332174549 0 -0.26892213733164849 0.25365425058065472 0 -0.29370567785695612 0.15770531643225719 0 -0.28412418886142132 0.16518528890623771 0 -0.28065913062351988 0.14575155473079041 0 -0.30159211447790629 0.14759241864651959 0 -0.29370567785695612 0.15770531643225719 0 -0.28065913062351988 0.14575155473079041 0 -0.29682817834931757 0.13068013418198679 0 -0.30159211447790629 0.14759241864651959 0 -0.28065913062351988 0.14575155473079041 0 -0.29682817834931757 0.13068013418198679 0 -0.28065913062351988 0.14575155473079041 0 -0.28285123447775751 0.1183560919224374 0 -0.31354631638020197 0.13395604467094269 0 -0.29682817834931757 0.13068013418198679 0 -0.30159211447790629 0.14759241864651959 0 -0.31354631638020197 0.13395604467094269 0 -0.3122891553291075 0.14635758184588041 0 -0.30159211447790629 0.14759241864651959 0 -0.31353256245119709 0.1587605055712967 0 -0.3122891553291075 0.14635758184588041 0 -0.30159211447790629 0.14759241864651959 0 -0.31496429102988749 0.16269226213852109 0 -0.31353256245119709 0.1587605055712967 0 -0.30488677357152572 0.1641353808659653 0 -0.30159211447790629 0.14759241864651959 0 -0.30488677357152572 0.1641353808659653 0 -0.29370567785695612 0.15770531643225719 0 -0.31353256245119709 0.1587605055712967 0 -0.30159211447790629 0.14759241864651959 0 -0.30488677357152572 0.1641353808659653 0 -0.31496429102988749 0.16269226213852109 0 -0.30225886166240762 0.17397067591913981 0 -0.31303823693556859 0.17707572181323081 0 -0.31496429102988749 0.16269226213852109 0 -0.30225886166240762 0.17397067591913981 0 -0.31496429102988749 0.16269226213852109 0 -0.30488677357152572 0.1641353808659653 0 -0.30225886166240762 0.17397067591913981 0 -0.30488677357152572 0.1641353808659653 0 -0.30225886166240762 0.17397067591913981 0 -0.29597535979189887 0.1670989905046398 0 -0.30488677357152572 0.1641353808659653 0 -0.29370567785695612 0.15770531643225719 0 -0.29597535979189887 0.1670989905046398 0 -0.31303823693556859 0.17707572181323081 0 -0.3108046026399135 0.18379038091696129 0 -0.30225886166240762 0.17397067591913981 0 -0.30225886166240762 0.17397067591913981 0 -0.29917056928694541 0.1864234356954344 0 -0.28955343229492791 0.1852490896997587 0 -0.3108046026399135 0.18379038091696129 0 -0.30225886166240762 0.17397067591913981 0 -0.29917056928694541 0.1864234356954344 0 -0.30225886166240762 0.17397067591913981 0 -0.28955343229492791 0.1852490896997587 0 -0.30225886166240762 0.17397067591913981 0 -0.28955343229492791 0.1852490896997587 0 -0.29024545837739651 0.173916500811098 0 -0.28955343229492791 0.1852490896997587 0 -0.29024545837739651 0.173916500811098 0 -0.27889874324695868 0.17762520371433099 0 -0.29024545837739651 0.173916500811098 0 -0.28412418886142132 0.16518528890623771 0 -0.27889874324695868 0.17762520371433099 0 -0.27938784373491388 0.18917199981814359 0 -0.28955343229492791 0.1852490896997587 0 -0.27889874324695868 0.17762520371433099 0 -0.29370567785695612 0.15770531643225719 0 -0.29597535979189887 0.1670989905046398 0 -0.28412418886142132 0.16518528890623771 0 -0.30225886166240762 0.17397067591913981 0 -0.29024545837739651 0.173916500811098 0 -0.29597535979189887 0.1670989905046398 0 -0.29024545837739651 0.173916500811098 0 -0.29597535979189887 0.1670989905046398 0 -0.28412418886142132 0.16518528890623771 0 -0.28412418886142132 0.16518528890623771 0 -0.26844272787379447 0.16268744982768751 0 -0.27889874324695868 0.17762520371433099 0 -0.28412418886142132 0.16518528890623771 0 -0.26844272787379447 0.16268744982768751 0 -0.28065913062351988 0.14575155473079041 0 -0.26844272787379447 0.16268744982768751 0 -0.27889874324695868 0.17762520371433099 0 -0.26439180367967152 0.18225540552070321 0 -0.27938784373491388 0.18917199981814359 0 -0.27889874324695868 0.17762520371433099 0 -0.26439180367967152 0.18225540552070321 0 -0.26844272787379447 0.16268744982768751 0 -0.26439180367967152 0.18225540552070321 0 -0.247018622616726 0.15992587597476091 0 -0.26844272787379447 0.16268744982768751 0 -0.25846103874104392 0.14702121199507179 0 -0.247018622616726 0.15992587597476091 0 -0.26844272787379447 0.16268744982768751 0 -0.25846103874104392 0.14702121199507179 0 -0.28065913062351988 0.14575155473079041 0 -0.25846103874104392 0.14702121199507179 0 -0.28065913062351988 0.14575155473079041 0 -0.25922316449870308 0.12628093809151891 0 -0.28065913062351988 0.14575155473079041 0 -0.25922316449870308 0.12628093809151891 0 -0.28285123447775751 0.1183560919224374 0 -0.25846103874104392 0.14702121199507179 0 -0.25922316449870308 0.12628093809151891 0 -0.2369615480924761 0.1404602413506009 0 -0.25922316449870308 0.12628093809151891 0 -0.25136603029008331 0.1103208693098497 0 -0.26687835675477128 0.1014348965859585 0 -0.25136603029008331 0.1103208693098497 0 -0.26687835675477128 0.1014348965859585 0 -0.24377998071086901 0.096378574065869249 0 -0.26687835675477128 0.1014348965859585 0 -0.28737892951993471 0.098967158637655914 0 -0.27569457229827071 0.081243623470509244 0 -0.26687835675477128 0.1014348965859585 0 -0.28285123447775751 0.1183560919224374 0 -0.28737892951993471 0.098967158637655914 0 -0.25922316449870308 0.12628093809151891 0 -0.26687835675477128 0.1014348965859585 0 -0.28285123447775751 0.1183560919224374 0 -0.29682817834931757 0.13068013418198679 0 -0.28285123447775751 0.1183560919224374 0 -0.30549209578720232 0.10774456093924389 0 -0.28285123447775751 0.1183560919224374 0 -0.28737892951993471 0.098967158637655914 0 -0.30549209578720232 0.10774456093924389 0 -0.28737892951993471 0.098967158637655914 0 -0.30549209578720232 0.10774456093924389 0 -0.29743787519420251 0.08153307720754506 0 -0.30549209578720232 0.10774456093924389 0 -0.29743787519420251 0.08153307720754506 0 -0.31354631638020197 0.13395604467094269 0 -0.29682817834931757 0.13068013418198679 0 -0.30549209578720232 0.10774456093924389 0 -0.31354631638020197 0.13395604467094269 0 -0.30549209578720232 0.10774456093924389 0 -0.29926204670725021 0.066629363318123747 0 -0.30931237829482389 0.073252958087475881 0 -0.31697319293959142 0.061410437985649477 0 -0.29926204670725021 0.066629363318123747 0 -0.30931237829482389 0.073252958087475881 0 -0.29743787519420251 0.08153307720754506 0 -0.30549209578720232 0.10774456093924389 0 -0.29743787519420251 0.08153307720754506 0 -0.31312795334666071 0.083579729522452809 0 -0.30931237829482389 0.073252958087475881 0 -0.29743787519420251 0.08153307720754506 0 -0.31312795334666071 0.083579729522452809 0 -0.28737892951993471 0.098967158637655914 0 -0.29743787519420251 0.08153307720754506 0 -0.27569457229827071 0.081243623470509244 0 -0.29743787519420251 0.08153307720754506 0 -0.28743776060402371 0.060458689408765323 0 -0.28938365460120269 0.05532159347584624 0 -0.29743787519420251 0.08153307720754506 0 -0.28938365460120269 0.05532159347584624 0 -0.29926204670725021 0.066629363318123747 0 -0.29743787519420251 0.08153307720754506 0 -0.28938365460120269 0.05532159347584624 0 -0.29743787519420251 0.08153307720754506 0 -0.27569457229827071 0.081243623470509244 0 -0.28743776060402371 0.060458689408765323 0 -0.27569457229827071 0.081243623470509244 0 -0.26257114212692878 0.06573449919026883 0 -0.28743776060402371 0.060458689408765323 0 -0.26257114212692878 0.06573449919026883 0 -0.28743776060402371 0.060458689408765323 0 -0.26687835675477128 0.1014348965859585 0 -0.25261226255175379 0.080423606239198905 0 -0.24377998071086901 0.096378574065869249 0 -0.26687835675477128 0.1014348965859585 0 -0.27569457229827071 0.081243623470509244 0 -0.25261226255175379 0.080423606239198905 0 -0.26257114212692878 0.06573449919026883 0 -0.23770452364983391 0.071010308971772351 0 -0.25261226255175379 0.080423606239198905 0 -0.26257114212692878 0.06573449919026883 0 -0.23770452364983391 0.071010308971772351 0 -0.27569457229827071 0.081243623470509244 0 -0.25261226255175379 0.080423606239198905 0 -0.26257114212692878 0.06573449919026883 0 -0.2522816967992324 0.037264740289820159 0 -0.27263172987273521 0.051913181220590639 0 -0.24906194248509719 0.058488871325365822 0 -0.26257114212692878 0.06573449919026883 0 -0.27263172987273521 0.051913181220590639 0 -0.24906194248509719 0.058488871325365822 0 -0.2522816967992324 0.037264740289820159 0 -0.2684979789729644 0.03593820420606865 0 -0.27263172987273521 0.051913181220590639 0 -0.2684979789729644 0.03593820420606865 0 -0.27263172987273521 0.051913181220590639 0 -0.28132943400820298 0.02911010974414751 0 -0.27263172987273521 0.051913181220590639 0 -0.28132943400820298 0.02911010974414751 0 -0.28938365460120269 0.05532159347584624 0 -0.26257114212692878 0.06573449919026883 0 -0.27263172987273521 0.051913181220590639 0 -0.28743776060402371 0.060458689408765323 0 -0.25267499080189931 -0.0034516002120552492 0 -0.26909988492935111 -0.0018655285383734981 0 -0.25157722050270093 0.012682655753942951 0 -0.26909988492935111 -0.0018655285383734981 0 -0.25157722050270093 0.012682655753942951 0 -0.27200359261247947 0.017754051058092819 0 -0.2522816967992324 0.037264740289820159 0 -0.25157722050270093 0.012682655753942951 0 -0.27200359261247947 0.017754051058092819 0 -0.2522816967992324 0.037264740289820159 0 -0.2684979789729644 0.03593820420606865 0 -0.27200359261247947 0.017754051058092819 0 -0.2522816967992324 0.037264740289820159 0 -0.27200359261247947 0.017754051058092819 0 -0.27200359261247947 0.017754051058092819 0 -0.28831373269731447 0.017122983851404761 0 -0.28132943400820298 0.02911010974414751 0 -0.2684979789729644 0.03593820420606865 0 -0.27200359261247947 0.017754051058092819 0 -0.28132943400820298 0.02911010974414751 0 -0.26909988492935111 -0.0018655285383734981 0 -0.2917254884257266 -0.0017566381736345419 0 -0.27200359261247947 0.017754051058092819 0 -0.2917254884257266 -0.0017566381736345419 0 -0.27200359261247947 0.017754051058092819 0 -0.28831373269731447 0.017122983851404761 0 -0.2917254884257266 -0.0017566381736345419 0 -0.28831373269731447 0.017122983851404761 0 -0.29997880334656019 0.01439552450637107 0 -0.2917254884257266 -0.0017566381736345419 0 -0.27200359261247947 0.017754051058092819 0 -0.28831373269731447 0.017122983851404761 0 -0.29656482898857922 0.02610767777843559 0 -0.29997880334656019 0.01439552450637107 0 -0.28831373269731447 0.017122983851404761 0 -0.28132943400820298 0.02911010974414751 0 -0.29656482898857922 0.02610767777843559 0 -0.28132943400820298 0.02911010974414751 0 -0.29656482898857922 0.02610767777843559 0 -0.29344050585463782 0.03493273697686209 0 -0.29656482898857922 0.02610767777843559 0 -0.31039051656375261 0.022327184027059441 0 -0.30541723396373921 0.038711125382435783 0 -0.31039051656375261 0.022327184027059441 0 -0.30541723396373921 0.038711125382435783 0 -0.32038394146944787 0.031620215762440292 0 -0.29656482898857922 0.02610767777843559 0 -0.31039051656375261 0.022327184027059441 0 -0.29997880334656019 0.01439552450637107 0 -0.31039051656375261 0.022327184027059441 0 -0.31177688145040278 0.0050359958776742568 0 -0.29997880334656019 0.01439552450637107 0 -0.2917254884257266 -0.0017566381736345419 0 -0.31177688145040278 0.0050359958776742568 0 -0.29997880334656019 0.01439552450637107 0 -0.27263172987273521 0.051913181220590639 0 -0.28743776060402371 0.060458689408765323 0 -0.28938365460120269 0.05532159347584624 0 -0.28938365460120269 0.05532159347584624 0 -0.29045052645802971 0.045802035002429492 0 -0.29738278035354182 0.050541329601553678 0 -0.28938365460120269 0.05532159347584624 0 -0.29738278035354182 0.050541329601553678 0 -0.29780899910201009 0.056562827273038227 0 -0.29926204670725021 0.066629363318123747 0 -0.28938365460120269 0.05532159347584624 0 -0.29780899910201009 0.056562827273038227 0 -0.28132943400820298 0.02911010974414751 0 -0.28938365460120269 0.05532159347584624 0 -0.29045052645802971 0.045802035002429492 0 -0.28132943400820298 0.02911010974414751 0 -0.28938365460120269 0.05532159347584624 0 -0.28132943400820298 0.02911010974414751 0 -0.29344050585463782 0.03493273697686209 0 -0.29045052645802971 0.045802035002429492 0 -0.29344050585463782 0.03493273697686209 0 -0.29045052645802971 0.045802035002429492 0 -0.30541723396373921 0.038711125382435783 0 -0.29045052645802971 0.045802035002429492 0 -0.30541723396373921 0.038711125382435783 0 -0.29738278035354182 0.050541329601553678 0 -0.29045052645802971 0.045802035002429492 0 -0.30541723396373921 0.038711125382435783 0 -0.29656482898857922 0.02610767777843559 0 -0.29344050585463782 0.03493273697686209 0 -0.30541723396373921 0.038711125382435783 0 -0.30541723396373921 0.038711125382435783 0 -0.30520751474604563 0.05375902269662923 0 -0.31780711793698518 0.045521831715634557 0 -0.29926204670725021 0.066629363318123747 0 -0.30520751474604563 0.05375902269662923 0 -0.31697319293959142 0.061410437985649477 0 -0.30541723396373921 0.038711125382435783 0 -0.30520751474604563 0.05375902269662923 0 -0.29738278035354182 0.050541329601553678 0 -0.30520751474604563 0.05375902269662923 0 -0.29738278035354182 0.050541329601553678 0 -0.29780899910201009 0.056562827273038227 0 -0.29926204670725021 0.066629363318123747 0 -0.30520751474604563 0.05375902269662923 0 -0.29780899910201009 0.056562827273038227 0 -0.32553678940662539 0.052415823907368687 0 -0.31780711793698518 0.045521831715634557 0 -0.33422422494732851 0.04449049745268327 0 -0.31697319293959142 0.061410437985649477 0 -0.32553678940662539 0.052415823907368687 0 -0.31780711793698518 0.045521831715634557 0 -0.30520751474604563 0.05375902269662923 0 -0.31697319293959142 0.061410437985649477 0 -0.31780711793698518 0.045521831715634557 0 -0.31697319293959142 0.061410437985649477 0 -0.32808937753058609 0.059947696530402161 0 -0.32553678940662539 0.052415823907368687 0 -0.31780711793698518 0.045521831715634557 0 -0.32038394146944787 0.031620215762440292 0 -0.33422422494732851 0.04449049745268327 0 -0.30541723396373921 0.038711125382435783 0 -0.31780711793698518 0.045521831715634557 0 -0.32038394146944787 0.031620215762440292 0 -0.30541723396373921 0.038711125382435783 0 -0.32038394146944787 0.031620215762440292 0 -0.32038394146944787 0.031620215762440292 0 -0.33422422494732851 0.04449049745268327 0 -0.33422422494732851 0.04449049745268327 0 -0.34051642268078958 0.02208187176518148 0 -0.34924074101412461 0.03711639968071382 0 -0.32038394146944787 0.031620215762440292 0 -0.33422422494732851 0.04449049745268327 0 -0.34051642268078958 0.02208187176518148 0 -0.33422422494732851 0.04449049745268327 0 -0.34715076893326918 0.04673829876922056 0 -0.34924074101412461 0.03711639968071382 0 -0.33422422494732851 0.04449049745268327 0 -0.34806450842520742 0.057360779142928031 0 -0.34715076893326918 0.04673829876922056 0 -0.33422422494732851 0.04449049745268327 0 -0.34806450842520742 0.057360779142928031 0 -0.33422422494732851 0.04449049745268327 0 -0.33482930480244999 0.055095026294593591 0 -0.34806450842520742 0.057360779142928031 0 -0.3407399656121517 0.06083029771636933 0 -0.33482930480244999 0.055095026294593591 0 -0.33440717105718593 0.063083878638897639 0 -0.3407399656121517 0.06083029771636933 0 -0.33482930480244999 0.055095026294593591 0 -0.34806450842520742 0.057360779142928031 0 -0.32808937753058609 0.059947696530402161 0 -0.33482930480244999 0.055095026294593591 0 -0.33440717105718593 0.063083878638897639 0 -0.32808937753058609 0.059947696530402161 0 -0.32553678940662539 0.052415823907368687 0 -0.33482930480244999 0.055095026294593591 0 -0.32553678940662539 0.052415823907368687 0 -0.33422422494732851 0.04449049745268327 0 -0.33482930480244999 0.055095026294593591 0 -0.31039051656375261 0.022327184027059441 0 -0.31177688145040278 0.0050359958776742568 0 -0.3261420213634148 0.01391490981329808 0 -0.32828291010712762 -0.0049346835118845543 0 -0.31177688145040278 0.0050359958776742568 0 -0.3261420213634148 0.01391490981329808 0 -0.31039051656375261 0.022327184027059441 0 -0.32038394146944787 0.031620215762440292 0 -0.3261420213634148 0.01391490981329808 0 -0.31039051656375261 0.022327184027059441 0 -0.32038394146944787 0.031620215762440292 0 -0.32038394146944787 0.031620215762440292 0 -0.34051642268078958 0.02208187176518148 0 -0.32038394146944787 0.031620215762440292 0 -0.3261420213634148 0.01391490981329808 0 -0.34051642268078958 0.02208187176518148 0 -0.3261420213634148 0.01391490981329808 0 -0.34051642268078958 0.02208187176518148 0 -0.34055428987364128 0.0059527955302196532 0 -0.32828291010712762 -0.0049346835118845543 0 -0.3261420213634148 0.01391490981329808 0 -0.34055428987364128 0.0059527955302196532 0 -0.34051642268078958 0.02208187176518148 0 -0.34055428987364128 0.0059527955302196532 0 -0.36064890389212972 0.0125435277679194 0 -0.34718119132474479 -0.01384164818341615 0 -0.34055428987364128 0.0059527955302196532 0 -0.36064890389212972 0.0125435277679194 0 -0.34051642268078958 0.02208187176518148 0 -0.36064890389212972 0.0125435277679194 0 -0.34051642268078958 0.02208187176518148 0 -0.35699945364537122 0.027147445145089769 0 -0.34924074101412461 0.03711639968071382 0 -0.34051642268078958 0.02208187176518148 0 -0.35699945364537122 0.027147445145089769 0 -0.36064890389212972 0.0125435277679194 0 -0.35699945364537122 0.027147445145089769 0 -0.36163302121541668 0.029781402687577421 0 -0.35940737946489582 0.035374977024224222 0 -0.37998819155715241 0.0057865511937031933 0 -0.36738966121720701 0.029980518529024301 0 -0.37123175334181557 0.027162262264614271 0 -0.37998819155715241 0.0057865511937031933 0 -0.36738966121720701 0.029980518529024301 0 -0.3645477689834325 0.020181962352102071 0 -0.37998819155715241 0.0057865511937031933 0 -0.36738966121720701 0.029980518529024301 0 -0.36273559053419291 0.026622670051971411 0 -0.36738966121720701 0.029980518529024301 0 -0.3645477689834325 0.020181962352102071 0 -0.35699945364537122 0.027147445145089769 0 -0.36163302121541668 0.029781402687577421 0 -0.36273559053419291 0.026622670051971411 0 -0.35699945364537122 0.027147445145089769 0 -0.36273559053419291 0.026622670051971411 0 -0.3645477689834325 0.020181962352102071 0 -0.36163302121541668 0.029781402687577421 0 -0.36273559053419291 0.026622670051971411 0 -0.36738966121720701 0.029980518529024301 0 -0.35699945364537122 0.027147445145089769 0 -0.3645477689834325 0.020181962352102071 0 -0.36064890389212972 0.0125435277679194 0 -0.3645477689834325 0.020181962352102071 0 -0.36064890389212972 0.0125435277679194 0 -0.37998819155715241 0.0057865511937031933 0 -0.3645477689834325 0.020181962352102071 0 -0.36064890389212972 0.0125435277679194 0 -0.38683543611469601 0.0001369023841863784 0 -0.36064890389212972 0.0125435277679194 0 -0.37474494217865062 -0.0022388935110706832 0 -0.38683543611469601 0.0001369023841863784 0 -0.36064890389212972 0.0125435277679194 0 -0.37474494217865062 -0.0022388935110706832 0 -0.36307869926690151 -0.00068504054922277494 0 -0.36064890389212972 0.0125435277679194 0 -0.35479113087726238 0.05417448586434577 0 -0.34715076893326918 0.04673829876922056 0 -0.35593663516940488 0.04278932274017315 0 -0.35479113087726238 0.05417448586434577 0 -0.35147867423579721 0.06053566178096708 0 -0.3622197730044176 0.060127746183944272 0 -0.35479113087726238 0.05417448586434577 0 -0.35147867423579721 0.06053566178096708 0 -0.35479113087726238 0.05417448586434577 0 -0.34806450842520742 0.057360779142928031 0 -0.35147867423579721 0.06053566178096708 0 -0.35479113087726238 0.05417448586434577 0 -0.34806450842520742 0.057360779142928031 0 -0.34806450842520742 0.057360779142928031 0 -0.35147867423579721 0.06053566178096708 0 -0.3447014191436914 0.063951910484466787 0 -0.34806450842520742 0.057360779142928031 0 -0.35147867423579721 0.06053566178096708 0 -0.3407399656121517 0.06083029771636933 0 -0.34806450842520742 0.057360779142928031 0 -0.3407399656121517 0.06083029771636933 0 -0.34806450842520742 0.057360779142928031 0 -0.3447014191436914 0.063951910484466787 0 -0.35479113087726238 0.05417448586434577 0 -0.34806450842520742 0.057360779142928031 0 -0.34715076893326918 0.04673829876922056 0 -0.34715076893326918 0.04673829876922056 0 -0.34924074101412461 0.03711639968071382 0 -0.35593663516940488 0.04278932274017315 0 -0.36738966121720701 0.029980518529024301 0 -0.35479113087726238 0.05417448586434577 0 -0.35593663516940488 0.04278932274017315 0 -0.35699945364537122 0.027147445145089769 0 -0.34924074101412461 0.03711639968071382 0 -0.35940737946489582 0.035374977024224222 0 -0.34924074101412461 0.03711639968071382 0 -0.35593663516940488 0.04278932274017315 0 -0.35940737946489582 0.035374977024224222 0 -0.36738966121720701 0.029980518529024301 0 -0.35479113087726238 0.05417448586434577 0 -0.36677646394688163 0.041367990420506082 0 -0.37123175334181557 0.027162262264614271 0 -0.37046143272875132 0.04675171495388801 0 -0.36738966121720701 0.029980518529024301 0 -0.35479113087726238 0.05417448586434577 0 -0.37123175334181557 0.027162262264614271 0 -0.36677646394688163 0.041367990420506082 0 -0.37046143272875132 0.04675171495388801 0 -0.3764786745208083 0.032098692741998169 0 -0.37123175334181557 0.027162262264614271 0 -0.37046143272875132 0.04675171495388801 0 -0.36163302121541668 0.029781402687577421 0 -0.36738966121720701 0.029980518529024301 0 -0.35940737946489582 0.035374977024224222 0 -0.36738966121720701 0.029980518529024301 0 -0.35593663516940488 0.04278932274017315 0 -0.35940737946489582 0.035374977024224222 0 -0.36738966121720701 0.029980518529024301 0 -0.37123175334181557 0.027162262264614271 0 -0.36677646394688163 0.041367990420506082 0 -0.36677646394688163 0.041367990420506082 0 -0.37046143272875132 0.04675171495388801 0 -0.36802302346639398 0.047906750352184523 0 -0.36677646394688163 0.041367990420506082 0 -0.36802302346639398 0.047906750352184523 0 -0.37046143272875132 0.04675171495388801 0 -0.37000681959492809 0.05831264468359916 0 -0.36802302346639398 0.047906750352184523 0 -0.37000681959492809 0.05831264468359916 0 -0.37046143272875132 0.04675171495388801 0 -0.36802302346639398 0.047906750352184523 0 -0.37000681959492809 0.05831264468359916 0 -0.37046143272875132 0.04675171495388801 0 -0.36802302346639398 0.047906750352184523 0 -0.35479113087726238 0.05417448586434577 0 -0.36802302346639398 0.047906750352184523 0 -0.35479113087726238 0.05417448586434577 0 -0.36802302346639398 0.047906750352184523 0 -0.3622197730044176 0.060127746183944272 0 -0.35479113087726238 0.05417448586434577 0 -0.36677646394688163 0.041367990420506082 0 -0.36802302346639398 0.047906750352184523 0 -0.36802302346639398 0.047906750352184523 0 -0.3622197730044176 0.060127746183944272 0 -0.37000681959492809 0.05831264468359916 0 -0.35147867423579721 0.06053566178096708 0 -0.36926886504626422 0.077079019973005369 0 -0.3622197730044176 0.060127746183944272 0 -0.37000681959492809 0.05831264468359916 0 -0.36926886504626422 0.077079019973005369 0 -0.37000681959492809 0.05831264468359916 0 -0.36926886504626422 0.077079019973005369 0 -0.37079498002478778 0.078498176574577722 0 -0.36926886504626422 0.077079019973005369 0 -0.34551673285671652 0.071984855543133663 0 -0.36912013352382872 0.080861301107253064 0 -0.37000681959492809 0.05831264468359916 0 -0.37079498002478778 0.078498176574577722 0 -0.37470600383380392 0.082961959162170973 0 -0.35147867423579721 0.06053566178096708 0 -0.3622197730044176 0.060127746183944272 0 -0.36926886504626422 0.077079019973005369 0 -0.37000681959492809 0.05831264468359916 0 -0.37470600383380392 0.082961959162170973 0 -0.37000681959492809 0.05831264468359916 0 -0.36926886504626422 0.077079019973005369 0 -0.36926886504626422 0.077079019973005369 0 -0.37079498002478778 0.078498176574577722 0 -0.34551673285671652 0.071984855543133663 0 -0.34763839367566191 0.079069075487607554 0 -0.36912013352382872 0.080861301107253064 0 -0.34551673285671652 0.071984855543133663 0 -0.36912013352382872 0.080861301107253064 0 -0.35147867423579721 0.06053566178096708 0 -0.36926886504626422 0.077079019973005369 0 -0.34551673285671652 0.071984855543133663 0 -0.34408269824063842 0.074738747125954852 0 -0.34763839367566191 0.079069075487607554 0 -0.34179116264722731 0.080399472229040897 0 -0.34408269824063842 0.074738747125954852 0 -0.34551673285671652 0.071984855543133663 0 -0.34763839367566191 0.079069075487607554 0 -0.34408269824063842 0.074738747125954852 0 -0.34551673285671652 0.071984855543133663 0 -0.35147867423579721 0.06053566178096708 0 -0.34551673285671652 0.071984855543133663 0 -0.3447014191436914 0.063951910484466787 0 -0.35147867423579721 0.06053566178096708 0 -0.34551673285671652 0.071984855543133663 0 -0.34763839367566191 0.079069075487607554 0 -0.36858415035949882 0.094491491786065696 0 -0.34763839367566191 0.079069075487607554 0 -0.36858415035949882 0.094491491786065696 0 -0.35198293914272999 0.094145145766245733 0 -0.34456144318064219 0.08667329674911145 0 -0.34763839367566191 0.079069075487607554 0 -0.35198293914272999 0.094145145766245733 0 -0.34456144318064219 0.08667329674911145 0 -0.35198293914272999 0.094145145766245733 0 -0.34431035454597703 0.093789606507308373 0 -0.34456144318064219 0.08667329674911145 0 -0.34763839367566191 0.079069075487607554 0 -0.34179116264722731 0.080399472229040897 0 -0.3782625711058698 0.101617738696854 0 -0.37470600383380392 0.082961959162170973 0 -0.36858415035949882 0.094491491786065696 0 -0.34763839367566191 0.079069075487607554 0 -0.36912013352382872 0.080861301107253064 0 -0.36858415035949882 0.094491491786065696 0 -0.36926886504626422 0.077079019973005369 0 -0.37079498002478778 0.078498176574577722 0 -0.36912013352382872 0.080861301107253064 0 -0.36926886504626422 0.077079019973005369 0 -0.36912013352382872 0.080861301107253064 0 -0.36912013352382872 0.080861301107253064 0 -0.37470600383380392 0.082961959162170973 0 -0.37079498002478778 0.078498176574577722 0 -0.36912013352382872 0.080861301107253064 0 -0.37470600383380392 0.082961959162170973 0 -0.36912013352382872 0.080861301107253064 0 -0.37470600383380392 0.082961959162170973 0 -0.36858415035949882 0.094491491786065696 0 -0.36912013352382872 0.080861301107253064 0 -0.36858415035949882 0.094491491786065696 0 -0.36858415035949882 0.094491491786065696 0 -0.36747352968705388 0.12273486311700831 0 -0.3782625711058698 0.101617738696854 0 -0.36858415035949882 0.094491491786065696 0 -0.36858415035949882 0.094491491786065696 0 -0.36006702585218792 0.10838608290929221 0 -0.35198293914272999 0.094145145766245733 0 -0.36858415035949882 0.094491491786065696 0 -0.36006702585218792 0.10838608290929221 0 -0.36747352968705388 0.12273486311700831 0 -0.3782625711058698 0.101617738696854 0 -0.36858415035949882 0.094491491786065696 0 -0.36747352968705388 0.12273486311700831 0 -0.36006702585218792 0.10838608290929221 0 -0.36747352968705388 0.12273486311700831 0 -0.35832203275528268 0.1183511860346923 0 -0.35528769071996391 0.12689780186549679 0 -0.36747352968705388 0.12273486311700831 0 -0.35832203275528268 0.1183511860346923 0 -0.35528769071996391 0.12689780186549679 0 -0.35832203275528268 0.1183511860346923 0 -0.35045988476192508 0.115385996246972 0 -0.36006702585218792 0.10838608290929221 0 -0.35832203275528268 0.1183511860346923 0 -0.35045988476192508 0.115385996246972 0 -0.35045988476192508 0.115385996246972 0 -0.34547580274860562 0.10394098399483009 0 -0.33570271963636877 0.11206429961599181 0 -0.35528769071996391 0.12689780186549679 0 -0.35045988476192508 0.115385996246972 0 -0.34115039425197219 0.12498493974687711 0 -0.36006702585218792 0.10838608290929221 0 -0.35198293914272999 0.094145145766245733 0 -0.34547580274860562 0.10394098399483009 0 -0.36006702585218792 0.10838608290929221 0 -0.35045988476192508 0.115385996246972 0 -0.34547580274860562 0.10394098399483009 0 -0.35198293914272999 0.094145145766245733 0 -0.34547580274860562 0.10394098399483009 0 -0.34431035454597703 0.093789606507308373 0 -0.34547580274860562 0.10394098399483009 0 -0.34431035454597703 0.093789606507308373 0 -0.335413749579693 0.097286071719103154 0 -0.34547580274860562 0.10394098399483009 0 -0.335413749579693 0.097286071719103154 0 -0.33570271963636877 0.11206429961599181 0 -0.335413749579693 0.097286071719103154 0 -0.33570271963636877 0.11206429961599181 0 -0.32444247844199348 0.1047035033472971 0 -0.35045988476192508 0.115385996246972 0 -0.34115039425197219 0.12498493974687711 0 -0.33570271963636877 0.11206429961599181 0 -0.32917568526667751 0.12578156900391591 0 -0.33570271963636877 0.11206429961599181 0 -0.32114709127587232 0.11611322513389059 0 -0.32917568526667751 0.12578156900391591 0 -0.34115039425197219 0.12498493974687711 0 -0.33570271963636877 0.11206429961599181 0 -0.31354631638020197 0.13395604467094269 0 -0.30549209578720232 0.10774456093924389 0 -0.32114709127587232 0.11611322513389059 0 -0.30549209578720232 0.10774456093924389 0 -0.32114709127587232 0.11611322513389059 0 -0.32444247844199348 0.1047035033472971 0 -0.33570271963636877 0.11206429961599181 0 -0.32114709127587232 0.11611322513389059 0 -0.32444247844199348 0.1047035033472971 0 -0.30549209578720232 0.10774456093924389 0 -0.32444247844199348 0.1047035033472971 0 -0.32445673593083119 0.090309359328255762 0 -0.30549209578720232 0.10774456093924389 0 -0.32445673593083119 0.090309359328255762 0 -0.31312795334666071 0.083579729522452809 0 -0.335413749579693 0.097286071719103154 0 -0.32444247844199348 0.1047035033472971 0 -0.32445673593083119 0.090309359328255762 0 -0.32445673593083119 0.090309359328255762 0 -0.3275606083710243 0.080211281293741998 0 -0.31312795334666071 0.083579729522452809 0 -0.3275606083710243 0.080211281293741998 0 -0.31312795334666071 0.083579729522452809 0 -0.31976082328641481 0.073112182403608325 0 -0.30931237829482389 0.073252958087475881 0 -0.31312795334666071 0.083579729522452809 0 -0.31976082328641481 0.073112182403608325 0 -0.30931237829482389 0.073252958087475881 0 -0.31697319293959142 0.061410437985649477 0 -0.31976082328641481 0.073112182403608325 0 -0.31697319293959142 0.061410437985649477 0 -0.31976082328641481 0.073112182403608325 0 -0.32886731949388731 0.069155273298144179 0 -0.31697319293959142 0.061410437985649477 0 -0.32808937753058609 0.059947696530402161 0 -0.32886731949388731 0.069155273298144179 0 -0.3275606083710243 0.080211281293741998 0 -0.31976082328641481 0.073112182403608325 0 -0.32886731949388731 0.069155273298144179 0 -0.32886731949388731 0.069155273298144179 0 -0.33770721458858299 0.069047958238937293 0 -0.336378655355973 0.076693290193422539 0 -0.3275606083710243 0.080211281293741998 0 -0.32886731949388731 0.069155273298144179 0 -0.336378655355973 0.076693290193422539 0 -0.33440717105718593 0.063083878638897639 0 -0.32886731949388731 0.069155273298144179 0 -0.33770721458858299 0.069047958238937293 0 -0.32808937753058609 0.059947696530402161 0 -0.33440717105718593 0.063083878638897639 0 -0.32886731949388731 0.069155273298144179 0 -0.3407399656121517 0.06083029771636933 0 -0.33440717105718593 0.063083878638897639 0 -0.33770721458858299 0.069047958238937293 0 -0.3407399656121517 0.06083029771636933 0 -0.3447014191436914 0.063951910484466787 0 -0.33770721458858299 0.069047958238937293 0 -0.34551673285671652 0.071984855543133663 0 -0.3447014191436914 0.063951910484466787 0 -0.33770721458858299 0.069047958238937293 0 -0.34408269824063842 0.074738747125954852 0 -0.33770721458858299 0.069047958238937293 0 -0.336378655355973 0.076693290193422539 0 -0.34408269824063842 0.074738747125954852 0 -0.34551673285671652 0.071984855543133663 0 -0.33770721458858299 0.069047958238937293 0 -0.34551673285671652 0.071984855543133663 0 -0.33770721458858299 0.069047958238937293 0 -0.34408269824063842 0.074738747125954852 0 -0.336378655355973 0.076693290193422539 0 -0.34179116264722731 0.080399472229040897 0 -0.336378655355973 0.076693290193422539 0 -0.34179116264722731 0.080399472229040897 0 -0.33708436589161489 0.085963183755354639 0 -0.34456144318064219 0.08667329674911145 0 -0.34179116264722731 0.080399472229040897 0 -0.33708436589161489 0.085963183755354639 0 -0.34456144318064219 0.08667329674911145 0 -0.34431035454597703 0.093789606507308373 0 -0.33708436589161489 0.085963183755354639 0 -0.34431035454597703 0.093789606507308373 0 -0.335413749579693 0.097286071719103154 0 -0.33708436589161489 0.085963183755354639 0 -0.335413749579693 0.097286071719103154 0 -0.32445673593083119 0.090309359328255762 0 -0.33708436589161489 0.085963183755354639 0 -0.32445673593083119 0.090309359328255762 0 -0.3275606083710243 0.080211281293741998 0 -0.33708436589161489 0.085963183755354639 0 -0.3275606083710243 0.080211281293741998 0 -0.336378655355973 0.076693290193422539 0 -0.33708436589161489 0.085963183755354639 0 -0.38891458820749281 0.47713565504117422 0 -0.42172655890518862 0.5 0 -0.3640375775585698 0.5 0 -0.38891458820749281 0.47713565504117422 0 -0.37103467036260362 0.45695891695805302 0 -0.36943712044780219 0.47475959506207249 0 -0.39694697642853649 0.45370639251272787 0 -0.37103467036260362 0.45695891695805302 0 -0.38891458820749281 0.47713565504117422 0 -0.39694697642853649 0.45370639251272787 0 -0.37103467036260362 0.45695891695805302 0 -0.38249991962136642 0.44345487931465249 0 -0.39694697642853649 0.45370639251272787 0 -0.37103467036260362 0.45695891695805302 0 -0.38249991962136642 0.44345487931465249 0 -0.39694697642853649 0.45370639251272787 0 -0.40464661760035381 0.43350824459614162 0 -0.38891458820749281 0.47713565504117422 0 -0.39694697642853649 0.45370639251272787 0 -0.41631826774707797 0.4711213942969617 0 -0.39694697642853649 0.45370639251272787 0 -0.42285928249446952 0.45045386806740279 0 -0.41631826774707797 0.4711213942969617 0 -0.42285928249446952 0.45045386806740279 0 -0.42501824733507809 0.43459816807542118 0 -0.40464661760035381 0.43350824459614162 0 -0.39694697642853649 0.45370639251272787 0 -0.42285928249446952 0.45045386806740279 0 -0.39694697642853649 0.45370639251272787 0 -0.42285928249446952 0.45045386806740279 0 -0.40464661760035381 0.43350824459614162 0 -0.42285928249446952 0.45045386806740279 0 -0.43521244088076849 0.46107148678855758 0 -0.44877158856040261 0.44720134362207808 0 -0.42285928249446952 0.45045386806740279 0 -0.44877158856040261 0.44720134362207808 0 -0.42285928249446952 0.45045386806740279 0 -0.43592409671607729 0.44045812782560079 0 -0.44877158856040261 0.44720134362207808 0 -0.42285928249446952 0.45045386806740279 0 -0.43592409671607729 0.44045812782560079 0 -0.42501824733507809 0.43459816807542118 0 -0.42285928249446952 0.45045386806740279 0 -0.43521244088076849 0.46107148678855758 0 -0.41631826774707797 0.4711213942969617 0 -0.41631826774707797 0.4711213942969617 0 -0.42172655890518862 0.5 0 -0.43935827984199688 0.47473889959161758 0 -0.43521244088076849 0.46107148678855758 0 -0.41631826774707797 0.4711213942969617 0 -0.43935827984199688 0.47473889959161758 0 -0.38891458820749281 0.47713565504117422 0 -0.41631826774707797 0.4711213942969617 0 -0.42172655890518862 0.5 0 -0.42172655890518862 0.5 0 -0.43935827984199688 0.47473889959161758 0 -0.47784082473980471 0.47626967285504462 0 -0.42172655890518862 0.5 0 -0.5 0.5 0 -0.47784082473980471 0.47626967285504462 0 -0.43935827984199688 0.47473889959161758 0 -0.47784082473980471 0.47626967285504462 0 -0.4487547857598953 0.46184192836472759 0 -0.5 0.5 0 -0.47784082473980471 0.47626967285504462 0 -0.49999999999999589 0.44077113011354369 0 -0.47784082473980471 0.47626967285504462 0 -0.47438579428019922 0.44398623686781052 0 -0.4627013265822788 0.4545376326069438 0 -0.47784082473980471 0.47626967285504462 0 -0.49999999999999589 0.44077113011354369 0 -0.47438579428019922 0.44398623686781052 0 -0.49999999999999589 0.44077113011354369 0 -0.47438579428019922 0.44398623686781052 0 -0.48180565015534738 0.42787197640755792 0 -0.49999999999999589 0.44077113011354369 0 -0.47438579428019922 0.44398623686781052 0 -0.47438579428019922 0.44398623686781052 0 -0.4627013265822788 0.4545376326069438 0 -0.44877158856040261 0.44720134362207808 0 -0.47438579428019922 0.44398623686781052 0 -0.44877158856040261 0.44720134362207808 0 -0.47438579428019922 0.44398623686781052 0 -0.44877158856040261 0.44720134362207808 0 -0.46289485375526918 0.43579199928955081 0 -0.44877158856040261 0.44720134362207808 0 -0.44878504691792248 0.43547483269414872 0 -0.46289485375526918 0.43579199928955081 0 -0.47784082473980471 0.47626967285504462 0 -0.4627013265822788 0.4545376326069438 0 -0.4487547857598953 0.46184192836472759 0 -0.4627013265822788 0.4545376326069438 0 -0.4487547857598953 0.46184192836472759 0 -0.44877158856040261 0.44720134362207808 0 -0.4487547857598953 0.46184192836472759 0 -0.44877158856040261 0.44720134362207808 0 -0.43521244088076849 0.46107148678855758 0 -0.4487547857598953 0.46184192836472759 0 -0.44877158856040261 0.44720134362207808 0 -0.43521244088076849 0.46107148678855758 0 -0.43935827984199688 0.47473889959161758 0 -0.4487547857598953 0.46184192836472759 0 -0.44877158856040261 0.44720134362207808 0 -0.44508566455651338 0.43839632914573512 0 -0.44878504691792248 0.43547483269414872 0 -0.44877158856040261 0.44720134362207808 0 -0.44878504691792248 0.43547483269414872 0 -0.43592409671607729 0.44045812782560079 0 -0.44877158856040261 0.44720134362207808 0 -0.44508566455651338 0.43839632914573512 0 -0.44531233658805403 0.42513554986162888 0 -0.44878504691792248 0.43547483269414872 0 -0.44880957839306629 0.41410011360809668 0 -0.44878504691792248 0.43547483269414872 0 -0.44880957839306629 0.41410011360809668 0 -0.43788570063392329 0.43164093021736671 0 -0.44531233658805403 0.42513554986162888 0 -0.44878504691792248 0.43547483269414872 0 -0.43592409671607729 0.44045812782560079 0 -0.44508566455651338 0.43839632914573512 0 -0.43788570063392329 0.43164093021736671 0 -0.44508566455651338 0.43839632914573512 0 -0.43788570063392329 0.43164093021736671 0 -0.44878504691792248 0.43547483269414872 0 -0.44508566455651338 0.43839632914573512 0 -0.44878504691792248 0.43547483269414872 0 -0.44531233658805403 0.42513554986162888 0 -0.44880957839306629 0.41410011360809668 0 -0.42391867717568832 0.41711337076656618 0 -0.44880957839306629 0.41410011360809668 0 -0.46585669794528167 0.42199291516666237 0 -0.4641229039382897 0.40091036417177778 0 -0.44878504691792248 0.43547483269414872 0 -0.46585669794528167 0.42199291516666237 0 -0.44878504691792248 0.43547483269414872 0 -0.44880957839306629 0.41410011360809668 0 -0.46585669794528167 0.42199291516666237 0 -0.44878504691792248 0.43547483269414872 0 -0.46585669794528167 0.42199291516666237 0 -0.46289485375526918 0.43579199928955081 0 -0.47438579428019922 0.44398623686781052 0 -0.46289485375526918 0.43579199928955081 0 -0.48180565015534738 0.42787197640755792 0 -0.46585669794528167 0.42199291516666237 0 -0.46289485375526918 0.43579199928955081 0 -0.48180565015534738 0.42787197640755792 0 -0.46585669794528167 0.42199291516666237 0 -0.48292834897264081 0.4085109976391762 0 -0.4641229039382897 0.40091036417177778 0 -0.46585669794528167 0.42199291516666237 0 -0.48292834897264081 0.4085109976391762 0 -0.46585669794528167 0.42199291516666237 0 -0.48180565015534738 0.42787197640755792 0 -0.48292834897264081 0.4085109976391762 0 -0.48292834897264081 0.4085109976391762 0 -0.5 0.41790010511261683 0 -0.5 0.39502908011169002 0 -0.48180565015534738 0.42787197640755792 0 -0.48292834897264081 0.4085109976391762 0 -0.5 0.41790010511261683 0 -0.49999999999999589 0.44077113011354369 0 -0.48180565015534738 0.42787197640755792 0 -0.5 0.41790010511261683 0 -0.48850556386005051 0.3766603246979251 0 -0.5 0.39502908011169002 0 -0.47832653283541199 0.38608194873200979 0 -0.48850556386005051 0.3766603246979251 0 -0.5 0.39502908011169002 0 -0.5 0.36887446842263683 0 -0.48292834897264081 0.4085109976391762 0 -0.5 0.39502908011169002 0 -0.47832653283541199 0.38608194873200979 0 -0.48292834897264081 0.4085109976391762 0 -0.5 0.39502908011169002 0 -0.48292834897264081 0.4085109976391762 0 -0.47832653283541199 0.38608194873200979 0 -0.4641229039382897 0.40091036417177778 0 -0.48850556386005051 0.3766603246979251 0 -0.47832653283541199 0.38608194873200979 0 -0.48259334700195489 0.36409898273387958 0 -0.47832653283541199 0.38608194873200979 0 -0.46059005399087027 0.38292215568240928 0 -0.4641229039382897 0.40091036417177778 0 -0.47832653283541199 0.38608194873200979 0 -0.46059005399087027 0.38292215568240928 0 -0.46572599417265398 0.36772482908493609 0 -0.44880957839306629 0.41410011360809668 0 -0.4641229039382897 0.40091036417177778 0 -0.44883410986820999 0.3927253945220448 0 -0.46059005399087027 0.38292215568240928 0 -0.4641229039382897 0.40091036417177778 0 -0.44883410986820999 0.3927253945220448 0 -0.44880957839306629 0.41410011360809668 0 -0.44883410986820999 0.3927253945220448 0 -0.43699833754743561 0.40294499431243458 0 -0.44880957839306629 0.41410011360809668 0 -0.44883410986820999 0.3927253945220448 0 -0.44883410986820999 0.3927253945220448 0 -0.43978391516082421 0.3912231797547942 0 -0.43699833754743561 0.40294499431243458 0 -0.44883410986820999 0.3927253945220448 0 -0.43978391516082421 0.3912231797547942 0 -0.44802713623065987 0.37645115623263098 0 -0.44883410986820999 0.3927253945220448 0 -0.44885864134335329 0.37135067543599282 0 -0.44883410986820999 0.3927253945220448 0 -0.44802713623065987 0.37645115623263098 0 -0.44885864134335329 0.37135067543599282 0 -0.43978391516082421 0.3912231797547942 0 -0.44802713623065987 0.37645115623263098 0 -0.42527607699699133 0.39277117395206662 0 -0.46059005399087027 0.38292215568240928 0 -0.44883410986820999 0.3927253945220448 0 -0.44885864134335329 0.37135067543599282 0 -0.44802713623065987 0.37645115623263098 0 -0.4250431626101242 0.37647010748543319 0 -0.42527607699699133 0.39277117395206662 0 -0.44802713623065987 0.37645115623263098 0 -0.42527607699699133 0.39277117395206662 0 -0.4250431626101242 0.37647010748543319 0 -0.4134887672477453 0.38574914578498593 0 -0.40122768387689522 0.38158953953487368 0 -0.4250431626101242 0.37647010748543319 0 -0.40122768387689522 0.38158953953487368 0 -0.4250431626101242 0.37647010748543319 0 -0.4134887672477453 0.38574914578498593 0 -0.42527607699699133 0.39277117395206662 0 -0.4250431626101242 0.37647010748543319 0 -0.40122768387689522 0.38158953953487368 0 -0.40086489287733429 0.37467411733839928 0 -0.4134887672477453 0.38574914578498593 0 -0.40798835104355652 0.39359067917546098 0 -0.40557429982823212 0.38794008425198068 0 -0.4134887672477453 0.38574914578498593 0 -0.40122768387689522 0.38158953953487368 0 -0.40557429982823212 0.38794008425198068 0 -0.40798835104355652 0.39359067917546098 0 -0.42527607699699133 0.39277117395206662 0 -0.40252501776332311 0.40909119167150271 0 -0.42527607699699133 0.39277117395206662 0 -0.40252501776332311 0.40909119167150271 0 -0.4134887672477453 0.38574914578498593 0 -0.40798835104355652 0.39359067917546098 0 -0.42527607699699133 0.39277117395206662 0 -0.42527607699699133 0.39277117395206662 0 -0.43699833754743561 0.40294499431243458 0 -0.42391867717568832 0.41711337076656618 0 -0.43978391516082421 0.3912231797547942 0 -0.42527607699699133 0.39277117395206662 0 -0.43699833754743561 0.40294499431243458 0 -0.44880957839306629 0.41410011360809668 0 -0.43699833754743561 0.40294499431243458 0 -0.42391867717568832 0.41711337076656618 0 -0.44531233658805403 0.42513554986162888 0 -0.42391867717568832 0.41711337076656618 0 -0.43788570063392329 0.43164093021736671 0 -0.44531233658805403 0.42513554986162888 0 -0.42391867717568832 0.41711337076656618 0 -0.43788570063392329 0.43164093021736671 0 -0.42391867717568832 0.41711337076656618 0 -0.42501824733507809 0.43459816807542118 0 -0.43592409671607729 0.44045812782560079 0 -0.43788570063392329 0.43164093021736671 0 -0.42501824733507809 0.43459816807542118 0 -0.42391867717568832 0.41711337076656618 0 -0.42501824733507809 0.43459816807542118 0 -0.40464661760035381 0.43350824459614162 0 -0.42527607699699133 0.39277117395206662 0 -0.42391867717568832 0.41711337076656618 0 -0.40252501776332311 0.40909119167150271 0 -0.42391867717568832 0.41711337076656618 0 -0.40252501776332311 0.40909119167150271 0 -0.40464661760035381 0.43350824459614162 0 -0.42391867717568832 0.41711337076656618 0 -0.40252501776332311 0.40909119167150271 0 -0.40252501776332311 0.40909119167150271 0 -0.37875820238401509 0.42613984176471847 0 -0.40252501776332311 0.40909119167150271 0 -0.40464661760035381 0.43350824459614162 0 -0.37875820238401509 0.42613984176471847 0 -0.38249991962136642 0.44345487931465249 0 -0.40464661760035381 0.43350824459614162 0 -0.37875820238401509 0.42613984176471847 0 -0.40252501776332311 0.40909119167150271 0 -0.37875820238401509 0.42613984176471847 0 -0.37769092578324193 0.39977892163450779 0 -0.37769092578324193 0.39977892163450779 0 -0.38963770449155072 0.39285491215608792 0 -0.37686086334024771 0.38257038446795849 0 -0.40252501776332311 0.40909119167150271 0 -0.37769092578324193 0.39977892163450779 0 -0.38963770449155072 0.39285491215608792 0 -0.40252501776332311 0.40909119167150271 0 -0.37769092578324193 0.39977892163450779 0 -0.37686086334024771 0.38257038446795849 0 -0.39363670834615189 0.38450398520198442 0 -0.40086489287733429 0.37467411733839928 0 -0.38963770449155072 0.39285491215608792 0 -0.37686086334024771 0.38257038446795849 0 -0.39363670834615189 0.38450398520198442 0 -0.37686086334024771 0.38257038446795849 0 -0.40086489287733429 0.37467411733839928 0 -0.37686086334024771 0.38257038446795849 0 -0.40086489287733429 0.37467411733839928 0 -0.39033592763893787 0.37070590072739279 0 -0.39363670834615189 0.38450398520198442 0 -0.40122768387689522 0.38158953953487368 0 -0.39959239714473138 0.39083097251260251 0 -0.38963770449155072 0.39285491215608792 0 -0.39363670834615189 0.38450398520198442 0 -0.39959239714473138 0.39083097251260251 0 -0.39363670834615189 0.38450398520198442 0 -0.40122768387689522 0.38158953953487368 0 -0.40086489287733429 0.37467411733839928 0 -0.40122768387689522 0.38158953953487368 0 -0.40557429982823212 0.38794008425198068 0 -0.39959239714473138 0.39083097251260251 0 -0.40798835104355652 0.39359067917546098 0 -0.40557429982823212 0.38794008425198068 0 -0.39959239714473138 0.39083097251260251 0 -0.40252501776332311 0.40909119167150271 0 -0.38963770449155072 0.39285491215608792 0 -0.39959239714473138 0.39083097251260251 0 -0.40798835104355652 0.39359067917546098 0 -0.40252501776332311 0.40909119167150271 0 -0.39959239714473138 0.39083097251260251 0 -0.3926828114571661 0.35541775914535301 0 -0.40105078960399698 0.34662517948293931 0 -0.40586906590548888 0.3393029225754271 0 -0.3926828114571661 0.35541775914535301 0 -0.39400561065841477 0.34382680172727831 0 -0.40586906590548888 0.3393029225754271 0 -0.3926828114571661 0.35541775914535301 0 -0.40586906590548888 0.3393029225754271 0 -0.3926828114571661 0.35541775914535301 0 -0.39969836615416421 0.35756427730283669 0 -0.39341808057325789 0.36431669671432632 0 -0.3926828114571661 0.35541775914535301 0 -0.40105078960399698 0.34662517948293931 0 -0.39969836615416421 0.35756427730283669 0 -0.3926828114571661 0.35541775914535301 0 -0.39400561065841477 0.34382680172727831 0 -0.38539473684528258 0.34837828204789067 0 -0.40105078960399698 0.34662517948293931 0 -0.40525205349158999 0.35429039595711992 0 -0.40888688292129022 0.34941903462410451 0 -0.40105078960399698 0.34662517948293931 0 -0.4080564418273247 0.34368885170405422 0 -0.40888688292129022 0.34941903462410451 0 -0.40105078960399698 0.34662517948293931 0 -0.40525205349158999 0.35429039595711992 0 -0.39969836615416421 0.35756427730283669 0 -0.40525205349158999 0.35429039595711992 0 -0.39969836615416421 0.35756427730283669 0 -0.40553625032349627 0.36037170931698131 0 -0.40553625032349627 0.36037170931698131 0 -0.40544017780568847 0.3661562974108753 0 -0.40025021147547779 0.36436392320030081 0 -0.40544017780568847 0.3661562974108753 0 -0.40025021147547779 0.36436392320030081 0 -0.397742957241214 0.36844985128713797 0 -0.39969836615416421 0.35756427730283669 0 -0.40553625032349627 0.36037170931698131 0 -0.40025021147547779 0.36436392320030081 0 -0.40544017780568847 0.3661562974108753 0 -0.40086489287733429 0.37467411733839928 0 -0.397742957241214 0.36844985128713797 0 -0.40086489287733429 0.37467411733839928 0 -0.397742957241214 0.36844985128713797 0 -0.39033592763893787 0.37070590072739279 0 -0.397742957241214 0.36844985128713797 0 -0.39341808057325789 0.36431669671432632 0 -0.39033592763893787 0.37070590072739279 0 -0.39969836615416421 0.35756427730283669 0 -0.40025021147547779 0.36436392320030081 0 -0.39341808057325789 0.36431669671432632 0 -0.40025021147547779 0.36436392320030081 0 -0.397742957241214 0.36844985128713797 0 -0.39341808057325789 0.36431669671432632 0 -0.3926828114571661 0.35541775914535301 0 -0.39341808057325789 0.36431669671432632 0 -0.37949655700884349 0.37153259571527891 0 -0.37949655700884349 0.37153259571527891 0 -0.37823932191431281 0.35548757599615399 0 -0.37024808467873749 0.36543132639488701 0 -0.3926828114571661 0.35541775914535301 0 -0.37949655700884349 0.37153259571527891 0 -0.37823932191431281 0.35548757599615399 0 -0.3926828114571661 0.35541775914535301 0 -0.37949655700884349 0.37153259571527891 0 -0.39341808057325789 0.36431669671432632 0 -0.39033592763893787 0.37070590072739279 0 -0.37949655700884349 0.37153259571527891 0 -0.37686086334024771 0.38257038446795849 0 -0.39033592763893787 0.37070590072739279 0 -0.37949655700884349 0.37153259571527891 0 -0.37823932191431281 0.35548757599615399 0 -0.38539473684528258 0.34837828204789067 0 -0.3787015959315434 0.33902802614693439 0 -0.3926828114571661 0.35541775914535301 0 -0.37823932191431281 0.35548757599615399 0 -0.38539473684528258 0.34837828204789067 0 -0.3787015959315434 0.33902802614693439 0 -0.37816355277066899 0.32985684687273281 0 -0.39158393304450312 0.32769252248945308 0 -0.39400561065841477 0.34382680172727831 0 -0.38539473684528258 0.34837828204789067 0 -0.3787015959315434 0.33902802614693439 0 -0.39158393304450312 0.32769252248945308 0 -0.37442838800096029 0.32044424157556423 0 -0.37816355277066899 0.32985684687273281 0 -0.39158393304450312 0.32769252248945308 0 -0.37442838800096029 0.32044424157556423 0 -0.38613629988198012 0.31665983269396758 0 -0.39158393304450312 0.32769252248945308 0 -0.37442838800096029 0.32044424157556423 0 -0.38613629988198012 0.31665983269396758 0 -0.37442838800096029 0.32044424157556423 0 -0.37415321332832258 0.31386652142517069 0 -0.39158393304450312 0.32769252248945308 0 -0.4039094095666334 0.320812311378052 0 -0.40925887999808552 0.33516025262174892 0 -0.38613629988198012 0.31665983269396758 0 -0.39830358576524327 0.31266849694114901 0 -0.39158393304450312 0.32769252248945308 0 -0.39830358576524327 0.31266849694114901 0 -0.39158393304450312 0.32769252248945308 0 -0.4039094095666334 0.320812311378052 0 -0.39830358576524327 0.31266849694114901 0 -0.4039094095666334 0.320812311378052 0 -0.40826549608127172 0.31275764886218971 0 -0.3787015959315434 0.33902802614693439 0 -0.40777024278950652 0.33697950655941222 0 -0.39158393304450312 0.32769252248945308 0 -0.40925887999808552 0.33516025262174892 0 -0.39158393304450312 0.32769252248945308 0 -0.40777024278950652 0.33697950655941222 0 -0.40925887999808552 0.33516025262174892 0 -0.3787015959315434 0.33902802614693439 0 -0.39158393304450312 0.32769252248945308 0 -0.40777024278950652 0.33697950655941222 0 -0.39400561065841477 0.34382680172727831 0 -0.3787015959315434 0.33902802614693439 0 -0.40777024278950652 0.33697950655941222 0 -0.39400561065841477 0.34382680172727831 0 -0.40586906590548888 0.3393029225754271 0 -0.40777024278950652 0.33697950655941222 0 -0.40105078960399698 0.34662517948293931 0 -0.40586906590548888 0.3393029225754271 0 -0.40105078960399698 0.34662517948293931 0 -0.40586906590548888 0.3393029225754271 0 -0.4080564418273247 0.34368885170405422 0 -0.4080564418273247 0.34368885170405422 0 -0.41125860555200922 0.34134685969384471 0 -0.40895905381070002 0.33957121871677393 0 -0.40586906590548888 0.3393029225754271 0 -0.4080564418273247 0.34368885170405422 0 -0.40895905381070002 0.33957121871677393 0 -0.4080564418273247 0.34368885170405422 0 -0.41125860555200922 0.34134685969384471 0 -0.41366919887348358 0.34576378073699821 0 -0.41125860555200922 0.34134685969384471 0 -0.41273643032526569 0.33662953043248711 0 -0.41433336845197538 0.3415594658204692 0 -0.41125860555200922 0.34134685969384471 0 -0.41433336845197538 0.3415594658204692 0 -0.41366919887348358 0.34576378073699821 0 -0.41125860555200922 0.34134685969384471 0 -0.41273643032526569 0.33662953043248711 0 -0.40895905381070002 0.33957121871677393 0 -0.41273643032526569 0.33662953043248711 0 -0.40777024278950652 0.33697950655941222 0 -0.41273643032526569 0.33662953043248711 0 -0.40895905381070002 0.33957121871677393 0 -0.40777024278950652 0.33697950655941222 0 -0.41273643032526569 0.33662953043248711 0 -0.40777024278950652 0.33697950655941222 0 -0.40925887999808552 0.33516025262174892 0 -0.40777024278950652 0.33697950655941222 0 -0.40925887999808552 0.33516025262174892 0 -0.40586906590548888 0.3393029225754271 0 -0.40895905381070002 0.33957121871677393 0 -0.40777024278950652 0.33697950655941222 0 -0.40586906590548888 0.3393029225754271 0 -0.40777024278950652 0.33697950655941222 0 -0.41273643032526569 0.33662953043248711 0 -0.40925887999808552 0.33516025262174892 0 -0.40925887999808552 0.33516025262174892 0 -0.42024067891477529 0.32173946694831868 0 -0.40925887999808552 0.33516025262174892 0 -0.42071708592719742 0.33131558094746122 0 -0.42024067891477529 0.32173946694831868 0 -0.41273643032526569 0.33662953043248711 0 -0.40925887999808552 0.33516025262174892 0 -0.42071708592719742 0.33131558094746122 0 -0.41273643032526569 0.33662953043248711 0 -0.4199209072431685 0.34318781838679219 0 -0.41433336845197538 0.3415594658204692 0 -0.4199209072431685 0.34318781838679219 0 -0.41433336845197538 0.3415594658204692 0 -0.41366919887348358 0.34576378073699821 0 -0.40925887999808552 0.33516025262174892 0 -0.41892768793075841 0.31754462100172592 0 -0.42141481873501418 0.31567829233095179 0 -0.40925887999808552 0.33516025262174892 0 -0.411263050936583 0.31954773430139438 0 -0.41892768793075841 0.31754462100172592 0 -0.40925887999808552 0.33516025262174892 0 -0.42141481873501418 0.31567829233095179 0 -0.40925887999808552 0.33516025262174892 0 -0.42024067891477529 0.32173946694831868 0 -0.42141481873501418 0.31567829233095179 0 -0.411263050936583 0.31954773430139438 0 -0.40826549608127172 0.31275764886218971 0 -0.41647318301620623 0.31168328686166002 0 -0.4039094095666334 0.320812311378052 0 -0.411263050936583 0.31954773430139438 0 -0.40826549608127172 0.31275764886218971 0 -0.4039094095666334 0.320812311378052 0 -0.40925887999808552 0.33516025262174892 0 -0.411263050936583 0.31954773430139438 0 -0.411263050936583 0.31954773430139438 0 -0.41892768793075841 0.31754462100172592 0 -0.41647318301620623 0.31168328686166002 0 -0.41892768793075841 0.31754462100172592 0 -0.42141481873501418 0.31567829233095179 0 -0.41892768793075841 0.31754462100172592 0 -0.42141481873501418 0.31567829233095179 0 -0.41647318301620623 0.31168328686166002 0 -0.42024067891477529 0.32173946694831868 0 -0.43790895006943947 0.32081412042189511 0 -0.43122247783146522 0.30831868127488848 0 -0.42024067891477529 0.32173946694831868 0 -0.42938605365092247 0.3272194948190838 0 -0.43790895006943947 0.32081412042189511 0 -0.42024067891477529 0.32173946694831868 0 -0.42141481873501418 0.31567829233095179 0 -0.43122247783146522 0.30831868127488848 0 -0.42024067891477529 0.32173946694831868 0 -0.43122247783146522 0.30831868127488848 0 -0.42071708592719742 0.33131558094746122 0 -0.42024067891477529 0.32173946694831868 0 -0.42938605365092247 0.3272194948190838 0 -0.42938605365092247 0.3272194948190838 0 -0.43674098495811231 0.33493788649063261 0 -0.43790895006943947 0.32081412042189511 0 -0.43790895006943947 0.32081412042189511 0 -0.4401847358662575 0.3127477530096977 0 -0.43122247783146522 0.30831868127488848 0 -0.41273643032526569 0.33662953043248711 0 -0.43674098495811231 0.33493788649063261 0 -0.42071708592719742 0.33131558094746122 0 -0.42938605365092247 0.3272194948190838 0 -0.43674098495811231 0.33493788649063261 0 -0.41273643032526569 0.33662953043248711 0 -0.4199209072431685 0.34318781838679219 0 -0.43385085243219867 0.34555045147446217 0 -0.41273643032526569 0.33662953043248711 0 -0.42071708592719742 0.33131558094746122 0 -0.43674098495811231 0.33493788649063261 0 -0.41273643032526569 0.33662953043248711 0 -0.43385085243219867 0.34555045147446217 0 -0.41273643032526569 0.33662953043248711 0 -0.43674098495811231 0.33493788649063261 0 -0.43385085243219867 0.34555045147446217 0 -0.43385085243219867 0.34555045147446217 0 -0.4302486007270056 0.35272204188882378 0 -0.42573384958437638 0.34916959158482058 0 -0.43385085243219867 0.34555045147446217 0 -0.43539550265875948 0.35741731211322858 0 -0.44110397924445488 0.35756373905142852 0 -0.43539550265875948 0.35741731211322858 0 -0.4302486007270056 0.35272204188882378 0 -0.42757171946388478 0.35850981688022993 0 -0.43385085243219867 0.34555045147446217 0 -0.43539550265875948 0.35741731211322858 0 -0.4302486007270056 0.35272204188882378 0 -0.4302486007270056 0.35272204188882378 0 -0.42480748600639012 0.35482075793933809 0 -0.42573384958437638 0.34916959158482058 0 -0.4302486007270056 0.35272204188882378 0 -0.42757171946388478 0.35850981688022993 0 -0.42480748600639012 0.35482075793933809 0 -0.42757171946388478 0.35850981688022993 0 -0.42480748600639012 0.35482075793933809 0 -0.42195212413097077 0.36043988011418487 0 -0.4199209072431685 0.34318781838679219 0 -0.43385085243219867 0.34555045147446217 0 -0.42573384958437638 0.34916959158482058 0 -0.42480748600639012 0.35482075793933809 0 -0.42573384958437638 0.34916959158482058 0 -0.41984140151311927 0.3495668882346864 0 -0.4199209072431685 0.34318781838679219 0 -0.42573384958437638 0.34916959158482058 0 -0.41984140151311927 0.3495668882346864 0 -0.4199209072431685 0.34318781838679219 0 -0.41984140151311927 0.3495668882346864 0 -0.41366919887348358 0.34576378073699821 0 -0.41984140151311927 0.3495668882346864 0 -0.41366919887348358 0.34576378073699821 0 -0.41404230344944593 0.35073751764187411 0 -0.42480748600639012 0.35482075793933809 0 -0.41984140151311927 0.3495668882346864 0 -0.41755863725870102 0.35684421707679032 0 -0.42480748600639012 0.35482075793933809 0 -0.41755863725870102 0.35684421707679032 0 -0.42195212413097077 0.36043988011418487 0 -0.41984140151311927 0.3495668882346864 0 -0.41755863725870102 0.35684421707679032 0 -0.41404230344944593 0.35073751764187411 0 -0.41755863725870102 0.35684421707679032 0 -0.41125051028190041 0.35540848222164118 0 -0.41404230344944593 0.35073751764187411 0 -0.41125051028190041 0.35540848222164118 0 -0.40888688292129022 0.34941903462410451 0 -0.41404230344944593 0.35073751764187411 0 -0.41755863725870102 0.35684421707679032 0 -0.41125051028190041 0.35540848222164118 0 -0.41142088061722581 0.36176204086772412 0 -0.40553625032349627 0.36037170931698131 0 -0.41125051028190041 0.35540848222164118 0 -0.41142088061722581 0.36176204086772412 0 -0.40525205349158999 0.35429039595711992 0 -0.40553625032349627 0.36037170931698131 0 -0.41125051028190041 0.35540848222164118 0 -0.40525205349158999 0.35429039595711992 0 -0.41125051028190041 0.35540848222164118 0 -0.40888688292129022 0.34941903462410451 0 -0.4080564418273247 0.34368885170405422 0 -0.40888688292129022 0.34941903462410451 0 -0.41366919887348358 0.34576378073699821 0 -0.40888688292129022 0.34941903462410451 0 -0.41366919887348358 0.34576378073699821 0 -0.41404230344944593 0.35073751764187411 0 -0.4250431626101242 0.37647010748543319 0 -0.40086489287733429 0.37467411733839928 0 -0.42486892241442098 0.36677785020884007 0 -0.40086489287733429 0.37467411733839928 0 -0.42486892241442098 0.36677785020884007 0 -0.40086489287733429 0.37467411733839928 0 -0.41378193274770297 0.36450427419225789 0 -0.42486892241442098 0.36677785020884007 0 -0.40544017780568847 0.3661562974108753 0 -0.40086489287733429 0.37467411733839928 0 -0.41378193274770297 0.36450427419225789 0 -0.40544017780568847 0.3661562974108753 0 -0.41142088061722581 0.36176204086772412 0 -0.41378193274770297 0.36450427419225789 0 -0.40553625032349627 0.36037170931698131 0 -0.40544017780568847 0.3661562974108753 0 -0.41142088061722581 0.36176204086772412 0 -0.41755863725870102 0.35684421707679032 0 -0.41378193274770297 0.36450427419225789 0 -0.42195212413097077 0.36043988011418487 0 -0.41378193274770297 0.36450427419225789 0 -0.42486892241442098 0.36677785020884007 0 -0.42195212413097077 0.36043988011418487 0 -0.41755863725870102 0.35684421707679032 0 -0.41142088061722581 0.36176204086772412 0 -0.41378193274770297 0.36450427419225789 0 -0.4250431626101242 0.37647010748543319 0 -0.44885864134335329 0.37135067543599282 0 -0.4250431626101242 0.37647010748543319 0 -0.42486892241442098 0.36677785020884007 0 -0.44885864134335329 0.37135067543599282 0 -0.42486892241442098 0.36677785020884007 0 -0.448872951951507 0.35888158307927881 0 -0.43539550265875948 0.35741731211322858 0 -0.42486892241442098 0.36677785020884007 0 -0.44110397924445488 0.35756373905142852 0 -0.43539550265875948 0.35741731211322858 0 -0.42757171946388478 0.35850981688022993 0 -0.42486892241442098 0.36677785020884007 0 -0.42757171946388478 0.35850981688022993 0 -0.42486892241442098 0.36677785020884007 0 -0.42195212413097077 0.36043988011418487 0 -0.42486892241442098 0.36677785020884007 0 -0.44885864134335329 0.37135067543599282 0 -0.448872951951507 0.35888158307927881 0 -0.44802713623065987 0.37645115623263098 0 -0.4250431626101242 0.37647010748543319 0 -0.44885864134335329 0.37135067543599282 0 -0.42486892241442098 0.36677785020884007 0 -0.44110397924445488 0.35756373905142852 0 -0.448872951951507 0.35888158307927881 0 -0.44885864134335329 0.37135067543599282 0 -0.448872951951507 0.35888158307927881 0 -0.44885864134335329 0.37135067543599282 0 -0.448872951951507 0.35888158307927881 0 -0.45634368000688869 0.36512471152292858 0 -0.43385085243219867 0.34555045147446217 0 -0.45496527453913199 0.35447137251643651 0 -0.44889299330712729 0.34242966823447613 0 -0.43385085243219867 0.34555045147446217 0 -0.45496527453913199 0.35447137251643651 0 -0.43385085243219867 0.34555045147446217 0 -0.44887533288597797 0.35680703170406669 0 -0.45496527453913199 0.35447137251643651 0 -0.43385085243219867 0.34555045147446217 0 -0.44110397924445488 0.35756373905142852 0 -0.44887533288597797 0.35680703170406669 0 -0.44110397924445488 0.35756373905142852 0 -0.44887533288597797 0.35680703170406669 0 -0.448872951951507 0.35888158307927881 0 -0.44887533288597797 0.35680703170406669 0 -0.448872951951507 0.35888158307927881 0 -0.44887533288597797 0.35680703170406669 0 -0.448872951951507 0.35888158307927881 0 -0.45496527453913199 0.35447137251643651 0 -0.448872951951507 0.35888158307927881 0 -0.45496527453913199 0.35447137251643651 0 -0.47186707529616939 0.3513175305497272 0 -0.448872951951507 0.35888158307927881 0 -0.47186707529616939 0.3513175305497272 0 -0.448872951951507 0.35888158307927881 0 -0.45634368000688869 0.36512471152292858 0 -0.47186707529616939 0.3513175305497272 0 -0.45911772068334677 0.34536620346235469 0 -0.45496527453913199 0.35447137251643651 0 -0.47186707529616939 0.3513175305497272 0 -0.45911772068334677 0.34536620346235469 0 -0.45496527453913199 0.35447137251643651 0 -0.44889299330712729 0.34242966823447613 0 -0.46572599417265398 0.36772482908493609 0 -0.45634368000688869 0.36512471152292858 0 -0.47186707529616939 0.3513175305497272 0 -0.46059005399087027 0.38292215568240928 0 -0.44885864134335329 0.37135067543599282 0 -0.46572599417265398 0.36772482908493609 0 -0.44885864134335329 0.37135067543599282 0 -0.46572599417265398 0.36772482908493609 0 -0.44885864134335329 0.37135067543599282 0 -0.46572599417265398 0.36772482908493609 0 -0.45634368000688869 0.36512471152292858 0 -0.47832653283541199 0.38608194873200979 0 -0.46572599417265398 0.36772482908493609 0 -0.48259334700195489 0.36409898273387958 0 -0.46572599417265398 0.36772482908493609 0 -0.48259334700195489 0.36409898273387958 0 -0.47186707529616939 0.3513175305497272 0 -0.46572599417265398 0.36772482908493609 0 -0.48259334700195489 0.36409898273387958 0 -0.47186707529616939 0.3513175305497272 0 -0.494861198640831 0.34375347802017348 0 -0.47186707529616939 0.3513175305497272 0 -0.48536711719674469 0.35339641184703091 0 -0.494861198640831 0.34375347802017348 0 -0.48259334700195489 0.36409898273387958 0 -0.47186707529616939 0.3513175305497272 0 -0.48536711719674469 0.35339641184703091 0 -0.48259334700195489 0.36409898273387958 0 -0.49214684784802371 0.35441565608434311 0 -0.48536711719674469 0.35339641184703091 0 -0.49214684784802371 0.35441565608434311 0 -0.5 0.36887446842263683 0 -0.5 0.34271985673358363 0 -0.49214684784802371 0.35441565608434311 0 -0.48536711719674469 0.35339641184703091 0 -0.494861198640831 0.34375347802017348 0 -0.49214684784802371 0.35441565608434311 0 -0.494861198640831 0.34375347802017348 0 -0.5 0.34271985673358363 0 -0.48850556386005051 0.3766603246979251 0 -0.48259334700195489 0.36409898273387958 0 -0.5 0.36887446842263683 0 -0.48259334700195489 0.36409898273387958 0 -0.49214684784802371 0.35441565608434311 0 -0.5 0.36887446842263683 0 -0.485708092488497 0.3189911195031831 0 -0.5 0.31656524504453032 0 -0.48475009422380527 0.3315545986069256 0 -0.485708092488497 0.3189911195031831 0 -0.5 0.31656524504453032 0 -0.48583489694974541 0.30845327583860088 0 -0.5 0.31656524504453032 0 -0.5 0.34271985673358363 0 -0.48475009422380527 0.3315545986069256 0 -0.494861198640831 0.34375347802017348 0 -0.5 0.34271985673358363 0 -0.48475009422380527 0.3315545986069256 0 -0.48475009422380527 0.3315545986069256 0 -0.46074553959095882 0.3332462425487791 0 -0.47186707529616939 0.3513175305497272 0 -0.494861198640831 0.34375347802017348 0 -0.48475009422380527 0.3315545986069256 0 -0.47186707529616939 0.3513175305497272 0 -0.48475009422380527 0.3315545986069256 0 -0.46074553959095882 0.3332462425487791 0 -0.48475009422380527 0.3315545986069256 0 -0.47224737878043732 0.31939135852267558 0 -0.46074553959095882 0.3332462425487791 0 -0.485708092488497 0.3189911195031831 0 -0.48475009422380527 0.3315545986069256 0 -0.47224737878043732 0.31939135852267558 0 -0.485708092488497 0.3189911195031831 0 -0.47224737878043732 0.31939135852267558 0 -0.48583489694974541 0.30845327583860088 0 -0.47224737878043732 0.31939135852267558 0 -0.46258830912673421 0.31343425170936878 0 -0.46074553959095882 0.3332462425487791 0 -0.46258830912673421 0.31343425170936878 0 -0.46074553959095882 0.3332462425487791 0 -0.45107709460752138 0.31557533431346357 0 -0.45911772068334677 0.34536620346235469 0 -0.47186707529616939 0.3513175305497272 0 -0.46074553959095882 0.3332462425487791 0 -0.45911772068334677 0.34536620346235469 0 -0.46074553959095882 0.3332462425487791 0 -0.44889299330712729 0.34242966823447613 0 -0.43674098495811231 0.33493788649063261 0 -0.46074553959095882 0.3332462425487791 0 -0.43674098495811231 0.33493788649063261 0 -0.46074553959095882 0.3332462425487791 0 -0.44889299330712729 0.34242966823447613 0 -0.43674098495811231 0.33493788649063261 0 -0.46074553959095882 0.3332462425487791 0 -0.43790895006943947 0.32081412042189511 0 -0.43674098495811231 0.33493788649063261 0 -0.43385085243219867 0.34555045147446217 0 -0.44889299330712729 0.34242966823447613 0 -0.46074553959095882 0.3332462425487791 0 -0.45107709460752138 0.31557533431346357 0 -0.43790895006943947 0.32081412042189511 0 -0.45107709460752138 0.31557533431346357 0 -0.43790895006943947 0.32081412042189511 0 -0.4401847358662575 0.3127477530096977 0 -0.44444415583193408 0.29216055381020578 0 -0.43122247783146522 0.30831868127488848 0 -0.44810052680614793 0.29565349026271098 0 -0.43122247783146522 0.30831868127488848 0 -0.44368336155109173 0.30649675881006838 0 -0.44810052680614793 0.29565349026271098 0 -0.43122247783146522 0.30831868127488848 0 -0.4401847358662575 0.3127477530096977 0 -0.44368336155109173 0.30649675881006838 0 -0.43122247783146522 0.30831868127488848 0 -0.44444415583193408 0.29216055381020578 0 -0.44810052680614793 0.29565349026271098 0 -0.43122247783146522 0.30831868127488848 0 -0.45107709460752138 0.31557533431346357 0 -0.4401847358662575 0.3127477530096977 0 -0.44368336155109173 0.30649675881006838 0 -0.44368336155109173 0.30649675881006838 0 -0.44996115485610377 0.3015940899144034 0 -0.4551770389262465 0.30483297142504889 0 -0.44368336155109173 0.30649675881006838 0 -0.44996115485610377 0.3015940899144034 0 -0.44810052680614793 0.29565349026271098 0 -0.45288369214092922 0.29939313915978533 0 -0.44996115485610377 0.3015940899144034 0 -0.44810052680614793 0.29565349026271098 0 -0.45288369214092922 0.29939313915978533 0 -0.44996115485610377 0.3015940899144034 0 -0.4551770389262465 0.30483297142504889 0 -0.45107709460752138 0.31557533431346357 0 -0.44368336155109173 0.30649675881006838 0 -0.4551770389262465 0.30483297142504889 0 -0.44702735364695217 0.27675533545947301 0 -0.43422108619098299 0.29621681389521232 0 -0.44444415583193408 0.29216055381020578 0 -0.44702735364695217 0.27675533545947301 0 -0.43422108619098299 0.29621681389521232 0 -0.44702735364695217 0.27675533545947301 0 -0.43274811138672559 0.28469846643612018 0 -0.43422108619098299 0.29621681389521232 0 -0.44810052680614793 0.29565349026271098 0 -0.4493542421043164 0.28919027156790111 0 -0.45395006383388498 0.28587005882998617 0 -0.44444415583193408 0.29216055381020578 0 -0.44810052680614793 0.29565349026271098 0 -0.4493542421043164 0.28919027156790111 0 -0.44444415583193408 0.29216055381020578 0 -0.4493542421043164 0.28919027156790111 0 -0.44702735364695217 0.27675533545947301 0 -0.4493542421043164 0.28919027156790111 0 -0.45395006383388498 0.28587005882998617 0 -0.44702735364695217 0.27675533545947301 0 -0.44810052680614793 0.29565349026271098 0 -0.45395006383388498 0.28587005882998617 0 -0.46497857578083068 0.28298829925053381 0 -0.44810052680614793 0.29565349026271098 0 -0.4593999708052337 0.29480301670676529 0 -0.46497857578083068 0.28298829925053381 0 -0.44810052680614793 0.29565349026271098 0 -0.46497857578083068 0.28298829925053381 0 -0.45288369214092922 0.29939313915978533 0 -0.44810052680614793 0.29565349026271098 0 -0.4593999708052337 0.29480301670676529 0 -0.4593999708052337 0.29480301670676529 0 -0.46827174088950307 0.29409138505043392 0 -0.46497857578083068 0.28298829925053381 0 -0.46258830912673421 0.31343425170936878 0 -0.45107709460752138 0.31557533431346357 0 -0.4551770389262465 0.30483297142504889 0 -0.45288369214092922 0.29939313915978533 0 -0.4593999708052337 0.29480301670676529 0 -0.4551770389262465 0.30483297142504889 0 -0.4593999708052337 0.29480301670676529 0 -0.4551770389262465 0.30483297142504889 0 -0.46625021185001803 0.30380681263807602 0 -0.4593999708052337 0.29480301670676529 0 -0.46827174088950307 0.29409138505043392 0 -0.46625021185001803 0.30380681263807602 0 -0.47224737878043732 0.31939135852267558 0 -0.46258830912673421 0.31343425170936878 0 -0.46625021185001803 0.30380681263807602 0 -0.46258830912673421 0.31343425170936878 0 -0.4551770389262465 0.30483297142504889 0 -0.46625021185001803 0.30380681263807602 0 -0.47551717359816043 0.30301602212345602 0 -0.4769183937012712 0.29196404103452073 0 -0.48583489694974541 0.30845327583860088 0 -0.47224737878043732 0.31939135852267558 0 -0.46625021185001803 0.30380681263807602 0 -0.47551717359816043 0.30301602212345602 0 -0.47224737878043732 0.31939135852267558 0 -0.47551717359816043 0.30301602212345602 0 -0.48583489694974541 0.30845327583860088 0 -0.46827174088950307 0.29409138505043392 0 -0.46625021185001803 0.30380681263807602 0 -0.47551717359816043 0.30301602212345602 0 -0.46827174088950307 0.29409138505043392 0 -0.46497857578083068 0.28298829925053381 0 -0.4769183937012712 0.29196404103452073 0 -0.4769183937012712 0.29196404103452073 0 -0.48757792524538679 0.2814999319082685 0 -0.48583489694974541 0.30845327583860088 0 -0.46827174088950307 0.29409138505043392 0 -0.47551717359816043 0.30301602212345602 0 -0.4769183937012712 0.29196404103452073 0 -0.46497857578083068 0.28298829925053381 0 -0.47783287987075052 0.28169384510791978 0 -0.4769183937012712 0.29196404103452073 0 -0.47783287987075052 0.28169384510791978 0 -0.4769183937012712 0.29196404103452073 0 -0.48757792524538679 0.2814999319082685 0 -0.5 0.29041063335547701 0 -0.48757792524538679 0.2814999319082685 0 -0.48583489694974541 0.30845327583860088 0 -0.48757792524538679 0.2814999319082685 0 -0.48583489694974541 0.30845327583860088 0 -0.5 0.31656524504453032 0 -0.5 0.29041063335547701 0 -0.48583489694974541 0.30845327583860088 0 -0.5 0.23810140997737081 0 -0.5 0.26425602166642381 0 -0.48932095354102823 0.25454658797793611 0 -0.48757792524538679 0.2814999319082685 0 -0.48932095354102823 0.25454658797793611 0 -0.48366697684514259 0.26703881783025729 0 -0.48757792524538679 0.2814999319082685 0 -0.5 0.26425602166642381 0 -0.48932095354102823 0.25454658797793611 0 -0.48757792524538679 0.2814999319082685 0 -0.48932095354102823 0.25454658797793611 0 -0.5 0.29041063335547701 0 -0.48757792524538679 0.2814999319082685 0 -0.5 0.26425602166642381 0 -0.46497857578083068 0.28298829925053381 0 -0.48185662475551339 0.27032310823835648 0 -0.46497857578083068 0.28298829925053381 0 -0.47783287987075052 0.28169384510791978 0 -0.48185662475551339 0.27032310823835648 0 -0.48366697684514259 0.26703881783025729 0 -0.45893043448094739 0.2699305570534084 0 -0.48757792524538679 0.2814999319082685 0 -0.48366697684514259 0.26703881783025729 0 -0.48185662475551339 0.27032310823835648 0 -0.48366697684514259 0.26703881783025729 0 -0.48185662475551339 0.27032310823835648 0 -0.47235815296560851 0.27257019559313889 0 -0.46497857578083068 0.28298829925053381 0 -0.48185662475551339 0.27032310823835648 0 -0.47235815296560851 0.27257019559313889 0 -0.48366697684514259 0.26703881783025729 0 -0.46959483388743167 0.25994315597580908 0 -0.45893043448094739 0.2699305570534084 0 -0.48366697684514259 0.26703881783025729 0 -0.47235815296560851 0.27257019559313889 0 -0.45893043448094739 0.2699305570534084 0 -0.47783287987075052 0.28169384510791978 0 -0.48757792524538679 0.2814999319082685 0 -0.48185662475551339 0.27032310823835648 0 -0.48932095354102823 0.25454658797793611 0 -0.48366697684514259 0.26703881783025729 0 -0.47792533453874358 0.25606878273296479 0 -0.48366697684514259 0.26703881783025729 0 -0.46959483388743167 0.25994315597580908 0 -0.47792533453874358 0.25606878273296479 0 -0.47864167104372218 0.246590621409366 0 -0.48932095354102823 0.25454658797793611 0 -0.47792533453874358 0.25606878273296479 0 -0.47864167104372218 0.246590621409366 0 -0.47792533453874358 0.25606878273296479 0 -0.46938038244821267 0.25133041049185839 0 -0.46959483388743167 0.25994315597580908 0 -0.47792533453874358 0.25606878273296479 0 -0.46938038244821267 0.25133041049185839 0 -0.46959483388743167 0.25994315597580908 0 -0.46938038244821267 0.25133041049185839 0 -0.45807104112411212 0.25534721177055669 0 -0.46959483388743167 0.25994315597580908 0 -0.45807104112411212 0.25534721177055669 0 -0.45893043448094739 0.2699305570534084 0 -0.45807104112411212 0.25534721177055669 0 -0.45893043448094739 0.2699305570534084 0 -0.44442574262614493 0.25832327296872359 0 -0.45395006383388498 0.28587005882998617 0 -0.46497857578083068 0.28298829925053381 0 -0.45893043448094739 0.2699305570534084 0 -0.45395006383388498 0.28587005882998617 0 -0.45893043448094739 0.2699305570534084 0 -0.44702735364695217 0.27675533545947301 0 -0.46497857578083068 0.28298829925053381 0 -0.47235815296560851 0.27257019559313889 0 -0.45893043448094739 0.2699305570534084 0 -0.45893043448094739 0.2699305570534084 0 -0.43419389211675241 0.27282229627655952 0 -0.45893043448094739 0.2699305570534084 0 -0.44442574262614493 0.25832327296872359 0 -0.43419389211675241 0.27282229627655952 0 -0.45893043448094739 0.2699305570534084 0 -0.44702735364695217 0.27675533545947301 0 -0.43419389211675241 0.27282229627655952 0 -0.44702735364695217 0.27675533545947301 0 -0.43419389211675241 0.27282229627655952 0 -0.43274811138672559 0.28469846643612018 0 -0.45046339488490522 0.249057113070103 0 -0.45807104112411212 0.25534721177055669 0 -0.44442574262614493 0.25832327296872359 0 -0.44062222049055039 0.24203477259657111 0 -0.44442574262614493 0.25832327296872359 0 -0.42503978512155383 0.25887440404814072 0 -0.44062222049055039 0.24203477259657111 0 -0.42503978512155383 0.25887440404814072 0 -0.44442574262614493 0.25832327296872359 0 -0.42503978512155383 0.25887440404814072 0 -0.43419389211675241 0.27282229627655952 0 -0.42503978512155383 0.25887440404814072 0 -0.40945734975255721 0.27571403549971041 0 -0.40585136056822319 0.25674789398696107 0 -0.4198454647722451 0.23985190764030939 0 -0.42503978512155383 0.25887440404814072 0 -0.40585136056822319 0.25674789398696107 0 -0.40945734975255721 0.27571403549971041 0 -0.43419389211675241 0.27282229627655952 0 -0.42503978512155383 0.25887440404814072 0 -0.40945734975255721 0.27571403549971041 0 -0.42503978512155383 0.25887440404814072 0 -0.40945734975255721 0.27571403549971041 0 -0.43419389211675241 0.27282229627655952 0 -0.40945734975255721 0.27571403549971041 0 -0.43419389211675241 0.27282229627655952 0 -0.4229835889384117 0.28415291652507912 0 -0.43419389211675241 0.27282229627655952 0 -0.43274811138672559 0.28469846643612018 0 -0.4229835889384117 0.28415291652507912 0 -0.43274811138672559 0.28469846643612018 0 -0.43422108619098299 0.29621681389521232 0 -0.42519236151645012 0.29288975242762622 0 -0.43274811138672559 0.28469846643612018 0 -0.42519236151645012 0.29288975242762622 0 -0.4229835889384117 0.28415291652507912 0 -0.42141481873501418 0.31567829233095179 0 -0.43422108619098299 0.29621681389521232 0 -0.42141481873501418 0.31567829233095179 0 -0.43422108619098299 0.29621681389521232 0 -0.42237726971740519 0.30236741203524931 0 -0.44444415583193408 0.29216055381020578 0 -0.43422108619098299 0.29621681389521232 0 -0.43122247783146522 0.30831868127488848 0 -0.42141481873501418 0.31567829233095179 0 -0.43422108619098299 0.29621681389521232 0 -0.43122247783146522 0.30831868127488848 0 -0.43422108619098299 0.29621681389521232 0 -0.42519236151645012 0.29288975242762622 0 -0.42237726971740519 0.30236741203524931 0 -0.42141481873501418 0.31567829233095179 0 -0.43122247783146522 0.30831868127488848 0 -0.42237726971740519 0.30236741203524931 0 -0.41647318301620623 0.31168328686166002 0 -0.40812109447663159 0.30329838776079099 0 -0.42141481873501418 0.31567829233095179 0 -0.42237726971740519 0.30236741203524931 0 -0.41647318301620623 0.31168328686166002 0 -0.42237726971740519 0.30236741203524931 0 -0.40812109447663159 0.30329838776079099 0 -0.41256551749876041 0.29129965580367562 0 -0.40826549608127172 0.31275764886218971 0 -0.41647318301620623 0.31168328686166002 0 -0.40812109447663159 0.30329838776079099 0 -0.40945734975255721 0.27571403549971041 0 -0.4229835889384117 0.28415291652507912 0 -0.41256551749876041 0.29129965580367562 0 -0.42519236151645012 0.29288975242762622 0 -0.4229835889384117 0.28415291652507912 0 -0.41256551749876041 0.29129965580367562 0 -0.42519236151645012 0.29288975242762622 0 -0.42237726971740519 0.30236741203524931 0 -0.41256551749876041 0.29129965580367562 0 -0.40945734975255721 0.27571403549971041 0 -0.39180528154043992 0.29479027846244049 0 -0.39350738277932218 0.27757861076756318 0 -0.40945734975255721 0.27571403549971041 0 -0.39180528154043992 0.29479027846244049 0 -0.40812109447663159 0.30329838776079099 0 -0.41256551749876041 0.29129965580367562 0 -0.39180528154043992 0.29479027846244049 0 -0.40945734975255721 0.27571403549971041 0 -0.41256551749876041 0.29129965580367562 0 -0.39180528154043992 0.29479027846244049 0 -0.38613629988198012 0.31665983269396758 0 -0.39830358576524327 0.31266849694114901 0 -0.39180528154043992 0.29479027846244049 0 -0.39830358576524327 0.31266849694114901 0 -0.40812109447663159 0.30329838776079099 0 -0.39180528154043992 0.29479027846244049 0 -0.39830358576524327 0.31266849694114901 0 -0.40826549608127172 0.31275764886218971 0 -0.40812109447663159 0.30329838776079099 0 -0.39180528154043992 0.29479027846244049 0 -0.37819889022761238 0.29924868842846319 0 -0.37415321332832258 0.31386652142517069 0 -0.38613629988198012 0.31665983269396758 0 -0.39180528154043992 0.29479027846244049 0 -0.37415321332832258 0.31386652142517069 0 -0.39180528154043992 0.29479027846244049 0 -0.37415321332832258 0.31386652142517069 0 -0.39180528154043992 0.29479027846244049 0 -0.37819889022761238 0.29924868842846319 0 -0.37870614451813112 0.28175948497688769 0 -0.39180528154043992 0.29479027846244049 0 -0.37870614451813112 0.28175948497688769 0 -0.39350738277932218 0.27757861076756318 0 -0.37870614451813112 0.28175948497688769 0 -0.37647038179830861 0.26645711442365799 0 -0.39350738277932218 0.27757861076756318 0 -0.37647038179830861 0.26645711442365799 0 -0.39336972403141229 0.26369738761855421 0 -0.39350738277932218 0.27757861076756318 0 -0.38790582398472923 0.24962922847932231 0 -0.37647038179830861 0.26645711442365799 0 -0.39336972403141229 0.26369738761855421 0 -0.38790582398472923 0.24962922847932231 0 -0.37647038179830861 0.26645711442365799 0 -0.36318679658289171 0.25196182354824148 0 -0.40945734975255721 0.27571403549971041 0 -0.40585136056822319 0.25674789398696107 0 -0.39336972403141229 0.26369738761855421 0 -0.38790582398472923 0.24962922847932231 0 -0.40585136056822319 0.25674789398696107 0 -0.39336972403141229 0.26369738761855421 0 -0.40945734975255721 0.27571403549971041 0 -0.39336972403141229 0.26369738761855421 0 -0.39350738277932218 0.27757861076756318 0 -0.40945734975255721 0.27571403549971041 0 -0.39350738277932218 0.27757861076756318 0 -0.35583614606747688 0.27501819518035592 0 -0.36318679658289171 0.25196182354824148 0 -0.33952374355129727 0.25899057541505788 0 -0.37647038179830861 0.26645711442365799 0 -0.35583614606747688 0.27501819518035592 0 -0.36318679658289171 0.25196182354824148 0 -0.37870614451813112 0.28175948497688769 0 -0.37647038179830861 0.26645711442365799 0 -0.35583614606747688 0.27501819518035592 0 -0.37819889022761238 0.29924868842846319 0 -0.37870614451813112 0.28175948497688769 0 -0.36775571630023218 0.2927315942663431 0 -0.37870614451813112 0.28175948497688769 0 -0.35583614606747688 0.27501819518035592 0 -0.36775571630023218 0.2927315942663431 0 -0.37819889022761238 0.29924868842846319 0 -0.36899777432263853 0.30469822459034263 0 -0.37415321332832258 0.31386652142517069 0 -0.36899777432263853 0.30469822459034263 0 -0.36272901898995358 0.31473918551029578 0 -0.37415321332832258 0.31386652142517069 0 -0.37819889022761238 0.29924868842846319 0 -0.36775571630023218 0.2927315942663431 0 -0.36899777432263853 0.30469822459034263 0 -0.36775571630023218 0.2927315942663431 0 -0.36899777432263853 0.30469822459034263 0 -0.35931620367806588 0.30475084950198522 0 -0.36775571630023218 0.2927315942663431 0 -0.35931620367806588 0.30475084950198522 0 -0.35261706249820868 0.29381533636168528 0 -0.36899777432263853 0.30469822459034263 0 -0.35931620367806588 0.30475084950198522 0 -0.36272901898995358 0.31473918551029578 0 -0.35931620367806588 0.30475084950198522 0 -0.35261706249820868 0.29381533636168528 0 -0.34344143829887858 0.30736403781452232 0 -0.35931620367806588 0.30475084950198522 0 -0.34344143829887858 0.30736403781452232 0 -0.35467675850453528 0.31743756764607989 0 -0.35931620367806588 0.30475084950198522 0 -0.35467675850453528 0.31743756764607989 0 -0.36272901898995358 0.31473918551029578 0 -0.35583614606747688 0.27501819518035592 0 -0.36775571630023218 0.2927315942663431 0 -0.35261706249820868 0.29381533636168528 0 -0.35583614606747688 0.27501819518035592 0 -0.35261706249820868 0.29381533636168528 0 -0.33673580814638959 0.28921200504521999 0 -0.35261706249820868 0.29381533636168528 0 -0.33673580814638959 0.28921200504521999 0 -0.34344143829887858 0.30736403781452232 0 -0.33673580814638959 0.28921200504521999 0 -0.32075162894010661 0.28280614760534989 0 -0.33379142081270979 0.2734424933293601 0 -0.34344143829887858 0.30736403781452232 0 -0.31699951866320542 0.30755322334125379 0 -0.34344143829887858 0.30736403781452232 0 -0.31699951866320542 0.30755322334125379 0 -0.33459812393413729 0.32207732583041709 0 -0.33673580814638959 0.28921200504521999 0 -0.34344143829887858 0.30736403781452232 0 -0.31699951866320542 0.30755322334125379 0 -0.33673580814638959 0.28921200504521999 0 -0.31699951866320542 0.30755322334125379 0 -0.32075162894010661 0.28280614760534989 0 -0.31699951866320542 0.30755322334125379 0 -0.32075162894010661 0.28280614760534989 0 -0.30493521127791462 0.28695781074044469 0 -0.32075162894010661 0.28280614760534989 0 -0.31931282352829687 0.26617321261290411 0 -0.33379142081270979 0.2734424933293601 0 -0.32075162894010661 0.28280614760534989 0 -0.31931282352829687 0.26617321261290411 0 -0.30493521127791462 0.28695781074044469 0 -0.35583614606747688 0.27501819518035592 0 -0.33673580814638959 0.28921200504521999 0 -0.33379142081270979 0.2734424933293601 0 -0.35583614606747688 0.27501819518035592 0 -0.33379142081270979 0.2734424933293601 0 -0.33952374355129727 0.25899057541505788 0 -0.31931282352829687 0.26617321261290411 0 -0.33379142081270979 0.2734424933293601 0 -0.33952374355129727 0.25899057541505788 0 -0.32200613725511351 0.24850726385495631 0 -0.31931282352829687 0.26617321261290411 0 -0.33952374355129727 0.25899057541505788 0 -0.32200613725511351 0.24850726385495631 0 -0.31931282352829687 0.26617321261290411 0 -0.30640548876467488 0.25787073169030861 0 -0.31931282352829687 0.26617321261290411 0 -0.30640548876467488 0.25787073169030861 0 -0.3010630097917536 0.27273037638764702 0 -0.31931282352829687 0.26617321261290411 0 -0.3010630097917536 0.27273037638764702 0 -0.30493521127791462 0.28695781074044469 0 -0.31931282352829687 0.26617321261290411 0 -0.30493521127791462 0.28695781074044469 0 -0.3010630097917536 0.27273037638764702 0 -0.29309283898050847 0.28048055459605348 0 -0.30493521127791462 0.28695781074044469 0 -0.3010630097917536 0.27273037638764702 0 -0.29309283898050847 0.28048055459605348 0 -0.28156868640737281 0.27216957229852412 0 -0.30640548876467488 0.25787073169030861 0 -0.3010630097917536 0.27273037638764702 0 -0.28156868640737281 0.27216957229852412 0 -0.30640548876467488 0.25787073169030861 0 -0.28156868640737281 0.27216957229852412 0 -0.28729818335365731 0.26780124082781631 0 -0.28156868640737281 0.27216957229852412 0 -0.28729818335365731 0.26780124082781631 0 -0.27880962639343299 0.26078065685839158 0 -0.29309283898050847 0.28048055459605348 0 -0.28156868640737281 0.27216957229852412 0 -0.28401529333418091 0.28255904946725641 0 -0.30640548876467488 0.25787073169030861 0 -0.28156868640737281 0.27216957229852412 0 -0.29125564533142001 0.24067530578368901 0 -0.30640548876467488 0.25787073169030861 0 -0.28729818335365731 0.26780124082781631 0 -0.29125564533142001 0.24067530578368901 0 -0.28729818335365731 0.26780124082781631 0 -0.27880962639343299 0.26078065685839158 0 -0.29125564533142001 0.24067530578368901 0 -0.28729818335365731 0.26780124082781631 0 -0.29125564533142001 0.24067530578368901 0 -0.26892213733164849 0.25365425058065472 0 -0.27880962639343299 0.26078065685839158 0 -0.26892213733164849 0.25365425058065472 0 -0.27880962639343299 0.26078065685839158 0 -0.26500347954306669 0.26960291480127369 0 -0.28156868640737281 0.27216957229852412 0 -0.25673188405007052 0.28646841290673969 0 -0.28156868640737281 0.27216957229852412 0 -0.26500347954306669 0.26960291480127369 0 -0.25673188405007052 0.28646841290673969 0 -0.28156868640737281 0.27216957229852412 0 -0.27880962639343299 0.26078065685839158 0 -0.26500347954306669 0.26960291480127369 0 -0.28156868640737281 0.27216957229852412 0 -0.27479408276187339 0.28687287199942368 0 -0.28401529333418091 0.28255904946725641 0 -0.26500347954306669 0.26960291480127369 0 -0.25265925142613249 0.26128234508680298 0 -0.25673188405007052 0.28646841290673969 0 -0.26892213733164849 0.25365425058065472 0 -0.26500347954306669 0.26960291480127369 0 -0.25265925142613249 0.26128234508680298 0 -0.25621817608628389 0.2460965770837312 0 -0.26892213733164849 0.25365425058065472 0 -0.25265925142613249 0.26128234508680298 0 -0.25505401324638421 0.30366623925853881 0 -0.26661761067819428 0.2958317928062858 0 -0.26721257633701828 0.30790943684761429 0 -0.25505401324638421 0.30366623925853881 0 -0.26721257633701828 0.30790943684761429 0 -0.25901197930261888 0.31383205914145501 0 -0.26721257633701828 0.30790943684761429 0 -0.25901197930261888 0.31383205914145501 0 -0.26528599585519008 0.31471464054907522 0 -0.25505401324638421 0.30366623925853881 0 -0.25901197930261888 0.31383205914145501 0 -0.24885494741763489 0.31718848033418301 0 -0.25505401324638421 0.30366623925853881 0 -0.25673188405007052 0.28646841290673969 0 -0.26661761067819428 0.2958317928062858 0 -0.26661761067819428 0.2958317928062858 0 -0.27573637841232751 0.29432500902679382 0 -0.27326763327687947 0.30016750757533939 0 -0.28156868640737281 0.27216957229852412 0 -0.25673188405007052 0.28646841290673969 0 -0.27479408276187339 0.28687287199942368 0 -0.26661761067819428 0.2958317928062858 0 -0.27479408276187339 0.28687287199942368 0 -0.27573637841232751 0.29432500902679382 0 -0.25673188405007052 0.28646841290673969 0 -0.26661761067819428 0.2958317928062858 0 -0.27479408276187339 0.28687287199942368 0 -0.27479408276187339 0.28687287199942368 0 -0.28401529333418091 0.28255904946725641 0 -0.28313816676434478 0.29069510378855717 0 -0.27479408276187339 0.28687287199942368 0 -0.27573637841232751 0.29432500902679382 0 -0.28313816676434478 0.29069510378855717 0 -0.27573637841232751 0.29432500902679382 0 -0.28086439858034518 0.29805776896436298 0 -0.28313816676434478 0.29069510378855717 0 -0.28086439858034518 0.29805776896436298 0 -0.27753065875984329 0.30327410754998058 0 -0.28274061889410179 0.30278083970340541 0 -0.27753065875984329 0.30327410754998058 0 -0.27514776209796898 0.30785266251660498 0 -0.28274061889410179 0.30278083970340541 0 -0.27753065875984329 0.30327410754998058 0 -0.27326763327687947 0.30016750757533939 0 -0.27348155140824082 0.30658246875079598 0 -0.28086439858034518 0.29805776896436298 0 -0.27753065875984329 0.30327410754998058 0 -0.27326763327687947 0.30016750757533939 0 -0.27573637841232751 0.29432500902679382 0 -0.28086439858034518 0.29805776896436298 0 -0.27326763327687947 0.30016750757533939 0 -0.26661761067819428 0.2958317928062858 0 -0.27326763327687947 0.30016750757533939 0 -0.26721257633701828 0.30790943684761429 0 -0.26721257633701828 0.30790943684761429 0 -0.27514776209796898 0.30785266251660498 0 -0.27123720609067609 0.3158529302113221 0 -0.26721257633701828 0.30790943684761429 0 -0.27348155140824082 0.30658246875079598 0 -0.27514776209796898 0.30785266251660498 0 -0.26721257633701828 0.30790943684761429 0 -0.27514776209796898 0.30785266251660498 0 -0.27326763327687947 0.30016750757533939 0 -0.26721257633701828 0.30790943684761429 0 -0.27348155140824082 0.30658246875079598 0 -0.27514776209796898 0.30785266251660498 0 -0.2851872012256097 0.31550597615259851 0 -0.27753065875984329 0.30327410754998058 0 -0.27348155140824082 0.30658246875079598 0 -0.27514776209796898 0.30785266251660498 0 -0.27348155140824082 0.30658246875079598 0 -0.27514776209796898 0.30785266251660498 0 -0.27514776209796898 0.30785266251660498 0 -0.2905575990275322 0.30774240886798532 0 -0.27514776209796898 0.30785266251660498 0 -0.2905575990275322 0.30774240886798532 0 -0.2851872012256097 0.31550597615259851 0 -0.2896026760048197 0.2969772506180926 0 -0.2905575990275322 0.30774240886798532 0 -0.30493521127791462 0.28695781074044469 0 -0.27514776209796898 0.30785266251660498 0 -0.28274061889410179 0.30278083970340541 0 -0.2905575990275322 0.30774240886798532 0 -0.2905575990275322 0.30774240886798532 0 -0.2851872012256097 0.31550597615259851 0 -0.28274061889410179 0.30278083970340541 0 -0.2896026760048197 0.2969772506180926 0 -0.2905575990275322 0.30774240886798532 0 -0.28086439858034518 0.29805776896436298 0 -0.28274061889410179 0.30278083970340541 0 -0.2896026760048197 0.2969772506180926 0 -0.28401529333418091 0.28255904946725641 0 -0.28313816676434478 0.29069510378855717 0 -0.29095683727235372 0.28753395384208091 0 -0.28086439858034518 0.29805776896436298 0 -0.2896026760048197 0.2969772506180926 0 -0.28313816676434478 0.29069510378855717 0 -0.2896026760048197 0.2969772506180926 0 -0.28313816676434478 0.29069510378855717 0 -0.29095683727235372 0.28753395384208091 0 -0.2896026760048197 0.2969772506180926 0 -0.29095683727235372 0.28753395384208091 0 -0.30493521127791462 0.28695781074044469 0 -0.29309283898050847 0.28048055459605348 0 -0.29095683727235372 0.28753395384208091 0 -0.30493521127791462 0.28695781074044469 0 -0.29309283898050847 0.28048055459605348 0 -0.28401529333418091 0.28255904946725641 0 -0.29095683727235372 0.28753395384208091 0 -0.31699951866320542 0.30755322334125379 0 -0.2905575990275322 0.30774240886798532 0 -0.30563014257680821 0.31779627416788381 0 -0.31699951866320542 0.30755322334125379 0 -0.2905575990275322 0.30774240886798532 0 -0.2905575990275322 0.30774240886798532 0 -0.30493521127791462 0.28695781074044469 0 -0.31699951866320542 0.30755322334125379 0 -0.2905575990275322 0.30774240886798532 0 -0.30493521127791462 0.28695781074044469 0 -0.30538608464820588 0.33090408634228141 0 -0.28942706780696309 0.31873813168532672 0 -0.30563014257680821 0.31779627416788381 0 -0.30538608464820588 0.33090408634228141 0 -0.31811651498789978 0.32488887006413791 0 -0.30563014257680821 0.31779627416788381 0 -0.30538608464820588 0.33090408634228141 0 -0.2937791937433501 0.31637108240395312 0 -0.30538608464820588 0.33090408634228141 0 -0.3017933608705089 0.344447887165377 0 -0.32134510148944728 0.34307004099923799 0 -0.30538608464820588 0.33090408634228141 0 -0.29093013722955491 0.33661105704622479 0 -0.3017933608705089 0.344447887165377 0 -0.30538608464820588 0.33090408634228141 0 -0.29093013722955491 0.33661105704622479 0 -0.2885751077852815 0.32830696870384862 0 -0.29093013722955491 0.33661105704622479 0 -0.28224162025157051 0.34582573333151501 0 -0.3017933608705089 0.344447887165377 0 -0.2885751077852815 0.32830696870384862 0 -0.28146834572906437 0.33465123959114113 0 -0.2790455690922089 0.3243844570517187 0 -0.29093013722955491 0.33661105704622479 0 -0.2885751077852815 0.32830696870384862 0 -0.28146834572906437 0.33465123959114113 0 -0.29093013722955491 0.33661105704622479 0 -0.28146834572906437 0.33465123959114113 0 -0.28224162025157051 0.34582573333151501 0 -0.30538608464820588 0.33090408634228141 0 -0.2885751077852815 0.32830696870384862 0 -0.28942706780696309 0.31873813168532672 0 -0.30538608464820588 0.33090408634228141 0 -0.28942706780696309 0.31873813168532672 0 -0.2937791937433501 0.31637108240395312 0 -0.28942706780696309 0.31873813168532672 0 -0.2937791937433501 0.31637108240395312 0 -0.2851872012256097 0.31550597615259851 0 -0.2905575990275322 0.30774240886798532 0 -0.30563014257680821 0.31779627416788381 0 -0.2937791937433501 0.31637108240395312 0 -0.2905575990275322 0.30774240886798532 0 -0.2937791937433501 0.31637108240395312 0 -0.2851872012256097 0.31550597615259851 0 -0.28942706780696309 0.31873813168532672 0 -0.2937791937433501 0.31637108240395312 0 -0.2885751077852815 0.32830696870384862 0 -0.28942706780696309 0.31873813168532672 0 -0.2790455690922089 0.3243844570517187 0 -0.28942706780696309 0.31873813168532672 0 -0.2790455690922089 0.3243844570517187 0 -0.2851872012256097 0.31550597615259851 0 -0.2790455690922089 0.3243844570517187 0 -0.28942706780696309 0.31873813168532672 0 -0.2851872012256097 0.31550597615259851 0 -0.2790455690922089 0.3243844570517187 0 -0.28942706780696309 0.31873813168532672 0 -0.2851872012256097 0.31550597615259851 0 -0.27514776209796898 0.30785266251660498 0 -0.2851872012256097 0.31550597615259851 0 -0.27699557949655113 0.31645322234696882 0 -0.2851872012256097 0.31550597615259851 0 -0.27699557949655113 0.31645322234696882 0 -0.2790455690922089 0.3243844570517187 0 -0.27514776209796898 0.30785266251660498 0 -0.27699557949655113 0.31645322234696882 0 -0.27123720609067609 0.3158529302113221 0 -0.27001263578126711 0.32263717043347712 0 -0.2790455690922089 0.3243844570517187 0 -0.25910260253645218 0.33523110656146687 0 -0.26721257633701828 0.30790943684761429 0 -0.27123720609067609 0.3158529302113221 0 -0.26528599585519008 0.31471464054907522 0 -0.27699557949655113 0.31645322234696882 0 -0.27123720609067609 0.3158529302113221 0 -0.27001263578126711 0.32263717043347712 0 -0.27123720609067609 0.3158529302113221 0 -0.26528599585519008 0.31471464054907522 0 -0.26368222169044719 0.32126413599590953 0 -0.27123720609067609 0.3158529302113221 0 -0.27001263578126711 0.32263717043347712 0 -0.26368222169044719 0.32126413599590953 0 -0.27699557949655113 0.31645322234696882 0 -0.27001263578126711 0.32263717043347712 0 -0.2790455690922089 0.3243844570517187 0 -0.2790455690922089 0.3243844570517187 0 -0.25910260253645218 0.33523110656146687 0 -0.2790455690922089 0.3243844570517187 0 -0.26824012707650141 0.34000504592112352 0 -0.28146834572906437 0.33465123959114113 0 -0.2790455690922089 0.3243844570517187 0 -0.26824012707650141 0.34000504592112352 0 -0.2790455690922089 0.3243844570517187 0 -0.26824012707650141 0.34000504592112352 0 -0.25910260253645218 0.33523110656146687 0 -0.28146834572906437 0.33465123959114113 0 -0.26824012707650141 0.34000504592112352 0 -0.28224162025157051 0.34582573333151501 0 -0.25910260253645218 0.33523110656146687 0 -0.25407523553642281 0.3497448278934856 0 -0.23915963598069589 0.34607775607121571 0 -0.25910260253645218 0.33523110656146687 0 -0.25407523553642281 0.3497448278934856 0 -0.26309588156361569 0.34576168367824162 0 -0.26824012707650141 0.34000504592112352 0 -0.25910260253645218 0.33523110656146687 0 -0.26309588156361569 0.34576168367824162 0 -0.25910260253645218 0.33523110656146687 0 -0.25451497659773847 0.32559442806853028 0 -0.24843663428782739 0.33758714710907461 0 -0.25451497659773847 0.32559442806853028 0 -0.25901197930261888 0.31383205914145501 0 -0.24885494741763489 0.31718848033418301 0 -0.25451497659773847 0.32559442806853028 0 -0.25901197930261888 0.31383205914145501 0 -0.26368222169044719 0.32126413599590953 0 -0.25901197930261888 0.31383205914145501 0 -0.26528599585519008 0.31471464054907522 0 -0.26368222169044719 0.32126413599590953 0 -0.27001263578126711 0.32263717043347712 0 -0.25910260253645218 0.33523110656146687 0 -0.26368222169044719 0.32126413599590953 0 -0.25910260253645218 0.33523110656146687 0 -0.25451497659773847 0.32559442806853028 0 -0.26368222169044719 0.32126413599590953 0 -0.26470209097228098 0.37140351159401941 0 -0.25562758441007077 0.36194187249828802 0 -0.266880351992417 0.3582272519812631 0 -0.26470209097228098 0.37140351159401941 0 -0.25213085833087667 0.37355178257669552 0 -0.25562758441007077 0.36194187249828802 0 -0.25213085833087667 0.37355178257669552 0 -0.25562758441007077 0.36194187249828802 0 -0.24329038266145239 0.36134909741814653 0 -0.25562758441007077 0.36194187249828802 0 -0.25407523553642281 0.3497448278934856 0 -0.24329038266145239 0.36134909741814653 0 -0.25407523553642281 0.3497448278934856 0 -0.26309588156361569 0.34576168367824162 0 -0.266880351992417 0.3582272519812631 0 -0.25562758441007077 0.36194187249828802 0 -0.25407523553642281 0.3497448278934856 0 -0.266880351992417 0.3582272519812631 0 -0.266880351992417 0.3582272519812631 0 -0.27640009279511962 0.35155878343443242 0 -0.28837447244510311 0.36628710188532532 0 -0.26309588156361569 0.34576168367824162 0 -0.266880351992417 0.3582272519812631 0 -0.27640009279511962 0.35155878343443242 0 -0.26824012707650141 0.34000504592112352 0 -0.26309588156361569 0.34576168367824162 0 -0.27640009279511962 0.35155878343443242 0 -0.26824012707650141 0.34000504592112352 0 -0.27640009279511962 0.35155878343443242 0 -0.28224162025157051 0.34582573333151501 0 -0.266880351992417 0.3582272519812631 0 -0.28837447244510311 0.36628710188532532 0 -0.266880351992417 0.3582272519812631 0 -0.28837447244510311 0.36628710188532532 0 -0.27747916353329311 0.37529003384729942 0 -0.26470209097228098 0.37140351159401941 0 -0.266880351992417 0.3582272519812631 0 -0.27747916353329311 0.37529003384729942 0 -0.28837447244510311 0.36628710188532532 0 -0.28714059247178902 0.37543321948423419 0 -0.27747916353329311 0.37529003384729942 0 -0.28837447244510311 0.36628710188532532 0 -0.28956810344150979 0.35324588380912608 0 -0.30292150033679799 0.36018321991941088 0 -0.28837447244510311 0.36628710188532532 0 -0.29874239202075642 0.37528196759933868 0 -0.28714059247178902 0.37543321948423419 0 -0.28224162025157051 0.34582573333151501 0 -0.3017933608705089 0.344447887165377 0 -0.28224162025157051 0.34582573333151501 0 -0.28956810344150979 0.35324588380912608 0 -0.3017933608705089 0.344447887165377 0 -0.27640009279511962 0.35155878343443242 0 -0.28224162025157051 0.34582573333151501 0 -0.28956810344150979 0.35324588380912608 0 -0.27640009279511962 0.35155878343443242 0 -0.28837447244510311 0.36628710188532532 0 -0.28956810344150979 0.35324588380912608 0 -0.3017933608705089 0.344447887165377 0 -0.31193410579265052 0.3536039280541286 0 -0.30292150033679799 0.36018321991941088 0 -0.28956810344150979 0.35324588380912608 0 -0.3017933608705089 0.344447887165377 0 -0.30292150033679799 0.36018321991941088 0 -0.3017933608705089 0.344447887165377 0 -0.32134510148944728 0.34307004099923799 0 -0.3017933608705089 0.344447887165377 0 -0.31193410579265052 0.3536039280541286 0 -0.32134510148944728 0.34307004099923799 0 -0.31193410579265052 0.3536039280541286 0 -0.30292150033679799 0.36018321991941088 0 -0.31340485972314069 0.36375751913665871 0 -0.28837447244510311 0.36628710188532532 0 -0.30292150033679799 0.36018321991941088 0 -0.30986859289778912 0.37434695178938759 0 -0.28837447244510311 0.36628710188532532 0 -0.30986859289778912 0.37434695178938759 0 -0.28837447244510311 0.36628710188532532 0 -0.30986859289778912 0.37434695178938759 0 -0.29874239202075642 0.37528196759933868 0 -0.30292150033679799 0.36018321991941088 0 -0.30986859289778912 0.37434695178938759 0 -0.31340485972314069 0.36375751913665871 0 -0.30986859289778912 0.37434695178938759 0 -0.31340485972314069 0.36375751913665871 0 -0.32167824364597858 0.36970754211250728 0 -0.31340485972314069 0.36375751913665871 0 -0.32243327870136801 0.35950699838777223 0 -0.32167824364597858 0.36970754211250728 0 -0.32243327870136801 0.35950699838777223 0 -0.32167824364597858 0.36970754211250728 0 -0.33132177355711989 0.36851943955526861 0 -0.32167824364597858 0.36970754211250728 0 -0.33132177355711989 0.36851943955526861 0 -0.33136271335047512 0.38240680169344993 0 -0.32243327870136801 0.35950699838777223 0 -0.33132177355711989 0.36851943955526861 0 -0.33989838930305449 0.35721367281084643 0 -0.33132177355711989 0.36851943955526861 0 -0.34304766554360439 0.37232322735168022 0 -0.33136271335047512 0.38240680169344993 0 -0.33132177355711989 0.36851943955526861 0 -0.34304766554360439 0.37232322735168022 0 -0.33989838930305449 0.35721367281084643 0 -0.33989838930305449 0.35721367281084643 0 -0.32134510148944728 0.34307004099923799 0 -0.33989838930305449 0.35721367281084643 0 -0.32134510148944728 0.34307004099923799 0 -0.3500233487104954 0.34104903357308669 0 -0.32243327870136801 0.35950699838777223 0 -0.33989838930305449 0.35721367281084643 0 -0.32134510148944728 0.34307004099923799 0 -0.31193410579265052 0.3536039280541286 0 -0.32243327870136801 0.35950699838777223 0 -0.32134510148944728 0.34307004099923799 0 -0.31193410579265052 0.3536039280541286 0 -0.31340485972314069 0.36375751913665871 0 -0.32243327870136801 0.35950699838777223 0 -0.30538608464820588 0.33090408634228141 0 -0.32134510148944728 0.34307004099923799 0 -0.30538608464820588 0.33090408634228141 0 -0.32134510148944728 0.34307004099923799 0 -0.31811651498789978 0.32488887006413791 0 -0.32134510148944728 0.34307004099923799 0 -0.31811651498789978 0.32488887006413791 0 -0.33459812393413729 0.32207732583041709 0 -0.31699951866320542 0.30755322334125379 0 -0.30563014257680821 0.31779627416788381 0 -0.31811651498789978 0.32488887006413791 0 -0.31699951866320542 0.30755322334125379 0 -0.31811651498789978 0.32488887006413791 0 -0.33459812393413729 0.32207732583041709 0 -0.32134510148944728 0.34307004099923799 0 -0.34342889555096417 0.33131534648734451 0 -0.3500233487104954 0.34104903357308669 0 -0.32134510148944728 0.34307004099923799 0 -0.33459812393413729 0.32207732583041709 0 -0.34342889555096417 0.33131534648734451 0 -0.32134510148944728 0.34307004099923799 0 -0.3500233487104954 0.34104903357308669 0 -0.3500233487104954 0.34104903357308669 0 -0.35650114511620551 0.33294276438790088 0 -0.36794029410566942 0.33226259727897972 0 -0.34342889555096417 0.33131534648734451 0 -0.3500233487104954 0.34104903357308669 0 -0.35650114511620551 0.33294276438790088 0 -0.33459812393413729 0.32207732583041709 0 -0.34342889555096417 0.33131534648734451 0 -0.35467675850453528 0.31743756764607989 0 -0.34344143829887858 0.30736403781452232 0 -0.33459812393413729 0.32207732583041709 0 -0.35467675850453528 0.31743756764607989 0 -0.35650114511620551 0.33294276438790088 0 -0.35467675850453528 0.31743756764607989 0 -0.36272901898995358 0.31473918551029578 0 -0.34342889555096417 0.33131534648734451 0 -0.35650114511620551 0.33294276438790088 0 -0.35467675850453528 0.31743756764607989 0 -0.35650114511620551 0.33294276438790088 0 -0.36272901898995358 0.31473918551029578 0 -0.37415321332832258 0.31386652142517069 0 -0.35650114511620551 0.33294276438790088 0 -0.37415321332832258 0.31386652142517069 0 -0.35650114511620551 0.33294276438790088 0 -0.37442838800096029 0.32044424157556423 0 -0.37415321332832258 0.31386652142517069 0 -0.37816355277066899 0.32985684687273281 0 -0.37442838800096029 0.32044424157556423 0 -0.36794029410566942 0.33226259727897972 0 -0.3787015959315434 0.33902802614693439 0 -0.3500233487104954 0.34104903357308669 0 -0.36794029410566942 0.33226259727897972 0 -0.35650114511620551 0.33294276438790088 0 -0.37442838800096029 0.32044424157556423 0 -0.36794029410566942 0.33226259727897972 0 -0.3787015959315434 0.33902802614693439 0 -0.3500233487104954 0.34104903357308669 0 -0.3787015959315434 0.33902802614693439 0 -0.37816355277066899 0.32985684687273281 0 -0.36794029410566942 0.33226259727897972 0 -0.3787015959315434 0.33902802614693439 0 -0.3500233487104954 0.34104903357308669 0 -0.36501658974902518 0.35367198233662939 0 -0.37823932191431281 0.35548757599615399 0 -0.3787015959315434 0.33902802614693439 0 -0.36501658974902518 0.35367198233662939 0 -0.37823932191431281 0.35548757599615399 0 -0.36501658974902518 0.35367198233662939 0 -0.37024808467873749 0.36543132639488701 0 -0.36501658974902518 0.35367198233662939 0 -0.37024808467873749 0.36543132639488701 0 -0.35845167711666143 0.37135730462245548 0 -0.37949655700884349 0.37153259571527891 0 -0.37024808467873749 0.36543132639488701 0 -0.36758280318953013 0.37627165255961892 0 -0.37024808467873749 0.36543132639488701 0 -0.35845167711666143 0.37135730462245548 0 -0.36758280318953013 0.37627165255961892 0 -0.36501658974902518 0.35367198233662939 0 -0.35845167711666143 0.37135730462245548 0 -0.35334750121980912 0.35582299833575448 0 -0.34304766554360439 0.37232322735168022 0 -0.33989838930305449 0.35721367281084643 0 -0.35845167711666143 0.37135730462245548 0 -0.33989838930305449 0.35721367281084643 0 -0.35845167711666143 0.37135730462245548 0 -0.35334750121980912 0.35582299833575448 0 -0.33989838930305449 0.35721367281084643 0 -0.35845167711666143 0.37135730462245548 0 -0.33989838930305449 0.35721367281084643 0 -0.3500233487104954 0.34104903357308669 0 -0.35334750121980912 0.35582299833575448 0 -0.3500233487104954 0.34104903357308669 0 -0.36501658974902518 0.35367198233662939 0 -0.35334750121980912 0.35582299833575448 0 -0.35285683380316007 0.39046665159751448 0 -0.36027192889352422 0.40897543894708011 0 -0.34270265381785459 0.40768080501023862 0 -0.34304766554360439 0.37232322735168022 0 -0.35845167711666143 0.37135730462245548 0 -0.35285683380316007 0.39046665159751448 0 -0.37686086334024771 0.38257038446795849 0 -0.35285683380316007 0.39046665159751448 0 -0.37686086334024771 0.38257038446795849 0 -0.35285683380316007 0.39046665159751448 0 -0.36758280318953013 0.37627165255961892 0 -0.35845167711666143 0.37135730462245548 0 -0.35285683380316007 0.39046665159751448 0 -0.36758280318953013 0.37627165255961892 0 -0.37686086334024771 0.38257038446795849 0 -0.37949655700884349 0.37153259571527891 0 -0.36758280318953013 0.37627165255961892 0 -0.37769092578324193 0.39977892163450779 0 -0.35285683380316007 0.39046665159751448 0 -0.37769092578324193 0.39977892163450779 0 -0.37686086334024771 0.38257038446795849 0 -0.35285683380316007 0.39046665159751448 0 -0.37769092578324193 0.39977892163450779 0 -0.35285683380316007 0.39046665159751448 0 -0.36027192889352422 0.40897543894708011 0 -0.37875820238401509 0.42613984176471847 0 -0.37769092578324193 0.39977892163450779 0 -0.36027192889352422 0.40897543894708011 0 -0.37875820238401509 0.42613984176471847 0 -0.36027192889352422 0.40897543894708011 0 -0.36048507512927641 0.42545129427310208 0 -0.37875820238401509 0.42613984176471847 0 -0.36048507512927641 0.42545129427310208 0 -0.35499138700470761 0.44318849185793469 0 -0.37875820238401509 0.42613984176471847 0 -0.35499138700470761 0.44318849185793469 0 -0.34691622899781399 0.42161541908905831 0 -0.33223168701086447 0.43660936806356893 0 -0.35499138700470761 0.44318849185793469 0 -0.36048507512927641 0.42545129427310208 0 -0.34691622899781399 0.42161541908905831 0 -0.35499138700470761 0.44318849185793469 0 -0.36027192889352422 0.40897543894708011 0 -0.34691622899781399 0.42161541908905831 0 -0.34270265381785459 0.40768080501023862 0 -0.36027192889352422 0.40897543894708011 0 -0.36048507512927641 0.42545129427310208 0 -0.34691622899781399 0.42161541908905831 0 -0.34270265381785459 0.40768080501023862 0 -0.32841174735063311 0.41773478988879181 0 -0.32505653004414181 0.39961172552874852 0 -0.34691622899781399 0.42161541908905831 0 -0.34270265381785459 0.40768080501023862 0 -0.32841174735063311 0.41773478988879181 0 -0.34691622899781399 0.42161541908905831 0 -0.32841174735063311 0.41773478988879181 0 -0.33223168701086447 0.43660936806356893 0 -0.32841174735063311 0.41773478988879181 0 -0.33223168701086447 0.43660936806356893 0 -0.31148998866141242 0.43181261152586448 0 -0.32841174735063311 0.41773478988879181 0 -0.31441363705571701 0.41408607272300291 0 -0.32505653004414181 0.39961172552874852 0 -0.32841174735063311 0.41773478988879181 0 -0.31441363705571701 0.41408607272300291 0 -0.31148998866141242 0.43181261152586448 0 -0.32505653004414181 0.39961172552874852 0 -0.31219235154091651 0.39185403334122892 0 -0.30619500853749271 0.39725637532293351 0 -0.32505653004414181 0.39961172552874852 0 -0.31778050989885959 0.38527433798844479 0 -0.31219235154091651 0.39185403334122892 0 -0.35285683380316007 0.39046665159751448 0 -0.32505653004414181 0.39961172552874852 0 -0.33136271335047512 0.38240680169344993 0 -0.35285683380316007 0.39046665159751448 0 -0.34270265381785459 0.40768080501023862 0 -0.32505653004414181 0.39961172552874852 0 -0.35285683380316007 0.39046665159751448 0 -0.32505653004414181 0.39961172552874852 0 -0.35285683380316007 0.39046665159751448 0 -0.33136271335047512 0.38240680169344993 0 -0.34304766554360439 0.37232322735168022 0 -0.35285683380316007 0.39046665159751448 0 -0.33136271335047512 0.38240680169344993 0 -0.30986859289778912 0.37434695178938759 0 -0.32167824364597858 0.36970754211250728 0 -0.33136271335047512 0.38240680169344993 0 -0.30986859289778912 0.37434695178938759 0 -0.33136271335047512 0.38240680169344993 0 -0.32505653004414181 0.39961172552874852 0 -0.33136271335047512 0.38240680169344993 0 -0.31778050989885959 0.38527433798844479 0 -0.30986859289778912 0.37434695178938759 0 -0.33136271335047512 0.38240680169344993 0 -0.31778050989885959 0.38527433798844479 0 -0.30986859289778912 0.37434695178938759 0 -0.31778050989885959 0.38527433798844479 0 -0.30574515252343709 0.38648905476423068 0 -0.30986859289778912 0.37434695178938759 0 -0.30574515252343709 0.38648905476423068 0 -0.29874239202075642 0.37528196759933868 0 -0.30574515252343709 0.38648905476423068 0 -0.29874239202075642 0.37528196759933868 0 -0.29146244090030071 0.40289140707507309 0 -0.31778050989885959 0.38527433798844479 0 -0.30574515252343709 0.38648905476423068 0 -0.31219235154091651 0.39185403334122892 0 -0.32505653004414181 0.39961172552874852 0 -0.30619500853749271 0.39725637532293351 0 -0.29725622628512233 0.40875679945997928 0 -0.32505653004414181 0.39961172552874852 0 -0.29725622628512233 0.40875679945997928 0 -0.30574515252343709 0.38648905476423068 0 -0.30619500853749271 0.39725637532293351 0 -0.29146244090030071 0.40289140707507309 0 -0.30574515252343709 0.38648905476423068 0 -0.31219235154091651 0.39185403334122892 0 -0.30619500853749271 0.39725637532293351 0 -0.30619500853749271 0.39725637532293351 0 -0.29146244090030071 0.40289140707507309 0 -0.29725622628512233 0.40875679945997928 0 -0.29146244090030071 0.40289140707507309 0 -0.2882496590958894 0.39023794275143442 0 -0.278827461574497 0.39790462172635238 0 -0.28396634188800352 0.38487377460497352 0 -0.2882496590958894 0.39023794275143442 0 -0.278827461574497 0.39790462172635238 0 -0.29146244090030071 0.40289140707507309 0 -0.278827461574497 0.39790462172635238 0 -0.27940045790464241 0.41220012044695847 0 -0.29874239202075642 0.37528196759933868 0 -0.29146244090030071 0.40289140707507309 0 -0.29874239202075642 0.37528196759933868 0 -0.29146244090030071 0.40289140707507309 0 -0.2882496590958894 0.39023794275143442 0 -0.29874239202075642 0.37528196759933868 0 -0.28396634188800352 0.38487377460497352 0 -0.28714059247178902 0.37543321948423419 0 -0.29874239202075642 0.37528196759933868 0 -0.28396634188800352 0.38487377460497352 0 -0.2882496590958894 0.39023794275143442 0 -0.28396634188800352 0.38487377460497352 0 -0.28714059247178902 0.37543321948423419 0 -0.27747916353329311 0.37529003384729942 0 -0.28396634188800352 0.38487377460497352 0 -0.27747916353329311 0.37529003384729942 0 -0.26775424033426293 0.38456849691175748 0 -0.28396634188800352 0.38487377460497352 0 -0.26775424033426293 0.38456849691175748 0 -0.278827461574497 0.39790462172635238 0 -0.26470209097228098 0.37140351159401941 0 -0.27747916353329311 0.37529003384729942 0 -0.26775424033426293 0.38456849691175748 0 -0.278827461574497 0.39790462172635238 0 -0.26298604578065232 0.3973558675440883 0 -0.2677584473194361 0.40899541659639099 0 -0.26775424033426293 0.38456849691175748 0 -0.278827461574497 0.39790462172635238 0 -0.26298604578065232 0.3973558675440883 0 -0.26298604578065232 0.3973558675440883 0 -0.25152819264859128 0.38883491631829081 0 -0.2490618870264745 0.40647588616764979 0 -0.26298604578065232 0.3973558675440883 0 -0.2677584473194361 0.40899541659639099 0 -0.2490618870264745 0.40647588616764979 0 -0.25213085833087667 0.37355178257669552 0 -0.26775424033426293 0.38456849691175748 0 -0.25152819264859128 0.38883491631829081 0 -0.26775424033426293 0.38456849691175748 0 -0.26298604578065232 0.3973558675440883 0 -0.25152819264859128 0.38883491631829081 0 -0.26470209097228098 0.37140351159401941 0 -0.25213085833087667 0.37355178257669552 0 -0.26775424033426293 0.38456849691175748 0 -0.2572482915111563 0.42152384209731297 0 -0.26330490497154813 0.43976041958731371 0 -0.24092688658692171 0.43286849171069308 0 -0.2572482915111563 0.42152384209731297 0 -0.27163392734069919 0.42205675226444578 0 -0.26330490497154813 0.43976041958731371 0 -0.2572482915111563 0.42152384209731297 0 -0.2677584473194361 0.40899541659639099 0 -0.2490618870264745 0.40647588616764979 0 -0.2572482915111563 0.42152384209731297 0 -0.2677584473194361 0.40899541659639099 0 -0.27163392734069919 0.42205675226444578 0 -0.27940045790464241 0.41220012044695847 0 -0.27163392734069919 0.42205675226444578 0 -0.28418248977984512 0.43050084655080739 0 -0.2677584473194361 0.40899541659639099 0 -0.27940045790464241 0.41220012044695847 0 -0.27163392734069919 0.42205675226444578 0 -0.278827461574497 0.39790462172635238 0 -0.2677584473194361 0.40899541659639099 0 -0.27940045790464241 0.41220012044695847 0 -0.27163392734069919 0.42205675226444578 0 -0.28418248977984512 0.43050084655080739 0 -0.26330490497154813 0.43976041958731371 0 -0.28418248977984512 0.43050084655080739 0 -0.29943060469912958 0.42576946359573847 0 -0.28981068171355151 0.44369098771903792 0 -0.29146244090030071 0.40289140707507309 0 -0.28418248977984512 0.43050084655080739 0 -0.29146244090030071 0.40289140707507309 0 -0.27940045790464241 0.41220012044695847 0 -0.28418248977984512 0.43050084655080739 0 -0.28418248977984512 0.43050084655080739 0 -0.29725622628512233 0.40875679945997928 0 -0.29943060469912958 0.42576946359573847 0 -0.29146244090030071 0.40289140707507309 0 -0.28418248977984512 0.43050084655080739 0 -0.29725622628512233 0.40875679945997928 0 -0.31441363705571701 0.41408607272300291 0 -0.32505653004414181 0.39961172552874852 0 -0.29725622628512233 0.40875679945997928 0 -0.31441363705571701 0.41408607272300291 0 -0.29725622628512233 0.40875679945997928 0 -0.29943060469912958 0.42576946359573847 0 -0.31441363705571701 0.41408607272300291 0 -0.29943060469912958 0.42576946359573847 0 -0.31148998866141242 0.43181261152586448 0 -0.29943060469912958 0.42576946359573847 0 -0.31148998866141242 0.43181261152586448 0 -0.28981068171355151 0.44369098771903792 0 -0.31148998866141242 0.43181261152586448 0 -0.30120616623050861 0.45239726712555162 0 -0.31718999816658727 0.45065056632578487 0 -0.31148998866141242 0.43181261152586448 0 -0.30120616623050861 0.45239726712555162 0 -0.31148998866141242 0.43181261152586448 0 -0.30120616623050861 0.45239726712555162 0 -0.28981068171355151 0.44369098771903792 0 -0.30120616623050861 0.45239726712555162 0 -0.29092234379960469 0.47298192272523881 0 -0.30745775624609217 0.47728579204436761 0 -0.30120616623050861 0.45239726712555162 0 -0.30745775624609217 0.47728579204436761 0 -0.31718999816658727 0.45065056632578487 0 -0.2852957606144535 0.45730244818253718 0 -0.28186649269177161 0.46567885888970018 0 -0.29092234379960469 0.47298192272523881 0 -0.30120616623050861 0.45239726712555162 0 -0.29092234379960469 0.47298192272523881 0 -0.30120616623050861 0.45239726712555162 0 -0.2852957606144535 0.45730244818253718 0 -0.29092234379960469 0.47298192272523881 0 -0.2852957606144535 0.45730244818253718 0 -0.28186649269177161 0.46567885888970018 0 -0.27690253865938408 0.45811028602654041 0 -0.28418248977984512 0.43050084655080739 0 -0.28981068171355151 0.44369098771903792 0 -0.27690253865938408 0.45811028602654041 0 -0.30120616623050861 0.45239726712555162 0 -0.2852957606144535 0.45730244818253718 0 -0.28981068171355151 0.44369098771903792 0 -0.2852957606144535 0.45730244818253718 0 -0.28981068171355151 0.44369098771903792 0 -0.27690253865938408 0.45811028602654041 0 -0.28418248977984512 0.43050084655080739 0 -0.27690253865938408 0.45811028602654041 0 -0.28418248977984512 0.43050084655080739 0 -0.27690253865938408 0.45811028602654041 0 -0.26330490497154813 0.43976041958731371 0 -0.2852957606144535 0.45730244818253718 0 -0.27690253865938408 0.45811028602654041 0 -0.28186649269177161 0.46567885888970018 0 -0.27690253865938408 0.45811028602654041 0 -0.27835780074514338 0.47366975871288508 0 -0.27690253865938408 0.45811028602654041 0 -0.25345677561811758 0.46036691342989022 0 -0.27690253865938408 0.45811028602654041 0 -0.25345677561811758 0.46036691342989022 0 -0.26590293397843329 0.47057525233348851 0 -0.25345677561811758 0.46036691342989022 0 -0.25315469521642581 0.4750486889203015 0 -0.26590293397843329 0.47057525233348851 0 -0.25345677561811758 0.46036691342989022 0 -0.26330490497154813 0.43976041958731371 0 -0.24129970279445639 0.44943490890582899 0 -0.27690253865938408 0.45811028602654041 0 -0.25345677561811758 0.46036691342989022 0 -0.26330490497154813 0.43976041958731371 0 -0.26169037092037989 0.4910190989046625 0 -0.25397816739109252 0.5 0 -0.27113802145370669 0.49283981386083792 0 -0.26169037092037989 0.4910190989046625 0 -0.25474868654415728 0.48692894813519849 0 -0.26689660829256312 0.48430763362261348 0 -0.26169037092037989 0.4910190989046625 0 -0.25397816739109252 0.5 0 -0.25474868654415728 0.48692894813519849 0 -0.25315469521642581 0.4750486889203015 0 -0.26689660829256312 0.48430763362261348 0 -0.25315469521642581 0.4750486889203015 0 -0.26689660829256312 0.48430763362261348 0 -0.26590293397843329 0.47057525233348851 0 -0.25474868654415728 0.48692894813519849 0 -0.25315469521642581 0.4750486889203015 0 -0.26689660829256312 0.48430763362261348 0 -0.27690253865938408 0.45811028602654041 0 -0.26590293397843329 0.47057525233348851 0 -0.26946370716205509 0.4860372782758946 0 -0.27690253865938408 0.45811028602654041 0 -0.26946370716205509 0.4860372782758946 0 -0.27690253865938408 0.45811028602654041 0 -0.27835780074514338 0.47366975871288508 0 -0.26946370716205509 0.4860372782758946 0 -0.26689660829256312 0.48430763362261348 0 -0.26590293397843329 0.47057525233348851 0 -0.26946370716205509 0.4860372782758946 0 -0.28186649269177161 0.46567885888970018 0 -0.27835780074514338 0.47366975871288508 0 -0.28298297564177088 0.4743823417855309 0 -0.27835780074514338 0.47366975871288508 0 -0.2798907507987049 0.48286402398659151 0 -0.28298297564177088 0.4743823417855309 0 -0.27835780074514338 0.47366975871288508 0 -0.2798907507987049 0.48286402398659151 0 -0.26946370716205509 0.4860372782758946 0 -0.26946370716205509 0.4860372782758946 0 -0.28063852136870049 0.49356657832492562 0 -0.26946370716205509 0.4860372782758946 0 -0.27113802145370669 0.49283981386083792 0 -0.28063852136870049 0.49356657832492562 0 -0.2798907507987049 0.48286402398659151 0 -0.26946370716205509 0.4860372782758946 0 -0.28063852136870049 0.49356657832492562 0 -0.25397816739109252 0.5 0 -0.27113802145370669 0.49283981386083792 0 -0.27742446875513049 0.50000000000000155 0 -0.26689660829256312 0.48430763362261348 0 -0.26946370716205509 0.4860372782758946 0 -0.27113802145370669 0.49283981386083792 0 -0.26169037092037989 0.4910190989046625 0 -0.26689660829256312 0.48430763362261348 0 -0.27113802145370669 0.49283981386083792 0 -0.26689660829256312 0.48430763362261348 0 -0.26946370716205509 0.4860372782758946 0 -0.27113802145370669 0.49283981386083792 0 -0.28063852136870049 0.49356657832492562 0 -0.27742446875513049 0.50000000000000155 0 -0.28063852136870049 0.49356657832492562 0 -0.27742446875513049 0.50000000000000155 0 -0.28063852136870049 0.49356657832492562 0 -0.27742446875513049 0.50000000000000155 0 -0.29018685806186229 0.50000000000000122 0 -0.28063852136870049 0.49356657832492562 0 -0.29018685806186229 0.50000000000000122 0 -0.29092234379960469 0.47298192272523881 0 -0.28063852136870049 0.49356657832492562 0 -0.29018685806186229 0.50000000000000122 0 -0.29018685806186229 0.50000000000000122 0 -0.29092234379960469 0.47298192272523881 0 -0.30745775624609217 0.47728579204436761 0 -0.28063852136870049 0.49356657832492562 0 -0.29092234379960469 0.47298192272523881 0 -0.2798907507987049 0.48286402398659151 0 -0.28063852136870049 0.49356657832492562 0 -0.29092234379960469 0.47298192272523881 0 -0.28186649269177161 0.46567885888970018 0 -0.28298297564177088 0.4743823417855309 0 -0.29092234379960469 0.47298192272523881 0 -0.2798907507987049 0.48286402398659151 0 -0.28298297564177088 0.4743823417855309 0 -0.29092234379960469 0.47298192272523881 0 -0.29018685806186229 0.50000000000000122 0 -0.30745775624609217 0.47728579204436761 0 -0.3640375775585698 0.5 0 -0.30745775624609217 0.47728579204436761 0 -0.33122457162539992 0.46023714195115112 0 -0.3640375775585698 0.5 0 -0.30745775624609217 0.47728579204436761 0 -0.33122457162539992 0.46023714195115112 0 -0.30745775624609217 0.47728579204436761 0 -0.31718999816658727 0.45065056632578487 0 -0.33122457162539992 0.46023714195115112 0 -0.33223168701086447 0.43660936806356893 0 -0.31148998866141242 0.43181261152586448 0 -0.31718999816658727 0.45065056632578487 0 -0.33223168701086447 0.43660936806356893 0 -0.31718999816658727 0.45065056632578487 0 -0.33122457162539992 0.46023714195115112 0 -0.33122457162539992 0.46023714195115112 0 -0.35499138700470761 0.44318849185793469 0 -0.33223168701086447 0.43660936806356893 0 -0.33122457162539992 0.46023714195115112 0 -0.35499138700470761 0.44318849185793469 0 -0.33122457162539992 0.46023714195115112 0 -0.35376164566254242 0.46494380824906301 0 -0.35499138700470761 0.44318849185793469 0 -0.38249991962136642 0.44345487931465249 0 -0.35499138700470761 0.44318849185793469 0 -0.37103467036260362 0.45695891695805302 0 -0.38249991962136642 0.44345487931465249 0 -0.37875820238401509 0.42613984176471847 0 -0.35499138700470761 0.44318849185793469 0 -0.35376164566254242 0.46494380824906301 0 -0.35499138700470761 0.44318849185793469 0 -0.37103467036260362 0.45695891695805302 0 -0.35376164566254242 0.46494380824906301 0 -0.37103467036260362 0.45695891695805302 0 -0.36943712044780219 0.47475959506207249 0 -0.33122457162539992 0.46023714195115112 0 -0.35376164566254242 0.46494380824906301 0 -0.3640375775585698 0.5 0 -0.38891458820749281 0.47713565504117422 0 -0.36943712044780219 0.47475959506207249 0 -0.3640375775585698 0.5 0 -0.35376164566254242 0.46494380824906301 0 -0.36943712044780219 0.47475959506207249 0 -0.3640375775585698 0.5 0 -0.1410608215807003 0.47118489318428192 0 -0.1506389915883973 0.47451242435581331 0 -0.15779819732271971 0.4695739402503486 0 -0.1410608215807003 0.47118489318428192 0 -0.15779819732271971 0.4695739402503486 0 -0.1455325599989582 0.47665965757352818 0 -0.14983465253105441 0.48099067897208148 0 -0.1405957742956809 0.47995063378193648 0 -0.14983465253105441 0.48099067897208148 0 -0.14427471349546869 0.48965289008050411 0 -0.1405957742956809 0.47995063378193648 0 -0.1455325599989582 0.47665965757352818 0 -0.1410608215807003 0.47118489318428192 0 -0.1506389915883973 0.47451242435581331 0 -0.1455325599989582 0.47665965757352818 0 -0.1410608215807003 0.47118489318428192 0 -0.1405957742956809 0.47995063378193648 0 -0.1506389915883973 0.47451242435581331 0 -0.15682389603308189 0.47748605108520858 0 -0.15779819732271971 0.4695739402503486 0 -0.1506389915883973 0.47451242435581331 0 -0.14983465253105441 0.48099067897208148 0 -0.15682389603308189 0.47748605108520858 0 -0.1455325599989582 0.47665965757352818 0 -0.1506389915883973 0.47451242435581331 0 -0.14983465253105441 0.48099067897208148 0 -0.14983465253105441 0.48099067897208148 0 -0.1558122254133027 0.48316327461493752 0 -0.15682389603308189 0.47748605108520858 0 -0.14983465253105441 0.48099067897208148 0 -0.1558122254133027 0.48316327461493752 0 -0.15140604362779489 0.486968875654338 0 -0.1558122254133027 0.48316327461493752 0 -0.15140604362779489 0.486968875654338 0 -0.15545271364459581 0.49281799385228547 0 -0.14983465253105441 0.48099067897208148 0 -0.15140604362779489 0.486968875654338 0 -0.14427471349546869 0.48965289008050411 0 -0.15140604362779489 0.486968875654338 0 -0.15545271364459581 0.49281799385228547 0 -0.14427471349546869 0.48965289008050411 0 -0.15453849507163009 0.5 0 -0.14427471349546869 0.48965289008050411 0 -0.12543772684428189 0.5 0 -0.15453849507163009 0.5 0 -0.15545271364459581 0.49281799385228547 0 -0.14427471349546869 0.48965289008050411 0 -0.14427471349546869 0.48965289008050411 0 -0.12543772684428189 0.5 0 -0.13178312884530541 0.48627570230508688 0 -0.14427471349546869 0.48965289008050411 0 -0.13178312884530541 0.48627570230508688 0 -0.1405957742956809 0.47995063378193648 0 -0.13178312884530541 0.48627570230508688 0 -0.1317912103042716 0.47600940211286807 0 -0.11642361318749669 0.48420448820259387 0 -0.1317912103042716 0.47600940211286807 0 -0.14083201439797821 0.46516349611765162 0 -0.12052644250191399 0.4682622397032008 0 -0.13178312884530541 0.48627570230508688 0 -0.1405957742956809 0.47995063378193648 0 -0.1317912103042716 0.47600940211286807 0 -0.1410608215807003 0.47118489318428192 0 -0.1405957742956809 0.47995063378193648 0 -0.1317912103042716 0.47600940211286807 0 -0.1410608215807003 0.47118489318428192 0 -0.1317912103042716 0.47600940211286807 0 -0.14083201439797821 0.46516349611765162 0 -0.12618187852634369 0.45882241462805679 0 -0.14083201439797821 0.46516349611765162 0 -0.12052644250191399 0.4682622397032008 0 -0.14083201439797821 0.46516349611765162 0 -0.12052644250191399 0.4682622397032008 0 -0.12618187852634369 0.45882241462805679 0 -0.13621980461969219 0.45775649261309698 0 -0.13482926781972801 0.45201676164804122 0 -0.13621980461969219 0.45775649261309698 0 -0.13482926781972801 0.45201676164804122 0 -0.1430360577347192 0.45502329805863873 0 -0.13621980461969219 0.45775649261309698 0 -0.14083201439797821 0.46516349611765162 0 -0.1430360577347192 0.45502329805863873 0 -0.12618187852634369 0.45882241462805679 0 -0.13621980461969219 0.45775649261309698 0 -0.14083201439797821 0.46516349611765162 0 -0.12618187852634369 0.45882241462805679 0 -0.13482926781972801 0.45201676164804122 0 -0.1248743097581413 0.44162978393037222 0 -0.13482926781972801 0.45201676164804122 0 -0.13973201497409549 0.44099892737807922 0 -0.1415241139788854 0.4488412036993919 0 -0.13482926781972801 0.45201676164804122 0 -0.1415241139788854 0.4488412036993919 0 -0.1430360577347192 0.45502329805863873 0 -0.13973201497409549 0.44099892737807922 0 -0.13491063247587859 0.43073185275000708 0 -0.1248743097581413 0.44162978393037222 0 -0.13482926781972801 0.45201676164804122 0 -0.13973201497409549 0.44099892737807922 0 -0.1248743097581413 0.44162978393037222 0 -0.13973201497409549 0.44099892737807922 0 -0.14849911538699881 0.44732582771280882 0 -0.14949031039727409 0.43903968606904947 0 -0.14849911538699881 0.44732582771280882 0 -0.1430360577347192 0.45502329805863873 0 -0.15230793746503779 0.45507497120342549 0 -0.13973201497409549 0.44099892737807922 0 -0.1415241139788854 0.4488412036993919 0 -0.14849911538699881 0.44732582771280882 0 -0.1415241139788854 0.4488412036993919 0 -0.14849911538699881 0.44732582771280882 0 -0.1430360577347192 0.45502329805863873 0 -0.14849911538699881 0.44732582771280882 0 -0.15230793746503779 0.45507497120342549 0 -0.15767924869329919 0.44641741059368378 0 -0.14949031039727409 0.43903968606904947 0 -0.15767924869329919 0.44641741059368378 0 -0.15912083936695831 0.4347249498771325 0 -0.14849911538699881 0.44732582771280882 0 -0.14949031039727409 0.43903968606904947 0 -0.15767924869329919 0.44641741059368378 0 -0.14083201439797821 0.46516349611765162 0 -0.16113758629404229 0.46206475253210239 0 -0.15779819732271971 0.4695739402503486 0 -0.1410608215807003 0.47118489318428192 0 -0.14083201439797821 0.46516349611765162 0 -0.15779819732271971 0.4695739402503486 0 -0.14083201439797821 0.46516349611765162 0 -0.16113758629404229 0.46206475253210239 0 -0.14083201439797821 0.46516349611765162 0 -0.15230793746503779 0.45507497120342549 0 -0.16113758629404229 0.46206475253210239 0 -0.14083201439797821 0.46516349611765162 0 -0.1430360577347192 0.45502329805863873 0 -0.15230793746503779 0.45507497120342549 0 -0.16113758629404229 0.46206475253210239 0 -0.16940388650370539 0.44815354093755089 0 -0.18144315819010631 0.45896600894655282 0 -0.16113758629404229 0.46206475253210239 0 -0.18144315819010631 0.45896600894655282 0 -0.16113758629404229 0.46206475253210239 0 -0.17453557306473899 0.46796298731641428 0 -0.15779819732271971 0.4695739402503486 0 -0.15230793746503779 0.45507497120342549 0 -0.16113758629404229 0.46206475253210239 0 -0.16013216473902109 0.45292766881669072 0 -0.16113758629404229 0.46206475253210239 0 -0.16013216473902109 0.45292766881669072 0 -0.16940388650370539 0.44815354093755089 0 -0.15767924869329919 0.44641741059368378 0 -0.16940388650370539 0.44815354093755089 0 -0.15912083936695831 0.4347249498771325 0 -0.15230793746503779 0.45507497120342549 0 -0.16013216473902109 0.45292766881669072 0 -0.15767924869329919 0.44641741059368378 0 -0.16013216473902109 0.45292766881669072 0 -0.15767924869329919 0.44641741059368378 0 -0.16940388650370539 0.44815354093755089 0 -0.1829590266345629 0.45699162349075462 0 -0.18255950863604661 0.43173185523385532 0 -0.1829590266345629 0.45699162349075462 0 -0.19557533522393281 0.44055915781337712 0 -0.18255950863604661 0.43173185523385532 0 -0.16940388650370539 0.44815354093755089 0 -0.1829590266345629 0.45699162349075462 0 -0.18255950863604661 0.43173185523385532 0 -0.16113758629404229 0.46206475253210239 0 -0.17453557306473899 0.46796298731641428 0 -0.18144315819010631 0.45896600894655282 0 -0.17453557306473899 0.46796298731641428 0 -0.18144315819010631 0.45896600894655282 0 -0.17453557306473899 0.46796298731641428 0 -0.18311948649431831 0.46713679563994498 0 -0.16940388650370539 0.44815354093755089 0 -0.18144315819010631 0.45896600894655282 0 -0.1829590266345629 0.45699162349075462 0 -0.18144315819010631 0.45896600894655282 0 -0.1829590266345629 0.45699162349075462 0 -0.18144315819010631 0.45896600894655282 0 -0.1829865290739871 0.45873048193697258 0 -0.1829590266345629 0.45699162349075462 0 -0.18144315819010631 0.45896600894655282 0 -0.1829865290739871 0.45873048193697258 0 -0.1829865290739871 0.45873048193697258 0 -0.1829590266345629 0.45699162349075462 0 -0.17453557306473899 0.46796298731641428 0 -0.18144315819010631 0.45896600894655282 0 -0.18311948649431831 0.46713679563994498 0 -0.1829865290739871 0.45873048193697258 0 -0.18311948649431831 0.46713679563994498 0 -0.18144315819010631 0.45896600894655282 0 -0.1829865290739871 0.45873048193697258 0 -0.18311948649431831 0.46713679563994498 0 -0.18311948649431831 0.46713679563994498 0 -0.18337937489664821 0.48356839781997168 0 -0.19511197543601369 0.47606725323690458 0 -0.18311948649431831 0.46713679563994498 0 -0.18337937489664821 0.48356839781997168 0 -0.18311948649431831 0.46713679563994498 0 -0.18337937489664821 0.48356839781997168 0 -0.17485937494801759 0.47808814193434568 0 -0.17453557306473899 0.46796298731641428 0 -0.18311948649431831 0.46713679563994498 0 -0.17485937494801759 0.47808814193434568 0 -0.17453557306473899 0.46796298731641428 0 -0.15779819732271971 0.4695739402503486 0 -0.17453557306473899 0.46796298731641428 0 -0.16499414335466689 0.48039049058434952 0 -0.17453557306473899 0.46796298731641428 0 -0.16499414335466689 0.48039049058434952 0 -0.15779819732271971 0.4695739402503486 0 -0.17453557306473899 0.46796298731641428 0 -0.17485937494801759 0.47808814193434568 0 -0.16499414335466689 0.48039049058434952 0 -0.17485937494801759 0.47808814193434568 0 -0.16499414335466689 0.48039049058434952 0 -0.1699453859209171 0.49288017845899518 0 -0.1558122254133027 0.48316327461493752 0 -0.16499414335466689 0.48039049058434952 0 -0.15682389603308189 0.47748605108520858 0 -0.16499414335466689 0.48039049058434952 0 -0.15682389603308189 0.47748605108520858 0 -0.15779819732271971 0.4695739402503486 0 -0.15453849507163009 0.5 0 -0.1699453859209171 0.49288017845899518 0 -0.18363926329897839 0.49999999999999828 0 -0.15453849507163009 0.5 0 -0.15545271364459581 0.49281799385228547 0 -0.1699453859209171 0.49288017845899518 0 -0.15545271364459581 0.49281799385228547 0 -0.16499414335466689 0.48039049058434952 0 -0.1699453859209171 0.49288017845899518 0 -0.15545271364459581 0.49281799385228547 0 -0.16499414335466689 0.48039049058434952 0 -0.1558122254133027 0.48316327461493752 0 -0.15545271364459581 0.49281799385228547 0 -0.16499414335466689 0.48039049058434952 0 -0.18337937489664821 0.48356839781997168 0 -0.18363926329897839 0.49999999999999828 0 -0.18337937489664821 0.48356839781997168 0 -0.1699453859209171 0.49288017845899518 0 -0.18363926329897839 0.49999999999999828 0 -0.18337937489664821 0.48356839781997168 0 -0.17485937494801759 0.47808814193434568 0 -0.1699453859209171 0.49288017845899518 0 -0.18337937489664821 0.48356839781997168 0 -0.18363926329897839 0.49999999999999828 0 -0.19848883175809501 0.48685236178056529 0 -0.18363926329897839 0.49999999999999828 0 -0.19848883175809501 0.48685236178056529 0 -0.20708556466301639 0.5 0 -0.18311948649431831 0.46713679563994498 0 -0.19511197543601369 0.47606725323690458 0 -0.20656524953558469 0.46488016823659339 0 -0.18337937489664821 0.48356839781997168 0 -0.19848883175809501 0.48685236178056529 0 -0.19511197543601369 0.47606725323690458 0 -0.19848883175809501 0.48685236178056529 0 -0.19511197543601369 0.47606725323690458 0 -0.206747867840962 0.47700509082497228 0 -0.19511197543601369 0.47606725323690458 0 -0.206747867840962 0.47700509082497228 0 -0.20656524953558469 0.46488016823659339 0 -0.19848883175809501 0.48685236178056529 0 -0.206747867840962 0.47700509082497228 0 -0.21585796601610141 0.48648558657266339 0 -0.206747867840962 0.47700509082497228 0 -0.21852396914967101 0.47285401242330122 0 -0.20656524953558469 0.46488016823659339 0 -0.206747867840962 0.47700509082497228 0 -0.21852396914967101 0.47285401242330122 0 -0.21585796601610141 0.48648558657266339 0 -0.20708556466301639 0.5 0 -0.21585796601610141 0.48648558657266339 0 -0.23053186602705439 0.5 0 -0.19848883175809501 0.48685236178056529 0 -0.20708556466301639 0.5 0 -0.21585796601610141 0.48648558657266339 0 -0.21585796601610141 0.48648558657266339 0 -0.23053186602705439 0.5 0 -0.2373192826940049 0.48342253064983348 0 -0.21852396914967101 0.47285401242330122 0 -0.2373192826940049 0.48342253064983348 0 -0.23001101257685119 0.46262354083324181 0 -0.21852396914967101 0.47285401242330122 0 -0.21585796601610141 0.48648558657266339 0 -0.2373192826940049 0.48342253064983348 0 -0.25474868654415728 0.48692894813519849 0 -0.25315469521642581 0.4750486889203015 0 -0.2373192826940049 0.48342253064983348 0 -0.25315469521642581 0.4750486889203015 0 -0.2373192826940049 0.48342253064983348 0 -0.23001101257685119 0.46262354083324181 0 -0.25397816739109252 0.5 0 -0.23053186602705439 0.5 0 -0.2373192826940049 0.48342253064983348 0 -0.25397816739109252 0.5 0 -0.25474868654415728 0.48692894813519849 0 -0.2373192826940049 0.48342253064983348 0 -0.26330490497154813 0.43976041958731371 0 -0.24129970279445639 0.44943490890582899 0 -0.24092688658692171 0.43286849171069308 0 -0.24129970279445639 0.44943490890582899 0 -0.2242493546558077 0.44235471361969553 0 -0.24092688658692171 0.43286849171069308 0 -0.25345677561811758 0.46036691342989022 0 -0.23001101257685119 0.46262354083324181 0 -0.25345677561811758 0.46036691342989022 0 -0.24129970279445639 0.44943490890582899 0 -0.23001101257685119 0.46262354083324181 0 -0.25345677561811758 0.46036691342989022 0 -0.25315469521642581 0.4750486889203015 0 -0.23001101257685119 0.46262354083324181 0 -0.24129970279445639 0.44943490890582899 0 -0.23001101257685119 0.46262354083324181 0 -0.2242493546558077 0.44235471361969553 0 -0.23001101257685119 0.46262354083324181 0 -0.2242493546558077 0.44235471361969553 0 -0.2144914677851314 0.45380351874251162 0 -0.2242493546558077 0.44235471361969553 0 -0.20880164963731279 0.443380440886459 0 -0.2144914677851314 0.45380351874251162 0 -0.20880164963731279 0.443380440886459 0 -0.2144914677851314 0.45380351874251162 0 -0.20415969833182021 0.45549933815243238 0 -0.23001101257685119 0.46262354083324181 0 -0.2144914677851314 0.45380351874251162 0 -0.20656524953558469 0.46488016823659339 0 -0.21852396914967101 0.47285401242330122 0 -0.23001101257685119 0.46262354083324181 0 -0.20656524953558469 0.46488016823659339 0 -0.23001101257685119 0.46262354083324181 0 -0.20656524953558469 0.46488016823659339 0 -0.2144914677851314 0.45380351874251162 0 -0.20415969833182021 0.45549933815243238 0 -0.20656524953558469 0.46488016823659339 0 -0.1829865290739871 0.45873048193697258 0 -0.1829590266345629 0.45699162349075462 0 -0.20415969833182021 0.45549933815243238 0 -0.1829865290739871 0.45873048193697258 0 -0.20415969833182021 0.45549933815243238 0 -0.18311948649431831 0.46713679563994498 0 -0.20415969833182021 0.45549933815243238 0 -0.20656524953558469 0.46488016823659339 0 -0.1829865290739871 0.45873048193697258 0 -0.18311948649431831 0.46713679563994498 0 -0.20415969833182021 0.45549933815243238 0 -0.18311948649431831 0.46713679563994498 0 -0.20656524953558469 0.46488016823659339 0 -0.1829590266345629 0.45699162349075462 0 -0.19557533522393281 0.44055915781337712 0 -0.1829590266345629 0.45699162349075462 0 -0.20415969833182021 0.45549933815243238 0 -0.19557533522393281 0.44055915781337712 0 -0.20880164963731279 0.443380440886459 0 -0.20415969833182021 0.45549933815243238 0 -0.19557533522393281 0.44055915781337712 0 -0.19557533522393281 0.44055915781337712 0 -0.20819164381331129 0.42412669213600601 0 -0.19557533522393281 0.44055915781337712 0 -0.19413142888046839 0.4217351031076268 0 -0.18255950863604661 0.43173185523385532 0 -0.19557533522393281 0.44055915781337712 0 -0.19413142888046839 0.4217351031076268 0 -0.20819164381331129 0.42412669213600601 0 -0.19413142888046839 0.4217351031076268 0 -0.20819164381331129 0.42412669213600601 0 -0.2021706660915297 0.40578572337793972 0 -0.19413142888046839 0.4217351031076268 0 -0.2021706660915297 0.40578572337793972 0 -0.18215999063752189 0.40647208697695608 0 -0.20819164381331129 0.42412669213600601 0 -0.22405449890785839 0.40643558214578251 0 -0.2021706660915297 0.40578572337793972 0 -0.20880164963731279 0.443380440886459 0 -0.19557533522393281 0.44055915781337712 0 -0.20819164381331129 0.42412669213600601 0 -0.2242493546558077 0.44235471361969553 0 -0.20880164963731279 0.443380440886459 0 -0.20819164381331129 0.42412669213600601 0 -0.2242493546558077 0.44235471361969553 0 -0.20819164381331129 0.42412669213600601 0 -0.22600929792909111 0.42518400498706249 0 -0.2242493546558077 0.44235471361969553 0 -0.22600929792909111 0.42518400498706249 0 -0.24092688658692171 0.43286849171069308 0 -0.20819164381331129 0.42412669213600601 0 -0.22600929792909111 0.42518400498706249 0 -0.22405449890785839 0.40643558214578251 0 -0.22600929792909111 0.42518400498706249 0 -0.22405449890785839 0.40643558214578251 0 -0.2382988550227183 0.41778448946306668 0 -0.2572482915111563 0.42152384209731297 0 -0.2382988550227183 0.41778448946306668 0 -0.2490618870264745 0.40647588616764979 0 -0.22405449890785839 0.40643558214578251 0 -0.2382988550227183 0.41778448946306668 0 -0.2490618870264745 0.40647588616764979 0 -0.2572482915111563 0.42152384209731297 0 -0.2382988550227183 0.41778448946306668 0 -0.24092688658692171 0.43286849171069308 0 -0.22600929792909111 0.42518400498706249 0 -0.2382988550227183 0.41778448946306668 0 -0.24092688658692171 0.43286849171069308 0 -0.24000210142933509 0.37809552861286783 0 -0.23801773827758249 0.39392053259368742 0 -0.22567210936962789 0.38582584627882549 0 -0.25152819264859128 0.38883491631829081 0 -0.24000210142933509 0.37809552861286783 0 -0.23801773827758249 0.39392053259368742 0 -0.25213085833087667 0.37355178257669552 0 -0.25152819264859128 0.38883491631829081 0 -0.24000210142933509 0.37809552861286783 0 -0.25152819264859128 0.38883491631829081 0 -0.2490618870264745 0.40647588616764979 0 -0.23801773827758249 0.39392053259368742 0 -0.22405449890785839 0.40643558214578251 0 -0.2490618870264745 0.40647588616764979 0 -0.23801773827758249 0.39392053259368742 0 -0.22405449890785839 0.40643558214578251 0 -0.22567210936962789 0.38582584627882549 0 -0.2099895612515065 0.38861519238670661 0 -0.22405449890785839 0.40643558214578251 0 -0.23801773827758249 0.39392053259368742 0 -0.22567210936962789 0.38582584627882549 0 -0.22567210936962789 0.38582584627882549 0 -0.21752164111765379 0.37637519474985792 0 -0.23054114355980421 0.3681661286558337 0 -0.24000210142933509 0.37809552861286783 0 -0.22567210936962789 0.38582584627882549 0 -0.23054114355980421 0.3681661286558337 0 -0.22567210936962789 0.38582584627882549 0 -0.21752164111765379 0.37637519474985792 0 -0.2099895612515065 0.38861519238670661 0 -0.21752164111765379 0.37637519474985792 0 -0.2099895612515065 0.38861519238670661 0 -0.20825127389149589 0.37038948781896619 0 -0.2099895612515065 0.38861519238670661 0 -0.1956253707180633 0.37355818799515828 0 -0.20825127389149589 0.37038948781896619 0 -0.22405449890785839 0.40643558214578251 0 -0.2099895612515065 0.38861519238670661 0 -0.2021706660915297 0.40578572337793972 0 -0.2021706660915297 0.40578572337793972 0 -0.19434121226752371 0.39112870189136351 0 -0.18215999063752189 0.40647208697695608 0 -0.2099895612515065 0.38861519238670661 0 -0.2021706660915297 0.40578572337793972 0 -0.19434121226752371 0.39112870189136351 0 -0.2099895612515065 0.38861519238670661 0 -0.19434121226752371 0.39112870189136351 0 -0.1956253707180633 0.37355818799515828 0 -0.19434121226752371 0.39112870189136351 0 -0.18176047263899719 0.38121231872005679 0 -0.1956253707180633 0.37355818799515828 0 -0.18176047263899719 0.38121231872005679 0 -0.16585623702428451 0.39107516703040651 0 -0.16689278400863089 0.37048631692620287 0 -0.16585623702428451 0.39107516703040651 0 -0.1532541744773912 0.375434017343177 0 -0.15169756500005979 0.38990146883471011 0 -0.16585623702428451 0.39107516703040651 0 -0.1532541744773912 0.375434017343177 0 -0.16689278400863089 0.37048631692620287 0 -0.16585623702428451 0.39107516703040651 0 -0.1665369108918931 0.40914444316194981 0 -0.1556916669008335 0.40278409093046019 0 -0.16585623702428451 0.39107516703040651 0 -0.18215999063752189 0.40647208697695608 0 -0.1665369108918931 0.40914444316194981 0 -0.16585623702428451 0.39107516703040651 0 -0.15169756500005979 0.38990146883471011 0 -0.1556916669008335 0.40278409093046019 0 -0.18176047263899719 0.38121231872005679 0 -0.16585623702428451 0.39107516703040651 0 -0.18215999063752189 0.40647208697695608 0 -0.18176047263899719 0.38121231872005679 0 -0.18215999063752189 0.40647208697695608 0 -0.19434121226752371 0.39112870189136351 0 -0.18176047263899719 0.38121231872005679 0 -0.18215999063752189 0.40647208697695608 0 -0.18215999063752189 0.40647208697695608 0 -0.18255950863604661 0.43173185523385532 0 -0.18215999063752189 0.40647208697695608 0 -0.16958367679162159 0.42493542776846188 0 -0.1665369108918931 0.40914444316194981 0 -0.19413142888046839 0.4217351031076268 0 -0.18215999063752189 0.40647208697695608 0 -0.18255950863604661 0.43173185523385532 0 -0.18215999063752189 0.40647208697695608 0 -0.18255950863604661 0.43173185523385532 0 -0.16958367679162159 0.42493542776846188 0 -0.16940388650370539 0.44815354093755089 0 -0.18255950863604661 0.43173185523385532 0 -0.16958367679162159 0.42493542776846188 0 -0.16940388650370539 0.44815354093755089 0 -0.16958367679162159 0.42493542776846188 0 -0.15912083936695831 0.4347249498771325 0 -0.16958367679162159 0.42493542776846188 0 -0.15912083936695831 0.4347249498771325 0 -0.15604886632200479 0.41831593774319042 0 -0.16958367679162159 0.42493542776846188 0 -0.1665369108918931 0.40914444316194981 0 -0.15604886632200479 0.41831593774319042 0 -0.1665369108918931 0.40914444316194981 0 -0.15604886632200479 0.41831593774319042 0 -0.1556916669008335 0.40278409093046019 0 -0.15604886632200479 0.41831593774319042 0 -0.14768726638806501 0.40958107086639878 0 -0.1556916669008335 0.40278409093046019 0 -0.15604886632200479 0.41831593774319042 0 -0.1455440964649429 0.41771164433310332 0 -0.14575226394851429 0.42876386523653243 0 -0.15604886632200479 0.41831593774319042 0 -0.1455440964649429 0.41771164433310332 0 -0.14768726638806501 0.40958107086639878 0 -0.1455440964649429 0.41771164433310332 0 -0.14768726638806501 0.40958107086639878 0 -0.13820848934052041 0.41088683445876423 0 -0.15912083936695831 0.4347249498771325 0 -0.15604886632200479 0.41831593774319042 0 -0.14575226394851429 0.42876386523653243 0 -0.14949031039727409 0.43903968606904947 0 -0.15912083936695831 0.4347249498771325 0 -0.14575226394851429 0.42876386523653243 0 -0.1455440964649429 0.41771164433310332 0 -0.14575226394851429 0.42876386523653243 0 -0.13557398954387551 0.42076075412316039 0 -0.13973201497409549 0.44099892737807922 0 -0.14949031039727409 0.43903968606904947 0 -0.14575226394851429 0.42876386523653243 0 -0.13491063247587859 0.43073185275000708 0 -0.1242188050129694 0.42501783294758849 0 -0.1248743097581413 0.44162978393037222 0 -0.13973201497409549 0.44099892737807922 0 -0.14575226394851429 0.42876386523653243 0 -0.13491063247587859 0.43073185275000708 0 -0.14575226394851429 0.42876386523653243 0 -0.13491063247587859 0.43073185275000708 0 -0.13557398954387551 0.42076075412316039 0 -0.13491063247587859 0.43073185275000708 0 -0.13557398954387551 0.42076075412316039 0 -0.1242188050129694 0.42501783294758849 0 -0.13820848934052041 0.41088683445876423 0 -0.13557398954387551 0.42076075412316039 0 -0.12623023605756489 0.41143854881348008 0 -0.1455440964649429 0.41771164433310332 0 -0.13820848934052041 0.41088683445876423 0 -0.13557398954387551 0.42076075412316039 0 -0.13557398954387551 0.42076075412316039 0 -0.12623023605756489 0.41143854881348008 0 -0.1242188050129694 0.42501783294758849 0 -0.13820848934052041 0.41088683445876423 0 -0.12623023605756489 0.41143854881348008 0 -0.13398515235888339 0.40371564514020769 0 -0.12997925716256209 0.39431640422262348 0 -0.14074253368576661 0.38200722200303072 0 -0.1429432129120235 0.39820684686647628 0 -0.12623023605756489 0.41143854881348008 0 -0.13398515235888339 0.40371564514020769 0 -0.12997925716256209 0.39431640422262348 0 -0.13398515235888339 0.40371564514020769 0 -0.12997925716256209 0.39431640422262348 0 -0.1429432129120235 0.39820684686647628 0 -0.13820848934052041 0.41088683445876423 0 -0.13398515235888339 0.40371564514020769 0 -0.1429432129120235 0.39820684686647628 0 -0.12997925716256209 0.39431640422262348 0 -0.14074253368576661 0.38200722200303072 0 -0.12523428666698541 0.37069662222368049 0 -0.12997925716256209 0.39431640422262348 0 -0.12523428666698541 0.37069662222368049 0 -0.12103247972044499 0.39311621374447298 0 -0.14074253368576661 0.38200722200303072 0 -0.15169756500005979 0.38990146883471011 0 -0.1429432129120235 0.39820684686647628 0 -0.14074253368576661 0.38200722200303072 0 -0.1532541744773912 0.375434017343177 0 -0.15169756500005979 0.38990146883471011 0 -0.15169756500005979 0.38990146883471011 0 -0.1556916669008335 0.40278409093046019 0 -0.1429432129120235 0.39820684686647628 0 -0.14768726638806501 0.40958107086639878 0 -0.1556916669008335 0.40278409093046019 0 -0.1429432129120235 0.39820684686647628 0 -0.14768726638806501 0.40958107086639878 0 -0.13820848934052041 0.41088683445876423 0 -0.1429432129120235 0.39820684686647628 0 -0.14407255521749979 0.34403263722221961 0 -0.15504053286571459 0.3545366000593369 0 -0.14129669608781389 0.36249735492572199 0 -0.14407255521749979 0.34403263722221961 0 -0.15504053286571459 0.3545366000593369 0 -0.1549481930100888 0.34056708499864929 0 -0.14074253368576661 0.38200722200303072 0 -0.1532541744773912 0.375434017343177 0 -0.14129669608781389 0.36249735492572199 0 -0.1532541744773912 0.375434017343177 0 -0.15504053286571459 0.3545366000593369 0 -0.14129669608781389 0.36249735492572199 0 -0.14129669608781389 0.36249735492572199 0 -0.12523428666698541 0.37069662222368049 0 -0.1294360936135257 0.3482770307028879 0 -0.12523428666698541 0.37069662222368049 0 -0.1294360936135257 0.3482770307028879 0 -0.14074253368576661 0.38200722200303072 0 -0.14129669608781389 0.36249735492572199 0 -0.12523428666698541 0.37069662222368049 0 -0.14407255521749979 0.34403263722221961 0 -0.14129669608781389 0.36249735492572199 0 -0.1294360936135257 0.3482770307028879 0 -0.1294360936135257 0.3482770307028879 0 -0.13363790056006589 0.32585743918209531 0 -0.14407255521749979 0.34403263722221961 0 -0.1294360936135257 0.3482770307028879 0 -0.13363790056006589 0.32585743918209531 0 -0.1294360936135257 0.3482770307028879 0 -0.13363790056006589 0.32585743918209531 0 -0.1154499742120704 0.34086754873962172 0 -0.12722248981549561 0.3181430308760943 0 -0.13363790056006589 0.32585743918209531 0 -0.1360408951285694 0.3130357752318072 0 -0.12722248981549561 0.3181430308760943 0 -0.1360408951285694 0.3130357752318072 0 -0.12136448477009221 0.30951812845445109 0 -0.12722248981549561 0.3181430308760943 0 -0.13363790056006589 0.32585743918209531 0 -0.12142985306419619 0.32461006626398298 0 -0.13363790056006589 0.32585743918209531 0 -0.12142985306419619 0.32461006626398298 0 -0.13363790056006589 0.32585743918209531 0 -0.1360408951285694 0.3130357752318072 0 -0.14290423209994971 0.32095809222069871 0 -0.13363790056006589 0.32585743918209531 0 -0.1360408951285694 0.3130357752318072 0 -0.14290423209994971 0.32095809222069871 0 -0.1532404752523272 0.32269894785805692 0 -0.1464174014568787 0.29836992735667278 0 -0.13363790056006589 0.32585743918209531 0 -0.14290423209994971 0.32095809222069871 0 -0.15729966860100811 0.32827511069417059 0 -0.13363790056006589 0.32585743918209531 0 -0.15729966860100811 0.32827511069417059 0 -0.14290423209994971 0.32095809222069871 0 -0.1532404752523272 0.32269894785805692 0 -0.15729966860100811 0.32827511069417059 0 -0.1532404752523272 0.32269894785805692 0 -0.15943794807189979 0.31595908059817063 0 -0.1547819877644892 0.3091453549012102 0 -0.14407255521749979 0.34403263722221961 0 -0.13363790056006589 0.32585743918209531 0 -0.14748957934716561 0.33468306802428371 0 -0.13363790056006589 0.32585743918209531 0 -0.14748957934716561 0.33468306802428371 0 -0.15729966860100811 0.32827511069417059 0 -0.14748957934716561 0.33468306802428371 0 -0.1549481930100888 0.34056708499864929 0 -0.15729966860100811 0.32827511069417059 0 -0.14407255521749979 0.34403263722221961 0 -0.14748957934716561 0.33468306802428371 0 -0.1549481930100888 0.34056708499864929 0 -0.15729966860100811 0.32827511069417059 0 -0.18096143664194889 0.33069278220625808 0 -0.1549481930100888 0.34056708499864929 0 -0.15729966860100811 0.32827511069417059 0 -0.16781010436956259 0.34240718275037813 0 -0.15729966860100811 0.32827511069417059 0 -0.16781010436956259 0.34240718275037813 0 -0.18096143664194889 0.33069278220625808 0 -0.15729966860100811 0.32827511069417059 0 -0.17028988351433311 0.32233995817617028 0 -0.18096143664194889 0.33069278220625808 0 -0.15943794807189979 0.31595908059817063 0 -0.16495134068588049 0.31685297469802859 0 -0.1638395481514221 0.30983277085387728 0 -0.1532404752523272 0.32269894785805692 0 -0.15943794807189979 0.31595908059817063 0 -0.16037638850537991 0.32126535467967993 0 -0.15943794807189979 0.31595908059817063 0 -0.16037638850537991 0.32126535467967993 0 -0.16495134068588049 0.31685297469802859 0 -0.15729966860100811 0.32827511069417059 0 -0.16037638850537991 0.32126535467967993 0 -0.17028988351433311 0.32233995817617028 0 -0.1532404752523272 0.32269894785805692 0 -0.15729966860100811 0.32827511069417059 0 -0.16037638850537991 0.32126535467967993 0 -0.16495134068588049 0.31685297469802859 0 -0.17285953122972289 0.31090601179704258 0 -0.1638395481514221 0.30983277085387728 0 -0.17028988351433311 0.32233995817617028 0 -0.16495134068588049 0.31685297469802859 0 -0.17285953122972289 0.31090601179704258 0 -0.16037638850537991 0.32126535467967993 0 -0.17028988351433311 0.32233995817617028 0 -0.16495134068588049 0.31685297469802859 0 -0.18077272512400111 0.31876138179813301 0 -0.17285953122972289 0.31090601179704258 0 -0.17028988351433311 0.32233995817617028 0 -0.18077272512400111 0.31876138179813301 0 -0.17285953122972289 0.31090601179704258 0 -0.17028988351433311 0.32233995817617028 0 -0.18077272512400111 0.31876138179813301 0 -0.18096143664194889 0.33069278220625808 0 -0.18077272512400111 0.31876138179813301 0 -0.19386790912735871 0.33176087567547108 0 -0.18077272512400111 0.31876138179813301 0 -0.18096143664194889 0.33069278220625808 0 -0.18077272512400111 0.31876138179813301 0 -0.18096143664194889 0.33069278220625808 0 -0.19386790912735871 0.33176087567547108 0 -0.18096143664194889 0.33069278220625808 0 -0.1813609546404725 0.35595255046315749 0 -0.18096143664194889 0.33069278220625808 0 -0.1813609546404725 0.35595255046315749 0 -0.19258948339875709 0.33633707034479371 0 -0.16781010436956259 0.34240718275037813 0 -0.18096143664194889 0.33069278220625808 0 -0.1813609546404725 0.35595255046315749 0 -0.18096143664194889 0.33069278220625808 0 -0.19386790912735871 0.33176087567547108 0 -0.15504053286571459 0.3545366000593369 0 -0.16781010436956259 0.34240718275037813 0 -0.1813609546404725 0.35595255046315749 0 -0.15504053286571459 0.3545366000593369 0 -0.1549481930100888 0.34056708499864929 0 -0.16781010436956259 0.34240718275037813 0 -0.1532541744773912 0.375434017343177 0 -0.15504053286571459 0.3545366000593369 0 -0.16689278400863089 0.37048631692620287 0 -0.15504053286571459 0.3545366000593369 0 -0.1813609546404725 0.35595255046315749 0 -0.16689278400863089 0.37048631692620287 0 -0.18176047263899719 0.38121231872005679 0 -0.1813609546404725 0.35595255046315749 0 -0.18176047263899719 0.38121231872005679 0 -0.1813609546404725 0.35595255046315749 0 -0.1956253707180633 0.37355818799515828 0 -0.18176047263899719 0.38121231872005679 0 -0.1813609546404725 0.35595255046315749 0 -0.16689278400863089 0.37048631692620287 0 -0.1813609546404725 0.35595255046315749 0 -0.1956253707180633 0.37355818799515828 0 -0.2000380028121157 0.35856944723279938 0 -0.1956253707180633 0.37355818799515828 0 -0.2000380028121157 0.35856944723279938 0 -0.20825127389149589 0.37038948781896619 0 -0.1813609546404725 0.35595255046315749 0 -0.1951678646333711 0.34883535218340811 0 -0.19258948339875709 0.33633707034479371 0 -0.1813609546404725 0.35595255046315749 0 -0.1951678646333711 0.34883535218340811 0 -0.2000380028121157 0.35856944723279938 0 -0.1951678646333711 0.34883535218340811 0 -0.2000380028121157 0.35856944723279938 0 -0.20668301768213909 0.34448234069288158 0 -0.20668301768213909 0.34448234069288158 0 -0.2120127789660084 0.36084248239747968 0 -0.21921666942493959 0.3569244055809645 0 -0.2000380028121157 0.35856944723279938 0 -0.20668301768213909 0.34448234069288158 0 -0.2120127789660084 0.36084248239747968 0 -0.2120127789660084 0.36084248239747968 0 -0.21921666942493959 0.3569244055809645 0 -0.20668301768213909 0.34448234069288158 0 -0.21921666942493959 0.3569244055809645 0 -0.22158808080033929 0.34557455345049992 0 -0.20668301768213909 0.34448234069288158 0 -0.21921666942493959 0.3569244055809645 0 -0.2000380028121157 0.35856944723279938 0 -0.20825127389149589 0.37038948781896619 0 -0.2120127789660084 0.36084248239747968 0 -0.2120127789660084 0.36084248239747968 0 -0.2199937556016836 0.36693485901855288 0 -0.21921666942493959 0.3569244055809645 0 -0.20825127389149589 0.37038948781896619 0 -0.2120127789660084 0.36084248239747968 0 -0.2199937556016836 0.36693485901855288 0 -0.21752164111765379 0.37637519474985792 0 -0.20825127389149589 0.37038948781896619 0 -0.2199937556016836 0.36693485901855288 0 -0.21752164111765379 0.37637519474985792 0 -0.23054114355980421 0.3681661286558337 0 -0.2199937556016836 0.36693485901855288 0 -0.23054114355980421 0.3681661286558337 0 -0.21921666942493959 0.3569244055809645 0 -0.23305195790672301 0.35812934693154008 0 -0.23054114355980421 0.3681661286558337 0 -0.2199937556016836 0.36693485901855288 0 -0.21921666942493959 0.3569244055809645 0 -0.23054114355980421 0.3681661286558337 0 -0.21921666942493959 0.3569244055809645 0 -0.21921666942493959 0.3569244055809645 0 -0.22158808080033929 0.34557455345049992 0 -0.23915963598069589 0.34607775607121571 0 -0.21921666942493959 0.3569244055809645 0 -0.23915963598069589 0.34607775607121571 0 -0.21921666942493959 0.3569244055809645 0 -0.23305195790672301 0.35812934693154008 0 -0.23915963598069589 0.34607775607121571 0 -0.23305195790672301 0.35812934693154008 0 -0.23915963598069589 0.34607775607121571 0 -0.24329038266145239 0.36134909741814653 0 -0.25407523553642281 0.3497448278934856 0 -0.23915963598069589 0.34607775607121571 0 -0.24329038266145239 0.36134909741814653 0 -0.25213085833087667 0.37355178257669552 0 -0.24000210142933509 0.37809552861286783 0 -0.24329038266145239 0.36134909741814653 0 -0.24000210142933509 0.37809552861286783 0 -0.23054114355980421 0.3681661286558337 0 -0.24329038266145239 0.36134909741814653 0 -0.23054114355980421 0.3681661286558337 0 -0.23305195790672301 0.35812934693154008 0 -0.24329038266145239 0.36134909741814653 0 -0.23582541811145999 0.32679902143390172 0 -0.24885494741763489 0.31718848033418301 0 -0.23189508169276829 0.30076725351495531 0 -0.23582541811145999 0.32679902143390172 0 -0.24885494741763489 0.31718848033418301 0 -0.24633099797708269 0.32737693631841108 0 -0.25451497659773847 0.32559442806853028 0 -0.24885494741763489 0.31718848033418301 0 -0.24633099797708269 0.32737693631841108 0 -0.24843663428782739 0.33758714710907461 0 -0.22129300011358269 0.33481371145693772 0 -0.25451497659773847 0.32559442806853028 0 -0.24633099797708269 0.32737693631841108 0 -0.24843663428782739 0.33758714710907461 0 -0.25910260253645218 0.33523110656146687 0 -0.23915963598069589 0.34607775607121571 0 -0.23582541811145999 0.32679902143390172 0 -0.24633099797708269 0.32737693631841108 0 -0.24843663428782739 0.33758714710907461 0 -0.25910260253645218 0.33523110656146687 0 -0.23915963598069589 0.34607775607121571 0 -0.24843663428782739 0.33758714710907461 0 -0.23582541811145999 0.32679902143390172 0 -0.24843663428782739 0.33758714710907461 0 -0.22129300011358269 0.33481371145693772 0 -0.23915963598069589 0.34607775607121571 0 -0.24843663428782739 0.33758714710907461 0 -0.22129300011358269 0.33481371145693772 0 -0.22158808080033929 0.34557455345049992 0 -0.23915963598069589 0.34607775607121571 0 -0.22129300011358269 0.33481371145693772 0 -0.23582541811145999 0.32679902143390172 0 -0.21954464392232159 0.31820766509236142 0 -0.23189508169276829 0.30076725351495531 0 -0.23582541811145999 0.32679902143390172 0 -0.22129300011358269 0.33481371145693772 0 -0.21954464392232159 0.31820766509236142 0 -0.21954464392232159 0.31820766509236142 0 -0.20492818889453221 0.32276220977772679 0 -0.20060783596013981 0.3076349397264902 0 -0.22129300011358269 0.33481371145693772 0 -0.21954464392232159 0.31820766509236142 0 -0.20492818889453221 0.32276220977772679 0 -0.22129300011358269 0.33481371145693772 0 -0.20492818889453221 0.32276220977772679 0 -0.19386790912735871 0.33176087567547108 0 -0.22129300011358269 0.33481371145693772 0 -0.19386790912735871 0.33176087567547108 0 -0.20668301768213909 0.34448234069288158 0 -0.22129300011358269 0.33481371145693772 0 -0.19386790912735871 0.33176087567547108 0 -0.20668301768213909 0.34448234069288158 0 -0.22158808080033929 0.34557455345049992 0 -0.22129300011358269 0.33481371145693772 0 -0.20668301768213909 0.34448234069288158 0 -0.19386790912735871 0.33176087567547108 0 -0.19258948339875709 0.33633707034479371 0 -0.20668301768213909 0.34448234069288158 0 -0.19386790912735871 0.33176087567547108 0 -0.1951678646333711 0.34883535218340811 0 -0.20668301768213909 0.34448234069288158 0 -0.19258948339875709 0.33633707034479371 0 -0.18096143664194889 0.33069278220625808 0 -0.19386790912735871 0.33176087567547108 0 -0.19258948339875709 0.33633707034479371 0 -0.19386790912735871 0.33176087567547108 0 -0.19258948339875709 0.33633707034479371 0 -0.18077272512400111 0.31876138179813301 0 -0.19386790912735871 0.33176087567547108 0 -0.20060783596013981 0.3076349397264902 0 -0.20492818889453221 0.32276220977772679 0 -0.19386790912735871 0.33176087567547108 0 -0.20060783596013981 0.3076349397264902 0 -0.19386790912735871 0.33176087567547108 0 -0.20060783596013981 0.3076349397264902 0 -0.20060783596013981 0.3076349397264902 0 -0.20734776279292019 0.28350900377750898 0 -0.23189508169276829 0.30076725351495531 0 -0.21954464392232159 0.31820766509236142 0 -0.20060783596013981 0.3076349397264902 0 -0.23189508169276829 0.30076725351495531 0 -0.20060783596013981 0.3076349397264902 0 -0.20734776279292019 0.28350900377750898 0 -0.18034630435624241 0.29180066960649809 0 -0.20734776279292019 0.28350900377750898 0 -0.19375927737912041 0.2730469699042487 0 -0.18034630435624241 0.29180066960649809 0 -0.20060783596013981 0.3076349397264902 0 -0.20734776279292019 0.28350900377750898 0 -0.20734776279292019 0.28350900377750898 0 -0.23189508169276829 0.30076725351495531 0 -0.22396762922540969 0.27514125130055722 0 -0.23189508169276829 0.30076725351495531 0 -0.2378434694439332 0.28391349183279069 0 -0.22396762922540969 0.27514125130055722 0 -0.25673188405007052 0.28646841290673969 0 -0.23189508169276829 0.30076725351495531 0 -0.2378434694439332 0.28391349183279069 0 -0.25673188405007052 0.28646841290673969 0 -0.23189508169276829 0.30076725351495531 0 -0.25505401324638421 0.30366623925853881 0 -0.25673188405007052 0.28646841290673969 0 -0.23189508169276829 0.30076725351495531 0 -0.25505401324638421 0.30366623925853881 0 -0.24885494741763489 0.31718848033418301 0 -0.23189508169276829 0.30076725351495531 0 -0.25265925142613249 0.26128234508680298 0 -0.23885305679183191 0.2684477152547543 0 -0.23951274761537589 0.2474853768326048 0 -0.23885305679183191 0.2684477152547543 0 -0.22811192938500721 0.25829645972706228 0 -0.23951274761537589 0.2474853768326048 0 -0.25621817608628389 0.2460965770837312 0 -0.25265925142613249 0.26128234508680298 0 -0.23951274761537589 0.2474853768326048 0 -0.25673188405007052 0.28646841290673969 0 -0.2378434694439332 0.28391349183279069 0 -0.23885305679183191 0.2684477152547543 0 -0.25265925142613249 0.26128234508680298 0 -0.25673188405007052 0.28646841290673969 0 -0.23885305679183191 0.2684477152547543 0 -0.23885305679183191 0.2684477152547543 0 -0.22396762922540969 0.27514125130055722 0 -0.22811192938500721 0.25829645972706228 0 -0.2378434694439332 0.28391349183279069 0 -0.23885305679183191 0.2684477152547543 0 -0.22396762922540969 0.27514125130055722 0 -0.22811192938500721 0.25829645972706228 0 -0.22371849106378741 0.2462845034026982 0 -0.23951274761537589 0.2474853768326048 0 -0.22396762922540969 0.27514125130055722 0 -0.22811192938500721 0.25829645972706228 0 -0.21408768962570049 0.25938306782852782 0 -0.22811192938500721 0.25829645972706228 0 -0.21408768962570049 0.25938306782852782 0 -0.22371849106378741 0.2462845034026982 0 -0.21408768962570049 0.25938306782852782 0 -0.19928355658839081 0.25766712263582692 0 -0.2066863838603582 0.24242880758937649 0 -0.21408768962570049 0.25938306782852782 0 -0.20163280817849061 0.26608937016207479 0 -0.19928355658839081 0.25766712263582692 0 -0.20734776279292019 0.28350900377750898 0 -0.21408768962570049 0.25938306782852782 0 -0.20734776279292019 0.28350900377750898 0 -0.22396762922540969 0.27514125130055722 0 -0.21408768962570049 0.25938306782852782 0 -0.20734776279292019 0.28350900377750898 0 -0.21408768962570049 0.25938306782852782 0 -0.20163280817849061 0.26608937016207479 0 -0.20734776279292019 0.28350900377750898 0 -0.20163280817849061 0.26608937016207479 0 -0.19375927737912041 0.2730469699042487 0 -0.20163280817849061 0.26608937016207479 0 -0.19375927737912041 0.2730469699042487 0 -0.19160269433399771 0.26436194023610149 0 -0.19375927737912041 0.2730469699042487 0 -0.19160269433399771 0.26436194023610149 0 -0.17991988358848049 0.26483995741486333 0 -0.19928355658839081 0.25766712263582692 0 -0.18259587964237009 0.2606558300825601 0 -0.2066863838603582 0.24242880758937649 0 -0.18259587964237009 0.2606558300825601 0 -0.19333963139412971 0.24385714112684301 0 -0.19928355658839081 0.25766712263582692 0 -0.19160269433399771 0.26436194023610149 0 -0.18259587964237009 0.2606558300825601 0 -0.18259587964237009 0.2606558300825601 0 -0.2066863838603582 0.24242880758937649 0 -0.20163280817849061 0.26608937016207479 0 -0.19928355658839081 0.25766712263582692 0 -0.19160269433399771 0.26436194023610149 0 -0.17991988358848049 0.26483995741486333 0 -0.17951502337729761 0.2392424245160312 0 -0.17991988358848049 0.26483995741486333 0 -0.17042143569771079 0.26099360542817968 0 -0.17951502337729761 0.2392424245160312 0 -0.18259587964237009 0.2606558300825601 0 -0.17991988358848049 0.26483995741486333 0 -0.17951502337729761 0.2392424245160312 0 -0.19160269433399771 0.26436194023610149 0 -0.18259587964237009 0.2606558300825601 0 -0.17991988358848049 0.26483995741486333 0 -0.18259587964237009 0.2606558300825601 0 -0.17991988358848049 0.26483995741486333 0 -0.17991988358848049 0.26483995741486333 0 -0.17042143569771079 0.26099360542817968 0 -0.17716480609589361 0.26914773470870201 0 -0.17042143569771079 0.26099360542817968 0 -0.1627301728603629 0.26968240911070368 0 -0.1532221513837192 0.25419418888983192 0 -0.17042143569771079 0.26099360542817968 0 -0.1532221513837192 0.25419418888983192 0 -0.17951502337729761 0.2392424245160312 0 -0.1627301728603629 0.26968240911070368 0 -0.1620479085915319 0.28265904931380531 0 -0.15271877240598841 0.27446820953958367 0 -0.17042143569771079 0.26099360542817968 0 -0.1627301728603629 0.26968240911070368 0 -0.1699765768805111 0.26885491792894611 0 -0.1627301728603629 0.26968240911070368 0 -0.1699765768805111 0.26885491792894611 0 -0.16860704672851359 0.27535934789532951 0 -0.1627301728603629 0.26968240911070368 0 -0.16860704672851359 0.27535934789532951 0 -0.1620479085915319 0.28265904931380531 0 -0.16860704672851359 0.27535934789532951 0 -0.17077339862397739 0.28423195702734899 0 -0.1620479085915319 0.28265904931380531 0 -0.17991988358848049 0.26483995741486333 0 -0.18034630435624241 0.29180066960649809 0 -0.17991988358848049 0.26483995741486333 0 -0.17716480609589361 0.26914773470870201 0 -0.18034630435624241 0.29180066960649809 0 -0.16860704672851359 0.27535934789532951 0 -0.17716480609589361 0.26914773470870201 0 -0.17077339862397739 0.28423195702734899 0 -0.19375927737912041 0.2730469699042487 0 -0.17991988358848049 0.26483995741486333 0 -0.18034630435624241 0.29180066960649809 0 -0.17042143569771079 0.26099360542817968 0 -0.1699765768805111 0.26885491792894611 0 -0.17716480609589361 0.26914773470870201 0 -0.1699765768805111 0.26885491792894611 0 -0.16860704672851359 0.27535934789532951 0 -0.17716480609589361 0.26914773470870201 0 -0.17991988358848049 0.26483995741486333 0 -0.17716480609589361 0.26914773470870201 0 -0.17716480609589361 0.26914773470870201 0 -0.18034630435624241 0.29180066960649809 0 -0.17077339862397739 0.28423195702734899 0 -0.18034630435624241 0.29180066960649809 0 -0.16501618616712291 0.29775164083812761 0 -0.17077339862397739 0.28423195702734899 0 -0.18077272512400111 0.31876138179813301 0 -0.18034630435624241 0.29180066960649809 0 -0.18077272512400111 0.31876138179813301 0 -0.18034630435624241 0.29180066960649809 0 -0.17285953122972289 0.31090601179704258 0 -0.18034630435624241 0.29180066960649809 0 -0.17285953122972289 0.31090601179704258 0 -0.16501618616712291 0.29775164083812761 0 -0.18077272512400111 0.31876138179813301 0 -0.20060783596013981 0.3076349397264902 0 -0.18034630435624241 0.29180066960649809 0 -0.16501618616712291 0.29775164083812761 0 -0.15329008091572741 0.28945008379417048 0 -0.1547819877644892 0.3091453549012102 0 -0.17285953122972289 0.31090601179704258 0 -0.16501618616712291 0.29775164083812761 0 -0.1638395481514221 0.30983277085387728 0 -0.16501618616712291 0.29775164083812761 0 -0.1638395481514221 0.30983277085387728 0 -0.1547819877644892 0.3091453549012102 0 -0.15943794807189979 0.31595908059817063 0 -0.1638395481514221 0.30983277085387728 0 -0.1547819877644892 0.3091453549012102 0 -0.16501618616712291 0.29775164083812761 0 -0.17077339862397739 0.28423195702734899 0 -0.1620479085915319 0.28265904931380531 0 -0.16501618616712291 0.29775164083812761 0 -0.1620479085915319 0.28265904931380531 0 -0.15329008091572741 0.28945008379417048 0 -0.1464174014568787 0.29836992735667278 0 -0.13959432766143021 0.2740409068552887 0 -0.1620479085915319 0.28265904931380531 0 -0.15329008091572741 0.28945008379417048 0 -0.15271877240598841 0.27446820953958367 0 -0.15329008091572741 0.28945008379417048 0 -0.1464174014568787 0.29836992735667278 0 -0.13959432766143021 0.2740409068552887 0 -0.15329008091572741 0.28945008379417048 0 -0.1464174014568787 0.29836992735667278 0 -0.1547819877644892 0.3091453549012102 0 -0.1532404752523272 0.32269894785805692 0 -0.1464174014568787 0.29836992735667278 0 -0.1360408951285694 0.3130357752318072 0 -0.14290423209994971 0.32095809222069871 0 -0.1464174014568787 0.29836992735667278 0 -0.1532404752523272 0.32269894785805692 0 -0.1464174014568787 0.29836992735667278 0 -0.1547819877644892 0.3091453549012102 0 -0.1360408951285694 0.3130357752318072 0 -0.1264253840414637 0.29528772621663357 0 -0.12136448477009221 0.30951812845445109 0 -0.1360408951285694 0.3130357752318072 0 -0.1464174014568787 0.29836992735667278 0 -0.1264253840414637 0.29528772621663357 0 -0.1464174014568787 0.29836992735667278 0 -0.1264253840414637 0.29528772621663357 0 -0.13959432766143021 0.2740409068552887 0 -0.1264253840414637 0.29528772621663357 0 -0.13959432766143021 0.2740409068552887 0 -0.1185373796182298 0.27837978510360878 0 -0.13959432766143021 0.2740409068552887 0 -0.1327712538659816 0.24971188635390451 0 -0.13959432766143021 0.2740409068552887 0 -0.116744543106582 0.25728181003509248 0 -0.1327712538659816 0.24971188635390451 0 -0.13959432766143021 0.2740409068552887 0 -0.1532221513837192 0.25419418888983192 0 -0.1327712538659816 0.24971188635390451 0 -0.1627301728603629 0.26968240911070368 0 -0.1532221513837192 0.25419418888983192 0 -0.15271877240598841 0.27446820953958367 0 -0.13959432766143021 0.2740409068552887 0 -0.1532221513837192 0.25419418888983192 0 -0.15271877240598841 0.27446820953958367 0 -0.15329008091572741 0.28945008379417048 0 -0.13959432766143021 0.2740409068552887 0 -0.15271877240598841 0.27446820953958367 0 -0.1061606963602142 0.26761343855331338 0 -0.1001789302111205 0.27974269320078388 0 -0.1185373796182298 0.27837978510360878 0 -0.1061606963602142 0.26761343855331338 0 -0.1001789302111205 0.27974269320078388 0 -0.092613028744971265 0.26767711662392979 0 -0.1061606963602142 0.26761343855331338 0 -0.10005120432924321 0.25626016583208688 0 -0.116744543106582 0.25728181003509248 0 -0.1061606963602142 0.26761343855331338 0 -0.10005120432924321 0.25626016583208688 0 -0.092613028744971265 0.26767711662392979 0 -0.10005120432924321 0.25626016583208688 0 -0.116744543106582 0.25728181003509248 0 -0.1045487088169635 0.24438495162540061 0 -0.13959432766143021 0.2740409068552887 0 -0.116744543106582 0.25728181003509248 0 -0.1185373796182298 0.27837978510360878 0 -0.1061606963602142 0.26761343855331338 0 -0.116744543106582 0.25728181003509248 0 -0.1185373796182298 0.27837978510360878 0 -0.1264253840414637 0.29528772621663357 0 -0.1127724140037699 0.30190213115774378 0 -0.1091517300735869 0.29135078386346752 0 -0.1264253840414637 0.29528772621663357 0 -0.1185373796182298 0.27837978510360878 0 -0.1091517300735869 0.29135078386346752 0 -0.1264253840414637 0.29528772621663357 0 -0.12136448477009221 0.30951812845445109 0 -0.1127724140037699 0.30190213115774378 0 -0.12136448477009221 0.30951812845445109 0 -0.1127724140037699 0.30190213115774378 0 -0.1061991548417472 0.31213959050036899 0 -0.1127724140037699 0.30190213115774378 0 -0.1061991548417472 0.31213959050036899 0 -0.1005146973405663 0.30141191014932889 0 -0.1127724140037699 0.30190213115774378 0 -0.1005146973405663 0.30141191014932889 0 -0.1091517300735869 0.29135078386346752 0 -0.1005146973405663 0.30141191014932889 0 -0.094430836728355921 0.29177030977787999 0 -0.089068024122243669 0.30112896568664949 0 -0.1061991548417472 0.31213959050036899 0 -0.1005146973405663 0.30141191014932889 0 -0.090928135519314904 0.31087631578889069 0 -0.1001789302111205 0.27974269320078388 0 -0.1185373796182298 0.27837978510360878 0 -0.1091517300735869 0.29135078386346752 0 -0.1005146973405663 0.30141191014932889 0 -0.1091517300735869 0.29135078386346752 0 -0.094430836728355921 0.29177030977787999 0 -0.1001789302111205 0.27974269320078388 0 -0.1091517300735869 0.29135078386346752 0 -0.094430836728355921 0.29177030977787999 0 -0.1001789302111205 0.27974269320078388 0 -0.094430836728355921 0.29177030977787999 0 -0.086145563619835275 0.2816538088019015 0 -0.094430836728355921 0.29177030977787999 0 -0.086145563619835275 0.2816538088019015 0 -0.081526075002782958 0.29533369696514911 0 -0.094430836728355921 0.29177030977787999 0 -0.081526075002782958 0.29533369696514911 0 -0.089068024122243669 0.30112896568664949 0 -0.086145563619835275 0.2816538088019015 0 -0.081526075002782958 0.29533369696514911 0 -0.070830210313899522 0.29195808219782299 0 -0.090928135519314904 0.31087631578889069 0 -0.079482369404140468 0.30560554845979909 0 -0.074915307566508993 0.31649039264194578 0 -0.090928135519314904 0.31087631578889069 0 -0.089068024122243669 0.30112896568664949 0 -0.079482369404140468 0.30560554845979909 0 -0.1005146973405663 0.30141191014932889 0 -0.090928135519314904 0.31087631578889069 0 -0.089068024122243669 0.30112896568664949 0 -0.081526075002782958 0.29533369696514911 0 -0.089068024122243669 0.30112896568664949 0 -0.079482369404140468 0.30560554845979909 0 -0.054647974243728172 0.30430181459310768 0 -0.074915307566508993 0.31649039264194578 0 -0.079482369404140468 0.30560554845979909 0 -0.068661557073843291 0.3005821027458685 0 -0.074915307566508993 0.31649039264194578 0 -0.068661557073843291 0.3005821027458685 0 -0.054647974243728172 0.30430181459310768 0 -0.074915307566508993 0.31649039264194578 0 -0.081526075002782958 0.29533369696514911 0 -0.079482369404140468 0.30560554845979909 0 -0.068661557073843291 0.3005821027458685 0 -0.070830210313899522 0.29195808219782299 0 -0.067453711470644842 0.27023673344429472 0 -0.052574645638654917 0.28480468584225688 0 -0.081526075002782958 0.29533369696514911 0 -0.068661557073843291 0.3005821027458685 0 -0.070830210313899522 0.29195808219782299 0 -0.068661557073843291 0.3005821027458685 0 -0.070830210313899522 0.29195808219782299 0 -0.068661557073843291 0.3005821027458685 0 -0.070830210313899522 0.29195808219782299 0 -0.059610011597539182 0.29372125904316332 0 -0.086145563619835275 0.2816538088019015 0 -0.070830210313899522 0.29195808219782299 0 -0.077256670317037021 0.26667642926106078 0 -0.070830210313899522 0.29195808219782299 0 -0.067453711470644842 0.27023673344429472 0 -0.070830210313899522 0.29195808219782299 0 -0.077256670317037021 0.26667642926106078 0 -0.070830210313899522 0.29195808219782299 0 -0.067453711470644842 0.27023673344429472 0 -0.077256670317037021 0.26667642926106078 0 -0.086145563619835275 0.2816538088019015 0 -0.077256670317037021 0.26667642926106078 0 -0.092613028744971265 0.26767711662392979 0 -0.1001789302111205 0.27974269320078388 0 -0.086145563619835275 0.2816538088019015 0 -0.092613028744971265 0.26767711662392979 0 -0.077256670317037021 0.26667642926106078 0 -0.086302411784292182 0.25447467192259482 0 -0.083666647235009842 0.24139059785004849 0 -0.077256670317037021 0.26667642926106078 0 -0.083666647235009842 0.24139059785004849 0 -0.10005120432924321 0.25626016583208688 0 -0.086302411784292182 0.25447467192259482 0 -0.094679029848152713 0.24609146959404629 0 -0.10005120432924321 0.25626016583208688 0 -0.092613028744971265 0.26767711662392979 0 -0.086302411784292182 0.25447467192259482 0 -0.077256670317037021 0.26667642926106078 0 -0.092613028744971265 0.26767711662392979 0 -0.086302411784292182 0.25447467192259482 0 -0.077256670317037021 0.26667642926106078 0 -0.064077212627390134 0.24851538469076631 0 -0.083666647235009842 0.24139059785004849 0 -0.067453711470644842 0.27023673344429472 0 -0.077256670317037021 0.26667642926106078 0 -0.064077212627390134 0.24851538469076631 0 -0.067453711470644842 0.27023673344429472 0 -0.064077212627390134 0.24851538469076631 0 -0.067453711470644842 0.27023673344429472 0 -0.04634179854296408 0.26632715615711849 0 -0.064077212627390134 0.24851538469076631 0 -0.04634179854296408 0.26632715615711849 0 -0.064077212627390134 0.24851538469076631 0 -0.046578861792199937 0.24361118962503389 0 -0.067453711470644842 0.27023673344429472 0 -0.04634179854296408 0.26632715615711849 0 -0.052574645638654917 0.28480468584225688 0 -0.04634179854296408 0.26632715615711849 0 -0.034380640920947357 0.29211323654426968 0 -0.052574645638654917 0.28480468584225688 0 -0.04634179854296408 0.26632715615711849 0 -0.022607631921228569 0.27169805167723737 0 -0.034380640920947357 0.29211323654426968 0 -0.04634179854296408 0.26632715615711849 0 -0.03068766995985707 0.25286978792993342 0 -0.022607631921228569 0.27169805167723737 0 -0.04634179854296408 0.26632715615711849 0 -0.03068766995985707 0.25286978792993342 0 -0.046578861792199937 0.24361118962503389 0 -0.03068766995985707 0.25286978792993342 0 -0.022607631921228569 0.27169805167723737 0 -0.0098044441781452579 0.25473951632571468 0 -0.022607631921228569 0.27169805167723737 0 -0.015153941911089409 0.29208252597919021 0 3.3590645499582607e-05 0.27236849017123349 0 -0.022607631921228569 0.27169805167723737 0 -0.0098044441781452579 0.25473951632571468 0 3.3590645499582607e-05 0.27236849017123349 0 -0.0098044441781452579 0.25473951632571468 0 0.0073806355134042019 0.25529449578482938 0 3.3590645499582607e-05 0.27236849017123349 0 -0.0088759444352828343 0.31092800175718183 0 -0.015153941911089409 0.29208252597919021 0 0.0083336089875100904 0.29343585490586271 0 -0.015153941911089409 0.29208252597919021 0 0.0083336089875100904 0.29343585490586271 0 3.3590645499582607e-05 0.27236849017123349 0 -0.022607631921228569 0.27169805167723737 0 -0.015153941911089409 0.29208252597919021 0 -0.034380640920947357 0.29211323654426968 0 -0.0088759444352828343 0.31092800175718183 0 -0.015153941911089409 0.29208252597919021 0 -0.03508050583840458 0.3127012881250415 0 -0.015153941911089409 0.29208252597919021 0 -0.034380640920947357 0.29211323654426968 0 -0.03508050583840458 0.3127012881250415 0 -0.034380640920947357 0.29211323654426968 0 -0.054647974243728172 0.30430181459310768 0 -0.034380640920947357 0.29211323654426968 0 -0.054647974243728172 0.30430181459310768 0 -0.03508050583840458 0.3127012881250415 0 -0.034380640920947357 0.29211323654426968 0 -0.052574645638654917 0.28480468584225688 0 -0.054647974243728172 0.30430181459310768 0 -0.052574645638654917 0.28480468584225688 0 -0.059610011597539182 0.29372125904316332 0 -0.054647974243728172 0.30430181459310768 0 -0.070830210313899522 0.29195808219782299 0 -0.052574645638654917 0.28480468584225688 0 -0.059610011597539182 0.29372125904316332 0 -0.068661557073843291 0.3005821027458685 0 -0.059610011597539182 0.29372125904316332 0 -0.054647974243728172 0.30430181459310768 0 -0.058679851530075752 0.32054224196392622 0 -0.045885169747561752 0.33132665820789581 0 -0.073191842414501496 0.33174208285196288 0 -0.054647974243728172 0.30430181459310768 0 -0.058679851530075752 0.32054224196392622 0 -0.03508050583840458 0.3127012881250415 0 -0.045885169747561752 0.33132665820789581 0 -0.067541502003893042 0.3482616942848048 0 -0.073191842414501496 0.33174208285196288 0 -0.045885169747561752 0.33132665820789581 0 -0.073191842414501496 0.33174208285196288 0 -0.045885169747561752 0.33132665820789581 0 -0.018578497080621779 0.33091123356382868 0 -0.045885169747561752 0.33132665820789581 0 -0.03508050583840458 0.3127012881250415 0 -0.018578497080621779 0.33091123356382868 0 -0.058679851530075752 0.32054224196392622 0 -0.045885169747561752 0.33132665820789581 0 -0.03508050583840458 0.3127012881250415 0 -0.0088759444352828343 0.31092800175718183 0 -0.03508050583840458 0.3127012881250415 0 -0.018578497080621779 0.33091123356382868 0 -0.018578497080621779 0.33091123356382868 0 -0.0050552824635438226 0.34569829691311771 0 -0.02749858990914332 0.35301881799134821 0 -0.045885169747561752 0.33132665820789581 0 -0.018578497080621779 0.33091123356382868 0 -0.02749858990914332 0.35301881799134821 0 -0.018578497080621779 0.33091123356382868 0 -0.0050552824635438226 0.34569829691311771 0 0.0064742168078369342 0.3347740657525386 0 -0.018578497080621779 0.33091123356382868 0 0.0087281755863181168 0.33049580891976171 0 -0.018578497080621779 0.33091123356382868 0 0.0064742168078369342 0.3347740657525386 0 0.0087281755863181168 0.33049580891976171 0 -0.018578497080621779 0.33091123356382868 0 -0.003280447873963227 0.32161399115684158 0 0.0087281755863181168 0.33049580891976171 0 -0.0088759444352828343 0.31092800175718183 0 -0.018578497080621779 0.33091123356382868 0 -0.003280447873963227 0.32161399115684158 0 -0.0088759444352828343 0.31092800175718183 0 -0.003280447873963227 0.32161399115684158 0 0.0056044744337335906 0.31412092038659428 0 -0.0052616759920083916 0.36132776784546622 0 -0.0045342830833226501 0.3863935686212247 0 -0.0052616759920083916 0.36132776784546622 0 -0.024169526760701381 0.37267007813580277 0 -0.0045342830833226501 0.3863935686212247 0 -0.0052616759920083916 0.36132776784546622 0 -0.0045342830833226501 0.3863935686212247 0 0.0079023355216259559 0.37348921158265391 0 -0.0052616759920083916 0.36132776784546622 0 -0.0050552824635438226 0.34569829691311771 0 0.0061318462344260851 0.35417601161121459 0 -0.0052616759920083916 0.36132776784546622 0 -0.0050552824635438226 0.34569829691311771 0 -0.02749858990914332 0.35301881799134821 0 -0.02749858990914332 0.35301881799134821 0 -0.024169526760701381 0.37267007813580277 0 -0.04149310004589906 0.37124785083274592 0 -0.0052616759920083916 0.36132776784546622 0 -0.02749858990914332 0.35301881799134821 0 -0.024169526760701381 0.37267007813580277 0 -0.02749858990914332 0.35301881799134821 0 -0.04149310004589906 0.37124785083274592 0 -0.051818441616049399 0.35735321764765782 0 -0.045885169747561752 0.33132665820789581 0 -0.02749858990914332 0.35301881799134821 0 -0.051818441616049399 0.35735321764765782 0 -0.045885169747561752 0.33132665820789581 0 -0.051818441616049399 0.35735321764765782 0 -0.067541502003893042 0.3482616942848048 0 -0.04149310004589906 0.37124785083274592 0 -0.051818441616049399 0.35735321764765782 0 -0.056875823715872062 0.37631267096962301 0 -0.051818441616049399 0.35735321764765782 0 -0.069616273344600341 0.3650636543096733 0 -0.056875823715872062 0.37631267096962301 0 -0.069616273344600341 0.3650636543096733 0 -0.085055645225370236 0.37193713089684588 0 -0.071788917171084016 0.3809272333041443 0 -0.069616273344600341 0.3650636543096733 0 -0.071788917171084016 0.3809272333041443 0 -0.056875823715872062 0.37631267096962301 0 -0.069616273344600341 0.3650636543096733 0 -0.085055645225370236 0.37193713089684588 0 -0.084100884505446297 0.3554636863979832 0 -0.085055645225370236 0.37193713089684588 0 -0.084100884505446297 0.3554636863979832 0 -0.1008292236537022 0.36036332390371462 0 -0.084100884505446297 0.3554636863979832 0 -0.067541502003893042 0.3482616942848048 0 -0.085709514220790303 0.34113927750747819 0 -0.084100884505446297 0.3554636863979832 0 -0.085709514220790303 0.34113927750747819 0 -0.099722393067727538 0.34687368244968458 0 -0.069616273344600341 0.3650636543096733 0 -0.084100884505446297 0.3554636863979832 0 -0.067541502003893042 0.3482616942848048 0 -0.051818441616049399 0.35735321764765782 0 -0.069616273344600341 0.3650636543096733 0 -0.067541502003893042 0.3482616942848048 0 -0.067541502003893042 0.3482616942848048 0 -0.073191842414501496 0.33174208285196288 0 -0.085709514220790303 0.34113927750747819 0 -0.058679851530075752 0.32054224196392622 0 -0.073191842414501496 0.33174208285196288 0 -0.074915307566508993 0.31649039264194578 0 -0.054647974243728172 0.30430181459310768 0 -0.058679851530075752 0.32054224196392622 0 -0.074915307566508993 0.31649039264194578 0 -0.073191842414501496 0.33174208285196288 0 -0.074915307566508993 0.31649039264194578 0 -0.095182640889289766 0.32867897069078372 0 -0.090928135519314904 0.31087631578889069 0 -0.074915307566508993 0.31649039264194578 0 -0.095182640889289766 0.32867897069078372 0 -0.074915307566508993 0.31649039264194578 0 -0.095182640889289766 0.32867897069078372 0 -0.073191842414501496 0.33174208285196288 0 -0.085709514220790303 0.34113927750747819 0 -0.095182640889289766 0.32867897069078372 0 -0.085709514220790303 0.34113927750747819 0 -0.095182640889289766 0.32867897069078372 0 -0.099722393067727538 0.34687368244968458 0 -0.095182640889289766 0.32867897069078372 0 -0.1154499742120704 0.34086754873962172 0 -0.095182640889289766 0.32867897069078372 0 -0.1098512680755149 0.32470257897991811 0 -0.1154499742120704 0.34086754873962172 0 -0.095182640889289766 0.32867897069078372 0 -0.1154499742120704 0.34086754873962172 0 -0.099722393067727538 0.34687368244968458 0 -0.1061991548417472 0.31213959050036899 0 -0.090928135519314904 0.31087631578889069 0 -0.095182640889289766 0.32867897069078372 0 -0.1061991548417472 0.31213959050036899 0 -0.095182640889289766 0.32867897069078372 0 -0.1098512680755149 0.32470257897991811 0 -0.1061991548417472 0.31213959050036899 0 -0.115330384384618 0.31728312261503783 0 -0.1098512680755149 0.32470257897991811 0 -0.12136448477009221 0.30951812845445109 0 -0.1061991548417472 0.31213959050036899 0 -0.115330384384618 0.31728312261503783 0 -0.115330384384618 0.31728312261503783 0 -0.1098512680755149 0.32470257897991811 0 -0.12142985306419619 0.32461006626398298 0 -0.12722248981549561 0.3181430308760943 0 -0.115330384384618 0.31728312261503783 0 -0.12142985306419619 0.32461006626398298 0 -0.12722248981549561 0.3181430308760943 0 -0.12136448477009221 0.30951812845445109 0 -0.115330384384618 0.31728312261503783 0 -0.1098512680755149 0.32470257897991811 0 -0.12142985306419619 0.32461006626398298 0 -0.1154499742120704 0.34086754873962172 0 -0.13363790056006589 0.32585743918209531 0 -0.12142985306419619 0.32461006626398298 0 -0.1154499742120704 0.34086754873962172 0 -0.12523428666698541 0.37069662222368049 0 -0.1294360936135257 0.3482770307028879 0 -0.1154159689866658 0.35521970897278921 0 -0.1154499742120704 0.34086754873962172 0 -0.1154159689866658 0.35521970897278921 0 -0.099722393067727538 0.34687368244968458 0 -0.1294360936135257 0.3482770307028879 0 -0.1154499742120704 0.34086754873962172 0 -0.1154159689866658 0.35521970897278921 0 -0.12523428666698541 0.37069662222368049 0 -0.1154159689866658 0.35521970897278921 0 -0.11117961403065831 0.36839673047223442 0 -0.12523428666698541 0.37069662222368049 0 -0.11117961403065831 0.36839673047223442 0 -0.1123930043347208 0.38073562172137532 0 -0.11117961403065831 0.36839673047223442 0 -0.1008292236537022 0.36036332390371462 0 -0.09970079949094271 0.37763208900548878 0 -0.1154159689866658 0.35521970897278921 0 -0.11117961403065831 0.36839673047223442 0 -0.1008292236537022 0.36036332390371462 0 -0.085055645225370236 0.37193713089684588 0 -0.1008292236537022 0.36036332390371462 0 -0.09970079949094271 0.37763208900548878 0 -0.084100884505446297 0.3554636863979832 0 -0.1008292236537022 0.36036332390371462 0 -0.099722393067727538 0.34687368244968458 0 -0.1154159689866658 0.35521970897278921 0 -0.1008292236537022 0.36036332390371462 0 -0.099722393067727538 0.34687368244968458 0 -0.1036554482544351 0.39516830989393792 0 -0.1102807352191843 0.41378788895710661 0 -0.09259379641793411 0.40948313349934218 0 -0.1036554482544351 0.39516830989393792 0 -0.09970079949094271 0.37763208900548878 0 -0.1123930043347208 0.38073562172137532 0 -0.1036554482544351 0.39516830989393792 0 -0.09970079949094271 0.37763208900548878 0 -0.084297773186445962 0.39217279846007119 0 -0.11117961403065831 0.36839673047223442 0 -0.09970079949094271 0.37763208900548878 0 -0.1123930043347208 0.38073562172137532 0 -0.12523428666698541 0.37069662222368049 0 -0.1123930043347208 0.38073562172137532 0 -0.12103247972044499 0.39311621374447298 0 -0.1036554482544351 0.39516830989393792 0 -0.1123930043347208 0.38073562172137532 0 -0.12103247972044499 0.39311621374447298 0 -0.12523428666698541 0.37069662222368049 0 -0.12103247972044499 0.39311621374447298 0 -0.1036554482544351 0.39516830989393792 0 -0.12103247972044499 0.39311621374447298 0 -0.1102807352191843 0.41378788895710661 0 -0.12997925716256209 0.39431640422262348 0 -0.1102807352191843 0.41378788895710661 0 -0.12997925716256209 0.39431640422262348 0 -0.12103247972044499 0.39311621374447298 0 -0.1102807352191843 0.41378788895710661 0 -0.12623023605756489 0.41143854881348008 0 -0.1102807352191843 0.41378788895710661 0 -0.1242188050129694 0.42501783294758849 0 -0.12623023605756489 0.41143854881348008 0 -0.12997925716256209 0.39431640422262348 0 -0.1102807352191843 0.41378788895710661 0 -0.1102807352191843 0.41378788895710661 0 -0.1104760497445479 0.43296770510105842 0 -0.1242188050129694 0.42501783294758849 0 -0.1104760497445479 0.43296770510105842 0 -0.1242188050129694 0.42501783294758849 0 -0.1248743097581413 0.44162978393037222 0 -0.1102807352191843 0.41378788895710661 0 -0.090582213275806372 0.43325937369158968 0 -0.1102807352191843 0.41378788895710661 0 -0.1104760497445479 0.43296770510105842 0 -0.090582213275806372 0.43325937369158968 0 -0.1102807352191843 0.41378788895710661 0 -0.09259379641793411 0.40948313349934218 0 -0.090582213275806372 0.43325937369158968 0 -0.09259379641793411 0.40948313349934218 0 -0.090582213275806372 0.43325937369158968 0 -0.074152812153798875 0.41302729649400538 0 -0.090582213275806372 0.43325937369158968 0 -0.066022972602334681 0.42956105407568013 0 -0.074152812153798875 0.41302729649400538 0 -0.066022972602334681 0.42956105407568013 0 -0.074152812153798875 0.41302729649400538 0 -0.049329429094603867 0.41198700835812702 0 -0.074152812153798875 0.41302729649400538 0 -0.063154715464804681 0.39516467689365731 0 -0.084297773186445962 0.39217279846007119 0 -0.09259379641793411 0.40948313349934218 0 -0.074152812153798875 0.41302729649400538 0 -0.084297773186445962 0.39217279846007119 0 -0.1036554482544351 0.39516830989393792 0 -0.09259379641793411 0.40948313349934218 0 -0.084297773186445962 0.39217279846007119 0 -0.085055645225370236 0.37193713089684588 0 -0.09970079949094271 0.37763208900548878 0 -0.084297773186445962 0.39217279846007119 0 -0.085055645225370236 0.37193713089684588 0 -0.084297773186445962 0.39217279846007119 0 -0.071788917171084016 0.3809272333041443 0 -0.063154715464804681 0.39516467689365731 0 -0.084297773186445962 0.39217279846007119 0 -0.071788917171084016 0.3809272333041443 0 -0.063154715464804681 0.39516467689365731 0 -0.071788917171084016 0.3809272333041443 0 -0.056875823715872062 0.37631267096962301 0 -0.04149310004589906 0.37124785083274592 0 -0.056875823715872062 0.37631267096962301 0 -0.04338349465279491 0.38811939282985902 0 -0.063154715464804681 0.39516467689365731 0 -0.056875823715872062 0.37631267096962301 0 -0.04338349465279491 0.38811939282985902 0 -0.063154715464804681 0.39516467689365731 0 -0.04338349465279491 0.38811939282985902 0 -0.049329429094603867 0.41198700835812702 0 -0.04338349465279491 0.38811939282985902 0 -0.024844401122877391 0.39948633252540261 0 -0.049329429094603867 0.41198700835812702 0 -0.024169526760701381 0.37267007813580277 0 -0.04149310004589906 0.37124785083274592 0 -0.04338349465279491 0.38811939282985902 0 -0.024169526760701381 0.37267007813580277 0 -0.04338349465279491 0.38811939282985902 0 -0.024844401122877391 0.39948633252540261 0 -0.024169526760701381 0.37267007813580277 0 -0.024844401122877391 0.39948633252540261 0 -0.0045342830833226501 0.3863935686212247 0 -0.024844401122877391 0.39948633252540261 0 -0.0045342830833226501 0.3863935686212247 0 -0.0038092142255275289 0.41137928311071797 0 -0.0045342830833226501 0.3863935686212247 0 -0.0038092142255275289 0.41137928311071797 0 -0.024169526760701381 0.37267007813580277 0 -0.0045342830833226501 0.3863935686212247 0 -0.0030841453677343121 0.43636499760021141 0 -0.0038092142255275289 0.41137928311071797 0 -0.026324668085478481 0.42779129271708288 0 -0.0030841453677343121 0.43636499760021141 0 -0.0038092142255275289 0.41137928311071797 0 -0.024844401122877391 0.39948633252540261 0 -0.0038092142255275289 0.41137928311071797 0 -0.026324668085478481 0.42779129271708288 0 -0.026324668085478481 0.42779129271708288 0 -0.049329429094603867 0.41198700835812702 0 -0.049413859365407042 0.43472239834070731 0 -0.024844401122877391 0.39948633252540261 0 -0.026324668085478481 0.42779129271708288 0 -0.049329429094603867 0.41198700835812702 0 -0.074152812153798875 0.41302729649400538 0 -0.063154715464804681 0.39516467689365731 0 -0.049329429094603867 0.41198700835812702 0 -0.066022972602334681 0.42956105407568013 0 -0.049329429094603867 0.41198700835812702 0 -0.049413859365407042 0.43472239834070731 0 -0.066022972602334681 0.42956105407568013 0 -0.049413859365407042 0.43472239834070731 0 -0.0708836913324285 0.45273085842607269 0 -0.0393713920190637 0.45112048084748302 0 -0.052402143273794041 0.47435943831340011 0 -0.0708836913324285 0.45273085842607269 0 -0.049413859365407042 0.43472239834070731 0 -0.0393713920190637 0.45112048084748302 0 -0.0708836913324285 0.45273085842607269 0 -0.0393713920190637 0.45112048084748302 0 -0.02876560419008364 0.47203163756026523 0 -0.052402143273794041 0.47435943831340011 0 -0.026324668085478481 0.42779129271708288 0 -0.049413859365407042 0.43472239834070731 0 -0.0393713920190637 0.45112048084748302 0 -0.0030841453677343121 0.43636499760021141 0 -0.026324668085478481 0.42779129271708288 0 -0.01888650882967766 0.45329231687868837 0 -0.026324668085478481 0.42779129271708288 0 -0.0393713920190637 0.45112048084748302 0 -0.01888650882967766 0.45329231687868837 0 -0.0393713920190637 0.45112048084748302 0 -0.01888650882967766 0.45329231687868837 0 -0.02876560419008364 0.47203163756026523 0 -0.01888650882967766 0.45329231687868837 0 -0.01341416680576474 0.47109478045738301 0 -0.02876560419008364 0.47203163756026523 0 -0.01888650882967766 0.45329231687868837 0 -0.002359076509941094 0.46135071208970457 0 -0.01341416680576474 0.47109478045738301 0 -0.0030841453677343121 0.43636499760021141 0 -0.01888650882967766 0.45329231687868837 0 -0.002359076509941094 0.46135071208970457 0 -0.0030841453677343121 0.43636499760021141 0 -0.002359076509941094 0.46135071208970457 0 -0.0090346539348886701 0.5 0 -0.0016340076521478781 0.48633642657919801 0 -0.017460482120078509 0.48648722646036041 0 -0.0016340076521478781 0.48633642657919801 0 -0.01341416680576474 0.47109478045738301 0 -0.017460482120078509 0.48648722646036041 0 -0.002359076509941094 0.46135071208970457 0 -0.0016340076521478781 0.48633642657919801 0 -0.01341416680576474 0.47109478045738301 0 -0.002359076509941094 0.46135071208970457 0 -0.0016340076521478781 0.48633642657919801 0 -0.002359076509941094 0.46135071208970457 0 -0.0016340076521478781 0.48633642657919801 0 0.0036787250480955699 0.47408322248379448 0 -0.01341416680576474 0.47109478045738301 0 -0.02876560419008364 0.47203163756026523 0 -0.017460482120078509 0.48648722646036041 0 -0.02876560419008364 0.47203163756026523 0 -0.017460482120078509 0.48648722646036041 0 -0.038135422162237087 0.5 0 -0.0090346539348886701 0.5 0 -0.017460482120078509 0.48648722646036041 0 -0.038135422162237087 0.5 0 -0.02876560419008364 0.47203163756026523 0 -0.038135422162237087 0.5 0 -0.052402143273794041 0.47435943831340011 0 -0.038135422162237087 0.5 0 -0.052402143273794041 0.47435943831340011 0 -0.067236190389585393 0.5 0 -0.052402143273794041 0.47435943831340011 0 -0.067236190389585393 0.5 0 -0.073349005429332273 0.47921852398434828 0 -0.067236190389585393 0.5 0 -0.073349005429332273 0.47921852398434828 0 -0.096336958616933588 0.5 0 -0.073349005429332273 0.47921852398434828 0 -0.096336958616933588 0.5 0 -0.093805091172543903 0.47224368257650851 0 -0.052402143273794041 0.47435943831340011 0 -0.073349005429332273 0.47921852398434828 0 -0.0708836913324285 0.45273085842607269 0 -0.0708836913324285 0.45273085842607269 0 -0.1043361340672995 0.45358667135048331 0 -0.093805091172543903 0.47224368257650851 0 -0.090582213275806372 0.43325937369158968 0 -0.0708836913324285 0.45273085842607269 0 -0.1043361340672995 0.45358667135048331 0 -0.090582213275806372 0.43325937369158968 0 -0.066022972602334681 0.42956105407568013 0 -0.0708836913324285 0.45273085842607269 0 -0.090582213275806372 0.43325937369158968 0 -0.0708836913324285 0.45273085842607269 0 -0.073349005429332273 0.47921852398434828 0 -0.0708836913324285 0.45273085842607269 0 -0.093805091172543903 0.47224368257650851 0 -0.1043361340672995 0.45358667135048331 0 -0.12052644250191399 0.4682622397032008 0 -0.093805091172543903 0.47224368257650851 0 -0.1104760497445479 0.43296770510105842 0 -0.090582213275806372 0.43325937369158968 0 -0.1043361340672995 0.45358667135048331 0 -0.12618187852634369 0.45882241462805679 0 -0.1043361340672995 0.45358667135048331 0 -0.1248743097581413 0.44162978393037222 0 -0.1104760497445479 0.43296770510105842 0 -0.1043361340672995 0.45358667135048331 0 -0.1248743097581413 0.44162978393037222 0 -0.12618187852634369 0.45882241462805679 0 -0.1043361340672995 0.45358667135048331 0 -0.12052644250191399 0.4682622397032008 0 -0.1317912103042716 0.47600940211286807 0 -0.12052644250191399 0.4682622397032008 0 -0.11642361318749669 0.48420448820259387 0 -0.12052644250191399 0.4682622397032008 0 -0.11642361318749669 0.48420448820259387 0 -0.093805091172543903 0.47224368257650851 0 -0.12543772684428189 0.5 0 -0.11642361318749669 0.48420448820259387 0 -0.096336958616933588 0.5 0 -0.12543772684428189 0.5 0 -0.13178312884530541 0.48627570230508688 0 -0.11642361318749669 0.48420448820259387 0 -0.11642361318749669 0.48420448820259387 0 -0.096336958616933588 0.5 0 -0.093805091172543903 0.47224368257650851 0 -0.1693268494853358 0.079538523923443544 0 -0.16945340910355561 0.089496265134995978 0 -0.1618062267740645 0.07958177760614682 0 -0.16945340910355561 0.089496265134995978 0 -0.1618062267740645 0.07958177760614682 0 -0.1616157516695074 0.095139316102685473 0 -0.1618062267740645 0.07958177760614682 0 -0.1616157516695074 0.095139316102685473 0 -0.14767322655010931 0.084806545451415583 0 -0.1618062267740645 0.07958177760614682 0 -0.16640070467345031 0.07104807823334372 0 -0.15517576509654349 0.068304766057398533 0 -0.16640070467345031 0.07104807823334372 0 -0.15517576509654349 0.068304766057398533 0 -0.16451238623864939 0.061110077383343737 0 -0.16640070467345031 0.07104807823334372 0 -0.17354141001077031 0.063798093567348918 0 -0.16451238623864939 0.061110077383343737 0 -0.17157411485926041 0.074087910936242465 0 -0.16640070467345031 0.07104807823334372 0 -0.17354141001077031 0.063798093567348918 0 -0.1693268494853358 0.079538523923443544 0 -0.17157411485926041 0.074087910936242465 0 -0.16640070467345031 0.07104807823334372 0 -0.1693268494853358 0.079538523923443544 0 -0.1618062267740645 0.07958177760614682 0 -0.16640070467345031 0.07104807823334372 0 -0.17354141001077031 0.063798093567348918 0 -0.17702749526748529 0.081966948020833708 0 -0.17656426821359539 0.052679136019797047 0 -0.18185637422210199 0.067243003367259677 0 -0.17702749526748529 0.081966948020833708 0 -0.17656426821359539 0.052679136019797047 0 -0.17702749526748529 0.081966948020833708 0 -0.17656426821359539 0.052679136019797047 0 -0.17157411485926041 0.074087910936242465 0 -0.17354141001077031 0.063798093567348918 0 -0.17702749526748529 0.081966948020833708 0 -0.18185637422210199 0.067243003367259677 0 -0.1853153676200878 0.058850167416455039 0 -0.18892740292417859 0.064703221589215376 0 -0.18185637422210199 0.067243003367259677 0 -0.19050021368002351 0.072419239531055349 0 -0.18892740292417859 0.064703221589215376 0 -0.18185637422210199 0.067243003367259677 0 -0.18141962227324601 0.075216957450553817 0 -0.17702749526748529 0.081966948020833708 0 -0.18185637422210199 0.067243003367259677 0 -0.18141962227324601 0.075216957450553817 0 -0.19050021368002351 0.072419239531055349 0 -0.18141962227324601 0.075216957450553817 0 -0.1867192510276118 0.077748512173410014 0 -0.19050021368002351 0.072419239531055349 0 -0.18141962227324601 0.075216957450553817 0 -0.1867192510276118 0.077748512173410014 0 -0.1819129998543452 0.079414551687582866 0 -0.18248563084903771 0.082725789105533951 0 -0.17702749526748529 0.081966948020833708 0 -0.17749072232138041 0.1112547600218704 0 -0.1867192510276118 0.077748512173410014 0 -0.18248563084903771 0.082725789105533951 0 -0.1819129998543452 0.079414551687582866 0 -0.18141962227324601 0.075216957450553817 0 -0.1819129998543452 0.079414551687582866 0 -0.17702749526748529 0.081966948020833708 0 -0.18248563084903771 0.082725789105533951 0 -0.1819129998543452 0.079414551687582866 0 -0.17702749526748529 0.081966948020833708 0 -0.1693268494853358 0.079538523923443544 0 -0.16945340910355561 0.089496265134995978 0 -0.17702749526748529 0.081966948020833708 0 -0.1693268494853358 0.079538523923443544 0 -0.17157411485926041 0.074087910936242465 0 -0.17702749526748529 0.081966948020833708 0 -0.17702749526748529 0.081966948020833708 0 -0.17749072232138041 0.1112547600218704 0 -0.16945340910355561 0.089496265134995978 0 -0.17702749526748529 0.081966948020833708 0 -0.17749072232138041 0.1112547600218704 0 -0.17749072232138041 0.1112547600218704 0 -0.1951643137470572 0.093770439387570487 0 -0.18248563084903771 0.082725789105533951 0 -0.17749072232138041 0.1112547600218704 0 -0.1951643137470572 0.093770439387570487 0 -0.17749072232138041 0.1112547600218704 0 -0.19150979458678249 0.1243728737611647 0 -0.17789558253256721 0.1368522929207025 0 -0.17749072232138041 0.1112547600218704 0 -0.17789558253256721 0.1368522929207025 0 -0.17749072232138041 0.1112547600218704 0 -0.16113979031376621 0.12743058591966341 0 -0.17749072232138041 0.1112547600218704 0 -0.15084139672814201 0.110160429760413 0 -0.16113979031376621 0.12743058591966341 0 -0.17749072232138041 0.1112547600218704 0 -0.1616157516695074 0.095139316102685473 0 -0.15084139672814201 0.110160429760413 0 -0.16945340910355561 0.089496265134995978 0 -0.17749072232138041 0.1112547600218704 0 -0.1616157516695074 0.095139316102685473 0 -0.1616157516695074 0.095139316102685473 0 -0.15084139672814201 0.110160429760413 0 -0.14767322655010931 0.084806545451415583 0 -0.15084139672814201 0.110160429760413 0 -0.1348328660863515 0.097215266237156234 0 -0.14767322655010931 0.084806545451415583 0 -0.15084139672814201 0.110160429760413 0 -0.13137241316615089 0.11357835761918721 0 -0.14300315410871919 0.1253406317882016 0 -0.15084139672814201 0.110160429760413 0 -0.16113979031376621 0.12743058591966341 0 -0.14300315410871919 0.1253406317882016 0 -0.13137241316615089 0.11357835761918721 0 -0.14300315410871919 0.1253406317882016 0 -0.12687331202938101 0.13192737382428379 0 -0.13137241316615089 0.11357835761918721 0 -0.1348328660863515 0.097215266237156234 0 -0.1198812247159142 0.095002477965890675 0 -0.15084139672814201 0.110160429760413 0 -0.13137241316615089 0.11357835761918721 0 -0.1348328660863515 0.097215266237156234 0 -0.1348328660863515 0.097215266237156234 0 -0.12533951967512769 0.078274991835817334 0 -0.1198812247159142 0.095002477965890675 0 -0.1348328660863515 0.097215266237156234 0 -0.12533951967512769 0.078274991835817334 0 -0.14767322655010931 0.084806545451415583 0 -0.1618062267740645 0.07958177760614682 0 -0.14767322655010931 0.084806545451415583 0 -0.15517576509654349 0.068304766057398533 0 -0.14767322655010931 0.084806545451415583 0 -0.15517576509654349 0.068304766057398533 0 -0.14001017723872511 0.063978020277280875 0 -0.12533951967512769 0.078274991835817334 0 -0.14767322655010931 0.084806545451415583 0 -0.14001017723872511 0.063978020277280875 0 -0.12533951967512769 0.078274991835817334 0 -0.14001017723872511 0.063978020277280875 0 -0.1248745965026067 0.059896082918310993 0 -0.14001017723872511 0.063978020277280875 0 -0.13626681081840961 0.042829268155062397 0 -0.1248745965026067 0.059896082918310993 0 -0.13626681081840961 0.042829268155062397 0 -0.1339340902388827 0.022300844741854581 0 -0.1180188049733784 0.030804183747700629 0 -0.13626681081840961 0.042829268155062397 0 -0.1339340902388827 0.022300844741854581 0 -0.15968783393996419 0.037567277286728401 0 -0.13626681081840961 0.042829268155062397 0 -0.15351002702878311 0.053877414325468623 0 -0.15968783393996419 0.037567277286728401 0 -0.13626681081840961 0.042829268155062397 0 -0.15968783393996419 0.037567277286728401 0 -0.14001017723872511 0.063978020277280875 0 -0.13626681081840961 0.042829268155062397 0 -0.15351002702878311 0.053877414325468623 0 -0.15517576509654349 0.068304766057398533 0 -0.14001017723872511 0.063978020277280875 0 -0.15351002702878311 0.053877414325468623 0 -0.12735709500343681 0.004015926865657337 0 -0.15177498865293759 0.016606981474429749 0 -0.12735709500343681 0.004015926865657337 0 -0.1339340902388827 0.022300844741854581 0 -0.15177498865293759 0.016606981474429749 0 -0.12735709500343681 0.004015926865657337 0 -0.1339340902388827 0.022300844741854581 0 -0.11835839359799651 0.016938700943610479 0 -0.1339340902388827 0.022300844741854581 0 -0.15177498865293759 0.016606981474429749 0 -0.15968783393996419 0.037567277286728401 0 -0.1339340902388827 0.022300844741854581 0 -0.15968783393996419 0.037567277286728401 0 -0.12735709500343681 0.004015926865657337 0 -0.15177498865293759 0.016606981474429749 0 -0.14801408494475049 0.0031182785745780331 0 -0.15177498865293759 0.016606981474429749 0 -0.14801408494475049 0.0031182785745780331 0 -0.1619193683370386 0.0066468078375689294 0 -0.15773416148281841 -0.0035868741371463562 0 -0.14801408494475049 0.0031182785745780331 0 -0.1619193683370386 0.0066468078375689294 0 -0.15177498865293759 0.016606981474429749 0 -0.1619193683370386 0.0066468078375689294 0 -0.16760309597538539 0.015861310899326669 0 -0.16716832075785379 -0.0032078365625175 0 -0.1619193683370386 0.0066468078375689294 0 -0.17584419881677341 0.0071523107965592754 0 -0.1619193683370386 0.0066468078375689294 0 -0.16760309597538539 0.015861310899326669 0 -0.17584419881677341 0.0071523107965592754 0 -0.15177498865293759 0.016606981474429749 0 -0.17619288230243149 0.029198036083215671 0 -0.15177498865293759 0.016606981474429749 0 -0.17619288230243149 0.029198036083215671 0 -0.15968783393996419 0.037567277286728401 0 -0.15177498865293759 0.016606981474429749 0 -0.16760309597538539 0.015861310899326669 0 -0.17619288230243149 0.029198036083215671 0 -0.17619288230243149 0.029198036083215671 0 -0.1852069371874478 0.015311100034367831 0 -0.17584419881677341 0.0071523107965592754 0 -0.17619288230243149 0.029198036083215671 0 -0.17584419881677341 0.0071523107965592754 0 -0.16760309597538539 0.015861310899326669 0 -0.17619288230243149 0.029198036083215671 0 -0.17584419881677341 0.0071523107965592754 0 -0.17619288230243149 0.029198036083215671 0 -0.19572946351785711 0.039272048382664133 0 -0.19029700863621521 0.024089069561314659 0 -0.17619288230243149 0.029198036083215671 0 -0.1852069371874478 0.015311100034367831 0 -0.19029700863621521 0.024089069561314659 0 -0.1852069371874478 0.015311100034367831 0 -0.18717715497560061 0.0062623078557712403 0 -0.17584419881677341 0.0071523107965592754 0 -0.18154179604087481 -0.0036104187285780349 0 -0.18717715497560061 0.0062623078557712403 0 -0.17584419881677341 0.0071523107965592754 0 -0.15351002702878311 0.053877414325468623 0 -0.1659033968134131 0.050269055427132232 0 -0.15968783393996419 0.037567277286728401 0 -0.1659033968134131 0.050269055427132232 0 -0.16451238623864939 0.061110077383343737 0 -0.17656426821359539 0.052679136019797047 0 -0.17354141001077031 0.063798093567348918 0 -0.16451238623864939 0.061110077383343737 0 -0.17656426821359539 0.052679136019797047 0 -0.16451238623864939 0.061110077383343737 0 -0.17656426821359539 0.052679136019797047 0 -0.15351002702878311 0.053877414325468623 0 -0.1659033968134131 0.050269055427132232 0 -0.16451238623864939 0.061110077383343737 0 -0.15517576509654349 0.068304766057398533 0 -0.15351002702878311 0.053877414325468623 0 -0.16451238623864939 0.061110077383343737 0 -0.15968783393996419 0.037567277286728401 0 -0.1762663423330757 0.033842591165095401 0 -0.1659033968134131 0.050269055427132232 0 -0.15968783393996419 0.037567277286728401 0 -0.1764827173319595 0.047523031967639129 0 -0.17619288230243149 0.029198036083215671 0 -0.15968783393996419 0.037567277286728401 0 -0.1762663423330757 0.033842591165095401 0 -0.15968783393996419 0.037567277286728401 0 -0.1764827173319595 0.047523031967639129 0 -0.15968783393996419 0.037567277286728401 0 -0.1762663423330757 0.033842591165095401 0 -0.1764827173319595 0.047523031967639129 0 -0.17619288230243149 0.029198036083215671 0 -0.19572946351785711 0.039272048382664133 0 -0.181281627628781 0.040827380692469641 0 -0.18051660755046151 0.049914261515807259 0 -0.1764827173319595 0.047523031967639129 0 -0.17619288230243149 0.029198036083215671 0 -0.1762663423330757 0.033842591165095401 0 -0.19572946351785711 0.039272048382664133 0 -0.1762663423330757 0.033842591165095401 0 -0.181281627628781 0.040827380692469641 0 -0.19572946351785711 0.039272048382664133 0 -0.1762663423330757 0.033842591165095401 0 -0.181281627628781 0.040827380692469641 0 -0.1764827173319595 0.047523031967639129 0 -0.1762663423330757 0.033842591165095401 0 -0.1764827173319595 0.047523031967639129 0 -0.17619288230243149 0.029198036083215671 0 -0.1762663423330757 0.033842591165095401 0 -0.181281627628781 0.040827380692469641 0 -0.18051660755046151 0.049914261515807259 0 -0.19572946351785711 0.039272048382664133 0 -0.18051660755046151 0.049914261515807259 0 -0.17656426821359539 0.052679136019797047 0 -0.1853153676200878 0.058850167416455039 0 -0.18051660755046151 0.049914261515807259 0 -0.1764827173319595 0.047523031967639129 0 -0.1764827173319595 0.047523031967639129 0 -0.17656426821359539 0.052679136019797047 0 -0.1659033968134131 0.050269055427132232 0 -0.1764827173319595 0.047523031967639129 0 -0.17656426821359539 0.052679136019797047 0 -0.18051660755046151 0.049914261515807259 0 -0.1764827173319595 0.047523031967639129 0 -0.17656426821359539 0.052679136019797047 0 -0.18051660755046151 0.049914261515807259 0 -0.17656426821359539 0.052679136019797047 0 -0.18185637422210199 0.067243003367259677 0 -0.17656426821359539 0.052679136019797047 0 -0.1853153676200878 0.058850167416455039 0 -0.1853153676200878 0.058850167416455039 0 -0.19803765617450109 0.060300476042091433 0 -0.18892740292417859 0.064703221589215376 0 -0.18051660755046151 0.049914261515807259 0 -0.19803765617450109 0.060300476042091433 0 -0.1977866825790292 0.05007637869738242 0 -0.18051660755046151 0.049914261515807259 0 -0.1853153676200878 0.058850167416455039 0 -0.19803765617450109 0.060300476042091433 0 -0.18051660755046151 0.049914261515807259 0 -0.19803765617450109 0.060300476042091433 0 -0.19803765617450109 0.060300476042091433 0 -0.1977866825790292 0.05007637869738242 0 -0.2066297839190599 0.054855205218219752 0 -0.18051660755046151 0.049914261515807259 0 -0.1977866825790292 0.05007637869738242 0 -0.19572946351785711 0.039272048382664133 0 -0.18051660755046151 0.049914261515807259 0 -0.19572946351785711 0.039272048382664133 0 -0.19572946351785711 0.039272048382664133 0 -0.2098237389609823 0.029412342647955388 0 -0.1977866825790292 0.05007637869738242 0 -0.19572946351785711 0.039272048382664133 0 -0.2073344650466164 0.045256152092875389 0 -0.19572946351785711 0.039272048382664133 0 -0.2073344650466164 0.045256152092875389 0 -0.2073344650466164 0.045256152092875389 0 -0.21702036639386221 0.038769314305699548 0 -0.2098237389609823 0.029412342647955388 0 -0.19572946351785711 0.039272048382664133 0 -0.2073344650466164 0.045256152092875389 0 -0.2098237389609823 0.029412342647955388 0 -0.21702036639386221 0.038769314305699548 0 -0.2098237389609823 0.029412342647955388 0 -0.2284051488343061 0.035137669629428533 0 -0.2073344650466164 0.045256152092875389 0 -0.21702036639386221 0.038769314305699548 0 -0.22251811273354419 0.045271092852538893 0 -0.2073344650466164 0.045256152092875389 0 -0.21769334509658461 0.055951218203848879 0 -0.22251811273354419 0.045271092852538893 0 -0.21769334509658461 0.055951218203848879 0 -0.20947987249717179 0.060448397508133619 0 -0.2066297839190599 0.054855205218219752 0 -0.21769334509658461 0.055951218203848879 0 -0.20947987249717179 0.060448397508133619 0 -0.2155587047985415 0.070686690568374386 0 -0.19803765617450109 0.060300476042091433 0 -0.20947987249717179 0.060448397508133619 0 -0.2066297839190599 0.054855205218219752 0 -0.1977866825790292 0.05007637869738242 0 -0.2073344650466164 0.045256152092875389 0 -0.2066297839190599 0.054855205218219752 0 -0.2073344650466164 0.045256152092875389 0 -0.21769334509658461 0.055951218203848879 0 -0.2066297839190599 0.054855205218219752 0 -0.1989264366345522 -0.0080023544535597537 0 -0.1965234412062255 0.0098537758749781944 0 -0.20713549204565579 6.5395444916274768e-05 0 -0.19066530249761049 -0.0041303576494283751 0 -0.18717715497560061 0.0062623078557712403 0 -0.1965234412062255 0.0098537758749781944 0 -0.1852069371874478 0.015311100034367831 0 -0.18717715497560061 0.0062623078557712403 0 -0.1965234412062255 0.0098537758749781944 0 -0.1965234412062255 0.0098537758749781944 0 -0.20113962024173071 0.02227838771243261 0 -0.2107847094499361 0.011405203725301251 0 -0.19572946351785711 0.039272048382664133 0 -0.20113962024173071 0.02227838771243261 0 -0.2098237389609823 0.029412342647955388 0 -0.19572946351785711 0.039272048382664133 0 -0.20113962024173071 0.02227838771243261 0 -0.19029700863621521 0.024089069561314659 0 -0.1965234412062255 0.0098537758749781944 0 -0.20113962024173071 0.02227838771243261 0 -0.19029700863621521 0.024089069561314659 0 -0.1852069371874478 0.015311100034367831 0 -0.1965234412062255 0.0098537758749781944 0 -0.19029700863621521 0.024089069561314659 0 -0.2098237389609823 0.029412342647955388 0 -0.2107847094499361 0.011405203725301251 0 -0.22391801440410891 0.019552636913248388 0 -0.20113962024173071 0.02227838771243261 0 -0.2098237389609823 0.029412342647955388 0 -0.2107847094499361 0.011405203725301251 0 -0.2098237389609823 0.029412342647955388 0 -0.22391801440410891 0.019552636913248388 0 -0.21702438745170211 -0.0043907958627755336 0 -0.2107847094499361 0.011405203725301251 0 -0.20713549204565579 6.5395444916274768e-05 0 -0.21702438745170211 -0.0043907958627755336 0 -0.2107847094499361 0.011405203725301251 0 -0.22391801440410891 0.019552636913248388 0 -0.1965234412062255 0.0098537758749781944 0 -0.2107847094499361 0.011405203725301251 0 -0.20713549204565579 6.5395444916274768e-05 0 -0.22867745033346079 0.0038692188645070222 0 -0.22391801440410891 0.019552636913248388 0 -0.2344599051246074 0.012178015861532989 0 -0.21702438745170211 -0.0043907958627755336 0 -0.22391801440410891 0.019552636913248388 0 -0.21702438745170211 -0.0043907958627755336 0 -0.22867745033346079 0.0038692188645070222 0 -0.22391801440410891 0.019552636913248388 0 -0.22391801440410891 0.019552636913248388 0 -0.2403792472176362 0.02548084658656756 0 -0.2344599051246074 0.012178015861532989 0 -0.2098237389609823 0.029412342647955388 0 -0.22391801440410891 0.019552636913248388 0 -0.2284051488343061 0.035137669629428533 0 -0.22391801440410891 0.019552636913248388 0 -0.2403792472176362 0.02548084658656756 0 -0.2284051488343061 0.035137669629428533 0 -0.22391801440410891 0.019552636913248388 0 -0.2344599051246074 0.012178015861532989 0 -0.22391801440410891 0.019552636913248388 0 -0.2284051488343061 0.035137669629428533 0 -0.2522816967992324 0.037264740289820159 0 -0.25157722050270093 0.012682655753942951 0 -0.2403792472176362 0.02548084658656756 0 -0.25157722050270093 0.012682655753942951 0 -0.2403792472176362 0.02548084658656756 0 -0.2344599051246074 0.012178015861532989 0 -0.25267499080189931 -0.0034516002120552492 0 -0.25157722050270093 0.012682655753942951 0 -0.2401015516947359 0.00075261550232862703 0 -0.25157722050270093 0.012682655753942951 0 -0.2344599051246074 0.012178015861532989 0 -0.2401015516947359 0.00075261550232862703 0 -0.22867745033346079 0.0038692188645070222 0 -0.2344599051246074 0.012178015861532989 0 -0.2401015516947359 0.00075261550232862703 0 -0.21769334509658461 0.055951218203848879 0 -0.23255980098598539 0.056775429521547523 0 -0.2155587047985415 0.070686690568374386 0 -0.23289228326450309 0.050722702345608793 0 -0.22641588552015429 0.052180110730886013 0 -0.22251811273354419 0.045271092852538893 0 -0.23289228326450309 0.050722702345608793 0 -0.23255980098598539 0.056775429521547523 0 -0.22641588552015429 0.052180110730886013 0 -0.21769334509658461 0.055951218203848879 0 -0.23255980098598539 0.056775429521547523 0 -0.22641588552015429 0.052180110730886013 0 -0.21769334509658461 0.055951218203848879 0 -0.22641588552015429 0.052180110730886013 0 -0.22251811273354419 0.045271092852538893 0 -0.21702036639386221 0.038769314305699548 0 -0.22251811273354419 0.045271092852538893 0 -0.2284051488343061 0.035137669629428533 0 -0.23289228326450309 0.050722702345608793 0 -0.22251811273354419 0.045271092852538893 0 -0.2284051488343061 0.035137669629428533 0 -0.23289228326450309 0.050722702345608793 0 -0.2284051488343061 0.035137669629428533 0 -0.2522816967992324 0.037264740289820159 0 -0.2403792472176362 0.02548084658656756 0 -0.2284051488343061 0.035137669629428533 0 -0.2522816967992324 0.037264740289820159 0 -0.23289228326450309 0.050722702345608793 0 -0.2284051488343061 0.035137669629428533 0 -0.2522816967992324 0.037264740289820159 0 -0.23289228326450309 0.050722702345608793 0 -0.23255980098598539 0.056775429521547523 0 -0.2522816967992324 0.037264740289820159 0 -0.23255980098598539 0.056775429521547523 0 -0.2522816967992324 0.037264740289820159 0 -0.23255980098598539 0.056775429521547523 0 -0.24906194248509719 0.058488871325365822 0 -0.23255980098598539 0.056775429521547523 0 -0.24906194248509719 0.058488871325365822 0 -0.23770452364983391 0.071010308971772351 0 -0.26257114212692878 0.06573449919026883 0 -0.24906194248509719 0.058488871325365822 0 -0.23770452364983391 0.071010308971772351 0 -0.25261226255175379 0.080423606239198905 0 -0.23770452364983391 0.071010308971772351 0 -0.23158356521460469 0.085326977986282804 0 -0.25261226255175379 0.080423606239198905 0 -0.23158356521460469 0.085326977986282804 0 -0.24377998071086901 0.096378574065869249 0 -0.23158356521460469 0.085326977986282804 0 -0.21283790517273879 0.076286118753275345 0 -0.22135706029896429 0.097751395037259853 0 -0.23158356521460469 0.085326977986282804 0 -0.22135706029896429 0.097751395037259853 0 -0.24377998071086901 0.096378574065869249 0 -0.23255980098598539 0.056775429521547523 0 -0.21283790517273879 0.076286118753275345 0 -0.23770452364983391 0.071010308971772351 0 -0.23158356521460469 0.085326977986282804 0 -0.21283790517273879 0.076286118753275345 0 -0.23255980098598539 0.056775429521547523 0 -0.23770452364983391 0.071010308971772351 0 -0.21283790517273879 0.076286118753275345 0 -0.23255980098598539 0.056775429521547523 0 -0.21283790517273879 0.076286118753275345 0 -0.2155587047985415 0.070686690568374386 0 -0.23770452364983391 0.071010308971772351 0 -0.21283790517273879 0.076286118753275345 0 -0.19803765617450109 0.060300476042091433 0 -0.20947987249717179 0.060448397508133619 0 -0.2155587047985415 0.070686690568374386 0 -0.19803765617450109 0.060300476042091433 0 -0.20333782300263301 0.070680183335342567 0 -0.2155587047985415 0.070686690568374386 0 -0.19803765617450109 0.060300476042091433 0 -0.2155587047985415 0.070686690568374386 0 -0.21283790517273879 0.076286118753275345 0 -0.19766176801088831 0.079505953929404904 0 -0.20333782300263301 0.070680183335342567 0 -0.21283790517273879 0.076286118753275345 0 -0.19766176801088831 0.079505953929404904 0 -0.20333782300263301 0.070680183335342567 0 -0.21283790517273879 0.076286118753275345 0 -0.2155587047985415 0.070686690568374386 0 -0.21283790517273879 0.076286118753275345 0 -0.1951643137470572 0.093770439387570487 0 -0.22135706029896429 0.097751395037259853 0 -0.21283790517273879 0.076286118753275345 0 -0.1951643137470572 0.093770439387570487 0 -0.21283790517273879 0.076286118753275345 0 -0.19766176801088831 0.079505953929404904 0 -0.1951643137470572 0.093770439387570487 0 -0.18248563084903771 0.082725789105533951 0 -0.19766176801088831 0.079505953929404904 0 -0.1951643137470572 0.093770439387570487 0 -0.1867192510276118 0.077748512173410014 0 -0.18248563084903771 0.082725789105533951 0 -0.19766176801088831 0.079505953929404904 0 -0.18248563084903771 0.082725789105533951 0 -0.19766176801088831 0.079505953929404904 0 -0.1867192510276118 0.077748512173410014 0 -0.19766176801088831 0.079505953929404904 0 -0.19050021368002351 0.072419239531055349 0 -0.19803765617450109 0.060300476042091433 0 -0.19050021368002351 0.072419239531055349 0 -0.18892740292417859 0.064703221589215376 0 -0.19803765617450109 0.060300476042091433 0 -0.20333782300263301 0.070680183335342567 0 -0.19050021368002351 0.072419239531055349 0 -0.20333782300263301 0.070680183335342567 0 -0.19766176801088831 0.079505953929404904 0 -0.19050021368002351 0.072419239531055349 0 -0.17749072232138041 0.1112547600218704 0 -0.19150979458678249 0.1243728737611647 0 -0.1951643137470572 0.093770439387570487 0 -0.19150979458678249 0.1243728737611647 0 -0.1951643137470572 0.093770439387570487 0 -0.20994497012605751 0.11823125198409511 0 -0.1951643137470572 0.093770439387570487 0 -0.20994497012605751 0.11823125198409511 0 -0.22135706029896429 0.097751395037259853 0 -0.20994497012605751 0.11823125198409511 0 -0.2348316268224595 0.11651500804646669 0 -0.2235388627286797 0.12965651036182041 0 -0.20994497012605751 0.11823125198409511 0 -0.22135706029896429 0.097751395037259853 0 -0.2348316268224595 0.11651500804646669 0 -0.22135706029896429 0.097751395037259853 0 -0.24377998071086901 0.096378574065869249 0 -0.2348316268224595 0.11651500804646669 0 -0.25136603029008331 0.1103208693098497 0 -0.24377998071086901 0.096378574065869249 0 -0.2348316268224595 0.11651500804646669 0 -0.25922316449870308 0.12628093809151891 0 -0.25136603029008331 0.1103208693098497 0 -0.2348316268224595 0.11651500804646669 0 -0.25922316449870308 0.12628093809151891 0 -0.2348316268224595 0.11651500804646669 0 -0.2369615480924761 0.1404602413506009 0 -0.2369615480924761 0.1404602413506009 0 -0.2235388627286797 0.12965651036182041 0 -0.2124173058737257 0.14341954006611901 0 -0.2348316268224595 0.11651500804646669 0 -0.2369615480924761 0.1404602413506009 0 -0.2235388627286797 0.12965651036182041 0 -0.2369615480924761 0.1404602413506009 0 -0.22679867445049531 0.16064067306310431 0 -0.2124173058737257 0.14341954006611901 0 -0.2369615480924761 0.1404602413506009 0 -0.247018622616726 0.15992587597476091 0 -0.22679867445049531 0.16064067306310431 0 -0.25846103874104392 0.14702121199507179 0 -0.2369615480924761 0.1404602413506009 0 -0.247018622616726 0.15992587597476091 0 -0.247018622616726 0.15992587597476091 0 -0.23359887481107691 0.1809086922627815 0 -0.247018622616726 0.15992587597476091 0 -0.23359887481107691 0.1809086922627815 0 -0.22679867445049531 0.16064067306310431 0 -0.26439180367967152 0.18225540552070321 0 -0.247018622616726 0.15992587597476091 0 -0.23359887481107691 0.1809086922627815 0 -0.23359887481107691 0.1809086922627815 0 -0.20517995294037331 0.17379218369948349 0 -0.2201791270054278 0.2018915085508021 0 -0.23359887481107691 0.1809086922627815 0 -0.22679867445049531 0.16064067306310431 0 -0.20517995294037331 0.17379218369948349 0 -0.22679867445049531 0.16064067306310431 0 -0.20517995294037331 0.17379218369948349 0 -0.2124173058737257 0.14341954006611901 0 -0.20517995294037331 0.17379218369948349 0 -0.19274338499996449 0.14807478539393409 0 -0.17830044274374979 0.16244982581953471 0 -0.19150979458678249 0.1243728737611647 0 -0.19274338499996449 0.14807478539393409 0 -0.2124173058737257 0.14341954006611901 0 -0.20994497012605751 0.11823125198409511 0 -0.2235388627286797 0.12965651036182041 0 -0.2124173058737257 0.14341954006611901 0 -0.19150979458678249 0.1243728737611647 0 -0.20994497012605751 0.11823125198409511 0 -0.2124173058737257 0.14341954006611901 0 -0.20517995294037331 0.17379218369948349 0 -0.19274338499996449 0.14807478539393409 0 -0.2124173058737257 0.14341954006611901 0 -0.22371849106378741 0.2462845034026982 0 -0.23019370483249479 0.22382880503591951 0 -0.2066863838603582 0.24242880758937649 0 -0.22371849106378741 0.2462845034026982 0 -0.23951274761537589 0.2474853768326048 0 -0.23019370483249479 0.22382880503591951 0 -0.25272375818517617 0.22994970808158929 0 -0.25621817608628389 0.2460965770837312 0 -0.23951274761537589 0.2474853768326048 0 -0.25370102580463139 0.2052288024824625 0 -0.25272375818517617 0.22994970808158929 0 -0.23019370483249479 0.22382880503591951 0 -0.25272375818517617 0.22994970808158929 0 -0.23951274761537589 0.2474853768326048 0 -0.23019370483249479 0.22382880503591951 0 -0.25370102580463139 0.2052288024824625 0 -0.23359887481107691 0.1809086922627815 0 -0.2201791270054278 0.2018915085508021 0 -0.25370102580463139 0.2052288024824625 0 -0.23019370483249479 0.22382880503591951 0 -0.2201791270054278 0.2018915085508021 0 -0.23019370483249479 0.22382880503591951 0 -0.2201791270054278 0.2018915085508021 0 -0.20675937919977869 0.22287432483882261 0 -0.25370102580463139 0.2052288024824625 0 -0.23019370483249479 0.22382880503591951 0 -0.23359887481107691 0.1809086922627815 0 -0.2201791270054278 0.2018915085508021 0 -0.20517995294037331 0.17379218369948349 0 -0.2201791270054278 0.2018915085508021 0 -0.19686056424972551 0.20437535499954981 0 -0.20517995294037331 0.17379218369948349 0 -0.19686056424972551 0.20437535499954981 0 -0.17870530295493239 0.18804735871836689 0 -0.19686056424972551 0.20437535499954981 0 -0.20675937919977869 0.22287432483882261 0 -0.19122946023172571 0.22600186257262461 0 -0.19686056424972551 0.20437535499954981 0 -0.19122946023172571 0.22600186257262461 0 -0.179110163166115 0.21364489161719899 0 -0.2201791270054278 0.2018915085508021 0 -0.19686056424972551 0.20437535499954981 0 -0.20675937919977869 0.22287432483882261 0 -0.2201791270054278 0.2018915085508021 0 -0.20675937919977869 0.22287432483882261 0 -0.23019370483249479 0.22382880503591951 0 -0.2066863838603582 0.24242880758937649 0 -0.23019370483249479 0.22382880503591951 0 -0.20675937919977869 0.22287432483882261 0 -0.2066863838603582 0.24242880758937649 0 -0.20675937919977869 0.22287432483882261 0 -0.19333963139412971 0.24385714112684301 0 -0.20675937919977869 0.22287432483882261 0 -0.19122946023172571 0.22600186257262461 0 -0.19333963139412971 0.24385714112684301 0 -0.19122946023172571 0.22600186257262461 0 -0.19333963139412971 0.24385714112684301 0 -0.17951502337729761 0.2392424245160312 0 -0.20675937919977869 0.22287432483882261 0 -0.19333963139412971 0.24385714112684301 0 -0.2066863838603582 0.24242880758937649 0 -0.18259587964237009 0.2606558300825601 0 -0.19333963139412971 0.24385714112684301 0 -0.2066863838603582 0.24242880758937649 0 -0.21408768962570049 0.25938306782852782 0 -0.22371849106378741 0.2462845034026982 0 -0.2066863838603582 0.24242880758937649 0 -0.1532221513837192 0.25419418888983192 0 -0.17951502337729761 0.2392424245160312 0 -0.15110003921584569 0.22881829817408891 0 -0.18259587964237009 0.2606558300825601 0 -0.19333963139412971 0.24385714112684301 0 -0.17951502337729761 0.2392424245160312 0 -0.17951502337729761 0.2392424245160312 0 -0.1619547442009632 0.2162214427956837 0 -0.179110163166115 0.21364489161719899 0 -0.19122946023172571 0.22600186257262461 0 -0.17951502337729761 0.2392424245160312 0 -0.179110163166115 0.21364489161719899 0 -0.17951502337729761 0.2392424245160312 0 -0.179110163166115 0.21364489161719899 0 -0.17951502337729761 0.2392424245160312 0 -0.1619547442009632 0.2162214427956837 0 -0.15110003921584569 0.22881829817408891 0 -0.1619547442009632 0.2162214427956837 0 -0.179110163166115 0.21364489161719899 0 -0.17870530295493239 0.18804735871836689 0 -0.19686056424972551 0.20437535499954981 0 -0.179110163166115 0.21364489161719899 0 -0.17870530295493239 0.18804735871836689 0 -0.179110163166115 0.21364489161719899 0 -0.17870530295493239 0.18804735871836689 0 -0.1619547442009632 0.2162214427956837 0 -0.17870530295493239 0.18804735871836689 0 -0.15775407484820861 0.18727827749961631 0 -0.14804225966403101 0.20585853828705919 0 -0.15775407484820861 0.18727827749961631 0 -0.13876353146598761 0.18223131465273959 0 -0.1619547442009632 0.2162214427956837 0 -0.14804225966403101 0.20585853828705919 0 -0.15775407484820861 0.18727827749961631 0 -0.13876353146598761 0.18223131465273959 0 -0.1245765098090509 0.17966052017845999 0 -0.1190175871807343 0.20067046473278771 0 -0.14804225966403101 0.20585853828705919 0 -0.13876353146598761 0.18223131465273959 0 -0.1190175871807343 0.20067046473278771 0 -0.14804225966403101 0.20585853828705919 0 -0.13479108425045189 0.2189379304695287 0 -0.1190175871807343 0.20067046473278771 0 -0.13479108425045189 0.2189379304695287 0 -0.12594818007053379 0.2253828658525201 0 -0.1190175871807343 0.20067046473278771 0 -0.1619547442009632 0.2162214427956837 0 -0.14804225966403101 0.20585853828705919 0 -0.15110003921584569 0.22881829817408891 0 -0.14804225966403101 0.20585853828705919 0 -0.15110003921584569 0.22881829817408891 0 -0.13479108425045189 0.2189379304695287 0 -0.15110003921584569 0.22881829817408891 0 -0.13479108425045189 0.2189379304695287 0 -0.1378537507735782 0.22769286600650679 0 -0.15110003921584569 0.22881829817408891 0 -0.1378537507735782 0.22769286600650679 0 -0.13827307027013019 0.2362506378269415 0 -0.13479108425045189 0.2189379304695287 0 -0.12594818007053379 0.2253828658525201 0 -0.1378537507735782 0.22769286600650679 0 -0.12594818007053379 0.2253828658525201 0 -0.1378537507735782 0.22769286600650679 0 -0.13827307027013019 0.2362506378269415 0 -0.12594818007053379 0.2253828658525201 0 -0.13827307027013019 0.2362506378269415 0 -0.1327712538659816 0.24971188635390451 0 -0.12594818007053379 0.2253828658525201 0 -0.1327712538659816 0.24971188635390451 0 -0.1532221513837192 0.25419418888983192 0 -0.15110003921584569 0.22881829817408891 0 -0.13827307027013019 0.2362506378269415 0 -0.1532221513837192 0.25419418888983192 0 -0.13827307027013019 0.2362506378269415 0 -0.1327712538659816 0.24971188635390451 0 -0.16317411874061041 0.14897554401654969 0 -0.16113979031376621 0.12743058591966341 0 -0.1447888583061562 0.1436064118174607 0 -0.16317411874061041 0.14897554401654969 0 -0.16113979031376621 0.12743058591966341 0 -0.17789558253256721 0.1368522929207025 0 -0.17749072232138041 0.1112547600218704 0 -0.16113979031376621 0.12743058591966341 0 -0.17789558253256721 0.1368522929207025 0 -0.19150979458678249 0.1243728737611647 0 -0.19274338499996449 0.14807478539393409 0 -0.17789558253256721 0.1368522929207025 0 -0.16317411874061041 0.14897554401654969 0 -0.17789558253256721 0.1368522929207025 0 -0.17830044274374979 0.16244982581953471 0 -0.17789558253256721 0.1368522929207025 0 -0.17830044274374979 0.16244982581953471 0 -0.19274338499996449 0.14807478539393409 0 -0.17789558253256721 0.1368522929207025 0 -0.17830044274374979 0.16244982581953471 0 -0.20517995294037331 0.17379218369948349 0 -0.17870530295493239 0.18804735871836689 0 -0.17830044274374979 0.16244982581953471 0 -0.17870530295493239 0.18804735871836689 0 -0.17830044274374979 0.16244982581953471 0 -0.17870530295493239 0.18804735871836689 0 -0.17830044274374979 0.16244982581953471 0 -0.15775407484820861 0.18727827749961631 0 -0.17830044274374979 0.16244982581953471 0 -0.15775407484820861 0.18727827749961631 0 -0.15245232938168229 0.1648839185887534 0 -0.16317411874061041 0.14897554401654969 0 -0.17830044274374979 0.16244982581953471 0 -0.15245232938168229 0.1648839185887534 0 -0.15775407484820861 0.18727827749961631 0 -0.15245232938168229 0.1648839185887534 0 -0.13876353146598761 0.18223131465273959 0 -0.13876353146598761 0.18223131465273959 0 -0.12843792629854631 0.15978223771525801 0 -0.1245765098090509 0.17966052017845999 0 -0.15245232938168229 0.1648839185887534 0 -0.13876353146598761 0.18223131465273959 0 -0.12843792629854631 0.15978223771525801 0 -0.12843792629854631 0.15978223771525801 0 -0.1447888583061562 0.1436064118174607 0 -0.12843792629854631 0.15978223771525801 0 -0.1447888583061562 0.1436064118174607 0 -0.1204435081575875 0.14623213693654391 0 -0.16317411874061041 0.14897554401654969 0 -0.15245232938168229 0.1648839185887534 0 -0.1447888583061562 0.1436064118174607 0 -0.15245232938168229 0.1648839185887534 0 -0.12843792629854631 0.15978223771525801 0 -0.1447888583061562 0.1436064118174607 0 -0.16113979031376621 0.12743058591966341 0 -0.1447888583061562 0.1436064118174607 0 -0.14300315410871919 0.1253406317882016 0 -0.16113979031376621 0.12743058591966341 0 -0.1447888583061562 0.1436064118174607 0 -0.1447888583061562 0.1436064118174607 0 -0.12687331202938101 0.13192737382428379 0 -0.1204435081575875 0.14623213693654391 0 -0.1447888583061562 0.1436064118174607 0 -0.14300315410871919 0.1253406317882016 0 -0.12687331202938101 0.13192737382428379 0 -0.12687331202938101 0.13192737382428379 0 -0.1130049083687871 0.13722853083192951 0 -0.10667563132183119 0.1260080396076822 0 -0.12687331202938101 0.13192737382428379 0 -0.1130049083687871 0.13722853083192951 0 -0.1204435081575875 0.14623213693654391 0 -0.10667563132183119 0.1260080396076822 0 -0.081978849477511453 0.1384377215961772 0 -0.096577670607123245 0.1239972751083621 0 -0.10667563132183119 0.1260080396076822 0 -0.1008242758955458 0.1385116675773613 0 -0.081978849477511453 0.1384377215961772 0 -0.10667563132183119 0.1260080396076822 0 -0.081978849477511453 0.1384377215961772 0 -0.1130049083687871 0.13722853083192951 0 -0.10667563132183119 0.1260080396076822 0 -0.1008242758955458 0.1385116675773613 0 -0.1130049083687871 0.13722853083192951 0 -0.1008242758955458 0.1385116675773613 0 -0.1078791741402548 0.14587794917826699 0 -0.094422293866394627 0.1556947047027778 0 -0.094582816169344081 0.14500609667275041 0 -0.1078791741402548 0.14587794917826699 0 -0.1008242758955458 0.1385116675773613 0 -0.094582816169344081 0.14500609667275041 0 -0.1078791741402548 0.14587794917826699 0 -0.12843792629854631 0.15978223771525801 0 -0.1204435081575875 0.14623213693654391 0 -0.1073217141416921 0.15896651377475199 0 -0.1078791741402548 0.14587794917826699 0 -0.1204435081575875 0.14623213693654391 0 -0.1073217141416921 0.15896651377475199 0 -0.1130049083687871 0.13722853083192951 0 -0.1078791741402548 0.14587794917826699 0 -0.1204435081575875 0.14623213693654391 0 -0.12843792629854631 0.15978223771525801 0 -0.1245765098090509 0.17966052017845999 0 -0.1120869942909358 0.17595806361305491 0 -0.1120869942909358 0.17595806361305491 0 -0.1073217141416921 0.15896651377475199 0 -0.12843792629854631 0.15978223771525801 0 -0.1120869942909358 0.17595806361305491 0 -0.12843792629854631 0.15978223771525801 0 -0.1120869942909358 0.17595806361305491 0 -0.1073217141416921 0.15896651377475199 0 -0.1245765098090509 0.17966052017845999 0 -0.1120869942909358 0.17595806361305491 0 -0.1190175871807343 0.20067046473278771 0 -0.1120869942909358 0.17595806361305491 0 -0.1020860412129876 0.1687304780430319 0 -0.095149617161195271 0.19271405424946009 0 -0.1020860412129876 0.1687304780430319 0 -0.095149617161195271 0.19271405424946009 0 -0.1120869942909358 0.17595806361305491 0 -0.095149617161195271 0.19271405424946009 0 -0.1020860412129876 0.1687304780430319 0 -0.093279947424905002 0.17994671451597891 0 -0.095149617161195271 0.19271405424946009 0 -0.1020860412129876 0.1687304780430319 0 -0.089956478385260899 0.16811851343374709 0 -0.093279947424905002 0.17994671451597891 0 -0.094422293866394627 0.1556947047027778 0 -0.1078791741402548 0.14587794917826699 0 -0.1020860412129876 0.1687304780430319 0 -0.1078791741402548 0.14587794917826699 0 -0.1073217141416921 0.15896651377475199 0 -0.1020860412129876 0.1687304780430319 0 -0.1120869942909358 0.17595806361305491 0 -0.1073217141416921 0.15896651377475199 0 -0.1020860412129876 0.1687304780430319 0 -0.1078791741402548 0.14587794917826699 0 -0.1020860412129876 0.1687304780430319 0 -0.094422293866394627 0.1556947047027778 0 -0.1020860412129876 0.1687304780430319 0 -0.089956478385260899 0.16811851343374709 0 -0.094422293866394627 0.1556947047027778 0 -0.089956478385260899 0.16811851343374709 0 -0.084742563178951485 0.15922574422532609 0 -0.089956478385260899 0.16811851343374709 0 -0.080023232193096983 0.1657260639694961 0 -0.084742563178951485 0.15922574422532609 0 -0.089956478385260899 0.16811851343374709 0 -0.080023232193096983 0.1657260639694961 0 -0.081293191825158789 0.17801619480298669 0 -0.080023232193096983 0.1657260639694961 0 -0.084742563178951485 0.15922574422532609 0 -0.074930767296401246 0.15918989644816289 0 -0.081293191825158789 0.17801619480298669 0 -0.095149617161195271 0.19271405424946009 0 -0.073474196407973841 0.19079473501472519 0 -0.081293191825158789 0.17801619480298669 0 -0.095149617161195271 0.19271405424946009 0 -0.093279947424905002 0.17994671451597891 0 -0.081293191825158789 0.17801619480298669 0 -0.095149617161195271 0.19271405424946009 0 -0.089956478385260899 0.16811851343374709 0 -0.093279947424905002 0.17994671451597891 0 -0.081293191825158789 0.17801619480298669 0 -0.064604308801312821 0.18244611143699499 0 -0.069549912031587807 0.17131438064227461 0 -0.073474196407973841 0.19079473501472519 0 -0.081293191825158789 0.17801619480298669 0 -0.069549912031587807 0.17131438064227461 0 -0.073474196407973841 0.19079473501472519 0 -0.069549912031587807 0.17131438064227461 0 -0.073474196407973841 0.19079473501472519 0 -0.064604308801312821 0.18244611143699499 0 -0.069549912031587807 0.17131438064227461 0 -0.062041409668937363 0.1723934095439342 0 -0.084742563178951485 0.15922574422532609 0 -0.074930767296401246 0.15918989644816289 0 -0.074588176879671189 0.15080810715310269 0 -0.080023232193096983 0.1657260639694961 0 -0.074930767296401246 0.15918989644816289 0 -0.06743676648912228 0.16331833535651319 0 -0.081293191825158789 0.17801619480298669 0 -0.069549912031587807 0.17131438064227461 0 -0.06743676648912228 0.16331833535651319 0 -0.080023232193096983 0.1657260639694961 0 -0.081293191825158789 0.17801619480298669 0 -0.06743676648912228 0.16331833535651319 0 -0.081293191825158789 0.17801619480298669 0 -0.06743676648912228 0.16331833535651319 0 -0.069549912031587807 0.17131438064227461 0 -0.062031688412593149 0.16441565219234799 0 -0.062041409668937363 0.1723934095439342 0 -0.069549912031587807 0.17131438064227461 0 -0.06743676648912228 0.16331833535651319 0 -0.062031688412593149 0.16441565219234799 0 -0.06743676648912228 0.16331833535651319 0 -0.06725389334219653 0.15771987894696021 0 -0.062031688412593149 0.16441565219234799 0 -0.074930767296401246 0.15918989644816289 0 -0.06743676648912228 0.16331833535651319 0 -0.06725389334219653 0.15771987894696021 0 -0.081978849477511453 0.1384377215961772 0 -0.05728206763319247 0.1508674035846734 0 -0.06725389334219653 0.15771987894696021 0 -0.074588176879671189 0.15080810715310269 0 -0.05728206763319247 0.1508674035846734 0 -0.074588176879671189 0.15080810715310269 0 -0.081978849477511453 0.1384377215961772 0 -0.05728206763319247 0.1508674035846734 0 -0.081978849477511453 0.1384377215961772 0 -0.06070043620975589 0.134524720015781 0 -0.05728206763319247 0.1508674035846734 0 -0.074930767296401246 0.15918989644816289 0 -0.06725389334219653 0.15771987894696021 0 -0.074588176879671189 0.15080810715310269 0 -0.071786582042575819 0.1280585334591178 0 -0.081978849477511453 0.1384377215961772 0 -0.08034823769671974 0.121089655777625 0 -0.071786582042575819 0.1280585334591178 0 -0.081978849477511453 0.1384377215961772 0 -0.06070043620975589 0.134524720015781 0 -0.071786582042575819 0.1280585334591178 0 -0.06070043620975589 0.134524720015781 0 -0.06411880478631618 0.11818203644688791 0 -0.081978849477511453 0.1384377215961772 0 -0.08034823769671974 0.121089655777625 0 -0.096577670607123245 0.1239972751083621 0 -0.1008242758955458 0.1385116675773613 0 -0.094582816169344081 0.14500609667275041 0 -0.081978849477511453 0.1384377215961772 0 -0.094582816169344081 0.14500609667275041 0 -0.081978849477511453 0.1384377215961772 0 -0.0854808471676783 0.14892295327365951 0 -0.094422293866394627 0.1556947047027778 0 -0.084742563178951485 0.15922574422532609 0 -0.0854808471676783 0.14892295327365951 0 -0.094422293866394627 0.1556947047027778 0 -0.094582816169344081 0.14500609667275041 0 -0.0854808471676783 0.14892295327365951 0 -0.084742563178951485 0.15922574422532609 0 -0.074588176879671189 0.15080810715310269 0 -0.0854808471676783 0.14892295327365951 0 -0.074588176879671189 0.15080810715310269 0 -0.081978849477511453 0.1384377215961772 0 -0.0854808471676783 0.14892295327365951 0 -0.1045487088169635 0.24438495162540061 0 -0.11455994162881621 0.23631135170566109 0 -0.098826177075254387 0.23394696074010041 0 -0.10005120432924321 0.25626016583208688 0 -0.094679029848152713 0.24609146959404629 0 -0.1045487088169635 0.24438495162540061 0 -0.094679029848152713 0.24609146959404629 0 -0.1045487088169635 0.24438495162540061 0 -0.098826177075254387 0.23394696074010041 0 -0.116744543106582 0.25728181003509248 0 -0.1045487088169635 0.24438495162540061 0 -0.11455994162881621 0.23631135170566109 0 -0.116744543106582 0.25728181003509248 0 -0.1327712538659816 0.24971188635390451 0 -0.11455994162881621 0.23631135170566109 0 -0.12594818007053379 0.2253828658525201 0 -0.1327712538659816 0.24971188635390451 0 -0.11455994162881621 0.23631135170566109 0 -0.11455994162881621 0.23631135170566109 0 -0.1144435087069731 0.2232582902708152 0 -0.1063794885369051 0.22193246116811141 0 -0.12594818007053379 0.2253828658525201 0 -0.1144435087069731 0.2232582902708152 0 -0.1108864245916369 0.20940648235696879 0 -0.12594818007053379 0.2253828658525201 0 -0.11455994162881621 0.23631135170566109 0 -0.1144435087069731 0.2232582902708152 0 -0.11455994162881621 0.23631135170566109 0 -0.1063794885369051 0.22193246116811141 0 -0.098826177075254387 0.23394696074010041 0 -0.1063794885369051 0.22193246116811141 0 -0.098826177075254387 0.23394696074010041 0 -0.089950704149474564 0.21660149084549701 0 -0.1063794885369051 0.22193246116811141 0 -0.089950704149474564 0.21660149084549701 0 -0.10053720550511509 0.21148400771379949 0 -0.095149617161195271 0.19271405424946009 0 -0.089950704149474564 0.21660149084549701 0 -0.1063794885369051 0.22193246116811141 0 -0.10053720550511509 0.21148400771379949 0 -0.089950704149474564 0.21660149084549701 0 -0.10053720550511509 0.21148400771379949 0 -0.1108864245916369 0.20940648235696879 0 -0.095149617161195271 0.19271405424946009 0 -0.1063794885369051 0.22193246116811141 0 -0.10053720550511509 0.21148400771379949 0 -0.1108864245916369 0.20940648235696879 0 -0.12594818007053379 0.2253828658525201 0 -0.1190175871807343 0.20067046473278771 0 -0.12594818007053379 0.2253828658525201 0 -0.1108864245916369 0.20940648235696879 0 -0.1190175871807343 0.20067046473278771 0 -0.12594818007053379 0.2253828658525201 0 -0.1108864245916369 0.20940648235696879 0 -0.1144435087069731 0.2232582902708152 0 -0.1063794885369051 0.22193246116811141 0 -0.1108864245916369 0.20940648235696879 0 -0.1120869942909358 0.17595806361305491 0 -0.1190175871807343 0.20067046473278771 0 -0.1108864245916369 0.20940648235696879 0 -0.1190175871807343 0.20067046473278771 0 -0.10682171669235439 0.1942096232944058 0 -0.1120869942909358 0.17595806361305491 0 -0.1190175871807343 0.20067046473278771 0 -0.10682171669235439 0.1942096232944058 0 -0.1108864245916369 0.20940648235696879 0 -0.095149617161195271 0.19271405424946009 0 -0.1108864245916369 0.20940648235696879 0 -0.10682171669235439 0.1942096232944058 0 -0.095149617161195271 0.19271405424946009 0 -0.1120869942909358 0.17595806361305491 0 -0.10682171669235439 0.1942096232944058 0 -0.095149617161195271 0.19271405424946009 0 -0.095149617161195271 0.19271405424946009 0 -0.077398480784349299 0.2102750893871779 0 -0.095149617161195271 0.19271405424946009 0 -0.073474196407973841 0.19079473501472519 0 -0.077398480784349299 0.2102750893871779 0 -0.095149617161195271 0.19271405424946009 0 -0.077398480784349299 0.2102750893871779 0 -0.087241526055590657 0.20514135106535239 0 -0.073474196407973841 0.19079473501472519 0 -0.077398480784349299 0.2102750893871779 0 -0.073474196407973841 0.19079473501472519 0 -0.077398480784349299 0.2102750893871779 0 -0.068984895145132993 0.20348567813270921 0 -0.064604308801312821 0.18244611143699499 0 -0.073474196407973841 0.19079473501472519 0 -0.062951628171730722 0.19451437844324071 0 -0.073474196407973841 0.19079473501472519 0 -0.062951628171730722 0.19451437844324071 0 -0.068984895145132993 0.20348567813270921 0 -0.062951628171730722 0.19451437844324071 0 -0.068984895145132993 0.20348567813270921 0 -0.057478398324341332 0.20606456403591589 0 -0.068984895145132993 0.20348567813270921 0 -0.075683327299925024 0.21197187487555791 0 -0.057478398324341332 0.20606456403591589 0 -0.075683327299925024 0.21197187487555791 0 -0.060700713784132942 0.2267940359372384 0 -0.057478398324341332 0.20606456403591589 0 -0.075683327299925024 0.21197187487555791 0 -0.057478398324341332 0.20606456403591589 0 -0.077398480784349299 0.2102750893871779 0 -0.068984895145132993 0.20348567813270921 0 -0.075683327299925024 0.21197187487555791 0 -0.075683327299925024 0.21197187487555791 0 -0.077884159070199604 0.2126860219832131 0 -0.060700713784132942 0.2267940359372384 0 -0.075683327299925024 0.21197187487555791 0 -0.077884159070199604 0.2126860219832131 0 -0.077398480784349299 0.2102750893871779 0 -0.075683327299925024 0.21197187487555791 0 -0.077884159070199604 0.2126860219832131 0 -0.077398480784349299 0.2102750893871779 0 -0.077884159070199604 0.2126860219832131 0 -0.077398480784349299 0.2102750893871779 0 -0.075683327299925024 0.21197187487555791 0 -0.077884159070199604 0.2126860219832131 0 -0.089950704149474564 0.21660149084549701 0 -0.077884159070199604 0.2126860219832131 0 -0.087241526055590657 0.20514135106535239 0 -0.089950704149474564 0.21660149084549701 0 -0.095149617161195271 0.19271405424946009 0 -0.087241526055590657 0.20514135106535239 0 -0.089950704149474564 0.21660149084549701 0 -0.095149617161195271 0.19271405424946009 0 -0.089950704149474564 0.21660149084549701 0 -0.077398480784349299 0.2102750893871779 0 -0.077884159070199604 0.2126860219832131 0 -0.087241526055590657 0.20514135106535239 0 -0.077884159070199604 0.2126860219832131 0 -0.083666647235009842 0.24139059785004849 0 -0.089950704149474564 0.21660149084549701 0 -0.083666647235009842 0.24139059785004849 0 -0.077884159070199604 0.2126860219832131 0 -0.089950704149474564 0.21660149084549701 0 -0.083666647235009842 0.24139059785004849 0 -0.098826177075254387 0.23394696074010041 0 -0.089950704149474564 0.21660149084549701 0 -0.083666647235009842 0.24139059785004849 0 -0.077884159070199604 0.2126860219832131 0 -0.083666647235009842 0.24139059785004849 0 -0.060700713784132942 0.2267940359372384 0 -0.075683327299925024 0.21197187487555791 0 -0.060700713784132942 0.2267940359372384 0 -0.064077212627390134 0.24851538469076631 0 -0.083666647235009842 0.24139059785004849 0 -0.060700713784132942 0.2267940359372384 0 -0.086302411784292182 0.25447467192259482 0 -0.083666647235009842 0.24139059785004849 0 -0.094679029848152713 0.24609146959404629 0 -0.098826177075254387 0.23394696074010041 0 -0.083666647235009842 0.24139059785004849 0 -0.086302411784292182 0.25447467192259482 0 -0.094679029848152713 0.24609146959404629 0 -0.083666647235009842 0.24139059785004849 0 -0.03068766995985707 0.25286978792993342 0 -0.034335222642673788 0.23481172099035691 0 -0.046578861792199937 0.24361118962503389 0 -0.034335222642673788 0.23481172099035691 0 -0.046578861792199937 0.24361118962503389 0 -0.045510089746351297 0.2289623102588538 0 -0.064077212627390134 0.24851538469076631 0 -0.046578861792199937 0.24361118962503389 0 -0.055802081643016588 0.23164020743468811 0 -0.064077212627390134 0.24851538469076631 0 -0.055802081643016588 0.23164020743468811 0 -0.060700713784132942 0.2267940359372384 0 -0.064077212627390134 0.24851538469076631 0 -0.060700713784132942 0.2267940359372384 0 -0.046578861792199937 0.24361118962503389 0 -0.055802081643016588 0.23164020743468811 0 -0.045510089746351297 0.2289623102588538 0 -0.055802081643016588 0.23164020743468811 0 -0.053252725762674542 0.2222055350902031 0 -0.045510089746351297 0.2289623102588538 0 -0.055802081643016588 0.23164020743468811 0 -0.060700713784132942 0.2267940359372384 0 -0.053252725762674542 0.2222055350902031 0 -0.055802081643016588 0.23164020743468811 0 -0.060700713784132942 0.2267940359372384 0 -0.053252725762674542 0.2222055350902031 0 -0.045510089746351297 0.2289623102588538 0 -0.046772345315528908 0.21756655778431969 0 -0.045510089746351297 0.2289623102588538 0 -0.036443083940353373 0.22210497005765251 0 -0.046772345315528908 0.21756655778431969 0 -0.034335222642673788 0.23481172099035691 0 -0.045510089746351297 0.2289623102588538 0 -0.036443083940353373 0.22210497005765251 0 -0.034335222642673788 0.23481172099035691 0 -0.036443083940353373 0.22210497005765251 0 -0.024866254401544021 0.22078734426404351 0 -0.036443083940353373 0.22210497005765251 0 -0.046772345315528908 0.21756655778431969 0 -0.031637039445344017 0.19767931081015269 0 -0.046772345315528908 0.21756655778431969 0 -0.057478398324341332 0.20606456403591589 0 -0.031637039445344017 0.19767931081015269 0 -0.060700713784132942 0.2267940359372384 0 -0.053252725762674542 0.2222055350902031 0 -0.057478398324341332 0.20606456403591589 0 -0.060700713784132942 0.2267940359372384 0 -0.057478398324341332 0.20606456403591589 0 -0.053252725762674542 0.2222055350902031 0 -0.046772345315528908 0.21756655778431969 0 -0.057478398324341332 0.20606456403591589 0 -0.062951628171730722 0.19451437844324071 0 -0.057478398324341332 0.20606456403591589 0 -0.054948738746262903 0.1897910154656581 0 -0.057478398324341332 0.20606456403591589 0 -0.054948738746262903 0.1897910154656581 0 -0.031637039445344017 0.19767931081015269 0 -0.057478398324341332 0.20606456403591589 0 -0.054948738746262903 0.1897910154656581 0 -0.054948738746262903 0.1897910154656581 0 -0.031637039445344017 0.19767931081015269 0 -0.039999697082172873 0.18418677263352329 0 -0.057478398324341332 0.20606456403591589 0 -0.031637039445344017 0.19767931081015269 0 -0.031637039445344017 0.19767931081015269 0 -0.0057956805663459468 0.1892940575843915 0 -0.031637039445344017 0.19767931081015269 0 -0.0057956805663459468 0.1892940575843915 0 -0.024775833668462071 0.17590936267321361 0 -0.031637039445344017 0.19767931081015269 0 -0.0057956805663459468 0.1892940575843915 0 -0.01019634689217482 0.20814994011246479 0 -0.0057956805663459468 0.1892940575843915 0 -0.01019634689217482 0.20814994011246479 0 0.0090806704795409685 0.20996839310177981 0 -0.01019634689217482 0.20814994011246479 0 0.00014186162909880781 0.2338185852574263 0 0.0090806704795409685 0.20996839310177981 0 -0.036443083940353373 0.22210497005765251 0 -0.031637039445344017 0.19767931081015269 0 -0.024866254401544021 0.22078734426404351 0 -0.031637039445344017 0.19767931081015269 0 -0.01019634689217482 0.20814994011246479 0 -0.024866254401544021 0.22078734426404351 0 -0.034335222642673788 0.23481172099035691 0 -0.024866254401544021 0.22078734426404351 0 -0.01991034591062427 0.239405390953495 0 -0.024866254401544021 0.22078734426404351 0 0.00014186162909880781 0.2338185852574263 0 -0.024866254401544021 0.22078734426404351 0 -0.01991034591062427 0.239405390953495 0 0.00014186162909880781 0.2338185852574263 0 -0.01019634689217482 0.20814994011246479 0 -0.024866254401544021 0.22078734426404351 0 0.00014186162909880781 0.2338185852574263 0 -0.0098044441781452579 0.25473951632571468 0 0.00014186162909880781 0.2338185852574263 0 0.0073806355134042019 0.25529449578482938 0 -0.0098044441781452579 0.25473951632571468 0 -0.01991034591062427 0.239405390953495 0 0.00014186162909880781 0.2338185852574263 0 -0.03068766995985707 0.25286978792993342 0 -0.034335222642673788 0.23481172099035691 0 -0.01991034591062427 0.239405390953495 0 -0.03068766995985707 0.25286978792993342 0 -0.0098044441781452579 0.25473951632571468 0 -0.01991034591062427 0.239405390953495 0 -0.045513089216113363 0.1481501368583191 0 -0.039963318838929777 0.1583549670989208 0 -0.028048700007850699 0.14601834090005769 0 -0.045513089216113363 0.1481501368583191 0 -0.037584816749385713 0.12707105787504261 0 -0.028048700007850699 0.14601834090005769 0 -0.037584816749385713 0.12707105787504261 0 -0.028048700007850699 0.14601834090005769 0 -0.045513089216113363 0.1481501368583191 0 -0.037584816749385713 0.12707105787504261 0 -0.045513089216113363 0.1481501368583191 0 -0.037584816749385713 0.12707105787504261 0 -0.049753839012929922 0.13582205838018921 0 -0.037584816749385713 0.12707105787504261 0 -0.049753839012929922 0.13582205838018921 0 -0.051208231868337763 0.1260313133231428 0 -0.049753839012929922 0.13582205838018921 0 -0.06070043620975589 0.134524720015781 0 -0.052276118599972977 0.1457036522838337 0 -0.051208231868337763 0.1260313133231428 0 -0.06070043620975589 0.134524720015781 0 -0.06411880478631618 0.11818203644688791 0 -0.06070043620975589 0.134524720015781 0 -0.06411880478631618 0.11818203644688791 0 -0.049753839012929922 0.13582205838018921 0 -0.051208231868337763 0.1260313133231428 0 -0.06070043620975589 0.134524720015781 0 -0.06070043620975589 0.134524720015781 0 -0.052276118599972977 0.1457036522838337 0 -0.05728206763319247 0.1508674035846734 0 -0.06070043620975589 0.134524720015781 0 -0.05728206763319247 0.1508674035846734 0 -0.045513089216113363 0.1481501368583191 0 -0.049753839012929922 0.13582205838018921 0 -0.052276118599972977 0.1457036522838337 0 -0.045513089216113363 0.1481501368583191 0 -0.052276118599972977 0.1457036522838337 0 -0.053440893212920608 0.15280063427064891 0 -0.052276118599972977 0.1457036522838337 0 -0.053440893212920608 0.15280063427064891 0 -0.05728206763319247 0.1508674035846734 0 -0.053440893212920608 0.15280063427064891 0 -0.05728206763319247 0.1508674035846734 0 -0.05728206763319247 0.1508674035846734 0 -0.062031688412593149 0.16441565219234799 0 -0.053441361682841117 0.16922921584159559 0 -0.053440893212920608 0.15280063427064891 0 -0.05728206763319247 0.1508674035846734 0 -0.053441361682841117 0.16922921584159559 0 -0.045513089216113363 0.1481501368583191 0 -0.053440893212920608 0.15280063427064891 0 -0.053441361682841117 0.16922921584159559 0 -0.045513089216113363 0.1481501368583191 0 -0.053441361682841117 0.16922921584159559 0 -0.05728206763319247 0.1508674035846734 0 -0.053441361682841117 0.16922921584159559 0 -0.06725389334219653 0.15771987894696021 0 -0.05728206763319247 0.1508674035846734 0 -0.062031688412593149 0.16441565219234799 0 -0.062031688412593149 0.16441565219234799 0 -0.053441361682841117 0.16922921584159559 0 -0.062041409668937363 0.1723934095439342 0 -0.053441361682841117 0.16922921584159559 0 -0.047633738945979477 0.17108968717192211 0 -0.039963318838929777 0.1583549670989208 0 -0.052991971448818453 0.17137768000779441 0 -0.053441361682841117 0.16922921584159559 0 -0.047633738945979477 0.17108968717192211 0 -0.052991971448818453 0.17137768000779441 0 -0.053441361682841117 0.16922921584159559 0 -0.054948738746262903 0.1897910154656581 0 -0.052419079168185397 0.17351746689540021 0 -0.046888846475854867 0.17837904804597579 0 -0.062951628171730722 0.19451437844324071 0 -0.054948738746262903 0.1897910154656581 0 -0.052419079168185397 0.17351746689540021 0 -0.062951628171730722 0.19451437844324071 0 -0.052991971448818453 0.17137768000779441 0 -0.052419079168185397 0.17351746689540021 0 -0.064604308801312821 0.18244611143699499 0 -0.062951628171730722 0.19451437844324071 0 -0.053441361682841117 0.16922921584159559 0 -0.062951628171730722 0.19451437844324071 0 -0.052991971448818453 0.17137768000779441 0 -0.053441361682841117 0.16922921584159559 0 -0.054948738746262903 0.1897910154656581 0 -0.052419079168185397 0.17351746689540021 0 -0.062951628171730722 0.19451437844324071 0 -0.053441361682841117 0.16922921584159559 0 -0.064604308801312821 0.18244611143699499 0 -0.053441361682841117 0.16922921584159559 0 -0.062041409668937363 0.1723934095439342 0 -0.052991971448818453 0.17137768000779441 0 -0.047633738945979477 0.17108968717192211 0 -0.052419079168185397 0.17351746689540021 0 -0.047633738945979477 0.17108968717192211 0 -0.052419079168185397 0.17351746689540021 0 -0.046888846475854867 0.17837904804597579 0 -0.054948738746262903 0.1897910154656581 0 -0.046888846475854867 0.17837904804597579 0 -0.039999697082172873 0.18418677263352329 0 -0.031637039445344017 0.19767931081015269 0 -0.039999697082172873 0.18418677263352329 0 -0.024775833668462071 0.17590936267321361 0 -0.046888846475854867 0.17837904804597579 0 -0.039999697082172873 0.18418677263352329 0 -0.039442978436673673 0.17331029806337539 0 -0.047633738945979477 0.17108968717192211 0 -0.046888846475854867 0.17837904804597579 0 -0.039442978436673673 0.17331029806337539 0 -0.039442978436673673 0.17331029806337539 0 -0.032139483942643897 0.16694135859911591 0 -0.024775833668462071 0.17590936267321361 0 -0.039999697082172873 0.18418677263352329 0 -0.039442978436673673 0.17331029806337539 0 -0.024775833668462071 0.17590936267321361 0 -0.045513089216113363 0.1481501368583191 0 -0.053441361682841117 0.16922921584159559 0 -0.039963318838929777 0.1583549670989208 0 -0.039963318838929777 0.1583549670989208 0 -0.032139483942643897 0.16694135859911591 0 -0.02343924065842673 0.15869802647678349 0 -0.047633738945979477 0.17108968717192211 0 -0.039442978436673673 0.17331029806337539 0 -0.039963318838929777 0.1583549670989208 0 -0.039442978436673673 0.17331029806337539 0 -0.039963318838929777 0.1583549670989208 0 -0.032139483942643897 0.16694135859911591 0 -0.032139483942643897 0.16694135859911591 0 -0.02343924065842673 0.15869802647678349 0 -0.024775833668462071 0.17590936267321361 0 -0.02343924065842673 0.15869802647678349 0 -0.024775833668462071 0.17590936267321361 0 -0.0048034666842798916 0.1614245706846468 0 -0.0057956805663459468 0.1892940575843915 0 -0.024775833668462071 0.17590936267321361 0 -0.0048034666842798916 0.1614245706846468 0 -0.0048034666842798916 0.1614245706846468 0 -0.01090464080839405 0.14353955890474629 0 0.011098566836083609 0.13484946890849181 0 -0.02343924065842673 0.15869802647678349 0 -0.0048034666842798916 0.1614245706846468 0 -0.01090464080839405 0.14353955890474629 0 -0.039963318838929777 0.1583549670989208 0 -0.02343924065842673 0.15869802647678349 0 -0.028048700007850699 0.14601834090005769 0 -0.02343924065842673 0.15869802647678349 0 -0.01090464080839405 0.14353955890474629 0 -0.028048700007850699 0.14601834090005769 0 -0.037584816749385713 0.12707105787504261 0 -0.0187932077553963 0.1304023687453105 0 -0.02482114599867602 0.1199028763409456 0 -0.01090464080839405 0.14353955890474629 0 -0.028048700007850699 0.14601834090005769 0 -0.0187932077553963 0.1304023687453105 0 -0.037584816749385713 0.12707105787504261 0 -0.028048700007850699 0.14601834090005769 0 -0.0187932077553963 0.1304023687453105 0 -0.0064436606074630637 0.13109611639504981 0 -0.007175360702145514 0.1155930690216506 0 0.011098566836083609 0.13484946890849181 0 -0.01090464080839405 0.14353955890474629 0 -0.0064436606074630637 0.13109611639504981 0 0.011098566836083609 0.13484946890849181 0 -0.0187932077553963 0.1304023687453105 0 -0.0064436606074630637 0.13109611639504981 0 -0.007175360702145514 0.1155930690216506 0 -0.01090464080839405 0.14353955890474629 0 -0.0187932077553963 0.1304023687453105 0 -0.0064436606074630637 0.13109611639504981 0 -0.007175360702145514 0.1155930690216506 0 -0.0040088977147468936 0.097024336429998151 0 -0.013655752966245171 0.094180689311720855 0 -0.007175360702145514 0.1155930690216506 0 -0.0040088977147468936 0.097024336429998151 0 0.0025937760044158291 0.1064596481343341 0 -0.007175360702145514 0.1155930690216506 0 -0.013655752966245171 0.094180689311720855 0 -0.02544928824037461 0.096336669134809427 0 -0.029459919491476121 0.1011230655410132 0 -0.021580178673492881 0.1105609364200745 0 -0.037915498494119543 0.10215930426450601 0 -0.007175360702145514 0.1155930690216506 0 -0.02544928824037461 0.096336669134809427 0 -0.007175360702145514 0.1155930690216506 0 -0.02544928824037461 0.096336669134809427 0 -0.0241566231860777 0.1021061234229471 0 -0.02544928824037461 0.096336669134809427 0 -0.029459919491476121 0.1011230655410132 0 -0.035034026511796899 0.0954599165668297 0 -0.02544928824037461 0.096336669134809427 0 -0.029459919491476121 0.1011230655410132 0 -0.0241566231860777 0.1021061234229471 0 -0.02544928824037461 0.096336669134809427 0 -0.0241566231860777 0.1021061234229471 0 -0.029459919491476121 0.1011230655410132 0 -0.0241566231860777 0.1021061234229471 0 -0.021580178673492881 0.1105609364200745 0 -0.02482114599867602 0.1199028763409456 0 -0.021580178673492881 0.1105609364200745 0 -0.032585978911933711 0.11378053360982859 0 -0.007175360702145514 0.1155930690216506 0 -0.0241566231860777 0.1021061234229471 0 -0.021580178673492881 0.1105609364200745 0 -0.0187932077553963 0.1304023687453105 0 -0.007175360702145514 0.1155930690216506 0 -0.02482114599867602 0.1199028763409456 0 -0.007175360702145514 0.1155930690216506 0 -0.02482114599867602 0.1199028763409456 0 -0.021580178673492881 0.1105609364200745 0 -0.01109578586274463 0.07592966442077155 0 -0.01963881101933795 0.057650575484614511 0 -0.0089029190745683329 0.062319161291970238 0 -0.0031702267477386531 0.067180855403790804 0 -0.01109578586274463 0.07592966442077155 0 0.0065236609159091173 0.071671444604676282 0 -0.0031702267477386531 0.067180855403790804 0 -0.0089029190745683329 0.062319161291970238 0 0.00079413703044923156 0.058803151297745167 0 -0.0031702267477386531 0.067180855403790804 0 -0.01109578586274463 0.07592966442077155 0 -0.0089029190745683329 0.062319161291970238 0 -0.0040088977147468936 0.097024336429998151 0 -0.01109578586274463 0.07592966442077155 0 0.011643404763696401 0.092949868607662828 0 -0.0040088977147468936 0.097024336429998151 0 -0.013655752966245171 0.094180689311720855 0 -0.01109578586274463 0.07592966442077155 0 -0.013655752966245171 0.094180689311720855 0 -0.01109578586274463 0.07592966442077155 0 -0.02054943231121421 0.086019707551374502 0 -0.02544928824037461 0.096336669134809427 0 -0.02054943231121421 0.086019707551374502 0 -0.029642132364781061 0.077623064684345475 0 -0.02544928824037461 0.096336669134809427 0 -0.029642132364781061 0.077623064684345475 0 -0.036673455980692451 0.084509049595857907 0 -0.01109578586274463 0.07592966442077155 0 -0.02054943231121421 0.086019707551374502 0 -0.029642132364781061 0.077623064684345475 0 -0.02544928824037461 0.096336669134809427 0 -0.029642132364781061 0.077623064684345475 0 -0.013655752966245171 0.094180689311720855 0 -0.02544928824037461 0.096336669134809427 0 -0.02054943231121421 0.086019707551374502 0 -0.02544928824037461 0.096336669134809427 0 -0.036673455980692451 0.084509049595857907 0 -0.01109578586274463 0.07592966442077155 0 -0.033834976489186493 0.058909460233881362 0 -0.01109578586274463 0.07592966442077155 0 -0.029642132364781061 0.077623064684345475 0 -0.033834976489186493 0.058909460233881362 0 -0.01109578586274463 0.07592966442077155 0 -0.033834976489186493 0.058909460233881362 0 -0.01963881101933795 0.057650575484614511 0 -0.029642132364781061 0.077623064684345475 0 -0.033834976489186493 0.058909460233881362 0 -0.029642132364781061 0.077623064684345475 0 -0.036732086871232597 0.066761861307427367 0 -0.033834976489186493 0.058909460233881362 0 -0.042969512877196837 0.063698159366550891 0 -0.036732086871232597 0.066761861307427367 0 -0.038306240480512441 0.072768089837317376 0 -0.042969512877196837 0.063698159366550891 0 -0.038306240480512441 0.072768089837317376 0 -0.046136221960229658 0.070392563092827029 0 -0.042969512877196837 0.063698159366550891 0 -0.036732086871232597 0.066761861307427367 0 -0.038907572144486188 0.060810532415041758 0 -0.029642132364781061 0.077623064684345475 0 -0.036732086871232597 0.066761861307427367 0 -0.038306240480512441 0.072768089837317376 0 -0.038306240480512441 0.072768089837317376 0 -0.046136221960229658 0.070392563092827029 0 -0.043586306971417507 0.077534071189344175 0 -0.038306240480512441 0.072768089837317376 0 -0.043586306971417507 0.077534071189344175 0 -0.036673455980692451 0.084509049595857907 0 -0.043586306971417507 0.077534071189344175 0 -0.036673455980692451 0.084509049595857907 0 -0.046978765451358998 0.084182386091036676 0 -0.029642132364781061 0.077623064684345475 0 -0.038306240480512441 0.072768089837317376 0 -0.036673455980692451 0.084509049595857907 0 -0.02544928824037461 0.096336669134809427 0 -0.036673455980692451 0.084509049595857907 0 -0.035034026511796899 0.0954599165668297 0 -0.036673455980692451 0.084509049595857907 0 -0.044089979176562301 0.093675305350012283 0 -0.035034026511796899 0.0954599165668297 0 -0.036673455980692451 0.084509049595857907 0 -0.044089979176562301 0.093675305350012283 0 -0.046978765451358998 0.084182386091036676 0 -0.044089979176562301 0.093675305350012283 0 -0.057144835734191893 0.088207312209507505 0 -0.046978765451358998 0.084182386091036676 0 -0.057144835734191893 0.088207312209507505 0 -0.046978765451358998 0.084182386091036676 0 -0.053399249393930842 0.076986192110461482 0 -0.043586306971417507 0.077534071189344175 0 -0.046978765451358998 0.084182386091036676 0 -0.053399249393930842 0.076986192110461482 0 -0.053399249393930842 0.076986192110461482 0 -0.070406408885084593 0.061857930521202607 0 -0.059815066152941319 0.061788281472960463 0 -0.057144835734191893 0.088207312209507505 0 -0.053399249393930842 0.076986192110461482 0 -0.070406408885084593 0.061857930521202607 0 -0.046136221960229658 0.070392563092827029 0 -0.043586306971417507 0.077534071189344175 0 -0.053399249393930842 0.076986192110461482 0 -0.046136221960229658 0.070392563092827029 0 -0.053399249393930842 0.076986192110461482 0 -0.05257832837313995 0.068950164376806455 0 -0.053399249393930842 0.076986192110461482 0 -0.05257832837313995 0.068950164376806455 0 -0.059815066152941319 0.061788281472960463 0 -0.05257832837313995 0.068950164376806455 0 -0.052166049838275927 0.062310195238599278 0 -0.059815066152941319 0.061788281472960463 0 -0.046136221960229658 0.070392563092827029 0 -0.05257832837313995 0.068950164376806455 0 -0.052166049838275927 0.062310195238599278 0 -0.042969512877196837 0.063698159366550891 0 -0.046136221960229658 0.070392563092827029 0 -0.052166049838275927 0.062310195238599278 0 -0.021580178673492881 0.1105609364200745 0 -0.043883262583300407 0.11455669389781301 0 -0.021580178673492881 0.1105609364200745 0 -0.043883262583300407 0.11455669389781301 0 -0.032585978911933711 0.11378053360982859 0 -0.037584816749385713 0.12707105787504261 0 -0.051208231868337763 0.1260313133231428 0 -0.043883262583300407 0.11455669389781301 0 -0.037584816749385713 0.12707105787504261 0 -0.043883262583300407 0.11455669389781301 0 -0.037584816749385713 0.12707105787504261 0 -0.032585978911933711 0.11378053360982859 0 -0.037584816749385713 0.12707105787504261 0 -0.043883262583300407 0.11455669389781301 0 -0.032585978911933711 0.11378053360982859 0 -0.037584816749385713 0.12707105787504261 0 -0.02482114599867602 0.1199028763409456 0 -0.032585978911933711 0.11378053360982859 0 -0.021580178673492881 0.1105609364200745 0 -0.043883262583300407 0.11455669389781301 0 -0.037915498494119543 0.10215930426450601 0 -0.044089979176562301 0.093675305350012283 0 -0.043883262583300407 0.11455669389781301 0 -0.037915498494119543 0.10215930426450601 0 -0.044089979176562301 0.093675305350012283 0 -0.037915498494119543 0.10215930426450601 0 -0.035034026511796899 0.0954599165668297 0 -0.029459919491476121 0.1011230655410132 0 -0.037915498494119543 0.10215930426450601 0 -0.035034026511796899 0.0954599165668297 0 -0.044089979176562301 0.093675305350012283 0 -0.057144835734191893 0.088207312209507505 0 -0.043883262583300407 0.11455669389781301 0 -0.057144835734191893 0.088207312209507505 0 -0.043883262583300407 0.11455669389781301 0 -0.057144835734191893 0.088207312209507505 0 -0.043883262583300407 0.11455669389781301 0 -0.056175626513735713 0.104231459755559 0 -0.056175626513735713 0.104231459755559 0 -0.061770267295803899 0.1005995653590098 0 -0.06411880478631618 0.11818203644688791 0 -0.057144835734191893 0.088207312209507505 0 -0.056175626513735713 0.104231459755559 0 -0.061770267295803899 0.1005995653590098 0 -0.043883262583300407 0.11455669389781301 0 -0.06411880478631618 0.11818203644688791 0 -0.051208231868337763 0.1260313133231428 0 -0.043883262583300407 0.11455669389781301 0 -0.06411880478631618 0.11818203644688791 0 -0.043883262583300407 0.11455669389781301 0 -0.056175626513735713 0.104231459755559 0 -0.06411880478631618 0.11818203644688791 0 -0.071786582042575819 0.1280585334591178 0 -0.06411880478631618 0.11818203644688791 0 -0.08034823769671974 0.121089655777625 0 -0.06411880478631618 0.11818203644688791 0 -0.08034823769671974 0.121089655777625 0 -0.075381325115152609 0.106019298300689 0 -0.06411880478631618 0.11818203644688791 0 -0.08034823769671974 0.121089655777625 0 -0.08034823769671974 0.121089655777625 0 -0.096577670607123245 0.1239972751083621 0 -0.08034823769671974 0.121089655777625 0 -0.092569001324263961 0.1124699312803344 0 -0.096577670607123245 0.1239972751083621 0 -0.08034823769671974 0.121089655777625 0 -0.083967771981719092 0.1102844810624737 0 -0.092569001324263961 0.1124699312803344 0 -0.08034823769671974 0.121089655777625 0 -0.083967771981719092 0.1102844810624737 0 -0.075381325115152609 0.106019298300689 0 -0.087572523790740042 0.10155903889124659 0 -0.082071947835387321 0.094412947715560025 0 -0.09233625647768956 0.091651488650119919 0 -0.083967771981719092 0.1102844810624737 0 -0.092569001324263961 0.1124699312803344 0 -0.087572523790740042 0.10155903889124659 0 -0.083967771981719092 0.1102844810624737 0 -0.087572523790740042 0.10155903889124659 0 -0.075381325115152609 0.106019298300689 0 -0.087572523790740042 0.10155903889124659 0 -0.082071947835387321 0.094412947715560025 0 -0.075381325115152609 0.106019298300689 0 -0.06411880478631618 0.11818203644688791 0 -0.06964180214897181 0.091777453024084701 0 -0.082071947835387321 0.094412947715560025 0 -0.075381325115152609 0.106019298300689 0 -0.06964180214897181 0.091777453024084701 0 -0.06411880478631618 0.11818203644688791 0 -0.075381325115152609 0.106019298300689 0 -0.06964180214897181 0.091777453024084701 0 -0.061770267295803899 0.1005995653590098 0 -0.06411880478631618 0.11818203644688791 0 -0.06964180214897181 0.091777453024084701 0 -0.057144835734191893 0.088207312209507505 0 -0.061770267295803899 0.1005995653590098 0 -0.06964180214897181 0.091777453024084701 0 -0.06964180214897181 0.091777453024084701 0 -0.075164799511626648 0.065372869601281192 0 -0.057144835734191893 0.088207312209507505 0 -0.06964180214897181 0.091777453024084701 0 -0.068089461569968729 0.076803891339018993 0 -0.06964180214897181 0.091777453024084701 0 -0.068089461569968729 0.076803891339018993 0 -0.075164799511626648 0.065372869601281192 0 -0.057144835734191893 0.088207312209507505 0 -0.068089461569968729 0.076803891339018993 0 -0.070406408885084593 0.061857930521202607 0 -0.06964180214897181 0.091777453024084701 0 -0.075164799511626648 0.065372869601281192 0 -0.08073347634316104 0.073575546631144614 0 -0.057144835734191893 0.088207312209507505 0 -0.070406408885084593 0.061857930521202607 0 -0.068089461569968729 0.076803891339018993 0 -0.075164799511626648 0.065372869601281192 0 -0.070406408885084593 0.061857930521202607 0 -0.089923560922876636 0.068178037636278263 0 -0.08578586832533959 0.082170087930996366 0 -0.103675070998617 0.083967309240415983 0 -0.08073347634316104 0.073575546631144614 0 -0.089923560922876636 0.068178037636278263 0 -0.083186879645449088 0.059889597987781727 0 -0.075164799511626648 0.065372869601281192 0 -0.08073347634316104 0.073575546631144614 0 -0.083186879645449088 0.059889597987781727 0 -0.08073347634316104 0.073575546631144614 0 -0.089923560922876636 0.068178037636278263 0 -0.08578586832533959 0.082170087930996366 0 -0.06964180214897181 0.091777453024084701 0 -0.08073347634316104 0.073575546631144614 0 -0.08578586832533959 0.082170087930996366 0 -0.082071947835387321 0.094412947715560025 0 -0.06964180214897181 0.091777453024084701 0 -0.08578586832533959 0.082170087930996366 0 -0.082071947835387321 0.094412947715560025 0 -0.08578586832533959 0.082170087930996366 0 -0.09233625647768956 0.091651488650119919 0 -0.09233625647768956 0.091651488650119919 0 -0.103675070998617 0.083967309240415983 0 -0.10429444750695741 0.1014886749251958 0 -0.08578586832533959 0.082170087930996366 0 -0.09233625647768956 0.091651488650119919 0 -0.103675070998617 0.083967309240415983 0 -0.103675070998617 0.083967309240415983 0 -0.1198812247159142 0.095002477965890675 0 -0.10429444750695741 0.1014886749251958 0 -0.089923560922876636 0.068178037636278263 0 -0.103675070998617 0.083967309240415983 0 -0.10785209906359081 0.065371441260914459 0 -0.12533951967512769 0.078274991835817334 0 -0.103675070998617 0.083967309240415983 0 -0.10785209906359081 0.065371441260914459 0 -0.12533951967512769 0.078274991835817334 0 -0.10785209906359081 0.065371441260914459 0 -0.1248745965026067 0.059896082918310993 0 -0.12533951967512769 0.078274991835817334 0 -0.103675070998617 0.083967309240415983 0 -0.1198812247159142 0.095002477965890675 0 -0.13137241316615089 0.11357835761918721 0 -0.1198812247159142 0.095002477965890675 0 -0.10429444750695741 0.1014886749251958 0 -0.13137241316615089 0.11357835761918721 0 -0.12687331202938101 0.13192737382428379 0 -0.10667563132183119 0.1260080396076822 0 -0.13137241316615089 0.11357835761918721 0 -0.10667563132183119 0.1260080396076822 0 -0.1062978327852654 0.11550845570815239 0 -0.13137241316615089 0.11357835761918721 0 -0.1062978327852654 0.11550845570815239 0 -0.10429444750695741 0.1014886749251958 0 -0.13137241316615089 0.11357835761918721 0 -0.10667563132183119 0.1260080396076822 0 -0.10667563132183119 0.1260080396076822 0 -0.1062978327852654 0.11550845570815239 0 -0.096577670607123245 0.1239972751083621 0 -0.092569001324263961 0.1124699312803344 0 -0.1062978327852654 0.11550845570815239 0 -0.096577670607123245 0.1239972751083621 0 -0.092569001324263961 0.1124699312803344 0 -0.1062978327852654 0.11550845570815239 0 -0.10429444750695741 0.1014886749251958 0 -0.092569001324263961 0.1124699312803344 0 -0.087572523790740042 0.10155903889124659 0 -0.10429444750695741 0.1014886749251958 0 -0.087572523790740042 0.10155903889124659 0 -0.09233625647768956 0.091651488650119919 0 -0.10429444750695741 0.1014886749251958 0 -0.10370969952600501 0.019997694726909911 0 -0.098524362227562057 0.035744340183224317 0 -0.08645931971955316 0.02325136753113614 0 -0.10370969952600501 0.019997694726909911 0 -0.08645931971955316 0.02325136753113614 0 -0.091682611010439896 0.0063963380850077774 0 -0.10370969952600501 0.019997694726909911 0 -0.1180188049733784 0.030804183747700629 0 -0.098524362227562057 0.035744340183224317 0 -0.10370969952600501 0.019997694726909911 0 -0.10877227824827949 0.0075748546359299482 0 -0.091682611010439896 0.0063963380850077774 0 -0.1029392013539359 -0.0085751277431150782 0 -0.10877227824827949 0.0075748546359299482 0 -0.091682611010439896 0.0063963380850077774 0 -0.10370969952600501 0.019997694726909911 0 -0.10877227824827949 0.0075748546359299482 0 -0.11835839359799651 0.016938700943610479 0 -0.1029392013539359 -0.0085751277431150782 0 -0.12735709500343681 0.004015926865657337 0 -0.10877227824827949 0.0075748546359299482 0 -0.12735709500343681 0.004015926865657337 0 -0.10877227824827949 0.0075748546359299482 0 -0.11835839359799651 0.016938700943610479 0 -0.1339340902388827 0.022300844741854581 0 -0.11835839359799651 0.016938700943610479 0 -0.1180188049733784 0.030804183747700629 0 -0.10370969952600501 0.019997694726909911 0 -0.11835839359799651 0.016938700943610479 0 -0.1180188049733784 0.030804183747700629 0 -0.1180188049733784 0.030804183747700629 0 -0.1128457876968547 0.048091259023394652 0 -0.098524362227562057 0.035744340183224317 0 -0.13626681081840961 0.042829268155062397 0 -0.1128457876968547 0.048091259023394652 0 -0.13626681081840961 0.042829268155062397 0 -0.1180188049733784 0.030804183747700629 0 -0.1128457876968547 0.048091259023394652 0 -0.13626681081840961 0.042829268155062397 0 -0.1128457876968547 0.048091259023394652 0 -0.1248745965026067 0.059896082918310993 0 -0.10785209906359081 0.065371441260914459 0 -0.1128457876968547 0.048091259023394652 0 -0.1248745965026067 0.059896082918310993 0 -0.1128457876968547 0.048091259023394652 0 -0.089424764575299687 0.053353249891726941 0 -0.089923560922876636 0.068178037636278263 0 -0.10785209906359081 0.065371441260914459 0 -0.089424764575299687 0.053353249891726941 0 -0.10785209906359081 0.065371441260914459 0 -0.1128457876968547 0.048091259023394652 0 -0.089424764575299687 0.053353249891726941 0 -0.1128457876968547 0.048091259023394652 0 -0.098524362227562057 0.035744340183224317 0 -0.089424764575299687 0.053353249891726941 0 -0.098524362227562057 0.035744340183224317 0 -0.080687796874281473 0.038968286178477703 0 -0.08645931971955316 0.02325136753113614 0 -0.098524362227562057 0.035744340183224317 0 -0.080687796874281473 0.038968286178477703 0 -0.089424764575299687 0.053353249891726941 0 -0.080687796874281473 0.038968286178477703 0 -0.089424764575299687 0.053353249891726941 0 -0.083186879645449088 0.059889597987781727 0 -0.075164799511626648 0.065372869601281192 0 -0.080687796874281473 0.038968286178477703 0 -0.083186879645449088 0.059889597987781727 0 -0.089923560922876636 0.068178037636278263 0 -0.089424764575299687 0.053353249891726941 0 -0.083186879645449088 0.059889597987781727 0 -0.075164799511626648 0.065372869601281192 0 -0.080687796874281473 0.038968286178477703 0 -0.071303082845968715 0.053347503409362687 0 -0.075164799511626648 0.065372869601281192 0 -0.080687796874281473 0.038968286178477703 0 -0.075164799511626648 0.065372869601281192 0 -0.070406408885084593 0.061857930521202607 0 -0.071303082845968715 0.053347503409362687 0 -0.071303082845968715 0.053347503409362687 0 -0.064856269609628314 0.055117702274744398 0 -0.065400139349222536 0.045420728471107522 0 -0.070406408885084593 0.061857930521202607 0 -0.071303082845968715 0.053347503409362687 0 -0.064856269609628314 0.055117702274744398 0 -0.070406408885084593 0.061857930521202607 0 -0.064856269609628314 0.055117702274744398 0 -0.059815066152941319 0.061788281472960463 0 -0.080687796874281473 0.038968286178477703 0 -0.065400139349222536 0.045420728471107522 0 -0.063264057366842208 0.031259222641012697 0 -0.080687796874281473 0.038968286178477703 0 -0.063264057366842208 0.031259222641012697 0 -0.073460039823911166 0.024685388153665749 0 -0.080687796874281473 0.038968286178477703 0 -0.071303082845968715 0.053347503409362687 0 -0.065400139349222536 0.045420728471107522 0 -0.063264057366842208 0.031259222641012697 0 -0.073460039823911166 0.024685388153665749 0 -0.061440697951084179 0.017621877449499421 0 -0.073460039823911166 0.024685388153665749 0 -0.076769634387976737 0.01135693610240161 0 -0.061440697951084179 0.017621877449499421 0 -0.080687796874281473 0.038968286178477703 0 -0.073460039823911166 0.024685388153665749 0 -0.08645931971955316 0.02325136753113614 0 -0.073460039823911166 0.024685388153665749 0 -0.08645931971955316 0.02325136753113614 0 -0.076769634387976737 0.01135693610240161 0 -0.08645931971955316 0.02325136753113614 0 -0.091682611010439896 0.0063963380850077774 0 -0.076769634387976737 0.01135693610240161 0 -0.091682611010439896 0.0063963380850077774 0 -0.078933949510919491 0.00072378658541613432 0 -0.076769634387976737 0.01135693610240161 0 -0.086097875964997059 -0.0058870606910941042 0 -0.091682611010439896 0.0063963380850077774 0 -0.078933949510919491 0.00072378658541613432 0 -0.078933949510919491 0.00072378658541613432 0 -0.076769634387976737 0.01135693610240161 0 -0.068462160169621672 0.0025537029525893409 0 -0.068462160169621672 0.0025537029525893409 0 -0.057836245250817257 0.0062936453779614283 0 -0.061440697951084179 0.017621877449499421 0 -0.076769634387976737 0.01135693610240161 0 -0.068462160169621672 0.0025537029525893409 0 -0.061440697951084179 0.017621877449499421 0 -0.057836245250817257 0.0062936453779614283 0 -0.061440697951084179 0.017621877449499421 0 -0.042678209040760022 0.019440128409622049 0 -0.057836245250817257 0.0062936453779614283 0 -0.042678209040760022 0.019440128409622049 0 -0.044352522143416888 0.0050416822031405977 0 -0.063264057366842208 0.031259222641012697 0 -0.042678209040760022 0.019440128409622049 0 -0.05195897498334151 0.039592758420259042 0 -0.063264057366842208 0.031259222641012697 0 -0.061440697951084179 0.017621877449499421 0 -0.042678209040760022 0.019440128409622049 0 -0.042678209040760022 0.019440128409622049 0 -0.038256592764973757 0.039174794321751791 0 -0.042678209040760022 0.019440128409622049 0 -0.038256592764973757 0.039174794321751791 0 -0.027511467414372541 0.03001296694831072 0 -0.042678209040760022 0.019440128409622049 0 -0.028180513839983729 0.018098474401369 0 -0.027511467414372541 0.03001296694831072 0 -0.042678209040760022 0.019440128409622049 0 -0.032770024037711037 0.0084985419153508525 0 -0.028180513839983729 0.018098474401369 0 -0.032770024037711037 0.0084985419153508525 0 -0.03614709390981162 0.0015378833132510439 0 -0.044352522143416888 0.0050416822031405977 0 -0.029539197120254941 -0.00051038393964639519 0 -0.032770024037711037 0.0084985419153508525 0 -0.03614709390981162 0.0015378833132510439 0 -0.042678209040760022 0.019440128409622049 0 -0.032770024037711037 0.0084985419153508525 0 -0.044352522143416888 0.0050416822031405977 0 -0.042969512877196837 0.063698159366550891 0 -0.047980875447113908 0.056604040506729722 0 -0.052166049838275927 0.062310195238599278 0 -0.047980875447113908 0.056604040506729722 0 -0.052166049838275927 0.062310195238599278 0 -0.055804220694704088 0.051985500715961808 0 -0.064856269609628314 0.055117702274744398 0 -0.059815066152941319 0.061788281472960463 0 -0.055804220694704088 0.051985500715961808 0 -0.052166049838275927 0.062310195238599278 0 -0.059815066152941319 0.061788281472960463 0 -0.055804220694704088 0.051985500715961808 0 -0.064856269609628314 0.055117702274744398 0 -0.065400139349222536 0.045420728471107522 0 -0.055804220694704088 0.051985500715961808 0 -0.047980875447113908 0.056604040506729722 0 -0.055804220694704088 0.051985500715961808 0 -0.046350630683546529 0.050276175962098407 0 -0.055804220694704088 0.051985500715961808 0 -0.05195897498334151 0.039592758420259042 0 -0.046350630683546529 0.050276175962098407 0 -0.065400139349222536 0.045420728471107522 0 -0.055804220694704088 0.051985500715961808 0 -0.05195897498334151 0.039592758420259042 0 -0.065400139349222536 0.045420728471107522 0 -0.063264057366842208 0.031259222641012697 0 -0.05195897498334151 0.039592758420259042 0 -0.042678209040760022 0.019440128409622049 0 -0.05195897498334151 0.039592758420259042 0 -0.038256592764973757 0.039174794321751791 0 -0.05195897498334151 0.039592758420259042 0 -0.038256592764973757 0.039174794321751791 0 -0.046350630683546529 0.050276175962098407 0 -0.038256592764973757 0.039174794321751791 0 -0.033834976489186493 0.058909460233881362 0 -0.038256592764973757 0.039174794321751791 0 -0.038513274033404883 0.055407770980391423 0 -0.033834976489186493 0.058909460233881362 0 -0.038256592764973757 0.039174794321751791 0 -0.046350630683546529 0.050276175962098407 0 -0.038513274033404883 0.055407770980391423 0 -0.038256592764973757 0.039174794321751791 0 -0.033834976489186493 0.058909460233881362 0 -0.02879531395286377 0.050132256585483953 0 -0.046350630683546529 0.050276175962098407 0 -0.038513274033404883 0.055407770980391423 0 -0.042914570065583427 0.057802329486214707 0 -0.036732086871232597 0.066761861307427367 0 -0.033834976489186493 0.058909460233881362 0 -0.038907572144486188 0.060810532415041758 0 -0.038513274033404883 0.055407770980391423 0 -0.033834976489186493 0.058909460233881362 0 -0.038513274033404883 0.055407770980391423 0 -0.033834976489186493 0.058909460233881362 0 -0.038907572144486188 0.060810532415041758 0 -0.042969512877196837 0.063698159366550891 0 -0.038907572144486188 0.060810532415041758 0 -0.042914570065583427 0.057802329486214707 0 -0.038513274033404883 0.055407770980391423 0 -0.038907572144486188 0.060810532415041758 0 -0.042914570065583427 0.057802329486214707 0 -0.047980875447113908 0.056604040506729722 0 -0.046350630683546529 0.050276175962098407 0 -0.042914570065583427 0.057802329486214707 0 -0.042969512877196837 0.063698159366550891 0 -0.047980875447113908 0.056604040506729722 0 -0.042914570065583427 0.057802329486214707 0 -0.033834976489186493 0.058909460233881362 0 -0.01963881101933795 0.057650575484614511 0 -0.02879531395286377 0.050132256585483953 0 -0.01963881101933795 0.057650575484614511 0 -0.02879531395286377 0.050132256585483953 0 -0.02345087553795689 0.044794196301688183 0 -0.01963881101933795 0.057650575484614511 0 -0.02345087553795689 0.044794196301688183 0 -0.012175026131353321 0.050402421608982242 0 -0.02345087553795689 0.044794196301688183 0 -0.014695186475719159 0.0359408453649432 0 -0.012175026131353321 0.050402421608982242 0 -0.038256592764973757 0.039174794321751791 0 -0.02879531395286377 0.050132256585483953 0 -0.02345087553795689 0.044794196301688183 0 -0.038256592764973757 0.039174794321751791 0 -0.02345087553795689 0.044794196301688183 0 -0.027511467414372541 0.03001296694831072 0 -0.02345087553795689 0.044794196301688183 0 -0.014695186475719159 0.0359408453649432 0 -0.027511467414372541 0.03001296694831072 0 -0.014695186475719159 0.0359408453649432 0 -0.0023331541944977092 0.045311556235899067 0 0.00074240361007229996 0.028778475488121531 0 -0.014695186475719159 0.0359408453649432 0 -0.0023331541944977092 0.045311556235899067 0 -0.012175026131353321 0.050402421608982242 0 -0.0023331541944977092 0.045311556235899067 0 -0.012175026131353321 0.050402421608982242 0 0.00079413703044923156 0.058803151297745167 0 -0.012175026131353321 0.050402421608982242 0 -0.0089029190745683329 0.062319161291970238 0 0.00079413703044923156 0.058803151297745167 0 -0.01963881101933795 0.057650575484614511 0 -0.012175026131353321 0.050402421608982242 0 -0.0089029190745683329 0.062319161291970238 0 -0.021996997598287969 0.010981086364913869 0 -0.02112675760807068 0.0030512678310729521 0 -0.0083058662928979787 0.012079608812324741 0 -0.021996997598287969 0.010981086364913869 0 -0.01661374249992489 0.02103319015209278 0 -0.0083058662928979787 0.012079608812324741 0 -0.021996997598287969 0.010981086364913869 0 -0.02112675760807068 0.0030512678310729521 0 -0.02631380729169577 0.0053104208567875946 0 -0.029539197120254941 -0.00051038393964639519 0 -0.02112675760807068 0.0030512678310729521 0 -0.02631380729169577 0.0053104208567875946 0 -0.029539197120254941 -0.00051038393964639519 0 -0.032770024037711037 0.0084985419153508525 0 -0.02631380729169577 0.0053104208567875946 0 -0.032770024037711037 0.0084985419153508525 0 -0.021996997598287969 0.010981086364913869 0 -0.02631380729169577 0.0053104208567875946 0 -0.032770024037711037 0.0084985419153508525 0 -0.021996997598287969 0.010981086364913869 0 -0.028180513839983729 0.018098474401369 0 -0.028180513839983729 0.018098474401369 0 -0.027511467414372541 0.03001296694831072 0 -0.01661374249992489 0.02103319015209278 0 -0.014695186475719159 0.0359408453649432 0 -0.027511467414372541 0.03001296694831072 0 -0.01661374249992489 0.02103319015209278 0 -0.021996997598287969 0.010981086364913869 0 -0.028180513839983729 0.018098474401369 0 -0.01661374249992489 0.02103319015209278 0 -0.01661374249992489 0.02103319015209278 0 0.00074240361007229996 0.028778475488121531 0 -0.0083058662928979787 0.012079608812324741 0 0.0060294939382754481 0.01286563290641534 0 0.00074240361007229996 0.028778475488121531 0 -0.014695186475719159 0.0359408453649432 0 -0.01661374249992489 0.02103319015209278 0 0.00074240361007229996 0.028778475488121531 0 -0.0083058662928979787 0.012079608812324741 0 0.00074240361007229996 0.028778475488121531 0 -0.01661374249992489 0.02103319015209278 0 -0.0083058662928979787 0.012079608812324741 0 0.00074240361007229996 0.028778475488121531 0 -0.0072764121498596901 -0.0036325873431357339 0 -0.0083058662928979787 0.012079608812324741 0 0.0012074066645448821 -0.00065723147797176382 0 -0.0072764121498596901 -0.0036325873431357339 0 -0.013607688627124061 -0.00178224205395049 0 -0.0083058662928979787 0.012079608812324741 0 -0.017354136195868258 -0.0046192578634720229 0 -0.0083058662928979787 0.012079608812324741 0 -0.017354136195868258 -0.0046192578634720229 0 -0.013607688627124061 -0.00178224205395049 0 -0.0083058662928979787 0.012079608812324741 0 -0.0083058662928979787 0.012079608812324741 0 0.0060294939382754481 0.01286563290641534 0 0.0012074066645448821 -0.00065723147797176382 0 -0.017354136195868258 -0.0046192578634720229 0 -0.02112675760807068 0.0030512678310729521 0 -0.0083058662928979787 0.012079608812324741 0 0.0060294939382754481 0.01286563290641534 0 0.0012074066645448821 -0.00065723147797176382 0 0.01265631079038235 -0.01012693536007268 0 0.0060294939382754481 0.01286563290641534 0 0.020311547060899309 0.014329649790385431 0 0.01265631079038235 -0.01012693536007268 0 0.00074240361007229996 0.028778475488121531 0 0.015746539320639769 0.024046632949657649 0 0.022626785018342459 0.038544513255683338 0 0.0060294939382754481 0.01286563290641534 0 0.00074240361007229996 0.028778475488121531 0 0.015746539320639769 0.024046632949657649 0 0.0060294939382754481 0.01286563290641534 0 0.015746539320639769 0.024046632949657649 0 0.020311547060899309 0.014329649790385431 0 0.015746539320639769 0.024046632949657649 0 0.029022466975609298 0.02571489330768258 0 0.020311547060899309 0.014329649790385431 0 0.015746539320639769 0.024046632949657649 0 0.029022466975609298 0.02571489330768258 0 0.022626785018342459 0.038544513255683338 0 0.020311547060899309 0.014329649790385431 0 0.034885408484197772 0.0062912350017927032 0 0.01265631079038235 -0.01012693536007268 0 0.029022466975609298 0.02571489330768258 0 0.020311547060899309 0.014329649790385431 0 0.034885408484197772 0.0062912350017927032 0 0.00079413703044923156 0.058803151297745167 0 0.01366790099406239 0.052632887419703241 0 0.0065236609159091173 0.071671444604676282 0 -0.0023331541944977092 0.045311556235899067 0 0.00079413703044923156 0.058803151297745167 0 0.01366790099406239 0.052632887419703241 0 0.00074240361007229996 0.028778475488121531 0 0.01366790099406239 0.052632887419703241 0 0.022626785018342459 0.038544513255683338 0 0.00074240361007229996 0.028778475488121531 0 0.022626785018342459 0.038544513255683338 0 -0.0023331541944977092 0.045311556235899067 0 0.00074240361007229996 0.028778475488121531 0 0.01366790099406239 0.052632887419703241 0 0.00074240361007229996 0.028778475488121531 0 0.01366790099406239 0.052632887419703241 0 0.029022466975609298 0.02571489330768258 0 0.022626785018342459 0.038544513255683338 0 0.037630953216902623 0.033668105561091018 0 0.01366790099406239 0.052632887419703241 0 0.022626785018342459 0.038544513255683338 0 0.025434983742737761 0.055249644843112657 0 0.022626785018342459 0.038544513255683338 0 0.025434983742737761 0.055249644843112657 0 0.034616451435572633 0.051242168749322393 0 0.025434983742737761 0.055249644843112657 0 0.034062632092931817 0.061255223706808547 0 0.02703491536905472 0.067401080742933134 0 0.01366790099406239 0.052632887419703241 0 0.025434983742737761 0.055249644843112657 0 0.02703491536905472 0.067401080742933134 0 0.034616451435572633 0.051242168749322393 0 0.044511166426612833 0.04831055102324476 0 0.060132464308973767 0.062986029428160187 0 0.034616451435572633 0.051242168749322393 0 0.060132464308973767 0.062986029428160187 0 0.044258496001147778 0.063884183083345675 0 0.034062632092931817 0.061255223706808547 0 0.034616451435572633 0.051242168749322393 0 0.044258496001147778 0.063884183083345675 0 0.025434983742737761 0.055249644843112657 0 0.034062632092931817 0.061255223706808547 0 0.034616451435572633 0.051242168749322393 0 0.022626785018342459 0.038544513255683338 0 0.044511166426612833 0.04831055102324476 0 0.022626785018342459 0.038544513255683338 0 0.034616451435572633 0.051242168749322393 0 0.044511166426612833 0.04831055102324476 0 0.022626785018342459 0.038544513255683338 0 0.044511166426612833 0.04831055102324476 0 0.037630953216902623 0.033668105561091018 0 0.044511166426612833 0.04831055102324476 0 0.037630953216902623 0.033668105561091018 0 0.0484135161167236 0.034205204957136963 0 0.0484135161167236 0.034205204957136963 0 0.060669767880595721 0.038134724015348051 0 0.0518117103670514 0.042737821036878322 0 0.0484135161167236 0.034205204957136963 0 0.060669767880595721 0.038134724015348051 0 0.057623658326613529 0.02352368721002385 0 0.060669767880595721 0.038134724015348051 0 0.0518117103670514 0.042737821036878322 0 0.059559274975242667 0.047504887075434543 0 0.044511166426612833 0.04831055102324476 0 0.0518117103670514 0.042737821036878322 0 0.059559274975242667 0.047504887075434543 0 0.044511166426612833 0.04831055102324476 0 0.0484135161167236 0.034205204957136963 0 0.0518117103670514 0.042737821036878322 0 0.044511166426612833 0.04831055102324476 0 0.066395547834883203 0.05807658879080619 0 0.060132464308973767 0.062986029428160187 0 0.034616451435572633 0.051242168749322393 0 0.060132464308973767 0.062986029428160187 0 0.044511166426612833 0.04831055102324476 0 0.066395547834883203 0.05807658879080619 0 0.044511166426612833 0.04831055102324476 0 0.059559274975242667 0.047504887075434543 0 0.066395547834883203 0.05807658879080619 0 0.034885408484197772 0.0062912350017927032 0 0.052968053050369737 0.0090809173488315582 0 0.042517259973231587 -0.011683923625132649 0 0.034885408484197772 0.0062912350017927032 0 0.043580831547224863 0.021565365261707499 0 0.052968053050369737 0.0090809173488315582 0 0.029022466975609298 0.02571489330768258 0 0.034885408484197772 0.0062912350017927032 0 0.043580831547224863 0.021565365261707499 0 0.029022466975609298 0.02571489330768258 0 0.037630953216902623 0.033668105561091018 0 0.043580831547224863 0.021565365261707499 0 0.037630953216902623 0.033668105561091018 0 0.0484135161167236 0.034205204957136963 0 0.043580831547224863 0.021565365261707499 0 0.057623658326613529 0.02352368721002385 0 0.052968053050369737 0.0090809173488315582 0 0.071708216805815503 0.016768608491387289 0 0.043580831547224863 0.021565365261707499 0 0.057623658326613529 0.02352368721002385 0 0.052968053050369737 0.0090809173488315582 0 0.0484135161167236 0.034205204957136963 0 0.043580831547224863 0.021565365261707499 0 0.057623658326613529 0.02352368721002385 0 0.052968053050369737 0.0090809173488315582 0 0.071708216805815503 0.016768608491387289 0 0.067492943165135169 -0.0019794682467893379 0 0.083930998993742512 0.0059737405228527038 0 0.071708216805815503 0.016768608491387289 0 0.067492943165135169 -0.0019794682467893379 0 0.083930998993742512 0.0059737405228527038 0 0.098495163759696414 0.0029673617968291321 0 0.094917995650245529 0.021722354499223519 0 0.083930998993742512 0.0059737405228527038 0 0.071708216805815503 0.016768608491387289 0 0.094917995650245529 0.021722354499223519 0 0.071708216805815503 0.016768608491387289 0 0.07449934060461412 0.03258063005354956 0 0.094917995650245529 0.021722354499223519 0 0.07449934060461412 0.03258063005354956 0 0.087237150257314613 0.037926204838731957 0 0.094917995650245529 0.021722354499223519 0 0.057623658326613529 0.02352368721002385 0 0.071708216805815503 0.016768608491387289 0 0.07449934060461412 0.03258063005354956 0 0.060669767880595721 0.038134724015348051 0 0.057623658326613529 0.02352368721002385 0 0.07449934060461412 0.03258063005354956 0 0.060669767880595721 0.038134724015348051 0 0.069155187538762042 0.045022305850501279 0 0.07449934060461412 0.03258063005354956 0 0.060669767880595721 0.038134724015348051 0 0.059559274975242667 0.047504887075434543 0 0.069155187538762042 0.045022305850501279 0 0.069155187538762042 0.045022305850501279 0 0.07449934060461412 0.03258063005354956 0 0.079692196512252927 0.044953406994506007 0 0.059559274975242667 0.047504887075434543 0 0.069155187538762042 0.045022305850501279 0 0.067326156772233525 0.050603546620565112 0 0.059559274975242667 0.047504887075434543 0 0.066395547834883203 0.05807658879080619 0 0.067326156772233525 0.050603546620565112 0 0.066395547834883203 0.05807658879080619 0 0.067326156772233525 0.050603546620565112 0 0.074194616740046182 0.051810404765518438 0 0.069155187538762042 0.045022305850501279 0 0.067326156772233525 0.050603546620565112 0 0.074194616740046182 0.051810404765518438 0 0.069155187538762042 0.045022305850501279 0 0.074194616740046182 0.051810404765518438 0 0.079692196512252927 0.044953406994506007 0 0.066395547834883203 0.05807658879080619 0 0.074194616740046182 0.051810404765518438 0 0.080343143758095259 0.058335218209008277 0 0.066395547834883203 0.05807658879080619 0 0.080343143758095259 0.058335218209008277 0 0.08827992924315356 0.067842626558367619 0 0.080343143758095259 0.058335218209008277 0 0.083306510346727383 0.05351440315152866 0 0.090416084875221875 0.058235299142909973 0 0.074194616740046182 0.051810404765518438 0 0.083306510346727383 0.05351440315152866 0 0.079692196512252927 0.044953406994506007 0 0.083306510346727383 0.05351440315152866 0 0.089760373586053266 0.048866493307206167 0 0.079692196512252927 0.044953406994506007 0 0.074194616740046182 0.051810404765518438 0 0.080343143758095259 0.058335218209008277 0 0.083306510346727383 0.05351440315152866 0 0.083306510346727383 0.05351440315152866 0 0.089760373586053266 0.048866493307206167 0 0.090416084875221875 0.058235299142909973 0 0.089760373586053266 0.048866493307206167 0 0.090416084875221875 0.058235299142909973 0 0.099395501669828634 0.055681054702382278 0 0.080343143758095259 0.058335218209008277 0 0.090416084875221875 0.058235299142909973 0 0.08827992924315356 0.067842626558367619 0 0.087237150257314613 0.037926204838731957 0 0.098930039005792711 0.04227996871225087 0 0.094917995650245529 0.021722354499223519 0 0.07449934060461412 0.03258063005354956 0 0.079692196512252927 0.044953406994506007 0 0.087237150257314613 0.037926204838731957 0 0.089760373586053266 0.048866493307206167 0 0.079692196512252927 0.044953406994506007 0 0.087237150257314613 0.037926204838731957 0 0.089760373586053266 0.048866493307206167 0 0.087237150257314613 0.037926204838731957 0 0.098930039005792711 0.04227996871225087 0 0.10894092886672049 0.033503019923715648 0 0.098930039005792711 0.04227996871225087 0 0.11550376979223601 0.054551475820320147 0 0.10894092886672049 0.033503019923715648 0 0.098930039005792711 0.04227996871225087 0 0.094917995650245529 0.021722354499223519 0 0.098930039005792711 0.04227996871225087 0 0.099395501669828634 0.055681054702382278 0 0.11550376979223601 0.054551475820320147 0 0.099395501669828634 0.055681054702382278 0 0.11550376979223601 0.054551475820320147 0 0.10561354398445311 0.069921878226714862 0 0.090416084875221875 0.058235299142909973 0 0.099395501669828634 0.055681054702382278 0 0.095618088847860577 0.065038419849084594 0 0.089760373586053266 0.048866493307206167 0 0.098930039005792711 0.04227996871225087 0 0.099395501669828634 0.055681054702382278 0 0.10894092886672049 0.033503019923715648 0 0.11961069471150609 0.02296590295220987 0 0.12977361784467401 0.039215218793308727 0 0.10894092886672049 0.033503019923715648 0 0.11550376979223601 0.054551475820320147 0 0.12977361784467401 0.039215218793308727 0 0.11961069471150609 0.02296590295220987 0 0.1158546052028349 0.0064685721448778594 0 0.094917995650245529 0.021722354499223519 0 0.11961069471150609 0.02296590295220987 0 0.1158546052028349 0.0064685721448778594 0 0.13894824890776639 0.02136224913872127 0 0.1158546052028349 0.0064685721448778594 0 0.098495163759696414 0.0029673617968291321 0 0.094917995650245529 0.021722354499223519 0 0.10894092886672049 0.033503019923715648 0 0.11961069471150609 0.02296590295220987 0 0.094917995650245529 0.021722354499223519 0 0.097728221435088053 0.099184528615223033 0 0.110275064223293 0.10236359857942121 0 0.11116449005577619 0.086473750785835857 0 0.099894961061174667 0.1104201015940532 0 0.11150799601301251 0.1117412241471519 0 0.110275064223293 0.10236359857942121 0 0.097728221435088053 0.099184528615223033 0 0.099894961061174667 0.1104201015940532 0 0.110275064223293 0.10236359857942121 0 0.097728221435088053 0.099184528615223033 0 0.099894961061174667 0.1104201015940532 0 0.084925795867796111 0.1103515185161017 0 0.099894961061174667 0.1104201015940532 0 0.096984900528893664 0.1212489081817222 0 0.084925795867796111 0.1103515185161017 0 0.099894961061174667 0.1104201015940532 0 0.096984900528893664 0.1212489081817222 0 0.10712684862241641 0.1210429748963526 0 0.096984900528893664 0.1212489081817222 0 0.10712684862241641 0.1210429748963526 0 0.10589272808503949 0.13156516273042271 0 0.099894961061174667 0.1104201015940532 0 0.10712684862241641 0.1210429748963526 0 0.11150799601301251 0.1117412241471519 0 0.10712684862241641 0.1210429748963526 0 0.11150799601301251 0.1117412241471519 0 0.1187293914863337 0.1182846474287873 0 0.11150799601301251 0.1117412241471519 0 0.1187293914863337 0.1182846474287873 0 0.1197878353292403 0.1092484053650479 0 0.10712684862241641 0.1210429748963526 0 0.1187293914863337 0.1182846474287873 0 0.114987521205969 0.1268010028982309 0 0.1187293914863337 0.1182846474287873 0 0.12813823657366311 0.12049833089676459 0 0.12624189261331301 0.1140678077034443 0 0.1187293914863337 0.1182846474287873 0 0.12212988809696081 0.1249307776834532 0 0.12813823657366311 0.12049833089676459 0 0.1187293914863337 0.1182846474287873 0 0.12212988809696081 0.1249307776834532 0 0.114987521205969 0.1268010028982309 0 0.1187293914863337 0.1182846474287873 0 0.1197878353292403 0.1092484053650479 0 0.12624189261331301 0.1140678077034443 0 0.1216961693062274 0.1020981758197984 0 0.110275064223293 0.10236359857942121 0 0.11116449005577619 0.086473750785835857 0 0.1197878353292403 0.1092484053650479 0 0.1216961693062274 0.1020981758197984 0 0.1302764983332621 0.10693497851168419 0 0.1216961693062274 0.1020981758197984 0 0.11116449005577619 0.086473750785835857 0 0.13668050292917741 0.098217611464673699 0 0.1197878353292403 0.1092484053650479 0 0.1216961693062274 0.1020981758197984 0 0.110275064223293 0.10236359857942121 0 0.11150799601301251 0.1117412241471519 0 0.1197878353292403 0.1092484053650479 0 0.110275064223293 0.10236359857942121 0 0.11116449005577619 0.086473750785835857 0 0.1207366242219714 0.074251990558816788 0 0.1300820653953097 0.084166932106396392 0 0.11116449005577619 0.086473750785835857 0 0.13668050292917741 0.098217611464673699 0 0.11116449005577619 0.086473750785835857 0 0.1207366242219714 0.074251990558816788 0 0.10561354398445311 0.069921878226714862 0 0.11550376979223601 0.054551475820320147 0 0.1207366242219714 0.074251990558816788 0 0.13255022158949201 0.068763676371196639 0 0.11550376979223601 0.054551475820320147 0 0.1207366242219714 0.074251990558816788 0 0.10561354398445311 0.069921878226714862 0 0.11116449005577619 0.086473750785835857 0 0.10561354398445311 0.069921878226714862 0 0.085648477182374977 0.074729890106998029 0 0.10561354398445311 0.069921878226714862 0 0.095618088847860577 0.065038419849084594 0 0.085648477182374977 0.074729890106998029 0 0.099395501669828634 0.055681054702382278 0 0.10561354398445311 0.069921878226714862 0 0.095618088847860577 0.065038419849084594 0 0.11116449005577619 0.086473750785835857 0 0.085648477182374977 0.074729890106998029 0 0.11116449005577619 0.086473750785835857 0 0.090808031879269946 0.087622927320568048 0 0.085648477182374977 0.074729890106998029 0 0.097728221435088053 0.099184528615223033 0 0.11116449005577619 0.086473750785835857 0 0.090808031879269946 0.087622927320568048 0 0.097728221435088053 0.099184528615223033 0 0.090808031879269946 0.087622927320568048 0 0.080235742217082393 0.093435287859391092 0 0.090808031879269946 0.087622927320568048 0 0.078675001300488379 0.083882301042573534 0 0.085648477182374977 0.074729890106998029 0 0.090808031879269946 0.087622927320568048 0 0.078675001300488379 0.083882301042573534 0 0.080235742217082393 0.093435287859391092 0 0.066395547834883203 0.05807658879080619 0 0.08827992924315356 0.067842626558367619 0 0.085648477182374977 0.074729890106998029 0 0.095618088847860577 0.065038419849084594 0 0.08827992924315356 0.067842626558367619 0 0.085648477182374977 0.074729890106998029 0 0.090416084875221875 0.058235299142909973 0 0.095618088847860577 0.065038419849084594 0 0.08827992924315356 0.067842626558367619 0 0.066395547834883203 0.05807658879080619 0 0.085648477182374977 0.074729890106998029 0 0.060132464308973767 0.062986029428160187 0 0.066395547834883203 0.05807658879080619 0 0.08827992924315356 0.067842626558367619 0 0.085648477182374977 0.074729890106998029 0 0.068637102026180674 0.07792917868559901 0 0.060132464308973767 0.062986029428160187 0 0.085648477182374977 0.074729890106998029 0 0.060132464308973767 0.062986029428160187 0 0.078675001300488379 0.083882301042573534 0 0.085648477182374977 0.074729890106998029 0 0.068637102026180674 0.07792917868559901 0 0.080235742217082393 0.093435287859391092 0 0.069503799956795384 0.087722797055870286 0 0.068523875558259784 0.095111972458496966 0 0.078675001300488379 0.083882301042573534 0 0.080235742217082393 0.093435287859391092 0 0.069503799956795384 0.087722797055870286 0 0.078675001300488379 0.083882301042573534 0 0.068637102026180674 0.07792917868559901 0 0.069503799956795384 0.087722797055870286 0 0.068637102026180674 0.07792917868559901 0 0.069503799956795384 0.087722797055870286 0 0.060111091978902922 0.083782113849914977 0 0.069503799956795384 0.087722797055870286 0 0.06135777996986308 0.093915161513068182 0 0.060111091978902922 0.083782113849914977 0 0.069503799956795384 0.087722797055870286 0 0.068523875558259784 0.095111972458496966 0 0.06135777996986308 0.093915161513068182 0 0.068523875558259784 0.095111972458496966 0 0.071520258741129425 0.10189571548122769 0 0.062413973273008162 0.1018934272394761 0 0.068523875558259784 0.095111972458496966 0 0.062413973273008162 0.1018934272394761 0 0.06135777996986308 0.093915161513068182 0 0.071520258741129425 0.10189571548122769 0 0.072821304814728441 0.1108529925529516 0 0.063718101814298073 0.11016590081819259 0 0.071520258741129425 0.10189571548122769 0 0.063718101814298073 0.11016590081819259 0 0.062413973273008162 0.1018934272394761 0 0.071520258741129425 0.10189571548122769 0 0.084925795867796111 0.1103515185161017 0 0.072821304814728441 0.1108529925529516 0 0.080235742217082393 0.093435287859391092 0 0.068523875558259784 0.095111972458496966 0 0.071520258741129425 0.10189571548122769 0 0.097728221435088053 0.099184528615223033 0 0.080235742217082393 0.093435287859391092 0 0.084925795867796111 0.1103515185161017 0 0.080235742217082393 0.093435287859391092 0 0.071520258741129425 0.10189571548122769 0 0.084925795867796111 0.1103515185161017 0 0.084925795867796111 0.1103515185161017 0 0.074154959480044275 0.1204842858357125 0 0.087075880893963842 0.12621803440601359 0 0.096984900528893664 0.1212489081817222 0 0.084925795867796111 0.1103515185161017 0 0.087075880893963842 0.12621803440601359 0 0.084925795867796111 0.1103515185161017 0 0.074154959480044275 0.1204842858357125 0 0.072821304814728441 0.1108529925529516 0 0.074154959480044275 0.1204842858357125 0 0.072821304814728441 0.1108529925529516 0 0.063718101814298073 0.11016590081819259 0 0.074154959480044275 0.1204842858357125 0 0.063718101814298073 0.11016590081819259 0 0.060124536552058239 0.11864948812996751 0 0.074154959480044275 0.1204842858357125 0 0.060124536552058239 0.11864948812996751 0 0.061109117960118017 0.12720913792676911 0 0.060124536552058239 0.11864948812996751 0 0.052595679859244633 0.1236025024456274 0 0.054913207086597561 0.11271600588853189 0 0.060124536552058239 0.11864948812996751 0 0.052595679859244633 0.1236025024456274 0 0.061109117960118017 0.12720913792676911 0 0.052595679859244633 0.1236025024456274 0 0.054913207086597561 0.11271600588853189 0 0.046771683079868627 0.1089772416004138 0 0.063718101814298073 0.11016590081819259 0 0.060124536552058239 0.11864948812996751 0 0.054913207086597561 0.11271600588853189 0 0.063718101814298073 0.11016590081819259 0 0.062413973273008162 0.1018934272394761 0 0.053620768430252298 0.1031656988462608 0 0.063718101814298073 0.11016590081819259 0 0.054913207086597561 0.11271600588853189 0 0.053620768430252298 0.1031656988462608 0 0.06135777996986308 0.093915161513068182 0 0.053620768430252298 0.1031656988462608 0 0.051535176025136201 0.090416251810209708 0 0.062413973273008162 0.1018934272394761 0 0.06135777996986308 0.093915161513068182 0 0.053620768430252298 0.1031656988462608 0 0.053620768430252298 0.1031656988462608 0 0.042875633238578528 0.09739353282270094 0 0.051535176025136201 0.090416251810209708 0 0.053620768430252298 0.1031656988462608 0 0.046771683079868627 0.1089772416004138 0 0.042875633238578528 0.09739353282270094 0 0.054913207086597561 0.11271600588853189 0 0.053620768430252298 0.1031656988462608 0 0.046771683079868627 0.1089772416004138 0 0.046771683079868627 0.1089772416004138 0 0.042875633238578528 0.09739353282270094 0 0.034382595390138257 0.1099700727945534 0 0.042875633238578528 0.09739353282270094 0 0.034382595390138257 0.1099700727945534 0 0.030708755379597181 0.088685576768743155 0 0.034382595390138257 0.1099700727945534 0 0.030708755379597181 0.088685576768743155 0 0.052595679859244633 0.1236025024456274 0 0.046771683079868627 0.1089772416004138 0 0.034382595390138257 0.1099700727945534 0 0.034382595390138257 0.1099700727945534 0 0.02520709702204247 0.1232263280856261 0 0.037354296692750887 0.12718670835402709 0 0.052595679859244633 0.1236025024456274 0 0.034382595390138257 0.1099700727945534 0 0.037354296692750887 0.12718670835402709 0 0.034382595390138257 0.1099700727945534 0 0.037354296692750887 0.12718670835402709 0 0.052595679859244633 0.1236025024456274 0 0.034382595390138257 0.1099700727945534 0 0.060132464308973767 0.062986029428160187 0 0.051537231586459821 0.0703604747810012 0 0.044258496001147778 0.063884183083345675 0 0.051537231586459821 0.0703604747810012 0 0.045053238281461433 0.071665999821029613 0 0.044258496001147778 0.063884183083345675 0 0.060132464308973767 0.062986029428160187 0 0.058160070023191839 0.074213970699792686 0 0.051537231586459821 0.0703604747810012 0 0.068637102026180674 0.07792917868559901 0 0.060132464308973767 0.062986029428160187 0 0.058160070023191839 0.074213970699792686 0 0.051537231586459821 0.0703604747810012 0 0.049495561811348857 0.078896267932753172 0 0.045053238281461433 0.071665999821029613 0 0.058160070023191839 0.074213970699792686 0 0.051537231586459821 0.0703604747810012 0 0.049495561811348857 0.078896267932753172 0 0.049495561811348857 0.078896267932753172 0 0.051535176025136201 0.090416251810209708 0 0.041750220721871581 0.085344735896560275 0 0.049495561811348857 0.078896267932753172 0 0.060111091978902922 0.083782113849914977 0 0.051535176025136201 0.090416251810209708 0 0.068637102026180674 0.07792917868559901 0 0.058160070023191839 0.074213970699792686 0 0.060111091978902922 0.083782113849914977 0 0.058160070023191839 0.074213970699792686 0 0.049495561811348857 0.078896267932753172 0 0.060111091978902922 0.083782113849914977 0 0.06135777996986308 0.093915161513068182 0 0.060111091978902922 0.083782113849914977 0 0.051535176025136201 0.090416251810209708 0 0.042875633238578528 0.09739353282270094 0 0.051535176025136201 0.090416251810209708 0 0.041750220721871581 0.085344735896560275 0 0.042875633238578528 0.09739353282270094 0 0.041750220721871581 0.085344735896560275 0 0.030708755379597181 0.088685576768743155 0 0.041750220721871581 0.085344735896560275 0 0.037489048909448763 0.07466528487264068 0 0.030708755379597181 0.088685576768743155 0 0.049495561811348857 0.078896267932753172 0 0.041750220721871581 0.085344735896560275 0 0.037489048909448763 0.07466528487264068 0 0.037489048909448763 0.07466528487264068 0 0.02703491536905472 0.067401080742933134 0 0.030708755379597181 0.088685576768743155 0 0.049495561811348857 0.078896267932753172 0 0.045053238281461433 0.071665999821029613 0 0.037489048909448763 0.07466528487264068 0 0.045053238281461433 0.071665999821029613 0 0.037489048909448763 0.07466528487264068 0 0.037579666130808903 0.067774354445351542 0 0.034062632092931817 0.061255223706808547 0 0.037579666130808903 0.067774354445351542 0 0.02703491536905472 0.067401080742933134 0 0.037489048909448763 0.07466528487264068 0 0.037579666130808903 0.067774354445351542 0 0.02703491536905472 0.067401080742933134 0 0.034062632092931817 0.061255223706808547 0 0.037579666130808903 0.067774354445351542 0 0.044258496001147778 0.063884183083345675 0 0.045053238281461433 0.071665999821029613 0 0.037579666130808903 0.067774354445351542 0 0.044258496001147778 0.063884183083345675 0 0.02703491536905472 0.067401080742933134 0 0.030708755379597181 0.088685576768743155 0 0.01366790099406239 0.052632887419703241 0 0.026593398378051959 0.076487299351285121 0 0.01366790099406239 0.052632887419703241 0 0.02703491536905472 0.067401080742933134 0 0.026593398378051959 0.076487299351285121 0 0.02703491536905472 0.067401080742933134 0 0.026593398378051959 0.076487299351285121 0 0.030708755379597181 0.088685576768743155 0 0.01366790099406239 0.052632887419703241 0 0.026593398378051959 0.076487299351285121 0 0.01611389888654503 0.070322973248010373 0 0.026593398378051959 0.076487299351285121 0 0.01611389888654503 0.070322973248010373 0 0.01767063525815666 0.080500261616376856 0 0.01767063525815666 0.080500261616376856 0 0.030708755379597181 0.088685576768743155 0 0.011643404763696401 0.092949868607662828 0 0.026593398378051959 0.076487299351285121 0 0.01767063525815666 0.080500261616376856 0 0.030708755379597181 0.088685576768743155 0 0.01767063525815666 0.080500261616376856 0 0.011643404763696401 0.092949868607662828 0 0.0065236609159091173 0.071671444604676282 0 -0.01109578586274463 0.07592966442077155 0 0.011643404763696401 0.092949868607662828 0 0.0065236609159091173 0.071671444604676282 0 -0.01109578586274463 0.07592966442077155 0 0.011643404763696401 0.092949868607662828 0 0.01366790099406239 0.052632887419703241 0 0.01611389888654503 0.070322973248010373 0 0.0065236609159091173 0.071671444604676282 0 0.01611389888654503 0.070322973248010373 0 0.01767063525815666 0.080500261616376856 0 0.0065236609159091173 0.071671444604676282 0 -0.0031702267477386531 0.067180855403790804 0 0.00079413703044923156 0.058803151297745167 0 0.0065236609159091173 0.071671444604676282 0 0.034382595390138257 0.1099700727945534 0 0.02520709702204247 0.1232263280856261 0 0.01356063639681436 0.11371506303709419 0 0.02520709702204247 0.1232263280856261 0 0.01356063639681436 0.11371506303709419 0 0.011098566836083609 0.13484946890849181 0 0.034382595390138257 0.1099700727945534 0 0.011643404763696401 0.092949868607662828 0 0.01356063639681436 0.11371506303709419 0 0.034382595390138257 0.1099700727945534 0 0.011643404763696401 0.092949868607662828 0 0.034382595390138257 0.1099700727945534 0 0.030708755379597181 0.088685576768743155 0 0.011643404763696401 0.092949868607662828 0 -0.0040088977147468936 0.097024336429998151 0 0.011643404763696401 0.092949868607662828 0 0.0025937760044158291 0.1064596481343341 0 0.011643404763696401 0.092949868607662828 0 0.0025937760044158291 0.1064596481343341 0 0.01356063639681436 0.11371506303709419 0 -0.007175360702145514 0.1155930690216506 0 0.0025937760044158291 0.1064596481343341 0 0.01356063639681436 0.11371506303709419 0 -0.007175360702145514 0.1155930690216506 0 0.01356063639681436 0.11371506303709419 0 0.011098566836083609 0.13484946890849181 0 -0.007175360702145514 0.1155930690216506 0 0.011098566836083609 0.13484946890849181 0 0.02520709702204247 0.1232263280856261 0 0.011098566836083609 0.13484946890849181 0 0.028759663239593541 0.13617761485890201 0 0.02520709702204247 0.1232263280856261 0 0.028759663239593541 0.13617761485890201 0 0.037354296692750887 0.12718670835402709 0 0.011098566836083609 0.13484946890849181 0 0.029372494374312729 0.15410586879533311 0 0.013538337341477229 0.1636201682865295 0 0.011098566836083609 0.13484946890849181 0 0.028759663239593541 0.13617761485890201 0 0.029372494374312729 0.15410586879533311 0 0.011098566836083609 0.13484946890849181 0 0.029372494374312729 0.15410586879533311 0 -0.0048034666842798916 0.1614245706846468 0 0.011098566836083609 0.13484946890849181 0 0.013538337341477229 0.1636201682865295 0 -0.0057956805663459468 0.1892940575843915 0 -0.0048034666842798916 0.1614245706846468 0 0.013538337341477229 0.1636201682865295 0 -0.0057956805663459468 0.1892940575843915 0 0.013538337341477229 0.1636201682865295 0 0.020045678312652242 0.18090880435863019 0 -0.0057956805663459468 0.1892940575843915 0 0.020045678312652242 0.18090880435863019 0 0.029372494374312729 0.15410586879533311 0 0.013538337341477229 0.1636201682865295 0 0.020045678312652242 0.18090880435863019 0 0.029372494374312729 0.15410586879533311 0 0.045887037191650451 0.17252355113286891 0 0.04813315871709322 0.1541455757588851 0 0.029372494374312729 0.15410586879533311 0 0.020045678312652242 0.18090880435863019 0 0.045887037191650451 0.17252355113286891 0 0.020045678312652242 0.18090880435863019 0 0.045887037191650451 0.17252355113286891 0 0.020045678312652242 0.18090880435863019 0 0.045887037191650451 0.17252355113286891 0 0.041991232206495782 0.1919910870650737 0 0.045887037191650451 0.17252355113286891 0 0.060802696405823108 0.1787365445376432 0 0.041991232206495782 0.1919910870650737 0 0.045887037191650451 0.17252355113286891 0 0.071728396070648653 0.1641382979071076 0 0.045887037191650451 0.17252355113286891 0 0.060802696405823108 0.1787365445376432 0 0.071728396070648653 0.1641382979071076 0 0.045887037191650451 0.17252355113286891 0 0.059657673584757237 0.15824269734654939 0 0.04813315871709322 0.1541455757588851 0 0.045887037191650451 0.17252355113286891 0 0.059657673584757237 0.15824269734654939 0 0.071728396070648653 0.1641382979071076 0 0.059657673584757237 0.15824269734654939 0 0.04813315871709322 0.1541455757588851 0 0.060329678829100349 0.1474246815113264 0 0.04813315871709322 0.1541455757588851 0 0.050215372913412007 0.1458935282758238 0 0.060329678829100349 0.1474246815113264 0 0.050215372913412007 0.1458935282758238 0 0.060329678829100349 0.1474246815113264 0 0.052072656112092337 0.13760051191958289 0 0.050215372913412007 0.1458935282758238 0 0.052072656112092337 0.13760051191958289 0 0.040325997995362128 0.14440334391350099 0 0.060329678829100349 0.1474246815113264 0 0.062159468211553673 0.13737243366585769 0 0.052072656112092337 0.13760051191958289 0 0.062159468211553673 0.13737243366585769 0 0.054733357378362921 0.13083888414419281 0 0.052072656112092337 0.13760051191958289 0 0.052595679859244633 0.1236025024456274 0 0.054733357378362921 0.13083888414419281 0 0.061109117960118017 0.12720913792676911 0 0.062159468211553673 0.13737243366585769 0 0.054733357378362921 0.13083888414419281 0 0.061109117960118017 0.12720913792676911 0 0.052595679859244633 0.1236025024456274 0 0.054733357378362921 0.13083888414419281 0 0.046346625143134958 0.1312929959830558 0 0.054733357378362921 0.13083888414419281 0 0.052072656112092337 0.13760051191958289 0 0.046346625143134958 0.1312929959830558 0 0.037354296692750887 0.12718670835402709 0 0.040325997995362128 0.14440334391350099 0 0.046346625143134958 0.1312929959830558 0 0.037354296692750887 0.12718670835402709 0 0.040325997995362128 0.14440334391350099 0 0.028759663239593541 0.13617761485890201 0 0.037354296692750887 0.12718670835402709 0 0.040325997995362128 0.14440334391350099 0 0.052072656112092337 0.13760051191958289 0 0.046346625143134958 0.1312929959830558 0 0.040325997995362128 0.14440334391350099 0 0.052595679859244633 0.1236025024456274 0 0.046346625143134958 0.1312929959830558 0 0.037354296692750887 0.12718670835402709 0 0.028759663239593541 0.13617761485890201 0 0.029372494374312729 0.15410586879533311 0 0.040325997995362128 0.14440334391350099 0 0.029372494374312729 0.15410586879533311 0 0.04813315871709322 0.1541455757588851 0 0.040325997995362128 0.14440334391350099 0 0.04813315871709322 0.1541455757588851 0 0.050215372913412007 0.1458935282758238 0 0.040325997995362128 0.14440334391350099 0 0.025149977659741599 0.24684982625080901 0 0.00014186162909880781 0.2338185852574263 0 0.02177620002751179 0.22559840920251981 0 0.025149977659741599 0.24684982625080901 0 0.00014186162909880781 0.2338185852574263 0 0.025149977659741599 0.24684982625080901 0 0.00014186162909880781 0.2338185852574263 0 0.0073806355134042019 0.25529449578482938 0 0.00014186162909880781 0.2338185852574263 0 0.02177620002751179 0.22559840920251981 0 0.0090806704795409685 0.20996839310177981 0 0.025149977659741599 0.24684982625080901 0 0.02177620002751179 0.22559840920251981 0 0.039960986899899173 0.22780444499479169 0 0.02177620002751179 0.22559840920251981 0 0.0090806704795409685 0.20996839310177981 0 0.034547503469278373 0.20955079640779209 0 0.0090806704795409685 0.20996839310177981 0 0.02162293693503077 0.1981024475624624 0 0.034547503469278373 0.20955079640779209 0 -0.0057956805663459468 0.1892940575843915 0 0.0090806704795409685 0.20996839310177981 0 0.02162293693503077 0.1981024475624624 0 -0.0057956805663459468 0.1892940575843915 0 0.020045678312652242 0.18090880435863019 0 0.02162293693503077 0.1981024475624624 0 0.020045678312652242 0.18090880435863019 0 0.02162293693503077 0.1981024475624624 0 0.041991232206495782 0.1919910870650737 0 0.02162293693503077 0.1981024475624624 0 0.041991232206495782 0.1919910870650737 0 0.034547503469278373 0.20955079640779209 0 0.041991232206495782 0.1919910870650737 0 0.05849467095877426 0.1965416733816682 0 0.050764695011206777 0.20916964222725651 0 0.060802696405823108 0.1787365445376432 0 0.041991232206495782 0.1919910870650737 0 0.05849467095877426 0.1965416733816682 0 0.050764695011206777 0.20916964222725651 0 0.066981886553135278 0.20878848804672309 0 0.05849467095877426 0.1965416733816682 0 0.050764695011206777 0.20916964222725651 0 0.066981886553135278 0.20878848804672309 0 0.050764695011206777 0.20916964222725651 0 0.061514006406540499 0.23071042489022231 0 0.066981886553135278 0.20878848804672309 0 0.050764695011206777 0.20916964222725651 0 0.034547503469278373 0.20955079640779209 0 0.039960986899899173 0.22780444499479169 0 0.050764695011206777 0.20916964222725651 0 0.034547503469278373 0.20955079640779209 0 0.041991232206495782 0.1919910870650737 0 0.050764695011206777 0.20916964222725651 0 0.034547503469278373 0.20955079640779209 0 0.02177620002751179 0.22559840920251981 0 0.034547503469278373 0.20955079640779209 0 0.039960986899899173 0.22780444499479169 0 0.039960986899899173 0.22780444499479169 0 0.061514006406540499 0.23071042489022231 0 0.045472231705318063 0.24424317023843681 0 0.050764695011206777 0.20916964222725651 0 0.039960986899899173 0.22780444499479169 0 0.061514006406540499 0.23071042489022231 0 0.061514006406540499 0.23071042489022231 0 0.056046126259945157 0.25263236173372139 0 0.061514006406540499 0.23071042489022231 0 0.056046126259945157 0.25263236173372139 0 0.067905867336300579 0.25358800162702 0 0.061514006406540499 0.23071042489022231 0 0.045472231705318063 0.24424317023843681 0 0.056046126259945157 0.25263236173372139 0 0.025149977659741599 0.24684982625080901 0 0.039960986899899173 0.22780444499479169 0 0.045472231705318063 0.24424317023843681 0 0.092857250133516089 0.24175825718487831 0 0.078525547080241467 0.2465942846531784 0 0.093798877441032588 0.2579700649065903 0 0.092857250133516089 0.24175825718487831 0 0.078525547080241467 0.2465942846531784 0 0.081986142109724491 0.22560265144644431 0 0.061514006406540499 0.23071042489022231 0 0.078525547080241467 0.2465942846531784 0 0.067905867336300579 0.25358800162702 0 0.061514006406540499 0.23071042489022231 0 0.078525547080241467 0.2465942846531784 0 0.081986142109724491 0.22560265144644431 0 0.061514006406540499 0.23071042489022231 0 0.081986142109724491 0.22560265144644431 0 0.066981886553135278 0.20878848804672309 0 0.061514006406540499 0.23071042489022231 0 0.066981886553135278 0.20878848804672309 0 0.081986142109724491 0.22560265144644431 0 0.09236794217301933 0.20819183719001669 0 0.066981886553135278 0.20878848804672309 0 0.09236794217301933 0.20819183719001669 0 0.066981886553135278 0.20878848804672309 0 0.09236794217301933 0.20819183719001669 0 0.066981886553135278 0.20878848804672309 0 0.071445073857882777 0.19089458628000441 0 0.060802696405823108 0.1787365445376432 0 0.05849467095877426 0.1965416733816682 0 0.071445073857882777 0.19089458628000441 0 0.066981886553135278 0.20878848804672309 0 0.071445073857882777 0.19089458628000441 0 0.05849467095877426 0.1965416733816682 0 0.066981886553135278 0.20878848804672309 0 0.071445073857882777 0.19089458628000441 0 0.09236794217301933 0.20819183719001669 0 0.071445073857882777 0.19089458628000441 0 0.086464584236575506 0.1862285865309723 0 0.09236794217301933 0.20819183719001669 0 0.086464584236575506 0.1862285865309723 0 0.1023855527362314 0.18749689463882899 0 0.09236794217301933 0.20819183719001669 0 0.11775399779290339 0.20759518633331239 0 0.1023855527362314 0.18749689463882899 0 0.11775399779290339 0.20759518633331239 0 0.1023855527362314 0.18749689463882899 0 0.12550986450034471 0.186594373040398 0 0.09236794217301933 0.20819183719001669 0 0.11775399779290339 0.20759518633331239 0 0.09236794217301933 0.20819183719001669 0 0.11775399779290339 0.20759518633331239 0 0.10906069526472741 0.22998953009969161 0 0.092857250133516089 0.24175825718487831 0 0.081986142109724491 0.22560265144644431 0 0.10906069526472741 0.22998953009969161 0 0.081986142109724491 0.22560265144644431 0 0.09236794217301933 0.20819183719001669 0 0.10906069526472741 0.22998953009969161 0 0.11775399779290339 0.20759518633331239 0 0.10906069526472741 0.22998953009969161 0 0.1382648444377183 0.22719855966067881 0 0.10906069526472741 0.22998953009969161 0 0.12787711237058769 0.24521089126939841 0 0.1100607559553454 0.25396994184181759 0 0.092857250133516089 0.24175825718487831 0 0.10906069526472741 0.22998953009969161 0 0.1100607559553454 0.25396994184181759 0 0.081151633673542972 0.15313158297098389 0 0.083920606388658545 0.14050817004821939 0 0.0975697549496468 0.15575304468134629 0 0.081151633673542972 0.15313158297098389 0 0.083920606388658545 0.14050817004821939 0 0.071387777285217918 0.15212681924726251 0 0.074154959480044275 0.1204842858357125 0 0.087075880893963842 0.12621803440601359 0 0.083920606388658545 0.14050817004821939 0 0.087075880893963842 0.12621803440601359 0 0.083920606388658545 0.14050817004821939 0 0.097906888154765004 0.1362305538396491 0 0.062159468211553673 0.13737243366585769 0 0.061109117960118017 0.12720913792676911 0 0.083920606388658545 0.14050817004821939 0 0.074154959480044275 0.1204842858357125 0 0.061109117960118017 0.12720913792676911 0 0.083920606388658545 0.14050817004821939 0 0.061109117960118017 0.12720913792676911 0 0.083920606388658545 0.14050817004821939 0 0.062159468211553673 0.13737243366585769 0 0.083920606388658545 0.14050817004821939 0 0.069449382678632612 0.1443580261181665 0 0.060329678829100349 0.1474246815113264 0 0.062159468211553673 0.13737243366585769 0 0.069449382678632612 0.1443580261181665 0 0.060329678829100349 0.1474246815113264 0 0.069449382678632612 0.1443580261181665 0 0.071387777285217918 0.15212681924726251 0 0.083920606388658545 0.14050817004821939 0 0.069449382678632612 0.1443580261181665 0 0.071387777285217918 0.15212681924726251 0 0.059657673584757237 0.15824269734654939 0 0.060329678829100349 0.1474246815113264 0 0.071387777285217918 0.15212681924726251 0 0.059657673584757237 0.15824269734654939 0 0.071387777285217918 0.15212681924726251 0 0.071728396070648653 0.1641382979071076 0 0.081151633673542972 0.15313158297098389 0 0.071387777285217918 0.15212681924726251 0 0.071728396070648653 0.1641382979071076 0 0.071445073857882777 0.19089458628000441 0 0.075908261162629706 0.17300068451328551 0 0.086464584236575506 0.1862285865309723 0 0.060802696405823108 0.1787365445376432 0 0.071445073857882777 0.19089458628000441 0 0.075908261162629706 0.17300068451328551 0 0.071445073857882777 0.19089458628000441 0 0.075908261162629706 0.17300068451328551 0 0.060802696405823108 0.1787365445376432 0 0.071728396070648653 0.1641382979071076 0 0.075908261162629706 0.17300068451328551 0 0.086464584236575506 0.1862285865309723 0 0.090216091253114361 0.17155893003272579 0 0.1023855527362314 0.18749689463882899 0 0.075908261162629706 0.17300068451328551 0 0.086464584236575506 0.1862285865309723 0 0.090216091253114361 0.17155893003272579 0 0.081151633673542972 0.15313158297098389 0 0.071728396070648653 0.1641382979071076 0 0.0975697549496468 0.15575304468134629 0 0.071728396070648653 0.1641382979071076 0 0.090216091253114361 0.17155893003272579 0 0.0975697549496468 0.15575304468134629 0 0.071728396070648653 0.1641382979071076 0 0.075908261162629706 0.17300068451328551 0 0.090216091253114361 0.17155893003272579 0 0.071728396070648653 0.1641382979071076 0 0.0975697549496468 0.15575304468134629 0 0.090216091253114361 0.17155893003272579 0 0.1064810698159025 0.16893633516972181 0 0.0975697549496468 0.15575304468134629 0 0.1064810698159025 0.16893633516972181 0 0.1067320948171991 0.1538072021696697 0 0.0975697549496468 0.15575304468134629 0 0.090216091253114361 0.17155893003272579 0 0.1064810698159025 0.16893633516972181 0 0.1023855527362314 0.18749689463882899 0 0.1064810698159025 0.16893633516972181 0 0.12954358324573961 0.16710623429112001 0 0.12550986450034471 0.186594373040398 0 0.1064810698159025 0.16893633516972181 0 0.1023855527362314 0.18749689463882899 0 0.12550986450034471 0.186594373040398 0 0.1064810698159025 0.16893633516972181 0 0.1067320948171991 0.1538072021696697 0 0.12954358324573961 0.16710623429112001 0 0.1067320948171991 0.1538072021696697 0 0.1262856736452258 0.1537478882528979 0 0.12954358324573961 0.16710623429112001 0 0.1067320948171991 0.1538072021696697 0 0.12954358324573961 0.16710623429112001 0 0.1148569119608701 0.14824987142416859 0 0.1067320948171991 0.1538072021696697 0 0.1262856736452258 0.1537478882528979 0 0.118317888191051 0.14254191757659121 0 0.1148569119608701 0.14824987142416859 0 0.1262856736452258 0.1537478882528979 0 0.118317888191051 0.14254191757659121 0 0.12756241452120801 0.13893694775055651 0 0.1262856736452258 0.1537478882528979 0 0.1148569119608701 0.14824987142416859 0 0.1067320948171991 0.1538072021696697 0 0.1080919911900045 0.14290247769751591 0 0.118317888191051 0.14254191757659121 0 0.1148569119608701 0.14824987142416859 0 0.1080919911900045 0.14290247769751591 0 0.083920606388658545 0.14050817004821939 0 0.1067320948171991 0.1538072021696697 0 0.1067320948171991 0.1538072021696697 0 0.1080919911900045 0.14290247769751591 0 0.097906888154765004 0.1362305538396491 0 0.083920606388658545 0.14050817004821939 0 0.1067320948171991 0.1538072021696697 0 0.097906888154765004 0.1362305538396491 0 0.083920606388658545 0.14050817004821939 0 0.1067320948171991 0.1538072021696697 0 0.0975697549496468 0.15575304468134629 0 0.096984900528893664 0.1212489081817222 0 0.097906888154765004 0.1362305538396491 0 0.10589272808503949 0.13156516273042271 0 0.096984900528893664 0.1212489081817222 0 0.087075880893963842 0.12621803440601359 0 0.097906888154765004 0.1362305538396491 0 0.1080919911900045 0.14290247769751591 0 0.097906888154765004 0.1362305538396491 0 0.10589272808503949 0.13156516273042271 0 0.1080919911900045 0.14290247769751591 0 0.10589272808503949 0.13156516273042271 0 0.11327312463209829 0.13597294690712769 0 0.10712684862241641 0.1210429748963526 0 0.10589272808503949 0.13156516273042271 0 0.114987521205969 0.1268010028982309 0 0.10589272808503949 0.13156516273042271 0 0.114987521205969 0.1268010028982309 0 0.11327312463209829 0.13597294690712769 0 0.114987521205969 0.1268010028982309 0 0.11327312463209829 0.13597294690712769 0 0.1203000125167645 0.13336293759413789 0 0.118317888191051 0.14254191757659121 0 0.1080919911900045 0.14290247769751591 0 0.11327312463209829 0.13597294690712769 0 0.118317888191051 0.14254191757659121 0 0.1203000125167645 0.13336293759413789 0 0.12756241452120801 0.13893694775055651 0 0.118317888191051 0.14254191757659121 0 0.11327312463209829 0.13597294690712769 0 0.1203000125167645 0.13336293759413789 0 0.12212988809696081 0.1249307776834532 0 0.114987521205969 0.1268010028982309 0 0.1203000125167645 0.13336293759413789 0 0.12212988809696081 0.1249307776834532 0 0.1203000125167645 0.13336293759413789 0 0.12788127083107459 0.1291064789800366 0 0.12788127083107459 0.1291064789800366 0 0.13409394305489639 0.1257339851238449 0 0.12813823657366311 0.12049833089676459 0 0.12788127083107459 0.1291064789800366 0 0.13410827310584911 0.13282331674432049 0 0.13409394305489639 0.1257339851238449 0 0.12788127083107459 0.1291064789800366 0 0.12756241452120801 0.13893694775055651 0 0.13410827310584911 0.13282331674432049 0 0.1203000125167645 0.13336293759413789 0 0.12788127083107459 0.1291064789800366 0 0.12756241452120801 0.13893694775055651 0 0.13410827310584911 0.13282331674432049 0 0.14295710802469111 0.12768772724150559 0 0.13848136883728299 0.14203914735535511 0 0.12756241452120801 0.13893694775055651 0 0.13410827310584911 0.13282331674432049 0 0.13848136883728299 0.14203914735535511 0 0.13410827310584911 0.13282331674432049 0 0.13409394305489639 0.1257339851238449 0 0.14295710802469111 0.12768772724150559 0 0.14295710802469111 0.12768772724150559 0 0.15698787762036359 0.14007723406829989 0 0.15364605026385231 0.1227496740475859 0 0.14295710802469111 0.12768772724150559 0 0.13848136883728299 0.14203914735535511 0 0.15698787762036359 0.14007723406829989 0 0.13848136883728299 0.14203914735535511 0 0.1441447949138806 0.1573716891147208 0 0.15698787762036359 0.14007723406829989 0 0.1441447949138806 0.1573716891147208 0 0.1598153361361678 0.15982657838785511 0 0.15698787762036359 0.14007723406829989 0 0.13848136883728299 0.14203914735535511 0 0.1262856736452258 0.1537478882528979 0 0.1441447949138806 0.1573716891147208 0 0.12756241452120801 0.13893694775055651 0 0.13848136883728299 0.14203914735535511 0 0.1262856736452258 0.1537478882528979 0 0.1262856736452258 0.1537478882528979 0 0.12954358324573961 0.16710623429112001 0 0.1441447949138806 0.1573716891147208 0 0.12954358324573961 0.16710623429112001 0 0.12550986450034471 0.186594373040398 0 0.15375492999850379 0.1814330523327968 0 0.12954358324573961 0.16710623429112001 0 0.15375492999850379 0.1814330523327968 0 0.1441447949138806 0.1573716891147208 0 0.15375492999850379 0.1814330523327968 0 0.1441447949138806 0.1573716891147208 0 0.1598153361361678 0.15982657838785511 0 0.1598153361361678 0.15982657838785511 0 0.17205847002769489 0.1711246398383999 0 0.17247097746626519 0.1464629757798975 0 0.15375492999850379 0.1814330523327968 0 0.1598153361361678 0.15982657838785511 0 0.17205847002769489 0.1711246398383999 0 0.15375492999850379 0.1814330523327968 0 0.17205847002769489 0.1711246398383999 0 0.18411838942066619 0.18828130780555291 0 0.17205847002769489 0.1711246398383999 0 0.18411838942066619 0.18828130780555291 0 0.19050902449260759 0.164433536692701 0 0.17205847002769489 0.1711246398383999 0 0.17247097746626519 0.1464629757798975 0 0.19050902449260759 0.164433536692701 0 0.17247097746626519 0.1464629757798975 0 0.1903693880120208 0.14015559280000461 0 0.19050902449260759 0.164433536692701 0 0.17247097746626519 0.1464629757798975 0 0.18002451345814399 0.12716596121819479 0 0.1903693880120208 0.14015559280000461 0 0.17247097746626519 0.1464629757798975 0 0.18002451345814399 0.12716596121819479 0 0.16417220099380411 0.12505127510387981 0 0.15698787762036359 0.14007723406829989 0 0.16417220099380411 0.12505127510387981 0 0.15364605026385231 0.1227496740475859 0 0.17247097746626519 0.1464629757798975 0 0.15698787762036359 0.14007723406829989 0 0.16417220099380411 0.12505127510387981 0 0.1598153361361678 0.15982657838785511 0 0.17247097746626519 0.1464629757798975 0 0.15698787762036359 0.14007723406829989 0 0.14702044576598061 0.2478904659134552 0 0.1382648444377183 0.22719855966067881 0 0.15828943790025421 0.22969507774947781 0 0.14702044576598061 0.2478904659134552 0 0.12787711237058769 0.24521089126939841 0 0.1382648444377183 0.22719855966067881 0 0.10906069526472741 0.22998953009969161 0 0.12787711237058769 0.24521089126939841 0 0.1382648444377183 0.22719855966067881 0 0.1382648444377183 0.22719855966067881 0 0.14314005341278749 0.20699853547660821 0 0.15828943790025421 0.22969507774947781 0 0.14314005341278749 0.20699853547660821 0 0.16852610903267151 0.206401884619904 0 0.11775399779290339 0.20759518633331239 0 0.1382648444377183 0.22719855966067881 0 0.14314005341278749 0.20699853547660821 0 0.11775399779290339 0.20759518633331239 0 0.14314005341278749 0.20699853547660821 0 0.11775399779290339 0.20759518633331239 0 0.12550986450034471 0.186594373040398 0 0.14314005341278749 0.20699853547660821 0 0.15375492999850379 0.1814330523327968 0 0.14314005341278749 0.20699853547660821 0 0.16852610903267151 0.206401884619904 0 0.12550986450034471 0.186594373040398 0 0.15375492999850379 0.1814330523327968 0 0.14314005341278749 0.20699853547660821 0 0.15375492999850379 0.1814330523327968 0 0.18411838942066619 0.18828130780555291 0 0.16852610903267151 0.206401884619904 0 0.18411838942066619 0.18828130780555291 0 0.16852610903267151 0.206401884619904 0 0.1878214256448299 0.20672411698152671 0 0.16852610903267151 0.206401884619904 0 0.17766068788986381 0.23020170431202469 0 0.1878214256448299 0.20672411698152671 0 0.14314005341278749 0.20699853547660821 0 0.16852610903267151 0.206401884619904 0 0.15828943790025421 0.22969507774947781 0 0.16852610903267151 0.206401884619904 0 0.15828943790025421 0.22969507774947781 0 0.17766068788986381 0.23020170431202469 0 0.17766068788986381 0.23020170431202469 0 0.19353513124668931 0.22246748781277501 0 0.1878214256448299 0.20672411698152671 0 0.17766068788986381 0.23020170431202469 0 0.18692125413578081 0.24552837502103991 0 0.19379669244916639 0.23440003217329089 0 0.17766068788986381 0.23020170431202469 0 0.18692125413578081 0.24552837502103991 0 0.16774616909827719 0.2460930353984315 0 0.15828943790025421 0.22969507774947781 0 0.17766068788986381 0.23020170431202469 0 0.16774616909827719 0.2460930353984315 0 0.14702044576598061 0.2478904659134552 0 0.15828943790025421 0.22969507774947781 0 0.16774616909827719 0.2460930353984315 0 0.21557305570370441 0.24515722135805329 0 0.2029257889591993 0.24295866219667439 0 0.23007231546290949 0.2334513308517342 0 0.2029257889591993 0.24295866219667439 0 0.23007231546290949 0.2334513308517342 0 0.21557305570370441 0.24515722135805329 0 0.2029257889591993 0.24295866219667439 0 0.20107379594449931 0.25686311186437227 0 0.18692125413578081 0.24552837502103991 0 0.2029257889591993 0.24295866219667439 0 0.20107379594449931 0.25686311186437227 0 0.18692125413578081 0.24552837502103991 0 0.19379669244916639 0.23440003217329089 0 0.2029257889591993 0.24295866219667439 0 0.17766068788986381 0.23020170431202469 0 0.19379669244916639 0.23440003217329089 0 0.19353513124668931 0.22246748781277501 0 0.19379669244916639 0.23440003217329089 0 0.2029257889591993 0.24295866219667439 0 0.20920449219815451 0.22515354045629349 0 0.19379669244916639 0.23440003217329089 0 0.19353513124668931 0.22246748781277501 0 0.20920449219815451 0.22515354045629349 0 0.2029257889591993 0.24295866219667439 0 0.20920449219815451 0.22515354045629349 0 0.23007231546290949 0.2334513308517342 0 0.19353513124668931 0.22246748781277501 0 0.20920449219815451 0.22515354045629349 0 0.20732414099141369 0.20672295990195361 0 0.20920449219815451 0.22515354045629349 0 0.20732414099141369 0.20672295990195361 0 0.22783619495118521 0.20973527166224001 0 0.19353513124668931 0.22246748781277501 0 0.20732414099141369 0.20672295990195361 0 0.1878214256448299 0.20672411698152671 0 0.18411838942066619 0.18828130780555291 0 0.1878214256448299 0.20672411698152671 0 0.20343121377691101 0.18825927067945539 0 0.20732414099141369 0.20672295990195361 0 0.1878214256448299 0.20672411698152671 0 0.20343121377691101 0.18825927067945539 0 0.20732414099141369 0.20672295990195361 0 0.20343121377691101 0.18825927067945539 0 0.2219787971027708 0.18678942035429349 0 0.20732414099141369 0.20672295990195361 0 0.22783619495118521 0.20973527166224001 0 0.2219787971027708 0.18678942035429349 0 0.24528107816237801 0.1907036486386274 0 0.22783619495118521 0.20973527166224001 0 0.2219787971027708 0.18678942035429349 0 0.24528107816237801 0.1907036486386274 0 0.25242827713160498 0.21540237912569379 0 0.24528107816237801 0.1907036486386274 0 0.22783619495118521 0.20973527166224001 0 0.25242827713160498 0.21540237912569379 0 0.20920449219815451 0.22515354045629349 0 0.22783619495118521 0.20973527166224001 0 0.23007231546290949 0.2334513308517342 0 0.23007231546290949 0.2334513308517342 0 0.25242827713160498 0.21540237912569379 0 0.23007231546290949 0.2334513308517342 0 0.25511338863332461 0.22468137717712711 0 0.25242827713160498 0.21540237912569379 0 0.23007231546290949 0.2334513308517342 0 0.25511338863332461 0.22468137717712711 0 0.23007231546290949 0.2334513308517342 0 0.2457442494512444 0.24022391879071339 0 0.25511338863332461 0.22468137717712711 0 0.22783619495118521 0.20973527166224001 0 0.23007231546290949 0.2334513308517342 0 0.25242827713160498 0.21540237912569379 0 0.2457442494512444 0.24022391879071339 0 0.23628031136540401 0.25597328662156199 0 0.26221447651104962 0.2479993693513689 0 0.23007231546290949 0.2334513308517342 0 0.2457442494512444 0.24022391879071339 0 0.23628031136540401 0.25597328662156199 0 0.21557305570370441 0.24515722135805329 0 0.23007231546290949 0.2334513308517342 0 0.23628031136540401 0.25597328662156199 0 0.21557305570370441 0.24515722135805329 0 0.23007231546290949 0.2334513308517342 0 0.21023583046185859 0.14706018503428281 0 0.22521494488481819 0.12557893006429149 0 0.2001236667938262 0.1180422718546187 0 0.18002451345814399 0.12716596121819479 0 0.1903693880120208 0.14015559280000461 0 0.2001236667938262 0.1180422718546187 0 0.21023583046185859 0.14706018503428281 0 0.1903693880120208 0.14015559280000461 0 0.2001236667938262 0.1180422718546187 0 0.21023583046185859 0.14706018503428281 0 0.1903693880120208 0.14015559280000461 0 0.19050902449260759 0.164433536692701 0 0.18411838942066619 0.18828130780555291 0 0.20343121377691101 0.18825927067945539 0 0.19050902449260759 0.164433536692701 0 0.20343121377691101 0.18825927067945539 0 0.19050902449260759 0.164433536692701 0 0.20962662881846919 0.1707346457134423 0 0.20343121377691101 0.18825927067945539 0 0.20962662881846919 0.1707346457134423 0 0.2219787971027708 0.18678942035429349 0 0.21023583046185859 0.14706018503428281 0 0.20962662881846919 0.1707346457134423 0 0.2254160648188453 0.164078398330023 0 0.21023583046185859 0.14706018503428281 0 0.19050902449260759 0.164433536692701 0 0.20962662881846919 0.1707346457134423 0 0.20962662881846919 0.1707346457134423 0 0.2254160648188453 0.164078398330023 0 0.2219787971027708 0.18678942035429349 0 0.2254160648188453 0.164078398330023 0 0.2219787971027708 0.18678942035429349 0 0.23714843650665229 0.1758398884969993 0 0.24528107816237801 0.1907036486386274 0 0.2219787971027708 0.18678942035429349 0 0.23714843650665229 0.1758398884969993 0 0.24528107816237801 0.1907036486386274 0 0.23714843650665229 0.1758398884969993 0 0.25292738168467233 0.17649485219682931 0 0.2254160648188453 0.164078398330023 0 0.24653130607993951 0.16237692388552691 0 0.23688534306575301 0.1458043597726891 0 0.23714843650665229 0.1758398884969993 0 0.24653130607993951 0.16237692388552691 0 0.25292738168467233 0.17649485219682931 0 0.2254160648188453 0.164078398330023 0 0.23714843650665229 0.1758398884969993 0 0.24653130607993951 0.16237692388552691 0 0.24653130607993951 0.16237692388552691 0 0.2496536413094039 0.15044712256699261 0 0.23688534306575301 0.1458043597726891 0 0.2496536413094039 0.15044712256699261 0 0.23688534306575301 0.1458043597726891 0 0.25004344172447263 0.14019424959050239 0 0.21023583046185859 0.14706018503428281 0 0.2254160648188453 0.164078398330023 0 0.23688534306575301 0.1458043597726891 0 0.21023583046185859 0.14706018503428281 0 0.23688534306575301 0.1458043597726891 0 0.22521494488481819 0.12557893006429149 0 0.22521494488481819 0.12557893006429149 0 0.25030622297580962 0.13311558827396619 0 0.23688534306575301 0.1458043597726891 0 0.22521494488481819 0.12557893006429149 0 0.25030622297580962 0.13311558827396619 0 0.23688534306575301 0.1458043597726891 0 0.25004344172447263 0.14019424959050239 0 0.25030622297580962 0.13311558827396619 0 0.22521494488481819 0.12557893006429149 0 0.2369469616243938 0.1144798656387125 0 0.25030622297580962 0.13311558827396619 0 0.2369469616243938 0.1144798656387125 0 0.25094552198087999 0.11589449234768209 0 0.25030622297580962 0.13311558827396619 0 0.2369469616243938 0.1144798656387125 0 0.25158482098595109 0.098673396421397969 0 0.25094552198087999 0.11589449234768209 0 0.2369469616243938 0.1144798656387125 0 0.2308580048349978 0.09939168424622695 0 0.25158482098595109 0.098673396421397969 0 0.2308580048349978 0.09939168424622695 0 0.2177667053289645 0.10879872465146249 0 0.21723881235993189 0.092441087960636145 0 0.2369469616243938 0.1144798656387125 0 0.2308580048349978 0.09939168424622695 0 0.2177667053289645 0.10879872465146249 0 0.22521494488481819 0.12557893006429149 0 0.2369469616243938 0.1144798656387125 0 0.2177667053289645 0.10879872465146249 0 0.2177667053289645 0.10879872465146249 0 0.1970849337058638 0.1019164286603922 0 0.2001236667938262 0.1180422718546187 0 0.22521494488481819 0.12557893006429149 0 0.2177667053289645 0.10879872465146249 0 0.2001236667938262 0.1180422718546187 0 0.22521494488481819 0.12557893006429149 0 0.2001236667938262 0.1180422718546187 0 0.1970849337058638 0.1019164286603922 0 0.20420713705815571 0.090978010823124941 0 0.21723881235993189 0.092441087960636145 0 0.1970849337058638 0.1019164286603922 0 0.21723881235993189 0.092441087960636145 0 0.2177667053289645 0.10879872465146249 0 0.1970849337058638 0.1019164286603922 0 0.21723881235993189 0.092441087960636145 0 0.1970849337058638 0.1019164286603922 0 0.1916307843626972 0.08827444688259839 0 0.17503238870283441 0.11050561364494491 0 0.2001236667938262 0.1180422718546187 0 0.17503238870283441 0.11050561364494491 0 0.1970849337058638 0.1019164286603922 0 0.2001236667938262 0.1180422718546187 0 0.17503238870283441 0.11050561364494491 0 0.1916307843626972 0.08827444688259839 0 0.2082291800225603 0.066043280120252124 0 0.19067723801237901 0.065525043857756982 0 0.1916307843626972 0.08827444688259839 0 0.2082291800225603 0.066043280120252124 0 0.1916307843626972 0.08827444688259839 0 0.21087401780412959 0.081280079788873041 0 0.20420713705815571 0.090978010823124941 0 0.1970849337058638 0.1019164286603922 0 0.1916307843626972 0.08827444688259839 0 0.20420713705815571 0.090978010823124941 0 0.1916307843626972 0.08827444688259839 0 0.21087401780412959 0.081280079788873041 0 0.2082291800225603 0.066043280120252124 0 0.21087401780412959 0.081280079788873041 0 0.20420713705815571 0.090978010823124941 0 0.21723881235993189 0.092441087960636145 0 0.21087401780412959 0.081280079788873041 0 0.21723881235993189 0.092441087960636145 0 0.22613356481757629 0.0775902723280468 0 0.21087401780412959 0.081280079788873041 0 0.2082291800225603 0.066043280120252124 0 0.22613356481757629 0.0775902723280468 0 0.2082291800225603 0.066043280120252124 0 0.22613356481757629 0.0775902723280468 0 0.2082291800225603 0.066043280120252124 0 0.2259496113806885 0.070300708218039992 0 0.21450653174737461 0.057635669175196122 0 0.2259496113806885 0.070300708218039992 0 0.21450653174737461 0.057635669175196122 0 0.2082291800225603 0.066043280120252124 0 0.2259496113806885 0.070300708218039992 0 0.22613356481757629 0.0775902723280468 0 0.2259496113806885 0.070300708218039992 0 0.2248665156508784 0.061611733455129589 0 0.21450653174737461 0.057635669175196122 0 0.2259496113806885 0.070300708218039992 0 0.22613356481757629 0.0775902723280468 0 0.23739269101400209 0.082965747260884265 0 0.2259496113806885 0.070300708218039992 0 0.23739269101400209 0.082965747260884265 0 0.237967452106535 0.070105640596903412 0 0.2259496113806885 0.070300708218039992 0 0.23739269101400209 0.082965747260884265 0 0.2259496113806885 0.070300708218039992 0 0.2330718446673557 0.064441819436705627 0 0.2248665156508784 0.061611733455129589 0 0.2259496113806885 0.070300708218039992 0 0.2330718446673557 0.064441819436705627 0 0.237967452106535 0.070105640596903412 0 0.2308580048349978 0.09939168424622695 0 0.21723881235993189 0.092441087960636145 0 0.23739269101400209 0.082965747260884265 0 0.21723881235993189 0.092441087960636145 0 0.22613356481757629 0.0775902723280468 0 0.23739269101400209 0.082965747260884265 0 0.21723881235993189 0.092441087960636145 0 0.23739269101400209 0.082965747260884265 0 0.23739269101400209 0.082965747260884265 0 0.25158482098595109 0.098673396421397969 0 0.23739269101400209 0.082965747260884265 0 0.25243039498113262 0.075895774732197205 0 0.25158482098595109 0.098673396421397969 0 0.2308580048349978 0.09939168424622695 0 0.23739269101400209 0.082965747260884265 0 0.25158482098595109 0.098673396421397969 0 0.23739269101400209 0.082965747260884265 0 0.25243039498113262 0.075895774732197205 0 0.23934469018649959 0.064583282500140851 0 0.237967452106535 0.070105640596903412 0 0.24496427956833819 0.066036472520138348 0 0.2330718446673557 0.064441819436705627 0 0.23934469018649959 0.064583282500140851 0 0.2376257901407148 0.059976102198904507 0 0.2330718446673557 0.064441819436705627 0 0.23934469018649959 0.064583282500140851 0 0.237967452106535 0.070105640596903412 0 0.23739269101400209 0.082965747260884265 0 0.237967452106535 0.070105640596903412 0 0.24429048066179679 0.072622021298478806 0 0.24429048066179679 0.072622021298478806 0 0.24842415088314279 0.069033451464499671 0 0.25243039498113262 0.075895774732197205 0 0.23739269101400209 0.082965747260884265 0 0.24429048066179679 0.072622021298478806 0 0.25243039498113262 0.075895774732197205 0 0.24842415088314279 0.069033451464499671 0 0.24853219730195361 0.063845178725116872 0 0.25274476311700622 0.067427493409812952 0 0.237967452106535 0.070105640596903412 0 0.24429048066179679 0.072622021298478806 0 0.24496427956833819 0.066036472520138348 0 0.24429048066179679 0.072622021298478806 0 0.24842415088314279 0.069033451464499671 0 0.24496427956833819 0.066036472520138348 0 0.23934469018649959 0.064583282500140851 0 0.24496427956833819 0.066036472520138348 0 0.24309408444955441 0.062356377748052388 0 0.24496427956833819 0.066036472520138348 0 0.24602681454492631 0.062964227281045088 0 0.24309408444955441 0.062356377748052388 0 0.24496427956833819 0.066036472520138348 0 0.24602681454492631 0.062964227281045088 0 0.24853219730195361 0.063845178725116872 0 0.24842415088314279 0.069033451464499671 0 0.24496427956833819 0.066036472520138348 0 0.24853219730195361 0.063845178725116872 0 0.24751669685985911 0.059618880130872708 0 0.24309408444955441 0.062356377748052388 0 0.2376257901407148 0.059976102198904507 0 0.24751669685985911 0.059618880130872708 0 0.24426241142214139 0.049994713685017962 0 0.2310385276818335 0.053106641608170198 0 0.24751669685985911 0.059618880130872708 0 0.2376257901407148 0.059976102198904507 0 0.2310385276818335 0.053106641608170198 0 0.24751669685985911 0.059618880130872708 0 0.2310385276818335 0.053106641608170198 0 0.24853219730195361 0.063845178725116872 0 0.24751669685985911 0.059618880130872708 0 0.2530174900015254 0.0600809219264858 0 0.24602681454492631 0.062964227281045088 0 0.24853219730195361 0.063845178725116872 0 0.24751669685985911 0.059618880130872708 0 0.24602681454492631 0.062964227281045088 0 0.24751669685985911 0.059618880130872708 0 0.24309408444955441 0.062356377748052388 0 0.23934469018649959 0.064583282500140851 0 0.24309408444955441 0.062356377748052388 0 0.2376257901407148 0.059976102198904507 0 0.24426241142214139 0.049994713685017962 0 0.23928634064401511 0.040096757013566242 0 0.2310385276818335 0.053106641608170198 0 0.24751669685985911 0.059618880130872708 0 0.24426241142214139 0.049994713685017962 0 0.25102243244437311 0.053297338652025752 0 0.24426241142214139 0.049994713685017962 0 0.25174039047255609 0.044464402284776217 0 0.25102243244437311 0.053297338652025752 0 0.23928634064401511 0.040096757013566242 0 0.2320502206633881 0.021165953515508481 0 0.25044211127373811 0.032849993626191502 0 0.23928634064401511 0.040096757013566242 0 0.25044211127373811 0.032849993626191502 0 0.25174039047255609 0.044464402284776217 0 0.24426241142214139 0.049994713685017962 0 0.23928634064401511 0.040096757013566242 0 0.25174039047255609 0.044464402284776217 0 0.22618438235043381 0.038998837361733103 0 0.2320502206633881 0.021165953515508481 0 0.20963369093729961 0.03941564640516447 0 0.23928634064401511 0.040096757013566242 0 0.22618438235043381 0.038998837361733103 0 0.2320502206633881 0.021165953515508481 0 0.22618438235043381 0.038998837361733103 0 0.2310385276818335 0.053106641608170198 0 0.21456035850380811 0.046594403085467223 0 0.23928634064401511 0.040096757013566242 0 0.22618438235043381 0.038998837361733103 0 0.2310385276818335 0.053106641608170198 0 0.2310385276818335 0.053106641608170198 0 0.21456035850380811 0.046594403085467223 0 0.2248665156508784 0.061611733455129589 0 0.2310385276818335 0.053106641608170198 0 0.21456035850380811 0.046594403085467223 0 0.2248665156508784 0.061611733455129589 0 0.21456035850380811 0.046594403085467223 0 0.2330718446673557 0.064441819436705627 0 0.2248665156508784 0.061611733455129589 0 0.23150027442910881 0.059501590197602497 0 0.2248665156508784 0.061611733455129589 0 0.23150027442910881 0.059501590197602497 0 0.2310385276818335 0.053106641608170198 0 0.2330718446673557 0.064441819436705627 0 0.2376257901407148 0.059976102198904507 0 0.23150027442910881 0.059501590197602497 0 0.2376257901407148 0.059976102198904507 0 0.23150027442910881 0.059501590197602497 0 0.2310385276818335 0.053106641608170198 0 0.2320502206633881 0.021165953515508481 0 0.22999165343287109 0.0038227322559807589 0 0.25446675038947358 0.0029162606258486688 0 0.2320502206633881 0.021165953515508481 0 0.2600935707136679 0.019574361616358959 0 0.25446675038947358 0.0029162606258486688 0 0.22999165343287109 0.0038227322559807589 0 0.25446675038947358 0.0029162606258486688 0 0.24138147174972829 -0.0061427828714447699 0 0.2320502206633881 0.021165953515508481 0 0.25446675038947358 0.0029162606258486688 0 0.2320502206633881 0.021165953515508481 0 0.2600935707136679 0.019574361616358959 0 0.25044211127373811 0.032849993626191502 0 0.2320502206633881 0.021165953515508481 0 0.20963369093729961 0.03941564640516447 0 0.22999165343287109 0.0038227322559807589 0 0.21340461703840111 0.0096506044731711187 0 0.21351355446813719 -0.0021103410187178909 0 0.2320502206633881 0.021165953515508481 0 0.22999165343287109 0.0038227322559807589 0 0.21340461703840111 0.0096506044731711187 0 0.21340461703840111 0.0096506044731711187 0 0.1998105265397013 0.00335350757378736 0 0.21351355446813719 -0.0021103410187178909 0 0.21340461703840111 0.0096506044731711187 0 0.20371525389429951 0.01279949030761077 0 0.2082588668535221 0.02245160931237615 0 0.21340461703840111 0.0096506044731711187 0 0.20371525389429951 0.01279949030761077 0 0.1998105265397013 0.00335350757378736 0 0.2320502206633881 0.021165953515508481 0 0.2082588668535221 0.02245160931237615 0 0.20963369093729961 0.03941564640516447 0 0.2320502206633881 0.021165953515508481 0 0.21340461703840111 0.0096506044731711187 0 0.2082588668535221 0.02245160931237615 0 0.2082588668535221 0.02245160931237615 0 0.19338700514557339 0.015742239871108451 0 0.20963369093729961 0.03941564640516447 0 0.19338700514557339 0.015742239871108451 0 0.1989601287501698 0.040429129743079398 0 0.18048502430789731 0.01998114488410483 0 0.1989601287501698 0.040429129743079398 0 0.18048502430789731 0.01998114488410483 0 0.19338700514557339 0.015742239871108451 0 0.20963369093729961 0.03941564640516447 0 0.20371525389429951 0.01279949030761077 0 0.2082588668535221 0.02245160931237615 0 0.19338700514557339 0.015742239871108451 0 0.19338700514557339 0.015742239871108451 0 0.1998105265397013 0.00335350757378736 0 0.17714031935384769 -0.0079311666629475405 0 0.20371525389429951 0.01279949030761077 0 0.19338700514557339 0.015742239871108451 0 0.1998105265397013 0.00335350757378736 0 0.21450653174737461 0.057635669175196122 0 0.2029561920580818 0.044851916216142339 0 0.21450653174737461 0.057635669175196122 0 0.2029561920580818 0.044851916216142339 0 0.2021088015620611 0.053433964061651712 0 0.21450653174737461 0.057635669175196122 0 0.21456035850380811 0.046594403085467223 0 0.2029561920580818 0.044851916216142339 0 0.2082291800225603 0.066043280120252124 0 0.21450653174737461 0.057635669175196122 0 0.2021088015620611 0.053433964061651712 0 0.2248665156508784 0.061611733455129589 0 0.21450653174737461 0.057635669175196122 0 0.21456035850380811 0.046594403085467223 0 0.2082291800225603 0.066043280120252124 0 0.21450653174737461 0.057635669175196122 0 0.22618438235043381 0.038998837361733103 0 0.21456035850380811 0.046594403085467223 0 0.20963369093729961 0.03941564640516447 0 0.21456035850380811 0.046594403085467223 0 0.20963369093729961 0.03941564640516447 0 0.21456035850380811 0.046594403085467223 0 0.20530753189452691 0.042937648913457381 0 0.2029561920580818 0.044851916216142339 0 0.20963369093729961 0.03941564640516447 0 0.20530753189452691 0.042937648913457381 0 0.1989601287501698 0.040429129743079398 0 0.21456035850380811 0.046594403085467223 0 0.20530753189452691 0.042937648913457381 0 0.21456035850380811 0.046594403085467223 0 0.20963369093729961 0.03941564640516447 0 0.20530753189452691 0.042937648913457381 0 0.20963369093729961 0.03941564640516447 0 0.20530753189452691 0.042937648913457381 0 0.20530753189452691 0.042937648913457381 0 0.2029561920580818 0.044851916216142339 0 0.1989601287501698 0.040429129743079398 0 0.1774654858828027 0.031934360706524292 0 0.2029561920580818 0.044851916216142339 0 0.1989601287501698 0.040429129743079398 0 0.19971656766465989 0.047489351670260083 0 0.1989601287501698 0.040429129743079398 0 0.19133087755196571 0.045131483978966998 0 0.19971656766465989 0.047489351670260083 0 0.2029561920580818 0.044851916216142339 0 0.19971656766465989 0.047489351670260083 0 0.19338700514557339 0.015742239871108451 0 0.20963369093729961 0.03941564640516447 0 0.1989601287501698 0.040429129743079398 0 0.1989601287501698 0.040429129743079398 0 0.19133087755196571 0.045131483978966998 0 0.18298678422305309 0.040980100737508622 0 0.20530753189452691 0.042937648913457381 0 0.2029561920580818 0.044851916216142339 0 0.1989601287501698 0.040429129743079398 0 0.20530753189452691 0.042937648913457381 0 0.1989601287501698 0.040429129743079398 0 0.2029561920580818 0.044851916216142339 0 0.1989601287501698 0.040429129743079398 0 0.2082291800225603 0.066043280120252124 0 0.18513553631762919 0.051149603126408108 0 0.2021088015620611 0.053433964061651712 0 0.19971656766465989 0.047489351670260083 0 0.18513553631762919 0.051149603126408108 0 0.2082291800225603 0.066043280120252124 0 0.2021088015620611 0.053433964061651712 0 0.18513553631762919 0.051149603126408108 0 0.19067723801237901 0.065525043857756982 0 0.2082291800225603 0.066043280120252124 0 0.18513553631762919 0.051149603126408108 0 0.19133087755196571 0.045131483978966998 0 0.19971656766465989 0.047489351670260083 0 0.18513553631762919 0.051149603126408108 0 0.2029561920580818 0.044851916216142339 0 0.2021088015620611 0.053433964061651712 0 0.19971656766465989 0.047489351670260083 0 0.17734631865053521 0.060730067185729229 0 0.18513553631762919 0.051149603126408108 0 0.16725106424272049 0.052894846580172288 0 0.19067723801237901 0.065525043857756982 0 0.17734631865053521 0.060730067185729229 0 0.18513553631762919 0.051149603126408108 0 0.18298678422305309 0.040980100737508622 0 0.1774654858828027 0.031934360706524292 0 0.1620418926126978 0.036255926132564682 0 0.19133087755196571 0.045131483978966998 0 0.18513553631762919 0.051149603126408108 0 0.18298678422305309 0.040980100737508622 0 0.18513553631762919 0.051149603126408108 0 0.18298678422305309 0.040980100737508622 0 0.1620418926126978 0.036255926132564682 0 0.1989601287501698 0.040429129743079398 0 0.18298678422305309 0.040980100737508622 0 0.1774654858828027 0.031934360706524292 0 0.18513553631762919 0.051149603126408108 0 0.1620418926126978 0.036255926132564682 0 0.1620418926126978 0.036255926132564682 0 0.16725106424272049 0.052894846580172288 0 0.15541952745182569 0.04677658384696623 0 0.18513553631762919 0.051149603126408108 0 0.1620418926126978 0.036255926132564682 0 0.16725106424272049 0.052894846580172288 0 0.16725106424272049 0.052894846580172288 0 0.15507694825043991 0.057889849327421902 0 0.15541952745182569 0.04677658384696623 0 0.16725106424272049 0.052894846580172288 0 0.15507694825043991 0.057889849327421902 0 0.1653937448538241 0.067538194789913991 0 0.17734631865053521 0.060730067185729229 0 0.16725106424272049 0.052894846580172288 0 0.1653937448538241 0.067538194789913991 0 0.18048502430789731 0.01998114488410483 0 0.1657030786406338 0.0084270166623369204 0 0.17714031935384769 -0.0079311666629475405 0 0.19338700514557339 0.015742239871108451 0 0.17714031935384769 -0.0079311666629475405 0 0.19338700514557339 0.015742239871108451 0 0.18048502430789731 0.01998114488410483 0 0.17714031935384769 -0.0079311666629475405 0 0.1989601287501698 0.040429129743079398 0 0.1774654858828027 0.031934360706524292 0 0.18048502430789731 0.01998114488410483 0 0.1774654858828027 0.031934360706524292 0 0.18048502430789731 0.01998114488410483 0 0.16935520337559401 0.020657770454092759 0 0.1774654858828027 0.031934360706524292 0 0.15597084301543529 0.02343959166996953 0 0.1774654858828027 0.031934360706524292 0 0.1620418926126978 0.036255926132564682 0 0.15597084301543529 0.02343959166996953 0 0.1774654858828027 0.031934360706524292 0 0.16935520337559401 0.020657770454092759 0 0.15597084301543529 0.02343959166996953 0 0.16935520337559401 0.020657770454092759 0 0.1657030786406338 0.0084270166623369204 0 0.15597084301543529 0.02343959166996953 0 0.18048502430789731 0.01998114488410483 0 0.16935520337559401 0.020657770454092759 0 0.1657030786406338 0.0084270166623369204 0 0.1657030786406338 0.0084270166623369204 0 0.14883794818754281 0.01110572894874149 0 0.15480995508657039 -0.001084596553268768 0 0.1657030786406338 0.0084270166623369204 0 0.14883794818754281 0.01110572894874149 0 0.15597084301543529 0.02343959166996953 0 0.14883794818754281 0.01110572894874149 0 0.13464870039648349 0.00080453217212592717 0 0.15480995508657039 -0.001084596553268768 0 0.14883794818754281 0.01110572894874149 0 0.13894824890776639 0.02136224913872127 0 0.13464870039648349 0.00080453217212592717 0 0.1620418926126978 0.036255926132564682 0 0.13894824890776639 0.02136224913872127 0 0.14883794818754281 0.01110572894874149 0 0.15597084301543529 0.02343959166996953 0 0.13894824890776639 0.02136224913872127 0 0.1620418926126978 0.036255926132564682 0 0.15597084301543529 0.02343959166996953 0 0.13894824890776639 0.02136224913872127 0 0.11961069471150609 0.02296590295220987 0 0.13894824890776639 0.02136224913872127 0 0.12977361784467401 0.039215218793308727 0 0.1158546052028349 0.0064685721448778594 0 0.13894824890776639 0.02136224913872127 0 0.1158546052028349 0.0064685721448778594 0 0.13894824890776639 0.02136224913872127 0 0.13464870039648349 0.00080453217212592717 0 0.14278372382386809 0.048416123664777412 0 0.1428601767931531 0.062084067640591357 0 0.15507694825043991 0.057889849327421902 0 0.14278372382386809 0.048416123664777412 0 0.15507694825043991 0.057889849327421902 0 0.15541952745182569 0.04677658384696623 0 0.1620418926126978 0.036255926132564682 0 0.13894824890776639 0.02136224913872127 0 0.14579340212816641 0.038405220315267663 0 0.1620418926126978 0.036255926132564682 0 0.15541952745182569 0.04677658384696623 0 0.14579340212816641 0.038405220315267663 0 0.14278372382386809 0.048416123664777412 0 0.15541952745182569 0.04677658384696623 0 0.14579340212816641 0.038405220315267663 0 0.14278372382386809 0.048416123664777412 0 0.14579340212816641 0.038405220315267663 0 0.12977361784467401 0.039215218793308727 0 0.13894824890776639 0.02136224913872127 0 0.14579340212816641 0.038405220315267663 0 0.12977361784467401 0.039215218793308727 0 0.11550376979223601 0.054551475820320147 0 0.12977361784467401 0.039215218793308727 0 0.1326943019686847 0.054606112458038862 0 0.11550376979223601 0.054551475820320147 0 0.1326943019686847 0.054606112458038862 0 0.13255022158949201 0.068763676371196639 0 0.14278372382386809 0.048416123664777412 0 0.12977361784467401 0.039215218793308727 0 0.1326943019686847 0.054606112458038862 0 0.14278372382386809 0.048416123664777412 0 0.1428601767931531 0.062084067640591357 0 0.1326943019686847 0.054606112458038862 0 0.1428601767931531 0.062084067640591357 0 0.1326943019686847 0.054606112458038862 0 0.13255022158949201 0.068763676371196639 0 0.1207366242219714 0.074251990558816788 0 0.13255022158949201 0.068763676371196639 0 0.13578085374332971 0.077614708003019631 0 0.13255022158949201 0.068763676371196639 0 0.13578085374332971 0.077614708003019631 0 0.1430759120552613 0.073085192731263071 0 0.1428601767931531 0.062084067640591357 0 0.13255022158949201 0.068763676371196639 0 0.1430759120552613 0.073085192731263071 0 0.1428601767931531 0.062084067640591357 0 0.1430759120552613 0.073085192731263071 0 0.15260580868734391 0.069203578475014266 0 0.1430759120552613 0.073085192731263071 0 0.14969883640752091 0.076610515579137797 0 0.14563192422462459 0.083183778073064013 0 0.13578085374332971 0.077614708003019631 0 0.1430759120552613 0.073085192731263071 0 0.14563192422462459 0.083183778073064013 0 0.1430759120552613 0.073085192731263071 0 0.14969883640752091 0.076610515579137797 0 0.15260580868734391 0.069203578475014266 0 0.14969883640752091 0.076610515579137797 0 0.15260580868734391 0.069203578475014266 0 0.15677919641446331 0.080277826610221981 0 0.1428601767931531 0.062084067640591357 0 0.15507694825043991 0.057889849327421902 0 0.15260580868734391 0.069203578475014266 0 0.1506819444987289 0.088437751930635633 0 0.14868901735932749 0.09586058707093438 0 0.157853861938485 0.092527754269896317 0 0.1506819444987289 0.088437751930635633 0 0.15677919641446331 0.080277826610221981 0 0.157853861938485 0.092527754269896317 0 0.14969883640752091 0.076610515579137797 0 0.14563192422462459 0.083183778073064013 0 0.15677919641446331 0.080277826610221981 0 0.1506819444987289 0.088437751930635633 0 0.14563192422462459 0.083183778073064013 0 0.15677919641446331 0.080277826610221981 0 0.14563192422462459 0.083183778073064013 0 0.1444557225567443 0.090338813629061501 0 0.13888671887288589 0.088270852986767859 0 0.1506819444987289 0.088437751930635633 0 0.14563192422462459 0.083183778073064013 0 0.1444557225567443 0.090338813629061501 0 0.1444557225567443 0.090338813629061501 0 0.14209274384079601 0.094639397504520467 0 0.14868901735932749 0.09586058707093438 0 0.1506819444987289 0.088437751930635633 0 0.1444557225567443 0.090338813629061501 0 0.14868901735932749 0.09586058707093438 0 0.1444557225567443 0.090338813629061501 0 0.13888671887288589 0.088270852986767859 0 0.14209274384079601 0.094639397504520467 0 0.13888671887288589 0.088270852986767859 0 0.13668050292917741 0.098217611464673699 0 0.14209274384079601 0.094639397504520467 0 0.13888671887288589 0.088270852986767859 0 0.1300820653953097 0.084166932106396392 0 0.13668050292917741 0.098217611464673699 0 0.11116449005577619 0.086473750785835857 0 0.1300820653953097 0.084166932106396392 0 0.13668050292917741 0.098217611464673699 0 0.13578085374332971 0.077614708003019631 0 0.13888671887288589 0.088270852986767859 0 0.1300820653953097 0.084166932106396392 0 0.13578085374332971 0.077614708003019631 0 0.14563192422462459 0.083183778073064013 0 0.13888671887288589 0.088270852986767859 0 0.1207366242219714 0.074251990558816788 0 0.13578085374332971 0.077614708003019631 0 0.1300820653953097 0.084166932106396392 0 0.1216961693062274 0.1020981758197984 0 0.1302764983332621 0.10693497851168419 0 0.13668050292917741 0.098217611464673699 0 0.1302764983332621 0.10693497851168419 0 0.13758713408363871 0.1043360441680015 0 0.13668050292917741 0.098217611464673699 0 0.1302764983332621 0.10693497851168419 0 0.1360833458267342 0.1084620534226548 0 0.13758713408363871 0.1043360441680015 0 0.1360833458267342 0.1084620534226548 0 0.13758713408363871 0.1043360441680015 0 0.14314356584317489 0.10755645506983 0 0.13758713408363871 0.1043360441680015 0 0.13668050292917741 0.098217611464673699 0 0.14175175748584509 0.1005091223711649 0 0.13668050292917741 0.098217611464673699 0 0.14209274384079601 0.094639397504520467 0 0.14175175748584509 0.1005091223711649 0 0.12813823657366311 0.12049833089676459 0 0.13246275659848361 0.1130811342378658 0 0.13708322035591489 0.118794437000363 0 0.12212988809696081 0.1249307776834532 0 0.12788127083107459 0.1291064789800366 0 0.12813823657366311 0.12049833089676459 0 0.1197878353292403 0.1092484053650479 0 0.1302764983332621 0.10693497851168419 0 0.12624189261331301 0.1140678077034443 0 0.12813823657366311 0.12049833089676459 0 0.12624189261331301 0.1140678077034443 0 0.13246275659848361 0.1130811342378658 0 0.1302764983332621 0.10693497851168419 0 0.12624189261331301 0.1140678077034443 0 0.13246275659848361 0.1130811342378658 0 0.138866780176991 0.11235807520418389 0 0.13708322035591489 0.118794437000363 0 0.14572099158606311 0.1154247658161887 0 0.1360833458267342 0.1084620534226548 0 0.13246275659848361 0.1130811342378658 0 0.138866780176991 0.11235807520418389 0 0.1302764983332621 0.10693497851168419 0 0.1360833458267342 0.1084620534226548 0 0.13246275659848361 0.1130811342378658 0 0.1360833458267342 0.1084620534226548 0 0.138866780176991 0.11235807520418389 0 0.14314356584317489 0.10755645506983 0 0.13246275659848361 0.1130811342378658 0 0.138866780176991 0.11235807520418389 0 0.13708322035591489 0.118794437000363 0 0.13409394305489639 0.1257339851238449 0 0.14295710802469111 0.12768772724150559 0 0.13708322035591489 0.118794437000363 0 0.13409394305489639 0.1257339851238449 0 0.12813823657366311 0.12049833089676459 0 0.13708322035591489 0.118794437000363 0 0.14572099158606311 0.1154247658161887 0 0.15364605026385231 0.1227496740475859 0 0.15839207309433961 0.10550736800805539 0 0.14295710802469111 0.12768772724150559 0 0.13708322035591489 0.118794437000363 0 0.14572099158606311 0.1154247658161887 0 0.14295710802469111 0.12768772724150559 0 0.14572099158606311 0.1154247658161887 0 0.15364605026385231 0.1227496740475859 0 0.138866780176991 0.11235807520418389 0 0.14572099158606311 0.1154247658161887 0 0.14314356584317489 0.10755645506983 0 0.14572099158606311 0.1154247658161887 0 0.14314356584317489 0.10755645506983 0 0.15839207309433961 0.10550736800805539 0 0.14175175748584509 0.1005091223711649 0 0.15839207309433961 0.10550736800805539 0 0.14175175748584509 0.1005091223711649 0 0.14314356584317489 0.10755645506983 0 0.15839207309433961 0.10550736800805539 0 0.14175175748584509 0.1005091223711649 0 0.14868901735932749 0.09586058707093438 0 0.15839207309433961 0.10550736800805539 0 0.14209274384079601 0.094639397504520467 0 0.14175175748584509 0.1005091223711649 0 0.14868901735932749 0.09586058707093438 0 0.13758713408363871 0.1043360441680015 0 0.14175175748584509 0.1005091223711649 0 0.14314356584317489 0.10755645506983 0 0.14868901735932749 0.09586058707093438 0 0.15839207309433961 0.10550736800805539 0 0.157853861938485 0.092527754269896317 0 0.15839207309433961 0.10550736800805539 0 0.17503238870283441 0.11050561364494491 0 0.15839207309433961 0.10550736800805539 0 0.1705578526620479 0.095927182961129481 0 0.157853861938485 0.092527754269896317 0 0.15839207309433961 0.10550736800805539 0 0.1705578526620479 0.095927182961129481 0 0.17503238870283441 0.11050561364494491 0 0.16417220099380411 0.12505127510387981 0 0.15839207309433961 0.10550736800805539 0 0.17503238870283441 0.11050561364494491 0 0.16417220099380411 0.12505127510387981 0 0.15364605026385231 0.1227496740475859 0 0.15839207309433961 0.10550736800805539 0 0.16417220099380411 0.12505127510387981 0 0.17503238870283441 0.11050561364494491 0 0.18002451345814399 0.12716596121819479 0 0.16417220099380411 0.12505127510387981 0 0.17503238870283441 0.11050561364494491 0 0.18002451345814399 0.12716596121819479 0 0.2001236667938262 0.1180422718546187 0 0.17503238870283441 0.11050561364494491 0 0.1916307843626972 0.08827444688259839 0 0.1705578526620479 0.095927182961129481 0 0.17503238870283441 0.11050561364494491 0 0.1916307843626972 0.08827444688259839 0 0.17503238870283441 0.11050561364494491 0 0.1916307843626972 0.08827444688259839 0 0.17935943521264269 0.07135827912697662 0 0.16988015521188329 0.08282073200015258 0 0.1916307843626972 0.08827444688259839 0 0.1705578526620479 0.095927182961129481 0 0.16988015521188329 0.08282073200015258 0 0.19067723801237901 0.065525043857756982 0 0.1916307843626972 0.08827444688259839 0 0.17935943521264269 0.07135827912697662 0 0.19067723801237901 0.065525043857756982 0 0.17734631865053521 0.060730067185729229 0 0.17935943521264269 0.07135827912697662 0 0.17734631865053521 0.060730067185729229 0 0.17935943521264269 0.07135827912697662 0 0.1653937448538241 0.067538194789913991 0 0.17935943521264269 0.07135827912697662 0 0.1653937448538241 0.067538194789913991 0 0.16988015521188329 0.08282073200015258 0 0.15507694825043991 0.057889849327421902 0 0.15260580868734391 0.069203578475014266 0 0.1653937448538241 0.067538194789913991 0 0.15260580868734391 0.069203578475014266 0 0.1653937448538241 0.067538194789913991 0 0.15677919641446331 0.080277826610221981 0 0.1653937448538241 0.067538194789913991 0 0.15677919641446331 0.080277826610221981 0 0.16988015521188329 0.08282073200015258 0 0.15677919641446331 0.080277826610221981 0 0.157853861938485 0.092527754269896317 0 0.16988015521188329 0.08282073200015258 0 0.1705578526620479 0.095927182961129481 0 0.157853861938485 0.092527754269896317 0 0.16988015521188329 0.08282073200015258 0 0.099456207782380623 0.4822659283708195 0 0.1141892196830592 0.48396198267476093 0 0.11304725129434449 0.46767028325629811 0 0.099456207782380623 0.4822659283708195 0 0.11304725129434449 0.46767028325629811 0 0.096803680563272876 0.46646214520586099 0 0.099456207782380623 0.4822659283708195 0 0.10782601469385079 0.5 0 0.078267650747156567 0.50000000000000133 0 0.099456207782380623 0.4822659283708195 0 0.10782601469385079 0.5 0 0.1141892196830592 0.48396198267476093 0 0.10782601469385079 0.5 0 0.1249193769550877 0.49369376296818718 0 0.1141892196830592 0.48396198267476093 0 0.1249193769550877 0.49369376296818718 0 0.1141892196830592 0.48396198267476093 0 0.12569724768963239 0.47617993877849962 0 0.10782601469385079 0.5 0 0.1249193769550877 0.49369376296818718 0 0.13738437864054501 0.5 0 0.1141892196830592 0.48396198267476093 0 0.11304725129434449 0.46767028325629811 0 0.12569724768963239 0.47617993877849962 0 0.11304725129434449 0.46767028325629811 0 0.1267882431275838 0.46370707134437261 0 0.12569724768963239 0.47617993877849962 0 0.11304725129434449 0.46767028325629811 0 0.1221607865463437 0.4507156547582637 0 0.1004821270038239 0.44949914822431608 0 0.11304725129434449 0.46767028325629811 0 0.1221607865463437 0.4507156547582637 0 0.1267882431275838 0.46370707134437261 0 0.1221607865463437 0.4507156547582637 0 0.1004821270038239 0.44949914822431608 0 0.12259086230274099 0.42947812748907283 0 0.1004821270038239 0.44949914822431608 0 0.096803680563272876 0.46646214520586099 0 0.084307548883437972 0.45862843933572522 0 0.11304725129434449 0.46767028325629811 0 0.1004821270038239 0.44949914822431608 0 0.096803680563272876 0.46646214520586099 0 0.084307548883437972 0.45862843933572522 0 0.070120974899159305 0.46867166915081548 0 0.08254081050968877 0.47642281665818748 0 0.096803680563272876 0.46646214520586099 0 0.084307548883437972 0.45862843933572522 0 0.08254081050968877 0.47642281665818748 0 0.084307548883437972 0.45862843933572522 0 0.083205653112744402 0.44008551456546158 0 0.070599818540594342 0.45171728711773013 0 0.1004821270038239 0.44949914822431608 0 0.084307548883437972 0.45862843933572522 0 0.083205653112744402 0.44008551456546158 0 0.1004821270038239 0.44949914822431608 0 0.083205653112744402 0.44008551456546158 0 0.095892719888732866 0.42453745382262881 0 0.070599818540594342 0.45171728711773013 0 0.057347956450285731 0.44480695268810438 0 0.068330088192809502 0.43602814955066621 0 0.083205653112744402 0.44008551456546158 0 0.070599818540594342 0.45171728711773013 0 0.068330088192809502 0.43602814955066621 0 0.070599818540594342 0.45171728711773013 0 0.070120974899159305 0.46867166915081548 0 0.05832870883015126 0.45973880463956351 0 0.084307548883437972 0.45862843933572522 0 0.070599818540594342 0.45171728711773013 0 0.070120974899159305 0.46867166915081548 0 0.070120974899159305 0.46867166915081548 0 0.08254081050968877 0.47642281665818748 0 0.061557047466102868 0.48310025102256282 0 0.070120974899159305 0.46867166915081548 0 0.061557047466102868 0.48310025102256282 0 0.05832870883015126 0.45973880463956351 0 0.099456207782380623 0.4822659283708195 0 0.096803680563272876 0.46646214520586099 0 0.08254081050968877 0.47642281665818748 0 0.099456207782380623 0.4822659283708195 0 0.08254081050968877 0.47642281665818748 0 0.078267650747156567 0.50000000000000133 0 0.078267650747156567 0.50000000000000133 0 0.049166882519808157 0.5 0 0.061557047466102868 0.48310025102256282 0 0.08254081050968877 0.47642281665818748 0 0.078267650747156567 0.50000000000000133 0 0.061557047466102868 0.48310025102256282 0 0.078267650747156567 0.50000000000000133 0 0.061557047466102868 0.48310025102256282 0 0.049166882519808157 0.5 0 0.061557047466102868 0.48310025102256282 0 0.038208171894904559 0.48286056860770488 0 0.061557047466102868 0.48310025102256282 0 0.044846444185049857 0.46620050204512359 0 0.05832870883015126 0.45973880463956351 0 0.061557047466102868 0.48310025102256282 0 0.044846444185049857 0.46620050204512359 0 0.061557047466102868 0.48310025102256282 0 0.038208171894904559 0.48286056860770488 0 0.044846444185049857 0.46620050204512359 0 0.038208171894904559 0.48286056860770488 0 0.029572045059576241 0.469060477695939 0 0.044846444185049857 0.46620050204512359 0 0.049166882519808157 0.5 0 0.038208171894904559 0.48286056860770488 0 0.020066114292459799 0.5 0 0.038208171894904559 0.48286056860770488 0 0.020066114292459799 0.5 0 0.021055159894441029 0.48095839664786189 0 0.038208171894904559 0.48286056860770488 0 0.029572045059576241 0.469060477695939 0 0.021055159894441029 0.48095839664786189 0 0.029572045059576241 0.469060477695939 0 0.021055159894441029 0.48095839664786189 0 0.01561460841948897 0.46598216811131982 0 0.021055159894441029 0.48095839664786189 0 0.0030933759349822849 0.48266358315495572 0 0.01561460841948897 0.46598216811131982 0 0.0030933759349822849 0.48266358315495572 0 0.01561460841948897 0.46598216811131982 0 0.0036787250480955699 0.47408322248379448 0 0.0030933759349822849 0.48266358315495572 0 0.01561460841948897 0.46598216811131982 0 -0.0016340076521478781 0.48633642657919801 0 0.0036787250480955699 0.47408322248379448 0 0.0030933759349822849 0.48266358315495572 0 0.020066114292459799 0.5 0 0.021055159894441029 0.48095839664786189 0 0.0030933759349822849 0.48266358315495572 0 -0.0090346539348886701 0.5 0 -0.0016340076521478781 0.48633642657919801 0 0.020066114292459799 0.5 0 -0.0016340076521478781 0.48633642657919801 0 0.020066114292459799 0.5 0 0.0030933759349822849 0.48266358315495572 0 -0.0030841453677343121 0.43636499760021141 0 -0.002359076509941094 0.46135071208970457 0 0.010470448459028871 0.45111158928184719 0 -0.0030841453677343121 0.43636499760021141 0 0.010470448459028871 0.45111158928184719 0 0.017893296784651399 0.43894227458572882 0 -0.002359076509941094 0.46135071208970457 0 0.010470448459028871 0.45111158928184719 0 0.01561460841948897 0.46598216811131982 0 -0.002359076509941094 0.46135071208970457 0 0.0036787250480955699 0.47408322248379448 0 0.01561460841948897 0.46598216811131982 0 0.010470448459028871 0.45111158928184719 0 0.01561460841948897 0.46598216811131982 0 0.0281358409039968 0.44930075306768458 0 0.029572045059576241 0.469060477695939 0 0.01561460841948897 0.46598216811131982 0 0.0281358409039968 0.44930075306768458 0 0.01561460841948897 0.46598216811131982 0 0.0281358409039968 0.44930075306768458 0 0.010470448459028871 0.45111158928184719 0 0.0281358409039968 0.44930075306768458 0 0.017893296784651399 0.43894227458572882 0 0.0281358409039968 0.44930075306768458 0 0.017893296784651399 0.43894227458572882 0 0.03800042812263172 0.43615865433005307 0 0.0281358409039968 0.44930075306768458 0 0.017893296784651399 0.43894227458572882 0 0.0281358409039968 0.44930075306768458 0 0.04587361322417214 0.448769157871174 0 0.03800042812263172 0.43615865433005307 0 0.0281358409039968 0.44930075306768458 0 0.03800042812263172 0.43615865433005307 0 0.04587361322417214 0.448769157871174 0 0.049411209704934803 0.43621283219101809 0 0.03800042812263172 0.43615865433005307 0 0.029572045059576241 0.469060477695939 0 0.0281358409039968 0.44930075306768458 0 0.044846444185049857 0.46620050204512359 0 0.0281358409039968 0.44930075306768458 0 0.04587361322417214 0.448769157871174 0 0.044846444185049857 0.46620050204512359 0 0.0281358409039968 0.44930075306768458 0 0.044846444185049857 0.46620050204512359 0 0.04587361322417214 0.448769157871174 0 0.044846444185049857 0.46620050204512359 0 0.05832870883015126 0.45973880463956351 0 0.04587361322417214 0.448769157871174 0 0.057347956450285731 0.44480695268810438 0 0.049411209704934803 0.43621283219101809 0 0.04587361322417214 0.448769157871174 0 0.05832870883015126 0.45973880463956351 0 0.057347956450285731 0.44480695268810438 0 0.070599818540594342 0.45171728711773013 0 0.05832870883015126 0.45973880463956351 0 0.057347956450285731 0.44480695268810438 0 0.057347956450285731 0.44480695268810438 0 0.058238482531349368 0.43512174465279091 0 0.068330088192809502 0.43602814955066621 0 0.057347956450285731 0.44480695268810438 0 0.058238482531349368 0.43512174465279091 0 0.049411209704934803 0.43621283219101809 0 0.058238482531349368 0.43512174465279091 0 0.05412352915042095 0.42739076434297479 0 0.063786863135573219 0.4234822836218442 0 0.05412352915042095 0.42739076434297479 0 0.047865015341267358 0.42301655559242213 0 0.049411209704934803 0.43621283219101809 0 0.05412352915042095 0.42739076434297479 0 0.047865015341267358 0.42301655559242213 0 0.058238482531349368 0.43512174465279091 0 0.05412352915042095 0.42739076434297479 0 0.049411209704934803 0.43621283219101809 0 0.047865015341267358 0.42301655559242213 0 0.055388731832649349 0.41299308245440008 0 0.044385004541519633 0.40583709082877739 0 0.055388731832649349 0.41299308245440008 0 0.057103340742871267 0.4006394318358022 0 0.0691327228978319 0.40699071288372829 0 0.05412352915042095 0.42739076434297479 0 0.055388731832649349 0.41299308245440008 0 0.063786863135573219 0.4234822836218442 0 0.047865015341267358 0.42301655559242213 0 0.055388731832649349 0.41299308245440008 0 0.05412352915042095 0.42739076434297479 0 0.047865015341267358 0.42301655559242213 0 0.055388731832649349 0.41299308245440008 0 0.055388731832649349 0.41299308245440008 0 0.044385004541519633 0.40583709082877739 0 0.057103340742871267 0.4006394318358022 0 0.047865015341267358 0.42301655559242213 0 0.030398582533070099 0.41080889326869052 0 0.044385004541519633 0.40583709082877739 0 0.047865015341267358 0.42301655559242213 0 0.035686717363660143 0.42423985257235269 0 0.030398582533070099 0.41080889326869052 0 0.047865015341267358 0.42301655559242213 0 0.030398582533070099 0.41080889326869052 0 0.047865015341267358 0.42301655559242213 0 0.049411209704934803 0.43621283219101809 0 0.03800042812263172 0.43615865433005307 0 0.047865015341267358 0.42301655559242213 0 0.03800042812263172 0.43615865433005307 0 0.047865015341267358 0.42301655559242213 0 0.035686717363660143 0.42423985257235269 0 0.03800042812263172 0.43615865433005307 0 0.035686717363660143 0.42423985257235269 0 0.03800042812263172 0.43615865433005307 0 0.0264828434576714 0.42697530709824522 0 0.017893296784651399 0.43894227458572882 0 0.0264828434576714 0.42697530709824522 0 0.013451351612083251 0.42022136891186163 0 0.017893296784651399 0.43894227458572882 0 0.03800042812263172 0.43615865433005307 0 0.0264828434576714 0.42697530709824522 0 0.030398582533070099 0.41080889326869052 0 0.013451351612083251 0.42022136891186163 0 0.012932149724872831 0.39860123094495892 0 0.0264828434576714 0.42697530709824522 0 0.030398582533070099 0.41080889326869052 0 0.013451351612083251 0.42022136891186163 0 0.035686717363660143 0.42423985257235269 0 0.0264828434576714 0.42697530709824522 0 0.030398582533070099 0.41080889326869052 0 -0.0038092142255275289 0.41137928311071797 0 0.013451351612083251 0.42022136891186163 0 0.012932149724872831 0.39860123094495892 0 -0.0030841453677343121 0.43636499760021141 0 0.017893296784651399 0.43894227458572882 0 0.013451351612083251 0.42022136891186163 0 -0.0030841453677343121 0.43636499760021141 0 -0.0038092142255275289 0.41137928311071797 0 0.013451351612083251 0.42022136891186163 0 -0.0045342830833226501 0.3863935686212247 0 0.012932149724872831 0.39860123094495892 0 0.0079023355216259559 0.37348921158265391 0 0.012932149724872831 0.39860123094495892 0 0.025375843575522711 0.38021681034322929 0 0.0079023355216259559 0.37348921158265391 0 -0.0045342830833226501 0.3863935686212247 0 0.012932149724872831 0.39860123094495892 0 -0.0045342830833226501 0.3863935686212247 0 -0.0038092142255275289 0.41137928311071797 0 0.012932149724872831 0.39860123094495892 0 0.030398582533070099 0.41080889326869052 0 0.012932149724872831 0.39860123094495892 0 0.030398582533070099 0.41080889326869052 0 0.012932149724872831 0.39860123094495892 0 0.030218872497922818 0.39559608178221078 0 0.012932149724872831 0.39860123094495892 0 0.030218872497922818 0.39559608178221078 0 0.025375843575522711 0.38021681034322929 0 0.025375843575522711 0.38021681034322929 0 0.045236422390978262 0.39339421550307069 0 0.045418656597819553 0.37354288132317159 0 0.030218872497922818 0.39559608178221078 0 0.025375843575522711 0.38021681034322929 0 0.045236422390978262 0.39339421550307069 0 0.030398582533070099 0.41080889326869052 0 0.030218872497922818 0.39559608178221078 0 0.044385004541519633 0.40583709082877739 0 0.030218872497922818 0.39559608178221078 0 0.045236422390978262 0.39339421550307069 0 0.044385004541519633 0.40583709082877739 0 0.045236422390978262 0.39339421550307069 0 0.057103340742871267 0.4006394318358022 0 0.06607043693335328 0.38973814947632979 0 0.045236422390978262 0.39339421550307069 0 0.044385004541519633 0.40583709082877739 0 0.057103340742871267 0.4006394318358022 0 0.045236422390978262 0.39339421550307069 0 0.06607043693335328 0.38973814947632979 0 0.045418656597819553 0.37354288132317159 0 0.06607043693335328 0.38973814947632979 0 0.066778362586220691 0.36264744131756171 0 0.045418656597819553 0.37354288132317159 0 0.06607043693335328 0.38973814947632979 0 0.086713905658550791 0.37461406501925459 0 0.066778362586220691 0.36264744131756171 0 0.091303312773641829 0.3995757594209417 0 0.1025776524751303 0.38486691706586951 0 0.086713905658550791 0.37461406501925459 0 0.06607043693335328 0.38973814947632979 0 0.091303312773641829 0.3995757594209417 0 0.086713905658550791 0.37461406501925459 0 0.091303312773641829 0.3995757594209417 0 0.086713905658550791 0.37461406501925459 0 0.06607043693335328 0.38973814947632979 0 0.091303312773641829 0.3995757594209417 0 0.0691327228978319 0.40699071288372829 0 0.057103340742871267 0.4006394318358022 0 0.06607043693335328 0.38973814947632979 0 0.0691327228978319 0.40699071288372829 0 0.055388731832649349 0.41299308245440008 0 0.0691327228978319 0.40699071288372829 0 0.063786863135573219 0.4234822836218442 0 0.0691327228978319 0.40699071288372829 0 0.077714875811277062 0.4214876261871765 0 0.063786863135573219 0.4234822836218442 0 0.083205653112744402 0.44008551456546158 0 0.077714875811277062 0.4214876261871765 0 0.068330088192809502 0.43602814955066621 0 0.058238482531349368 0.43512174465279091 0 0.068330088192809502 0.43602814955066621 0 0.063786863135573219 0.4234822836218442 0 0.077714875811277062 0.4214876261871765 0 0.068330088192809502 0.43602814955066621 0 0.063786863135573219 0.4234822836218442 0 0.083205653112744402 0.44008551456546158 0 0.077714875811277062 0.4214876261871765 0 0.095892719888732866 0.42453745382262881 0 0.091303312773641829 0.3995757594209417 0 0.0691327228978319 0.40699071288372829 0 0.077714875811277062 0.4214876261871765 0 0.091303312773641829 0.3995757594209417 0 0.095892719888732866 0.42453745382262881 0 0.091303312773641829 0.3995757594209417 0 0.077714875811277062 0.4214876261871765 0 0.095892719888732866 0.42453745382262881 0 0.091303312773641829 0.3995757594209417 0 0.095892719888732866 0.42453745382262881 0 0.115428724103706 0.40267530492779557 0 0.1004821270038239 0.44949914822431608 0 0.095892719888732866 0.42453745382262881 0 0.12259086230274099 0.42947812748907283 0 0.1004821270038239 0.44949914822431608 0 0.095892719888732866 0.42453745382262881 0 0.095892719888732866 0.42453745382262881 0 0.12259086230274099 0.42947812748907283 0 0.115428724103706 0.40267530492779557 0 0.115428724103706 0.40267530492779557 0 0.119448870245615 0.38256434187866972 0 0.13692284990477191 0.38930777957628943 0 0.119448870245615 0.38256434187866972 0 0.1025776524751303 0.38486691706586951 0 0.1087205780393706 0.3656269003386084 0 0.115428724103706 0.40267530492779557 0 0.119448870245615 0.38256434187866972 0 0.1025776524751303 0.38486691706586951 0 0.1025776524751303 0.38486691706586951 0 0.1087205780393706 0.3656269003386084 0 0.086713905658550791 0.37461406501925459 0 0.091303312773641829 0.3995757594209417 0 0.115428724103706 0.40267530492779557 0 0.1025776524751303 0.38486691706586951 0 0.1087205780393706 0.3656269003386084 0 0.1202868522871179 0.34060046584014031 0 0.0915497208986496 0.34709204532757532 0 0.1087205780393706 0.3656269003386084 0 0.0915497208986496 0.34709204532757532 0 0.086713905658550791 0.37461406501925459 0 0.119448870245615 0.38256434187866972 0 0.1087205780393706 0.3656269003386084 0 0.13274728415341139 0.36410634055334368 0 0.1087205780393706 0.3656269003386084 0 0.1202868522871179 0.34060046584014031 0 0.13274728415341139 0.36410634055334368 0 0.1202868522871179 0.34060046584014031 0 0.1104734498024164 0.31171603628350752 0 0.14183880654046921 0.32250528078568202 0 0.1202868522871179 0.34060046584014031 0 0.1016552612267161 0.33013161519950079 0 0.1104734498024164 0.31171603628350752 0 0.1016552612267161 0.33013161519950079 0 0.081254576285268804 0.3210829637434266 0 0.1104734498024164 0.31171603628350752 0 0.1202868522871179 0.34060046584014031 0 0.1016552612267161 0.33013161519950079 0 0.0915497208986496 0.34709204532757532 0 0.081254576285268804 0.3210829637434266 0 0.072654821413094289 0.33942743407960763 0 0.0915497208986496 0.34709204532757532 0 0.1016552612267161 0.33013161519950079 0 0.081254576285268804 0.3210829637434266 0 0.0915497208986496 0.34709204532757532 0 0.081254576285268804 0.3210829637434266 0 0.06358813508901956 0.32234581427363851 0 0.071244474661197085 0.3036312559279935 0 0.081254576285268804 0.3210829637434266 0 0.06358813508901956 0.32234581427363851 0 0.072654821413094289 0.33942743407960763 0 0.06358813508901956 0.32234581427363851 0 0.072654821413094289 0.33942743407960763 0 0.055199983679349987 0.34246375673151652 0 0.072654821413094289 0.33942743407960763 0 0.066778362586220691 0.36264744131756171 0 0.055199983679349987 0.34246375673151652 0 0.072654821413094289 0.33942743407960763 0 0.0915497208986496 0.34709204532757532 0 0.066778362586220691 0.36264744131756171 0 0.0915497208986496 0.34709204532757532 0 0.086713905658550791 0.37461406501925459 0 0.066778362586220691 0.36264744131756171 0 0.066778362586220691 0.36264744131756171 0 0.044951457965310811 0.3555124197003488 0 0.045418656597819553 0.37354288132317159 0 0.066778362586220691 0.36264744131756171 0 0.044951457965310811 0.3555124197003488 0 0.055199983679349987 0.34246375673151652 0 0.044951457965310811 0.3555124197003488 0 0.021903196078839001 0.35746348141110651 0 0.035457090884324839 0.34144453771838768 0 0.044951457965310811 0.3555124197003488 0 0.035457090884324839 0.34144453771838768 0 0.055199983679349987 0.34246375673151652 0 0.044951457965310811 0.3555124197003488 0 0.045418656597819553 0.37354288132317159 0 0.021903196078839001 0.35746348141110651 0 0.025375843575522711 0.38021681034322929 0 0.021903196078839001 0.35746348141110651 0 0.0079023355216259559 0.37348921158265391 0 0.025375843575522711 0.38021681034322929 0 0.045418656597819553 0.37354288132317159 0 0.021903196078839001 0.35746348141110651 0 0.021903196078839001 0.35746348141110651 0 0.017151683724365509 0.3376665205351736 0 0.035457090884324839 0.34144453771838768 0 0.021903196078839001 0.35746348141110651 0 0.0095650341834115256 0.34490192427506011 0 0.017151683724365509 0.3376665205351736 0 0.021903196078839001 0.35746348141110651 0 0.0095650341834115256 0.34490192427506011 0 0.0061318462344260851 0.35417601161121459 0 -0.0050552824635438226 0.34569829691311771 0 0.0095650341834115256 0.34490192427506011 0 0.0061318462344260851 0.35417601161121459 0 0.021903196078839001 0.35746348141110651 0 0.0061318462344260851 0.35417601161121459 0 0.0079023355216259559 0.37348921158265391 0 -0.0052616759920083916 0.36132776784546622 0 0.0061318462344260851 0.35417601161121459 0 0.0079023355216259559 0.37348921158265391 0 0.0087281755863181168 0.33049580891976171 0 0.020410497070949891 0.30832150289807031 0 0.0056044744337335906 0.31412092038659428 0 0.0087281755863181168 0.33049580891976171 0 0.020410497070949891 0.30832150289807031 0 -0.003280447873963227 0.32161399115684158 0 0.0056044744337335906 0.31412092038659428 0 0.0087281755863181168 0.33049580891976171 0 0.0064742168078369342 0.3347740657525386 0 0.0087281755863181168 0.33049580891976171 0 -0.0050552824635438226 0.34569829691311771 0 0.0095650341834115256 0.34490192427506011 0 0.0064742168078369342 0.3347740657525386 0 0.0095650341834115256 0.34490192427506011 0 0.0064742168078369342 0.3347740657525386 0 0.017151683724365509 0.3376665205351736 0 0.0064742168078369342 0.3347740657525386 0 0.0087281755863181168 0.33049580891976171 0 0.017151683724365509 0.3376665205351736 0 0.0087281755863181168 0.33049580891976171 0 0.025353163704189718 0.33024288796319817 0 0.017151683724365509 0.3376665205351736 0 0.0087281755863181168 0.33049580891976171 0 0.025353163704189718 0.33024288796319817 0 0.025353163704189718 0.33024288796319817 0 0.017151683724365509 0.3376665205351736 0 0.035457090884324839 0.34144453771838768 0 0.0087281755863181168 0.33049580891976171 0 0.025353163704189718 0.33024288796319817 0 0.020410497070949891 0.30832150289807031 0 0.025353163704189718 0.33024288796319817 0 0.038017806832533571 0.30672300381527179 0 0.020410497070949891 0.30832150289807031 0 0.025353163704189718 0.33024288796319817 0 0.045812945845809312 0.32351293560108041 0 0.038017806832533571 0.30672300381527179 0 0.025353163704189718 0.33024288796319817 0 0.045812945845809312 0.32351293560108041 0 0.035457090884324839 0.34144453771838768 0 0.045812945845809312 0.32351293560108041 0 0.035457090884324839 0.34144453771838768 0 0.055199983679349987 0.34246375673151652 0 0.06358813508901956 0.32234581427363851 0 0.045812945845809312 0.32351293560108041 0 0.055199983679349987 0.34246375673151652 0 0.06358813508901956 0.32234581427363851 0 0.045812945845809312 0.32351293560108041 0 0.055148108477292443 0.3057593846019967 0 0.055148108477292443 0.3057593846019967 0 0.047586914097201803 0.29032131063477928 0 0.038017806832533571 0.30672300381527179 0 0.055148108477292443 0.3057593846019967 0 0.047586914097201803 0.29032131063477928 0 0.066935962560195753 0.28615893812798288 0 0.047586914097201803 0.29032131063477928 0 0.050578246113349837 0.27455429857722041 0 0.066935962560195753 0.28615893812798288 0 0.047586914097201803 0.29032131063477928 0 0.032092818555581597 0.28614719687637868 0 0.038017806832533571 0.30672300381527179 0 0.047586914097201803 0.29032131063477928 0 0.032092818555581597 0.28614719687637868 0 0.050578246113349837 0.27455429857722041 0 0.045812945845809312 0.32351293560108041 0 0.055148108477292443 0.3057593846019967 0 0.038017806832533571 0.30672300381527179 0 0.032092818555581597 0.28614719687637868 0 0.038017806832533571 0.30672300381527179 0 0.020410497070949891 0.30832150289807031 0 0.032092818555581597 0.28614719687637868 0 0.020410497070949891 0.30832150289807031 0 0.032092818555581597 0.28614719687637868 0 0.020410497070949891 0.30832150289807031 0 0.0083336089875100904 0.29343585490586271 0 0.032092818555581597 0.28614719687637868 0 0.0083336089875100904 0.29343585490586271 0 0.021382191810826279 0.2686960609189637 0 -0.0088759444352828343 0.31092800175718183 0 0.0056044744337335906 0.31412092038659428 0 0.0083336089875100904 0.29343585490586271 0 0.0056044744337335906 0.31412092038659428 0 0.020410497070949891 0.30832150289807031 0 0.0083336089875100904 0.29343585490586271 0 0.0073806355134042019 0.25529449578482938 0 3.3590645499582607e-05 0.27236849017123349 0 0.021382191810826279 0.2686960609189637 0 0.0083336089875100904 0.29343585490586271 0 3.3590645499582607e-05 0.27236849017123349 0 0.021382191810826279 0.2686960609189637 0 0.025149977659741599 0.24684982625080901 0 0.0073806355134042019 0.25529449578482938 0 0.021382191810826279 0.2686960609189637 0 0.025149977659741599 0.24684982625080901 0 0.021382191810826279 0.2686960609189637 0 0.043775140040213267 0.26397289085468728 0 0.025149977659741599 0.24684982625080901 0 0.045472231705318063 0.24424317023843681 0 0.050158093690384618 0.2598810672441918 0 0.025149977659741599 0.24684982625080901 0 0.050158093690384618 0.2598810672441918 0 0.025149977659741599 0.24684982625080901 0 0.043775140040213267 0.26397289085468728 0 0.050158093690384618 0.2598810672441918 0 0.032092818555581597 0.28614719687637868 0 0.043775140040213267 0.26397289085468728 0 0.032092818555581597 0.28614719687637868 0 0.021382191810826279 0.2686960609189637 0 0.043775140040213267 0.26397289085468728 0 0.032092818555581597 0.28614719687637868 0 0.043775140040213267 0.26397289085468728 0 0.050578246113349837 0.27455429857722041 0 0.050578246113349837 0.27455429857722041 0 0.063875668081316214 0.2678607518654692 0 0.066935962560195753 0.28615893812798288 0 0.043775140040213267 0.26397289085468728 0 0.050578246113349837 0.27455429857722041 0 0.050158093690384618 0.2598810672441918 0 0.050578246113349837 0.27455429857722041 0 0.056046126259945157 0.25263236173372139 0 0.063875668081316214 0.2678607518654692 0 0.050578246113349837 0.27455429857722041 0 0.050158093690384618 0.2598810672441918 0 0.056046126259945157 0.25263236173372139 0 0.045472231705318063 0.24424317023843681 0 0.050158093690384618 0.2598810672441918 0 0.056046126259945157 0.25263236173372139 0 0.050578246113349837 0.27455429857722041 0 0.056046126259945157 0.25263236173372139 0 0.078525547080241467 0.2465942846531784 0 0.067905867336300579 0.25358800162702 0 0.079567988853459573 0.27014218499250892 0 0.067905867336300579 0.25358800162702 0 0.079567988853459573 0.27014218499250892 0 0.063875668081316214 0.2678607518654692 0 0.056046126259945157 0.25263236173372139 0 0.067905867336300579 0.25358800162702 0 0.063875668081316214 0.2678607518654692 0 0.078525547080241467 0.2465942846531784 0 0.079567988853459573 0.27014218499250892 0 0.093798877441032588 0.2579700649065903 0 0.079567988853459573 0.27014218499250892 0 0.063875668081316214 0.2678607518654692 0 0.066935962560195753 0.28615893812798288 0 0.079567988853459573 0.27014218499250892 0 0.066935962560195753 0.28615893812798288 0 0.087430381393448858 0.29852998767476718 0 0.066935962560195753 0.28615893812798288 0 0.071244474661197085 0.3036312559279935 0 0.087430381393448858 0.29852998767476718 0 0.055148108477292443 0.3057593846019967 0 0.066935962560195753 0.28615893812798288 0 0.071244474661197085 0.3036312559279935 0 0.06358813508901956 0.32234581427363851 0 0.055148108477292443 0.3057593846019967 0 0.071244474661197085 0.3036312559279935 0 0.081254576285268804 0.3210829637434266 0 0.087430381393448858 0.29852998767476718 0 0.1104734498024164 0.31171603628350752 0 0.081254576285268804 0.3210829637434266 0 0.071244474661197085 0.3036312559279935 0 0.087430381393448858 0.29852998767476718 0 0.079567988853459573 0.27014218499250892 0 0.087430381393448858 0.29852998767476718 0 0.1079828451826004 0.27738565586056829 0 0.087430381393448858 0.29852998767476718 0 0.1104734498024164 0.31171603628350752 0 0.1079828451826004 0.27738565586056829 0 0.1104734498024164 0.31171603628350752 0 0.1079828451826004 0.27738565586056829 0 0.13401849175413849 0.29214957311260448 0 0.1079828451826004 0.27738565586056829 0 0.13401849175413849 0.29214957311260448 0 0.1100607559553454 0.25396994184181759 0 0.1079828451826004 0.27738565586056829 0 0.13366986361514199 0.26692500362740812 0 0.12787711237058769 0.24521089126939841 0 0.1100607559553454 0.25396994184181759 0 0.13366986361514199 0.26692500362740812 0 0.092857250133516089 0.24175825718487831 0 0.1100607559553454 0.25396994184181759 0 0.093798877441032588 0.2579700649065903 0 0.1100607559553454 0.25396994184181759 0 0.093798877441032588 0.2579700649065903 0 0.1079828451826004 0.27738565586056829 0 0.079567988853459573 0.27014218499250892 0 0.093798877441032588 0.2579700649065903 0 0.1079828451826004 0.27738565586056829 0 0.13366986361514199 0.26692500362740812 0 0.1558685034792309 0.28595093384994291 0 0.15959452244756481 0.26367036214955358 0 0.14702044576598061 0.2478904659134552 0 0.13366986361514199 0.26692500362740812 0 0.15959452244756481 0.26367036214955358 0 0.14702044576598061 0.2478904659134552 0 0.12787711237058769 0.24521089126939841 0 0.13366986361514199 0.26692500362740812 0 0.1079828451826004 0.27738565586056829 0 0.13366986361514199 0.26692500362740812 0 0.13401849175413849 0.29214957311260448 0 0.1104734498024164 0.31171603628350752 0 0.13401849175413849 0.29214957311260448 0 0.14183880654046921 0.32250528078568202 0 0.13401849175413849 0.29214957311260448 0 0.16005413832567669 0.30691349036464077 0 0.14183880654046921 0.32250528078568202 0 0.13401849175413849 0.29214957311260448 0 0.16005413832567669 0.30691349036464077 0 0.13401849175413849 0.29214957311260448 0 0.1558685034792309 0.28595093384994291 0 0.16005413832567669 0.30691349036464077 0 0.13366986361514199 0.26692500362740812 0 0.13401849175413849 0.29214957311260448 0 0.1558685034792309 0.28595093384994291 0 0.1558685034792309 0.28595093384994291 0 0.1700220001876428 0.28782965529906401 0 0.16005413832567669 0.30691349036464077 0 0.1558685034792309 0.28595093384994291 0 0.1700220001876428 0.28782965529906401 0 0.17370236977615991 0.27502287964280692 0 0.1700220001876428 0.28782965529906401 0 0.16005413832567669 0.30691349036464077 0 0.1764196225356903 0.29880027385689728 0 0.16005413832567669 0.30691349036464077 0 0.1764196225356903 0.29880027385689728 0 0.18686192329242929 0.31378732528256248 0 0.1764196225356903 0.29880027385689728 0 0.18674031124236579 0.30201460306836742 0 0.19086383386244751 0.2907864273273883 0 0.1764196225356903 0.29880027385689728 0 0.18674031124236579 0.30201460306836742 0 0.18686192329242929 0.31378732528256248 0 0.1700220001876428 0.28782965529906401 0 0.18013512871176271 0.28566990799825959 0 0.17370236977615991 0.27502287964280692 0 0.1700220001876428 0.28782965529906401 0 0.1764196225356903 0.29880027385689728 0 0.18013512871176271 0.28566990799825959 0 0.1764196225356903 0.29880027385689728 0 0.18013512871176271 0.28566990799825959 0 0.19086383386244751 0.2907864273273883 0 0.18013512871176271 0.28566990799825959 0 0.1896678171968729 0.27591030386514148 0 0.19086383386244751 0.2907864273273883 0 0.18251379545819379 0.26835647973838378 0 0.17370236977615991 0.27502287964280692 0 0.1896678171968729 0.27591030386514148 0 0.18013512871176271 0.28566990799825959 0 0.17370236977615991 0.27502287964280692 0 0.1896678171968729 0.27591030386514148 0 0.18251379545819379 0.26835647973838378 0 0.17370236977615991 0.27502287964280692 0 0.17699066645021869 0.2595722272450377 0 0.17370236977615991 0.27502287964280692 0 0.15959452244756481 0.26367036214955358 0 0.17699066645021869 0.2595722272450377 0 0.1558685034792309 0.28595093384994291 0 0.17370236977615991 0.27502287964280692 0 0.15959452244756481 0.26367036214955358 0 0.16774616909827719 0.2460930353984315 0 0.15959452244756481 0.26367036214955358 0 0.17699066645021869 0.2595722272450377 0 0.14702044576598061 0.2478904659134552 0 0.16774616909827719 0.2460930353984315 0 0.15959452244756481 0.26367036214955358 0 0.18692125413578081 0.24552837502103991 0 0.16774616909827719 0.2460930353984315 0 0.17699066645021869 0.2595722272450377 0 0.18692125413578081 0.24552837502103991 0 0.17699066645021869 0.2595722272450377 0 0.19242781921148469 0.26384338938458129 0 0.18251379545819379 0.26835647973838378 0 0.17699066645021869 0.2595722272450377 0 0.19242781921148469 0.26384338938458129 0 0.18692125413578081 0.24552837502103991 0 0.19242781921148469 0.26384338938458129 0 0.20107379594449931 0.25686311186437227 0 0.18692125413578081 0.24552837502103991 0 0.20107379594449931 0.25686311186437227 0 0.19242781921148469 0.26384338938458129 0 0.20107379594449931 0.25686311186437227 0 0.2008998280478862 0.26959186196165702 0 0.19242781921148469 0.26384338938458129 0 0.20107379594449931 0.25686311186437227 0 0.19242781921148469 0.26384338938458129 0 0.1896678171968729 0.27591030386514148 0 0.2008998280478862 0.26959186196165702 0 0.18251379545819379 0.26835647973838378 0 0.19242781921148469 0.26384338938458129 0 0.1896678171968729 0.27591030386514148 0 0.1896678171968729 0.27591030386514148 0 0.2008998280478862 0.26959186196165702 0 0.20354188417430641 0.281093168015905 0 0.2008998280478862 0.26959186196165702 0 0.2177878237122676 0.27024933667828532 0 0.20354188417430641 0.281093168015905 0 0.2177878237122676 0.27024933667828532 0 0.20354188417430641 0.281093168015905 0 0.2166033006779626 0.28924568688104418 0 0.21557305570370441 0.24515722135805329 0 0.20107379594449931 0.25686311186437227 0 0.2177878237122676 0.27024933667828532 0 0.20107379594449931 0.25686311186437227 0 0.2177878237122676 0.27024933667828532 0 0.20107379594449931 0.25686311186437227 0 0.2008998280478862 0.26959186196165702 0 0.2177878237122676 0.27024933667828532 0 0.21557305570370441 0.24515722135805329 0 0.20107379594449931 0.25686311186437227 0 0.21557305570370441 0.24515722135805329 0 0.2177878237122676 0.27024933667828532 0 0.23628031136540401 0.25597328662156199 0 0.2177878237122676 0.27024933667828532 0 0.23628031136540401 0.25597328662156199 0 0.23450185148003599 0.28363556149219821 0 0.2177878237122676 0.27024933667828532 0 0.23450185148003599 0.28363556149219821 0 0.2166033006779626 0.28924568688104418 0 0.2177878237122676 0.27024933667828532 0 0.23450185148003599 0.28363556149219821 0 0.23628031136540401 0.25597328662156199 0 0.23450185148003599 0.28363556149219821 0 0.25102838231212438 0.26850893423506528 0 0.23450185148003599 0.28363556149219821 0 0.25953152444998728 0.28294166139542631 0 0.25102838231212438 0.26850893423506528 0 0.23628031136540401 0.25597328662156199 0 0.25102838231212438 0.26850893423506528 0 0.26221447651104962 0.2479993693513689 0 0.2297645605960125 0.30261029929826411 0 0.25121587924780342 0.29702178630611242 0 0.2484846271056145 0.31037308609574782 0 0.2297645605960125 0.30261029929826411 0 0.23798581837376781 0.31938142953188831 0 0.2484846271056145 0.31037308609574782 0 0.2297645605960125 0.30261029929826411 0 0.25121587924780342 0.29702178630611242 0 0.23450185148003599 0.28363556149219821 0 0.2297645605960125 0.30261029929826411 0 0.25121587924780342 0.29702178630611242 0 0.23450185148003599 0.28363556149219821 0 0.25121587924780342 0.29702178630611242 0 0.23450185148003599 0.28363556149219821 0 0.25953152444998728 0.28294166139542631 0 0.25121587924780342 0.29702178630611242 0 0.23450185148003599 0.28363556149219821 0 0.2297645605960125 0.30261029929826411 0 0.2166033006779626 0.28924568688104418 0 0.2297645605960125 0.30261029929826411 0 0.20831324194422091 0.30819881229041318 0 0.2297645605960125 0.30261029929826411 0 0.20831324194422091 0.30819881229041318 0 0.21977364325038071 0.31928170538083578 0 0.20831324194422091 0.30819881229041318 0 0.2166033006779626 0.28924568688104418 0 0.20288664267638859 0.29424953150154581 0 0.2297645605960125 0.30261029929826411 0 0.20831324194422091 0.30819881229041318 0 0.2166033006779626 0.28924568688104418 0 0.20354188417430641 0.281093168015905 0 0.2166033006779626 0.28924568688104418 0 0.20288664267638859 0.29424953150154581 0 0.20354188417430641 0.281093168015905 0 0.20288664267638859 0.29424953150154581 0 0.19086383386244751 0.2907864273273883 0 0.20288664267638859 0.29424953150154581 0 0.19086383386244751 0.2907864273273883 0 0.19511095272300569 0.3019235629929784 0 0.1896678171968729 0.27591030386514148 0 0.20354188417430641 0.281093168015905 0 0.19086383386244751 0.2907864273273883 0 0.20831324194422091 0.30819881229041318 0 0.18686192329242929 0.31378732528256248 0 0.20831324194422091 0.30819881229041318 0 0.19511095272300569 0.3019235629929784 0 0.18686192329242929 0.31378732528256248 0 0.20831324194422091 0.30819881229041318 0 0.20288664267638859 0.29424953150154581 0 0.19511095272300569 0.3019235629929784 0 0.18674031124236579 0.30201460306836742 0 0.19086383386244751 0.2907864273273883 0 0.19511095272300569 0.3019235629929784 0 0.18674031124236579 0.30201460306836742 0 0.19511095272300569 0.3019235629929784 0 0.18686192329242929 0.31378732528256248 0 0.20141288137377081 0.31920030670374799 0 0.18686192329242929 0.31378732528256248 0 0.18608978489721489 0.32167740761667712 0 0.20831324194422091 0.30819881229041318 0 0.20141288137377081 0.31920030670374799 0 0.18686192329242929 0.31378732528256248 0 0.20141288137377081 0.31920030670374799 0 0.21212543146875301 0.33644132486871342 0 0.18608978489721489 0.32167740761667712 0 0.21212543146875301 0.33644132486871342 0 0.18608978489721489 0.32167740761667712 0 0.19231113454718349 0.34165597013868199 0 0.21212543146875301 0.33644132486871342 0 0.18608978489721489 0.32167740761667712 0 0.20831324194422091 0.30819881229041318 0 0.20141288137377081 0.31920030670374799 0 0.21977364325038071 0.31928170538083578 0 0.20141288137377081 0.31920030670374799 0 0.21212543146875301 0.33644132486871342 0 0.21977364325038071 0.31928170538083578 0 0.21977364325038071 0.31928170538083578 0 0.2290399257457596 0.32985805959198788 0 0.23798581837376781 0.31938142953188831 0 0.2297645605960125 0.30261029929826411 0 0.21977364325038071 0.31928170538083578 0 0.23798581837376781 0.31938142953188831 0 0.21212543146875301 0.33644132486871342 0 0.21977364325038071 0.31928170538083578 0 0.2290399257457596 0.32985805959198788 0 0.21212543146875301 0.33644132486871342 0 0.23060518033342339 0.33807106122714048 0 0.2290399257457596 0.32985805959198788 0 0.21212543146875301 0.33644132486871342 0 0.23060518033342339 0.33807106122714048 0 0.23816107804029091 0.35120524212074949 0 0.23060518033342339 0.33807106122714048 0 0.2290399257457596 0.32985805959198788 0 0.2430942860788903 0.33477961832711151 0 0.23060518033342339 0.33807106122714048 0 0.2430942860788903 0.33477961832711151 0 0.23816107804029091 0.35120524212074949 0 0.2484846271056145 0.31037308609574782 0 0.23798581837376781 0.31938142953188831 0 0.25508783524565293 0.32209220201309929 0 0.2430942860788903 0.33477961832711151 0 0.23798581837376781 0.31938142953188831 0 0.25508783524565293 0.32209220201309929 0 0.2290399257457596 0.32985805959198788 0 0.2430942860788903 0.33477961832711151 0 0.23798581837376781 0.31938142953188831 0 0.23439037865920059 0.35560025357312369 0 0.2386764282036242 0.37725286527910618 0 0.24311907173897271 0.36013203008567057 0 0.23439037865920059 0.35560025357312369 0 0.2386764282036242 0.37725286527910618 0 0.2492643002430574 0.365916522193315 0 0.24311907173897271 0.36013203008567057 0 0.2386764282036242 0.37725286527910618 0 0.2492643002430574 0.365916522193315 0 0.2386764282036242 0.37725286527910618 0 0.25383912625151372 0.37755129754335942 0 0.24311907173897271 0.36013203008567057 0 0.23816107804029091 0.35120524212074949 0 0.2641967246118288 0.36596915937278562 0 0.2430942860788903 0.33477961832711151 0 0.23816107804029091 0.35120524212074949 0 0.26173146881309822 0.35734024057335978 0 0.24311907173897271 0.36013203008567057 0 0.23816107804029091 0.35120524212074949 0 0.23439037865920059 0.35560025357312369 0 0.21212543146875301 0.33644132486871342 0 0.23816107804029091 0.35120524212074949 0 0.21848510057545151 0.35453686872473111 0 0.23816107804029091 0.35120524212074949 0 0.23439037865920059 0.35560025357312369 0 0.21848510057545151 0.35453686872473111 0 0.21212543146875301 0.33644132486871342 0 0.23816107804029091 0.35120524212074949 0 0.23439037865920059 0.35560025357312369 0 0.22513916990612379 0.36868200325308897 0 0.2386764282036242 0.37725286527910618 0 0.23439037865920059 0.35560025357312369 0 0.22513916990612379 0.36868200325308897 0 0.21848510057545151 0.35453686872473111 0 0.22513916990612379 0.36868200325308897 0 0.20931495008602691 0.36890180222237801 0 0.21961872799640589 0.38146559318592133 0 0.22513916990612379 0.36868200325308897 0 0.20931495008602691 0.36890180222237801 0 0.21848510057545151 0.35453686872473111 0 0.20931495008602691 0.36890180222237801 0 0.21848510057545151 0.35453686872473111 0 0.2018014651714847 0.35413555731190122 0 0.21212543146875301 0.33644132486871342 0 0.21848510057545151 0.35453686872473111 0 0.2018014651714847 0.35413555731190122 0 0.19231113454718349 0.34165597013868199 0 0.2018014651714847 0.35413555731190122 0 0.1832131523033072 0.3569188224833833 0 0.19231113454718349 0.34165597013868199 0 0.21212543146875301 0.33644132486871342 0 0.2018014651714847 0.35413555731190122 0 0.20931495008602691 0.36890180222237801 0 0.2018014651714847 0.35413555731190122 0 0.19217836357317111 0.36996972767433872 0 0.20931495008602691 0.36890180222237801 0 0.19217836357317111 0.36996972767433872 0 0.20289108470775991 0.38370682355227331 0 0.2018014651714847 0.35413555731190122 0 0.19217836357317111 0.36996972767433872 0 0.1832131523033072 0.3569188224833833 0 0.19217836357317111 0.36996972767433872 0 0.17197644233242751 0.37002706837148541 0 0.1832131523033072 0.3569188224833833 0 0.17197644233242751 0.37002706837148541 0 0.16866852787741549 0.35230522619665788 0 0.1832131523033072 0.3569188224833833 0 0.17197644233242751 0.37002706837148541 0 0.16866852787741549 0.35230522619665788 0 0.15186920095361911 0.35620033980905319 0 0.17197644233242751 0.37002706837148541 0 0.15186920095361911 0.35620033980905319 0 0.15185568245476189 0.37707061606136422 0 0.16866852787741549 0.35230522619665788 0 0.1579580049025659 0.33927316190663209 0 0.15186920095361911 0.35620033980905319 0 0.16866852787741549 0.35230522619665788 0 0.1832131523033072 0.3569188224833833 0 0.17832583889515771 0.33910673841273542 0 0.19231113454718349 0.34165597013868199 0 0.1832131523033072 0.3569188224833833 0 0.17832583889515771 0.33910673841273542 0 0.17832583889515771 0.33910673841273542 0 0.18608978489721489 0.32167740761667712 0 0.16647560889869609 0.32578562508456149 0 0.19231113454718349 0.34165597013868199 0 0.17832583889515771 0.33910673841273542 0 0.18608978489721489 0.32167740761667712 0 0.16005413832567669 0.30691349036464077 0 0.18608978489721489 0.32167740761667712 0 0.16005413832567669 0.30691349036464077 0 0.18686192329242929 0.31378732528256248 0 0.18608978489721489 0.32167740761667712 0 0.16005413832567669 0.30691349036464077 0 0.18608978489721489 0.32167740761667712 0 0.16647560889869609 0.32578562508456149 0 0.17832583889515771 0.33910673841273542 0 0.16647560889869609 0.32578562508456149 0 0.1579580049025659 0.33927316190663209 0 0.16866852787741549 0.35230522619665788 0 0.17832583889515771 0.33910673841273542 0 0.1579580049025659 0.33927316190663209 0 0.16647560889869609 0.32578562508456149 0 0.1579580049025659 0.33927316190663209 0 0.14183880654046921 0.32250528078568202 0 0.1579580049025659 0.33927316190663209 0 0.14183880654046921 0.32250528078568202 0 0.14054269679001921 0.34363296691054102 0 0.16005413832567669 0.30691349036464077 0 0.16647560889869609 0.32578562508456149 0 0.14183880654046921 0.32250528078568202 0 0.1202868522871179 0.34060046584014031 0 0.14183880654046921 0.32250528078568202 0 0.14054269679001921 0.34363296691054102 0 0.1202868522871179 0.34060046584014031 0 0.14054269679001921 0.34363296691054102 0 0.13274728415341139 0.36410634055334368 0 0.13274728415341139 0.36410634055334368 0 0.15186920095361911 0.35620033980905319 0 0.15185568245476189 0.37707061606136422 0 0.14054269679001921 0.34363296691054102 0 0.13274728415341139 0.36410634055334368 0 0.15186920095361911 0.35620033980905319 0 0.1579580049025659 0.33927316190663209 0 0.14054269679001921 0.34363296691054102 0 0.15186920095361911 0.35620033980905319 0 0.15352992747694119 0.40026604784697911 0 0.13692284990477191 0.38930777957628943 0 0.1397509022148696 0.40843688002483958 0 0.15352992747694119 0.40026604784697911 0 0.15185568245476189 0.37707061606136422 0 0.13692284990477191 0.38930777957628943 0 0.13274728415341139 0.36410634055334368 0 0.15185568245476189 0.37707061606136422 0 0.13692284990477191 0.38930777957628943 0 0.119448870245615 0.38256434187866972 0 0.13274728415341139 0.36410634055334368 0 0.13692284990477191 0.38930777957628943 0 0.115428724103706 0.40267530492779557 0 0.13692284990477191 0.38930777957628943 0 0.1397509022148696 0.40843688002483958 0 0.12259086230274099 0.42947812748907283 0 0.1397509022148696 0.40843688002483958 0 0.14363603346764281 0.42707530835579988 0 0.12259086230274099 0.42947812748907283 0 0.115428724103706 0.40267530492779557 0 0.1397509022148696 0.40843688002483958 0 0.12259086230274099 0.42947812748907283 0 0.14363603346764281 0.42707530835579988 0 0.13510526379757609 0.44116740875256688 0 0.14363603346764281 0.42707530835579988 0 0.16526304614212209 0.42908608809292892 0 0.1507341445198021 0.44370602134863157 0 0.14363603346764281 0.42707530835579988 0 0.15527295380072001 0.4153931176925994 0 0.16526304614212209 0.42908608809292892 0 0.14363603346764281 0.42707530835579988 0 0.1507341445198021 0.44370602134863157 0 0.13510526379757609 0.44116740875256688 0 0.1397509022148696 0.40843688002483958 0 0.14363603346764281 0.42707530835579988 0 0.15527295380072001 0.4153931176925994 0 0.15352992747694119 0.40026604784697911 0 0.1397509022148696 0.40843688002483958 0 0.15527295380072001 0.4153931176925994 0 0.15527295380072001 0.4153931176925994 0 0.1711416470664554 0.41062619466687539 0 0.16526304614212209 0.42908608809292892 0 0.15352992747694119 0.40026604784697911 0 0.15527295380072001 0.4153931176925994 0 0.1711416470664554 0.41062619466687539 0 0.16526304614212209 0.42908608809292892 0 0.1809560021812836 0.43814832633623357 0 0.16598328874466911 0.44273574664910909 0 0.16526304614212209 0.42908608809292892 0 0.18469425222239219 0.42125941149134333 0 0.1809560021812836 0.43814832633623357 0 0.1711416470664554 0.41062619466687539 0 0.16526304614212209 0.42908608809292892 0 0.18469425222239219 0.42125941149134333 0 0.1711416470664554 0.41062619466687539 0 0.18469425222239219 0.42125941149134333 0 0.1843100454414533 0.40126956181167389 0 0.1711416470664554 0.41062619466687539 0 0.1843100454414533 0.40126956181167389 0 0.16952276405911931 0.3912061138884545 0 0.1843100454414533 0.40126956181167389 0 0.16952276405911931 0.3912061138884545 0 0.18589276442329861 0.38606835492789338 0 0.15352992747694119 0.40026604784697911 0 0.1711416470664554 0.41062619466687539 0 0.16952276405911931 0.3912061138884545 0 0.15352992747694119 0.40026604784697911 0 0.15185568245476189 0.37707061606136422 0 0.16952276405911931 0.3912061138884545 0 0.17197644233242751 0.37002706837148541 0 0.15185568245476189 0.37707061606136422 0 0.16952276405911931 0.3912061138884545 0 0.17197644233242751 0.37002706837148541 0 0.16952276405911931 0.3912061138884545 0 0.18589276442329861 0.38606835492789338 0 0.19217836357317111 0.36996972767433872 0 0.17197644233242751 0.37002706837148541 0 0.18589276442329861 0.38606835492789338 0 0.18589276442329861 0.38606835492789338 0 0.20289108470775991 0.38370682355227331 0 0.19700705340585539 0.39579078134538831 0 0.19217836357317111 0.36996972767433872 0 0.18589276442329861 0.38606835492789338 0 0.20289108470775991 0.38370682355227331 0 0.19700705340585539 0.39579078134538831 0 0.21316338490038089 0.39704202397260657 0 0.19877798755638451 0.41086714246249401 0 0.1843100454414533 0.40126956181167389 0 0.19700705340585539 0.39579078134538831 0 0.19877798755638451 0.41086714246249401 0 0.1843100454414533 0.40126956181167389 0 0.18589276442329861 0.38606835492789338 0 0.19700705340585539 0.39579078134538831 0 0.20289108470775991 0.38370682355227331 0 0.19700705340585539 0.39579078134538831 0 0.21316338490038089 0.39704202397260657 0 0.20931495008602691 0.36890180222237801 0 0.20289108470775991 0.38370682355227331 0 0.21961872799640589 0.38146559318592133 0 0.20289108470775991 0.38370682355227331 0 0.21316338490038089 0.39704202397260657 0 0.21961872799640589 0.38146559318592133 0 0.22513916990612379 0.36868200325308897 0 0.21961872799640589 0.38146559318592133 0 0.2386764282036242 0.37725286527910618 0 0.21961872799640589 0.38146559318592133 0 0.22852735017452019 0.39320804083607441 0 0.2386764282036242 0.37725286527910618 0 0.21316338490038089 0.39704202397260657 0 0.21961872799640589 0.38146559318592133 0 0.22852735017452019 0.39320804083607441 0 0.21316338490038089 0.39704202397260657 0 0.22852735017452019 0.39320804083607441 0 0.22983145469658259 0.40925978250573319 0 0.21316338490038089 0.39704202397260657 0 0.22983145469658259 0.40925978250573319 0 0.22852735017452019 0.39320804083607441 0 0.2429624777480478 0.39890547698508871 0 0.22983145469658259 0.40925978250573319 0 0.2429624777480478 0.39890547698508871 0 0.2386764282036242 0.37725286527910618 0 0.22852735017452019 0.39320804083607441 0 0.2429624777480478 0.39890547698508871 0 0.2386764282036242 0.37725286527910618 0 0.2429624777480478 0.39890547698508871 0 0.2386764282036242 0.37725286527910618 0 0.25341304662754638 0.38974012394171498 0 0.2386764282036242 0.37725286527910618 0 0.25383912625151372 0.37755129754335942 0 0.25341304662754638 0.38974012394171498 0 0.24649952449278431 0.42147754103885982 0 0.22996656543308741 0.44177288309861867 0 0.24946733303660301 0.43176723098649622 0 0.24649952449278431 0.42147754103885982 0 0.22996656543308741 0.44177288309861867 0 0.24649952449278431 0.42147754103885982 0 0.22738899126970491 0.42458926785457718 0 0.22996656543308741 0.44177288309861867 0 0.24946733303660301 0.43176723098649622 0 0.24649952449278431 0.42147754103885982 0 0.2429624777480478 0.39890547698508871 0 0.24649952449278431 0.42147754103885982 0 0.24649952449278431 0.42147754103885982 0 0.22983145469658259 0.40925978250573319 0 0.22738899126970491 0.42458926785457718 0 0.24649952449278431 0.42147754103885982 0 0.22983145469658259 0.40925978250573319 0 0.2429624777480478 0.39890547698508871 0 0.24649952449278431 0.42147754103885982 0 0.22983145469658259 0.40925978250573319 0 0.21316338490038089 0.39704202397260657 0 0.22983145469658259 0.40925978250573319 0 0.21370806227123909 0.41789950377956148 0 0.22983145469658259 0.40925978250573319 0 0.22738899126970491 0.42458926785457718 0 0.21370806227123909 0.41789950377956148 0 0.22738899126970491 0.42458926785457718 0 0.21739304288862979 0.43200563017257382 0 0.22996656543308741 0.44177288309861867 0 0.22738899126970491 0.42458926785457718 0 0.21739304288862979 0.43200563017257382 0 0.21370806227123909 0.41789950377956148 0 0.21739304288862979 0.43200563017257382 0 0.1999317510848099 0.43097584272053618 0 0.2111195299095035 0.44359306409302351 0 0.21739304288862979 0.43200563017257382 0 0.21370806227123909 0.41789950377956148 0 0.1999317510848099 0.43097584272053618 0 0.21370806227123909 0.41789950377956148 0 0.19877798755638451 0.41086714246249401 0 0.1999317510848099 0.43097584272053618 0 0.21316338490038089 0.39704202397260657 0 0.21370806227123909 0.41789950377956148 0 0.19877798755638451 0.41086714246249401 0 0.18469425222239219 0.42125941149134333 0 0.19877798755638451 0.41086714246249401 0 0.1999317510848099 0.43097584272053618 0 0.18469425222239219 0.42125941149134333 0 0.1843100454414533 0.40126956181167389 0 0.19877798755638451 0.41086714246249401 0 0.18469425222239219 0.42125941149134333 0 0.1999317510848099 0.43097584272053618 0 0.1809560021812836 0.43814832633623357 0 0.1999317510848099 0.43097584272053618 0 0.19479511809318301 0.4526549487178691 0 0.2111195299095035 0.44359306409302351 0 0.1999317510848099 0.43097584272053618 0 0.19479511809318301 0.4526549487178691 0 0.1809560021812836 0.43814832633623357 0 0.19479511809318301 0.4526549487178691 0 0.213169792932182 0.46047172596691099 0 0.19211155850092579 0.47790980627879082 0 0.19479511809318301 0.4526549487178691 0 0.19211155850092579 0.47790980627879082 0 0.18348770279874721 0.46143911161818069 0 0.213169792932182 0.46047172596691099 0 0.2111195299095035 0.44359306409302351 0 0.22996656543308741 0.44177288309861867 0 0.19479511809318301 0.4526549487178691 0 0.213169792932182 0.46047172596691099 0 0.2111195299095035 0.44359306409302351 0 0.21739304288862979 0.43200563017257382 0 0.2111195299095035 0.44359306409302351 0 0.22996656543308741 0.44177288309861867 0 0.22996656543308741 0.44177288309861867 0 0.22854105436186559 0.46372788353366717 0 0.24141841662185301 0.45603819576859073 0 0.213169792932182 0.46047172596691099 0 0.22854105436186559 0.46372788353366717 0 0.221321310837439 0.47674074212904899 0 0.213169792932182 0.46047172596691099 0 0.22996656543308741 0.44177288309861867 0 0.22854105436186559 0.46372788353366717 0 0.24141841662185301 0.45603819576859073 0 0.23645949407781469 0.47608243786178739 0 0.25047151807745072 0.47036873115219768 0 0.22854105436186559 0.46372788353366717 0 0.24141841662185301 0.45603819576859073 0 0.23645949407781469 0.47608243786178739 0 0.24141841662185301 0.45603819576859073 0 0.25047151807745072 0.47036873115219768 0 0.25477099823403621 0.45804476415031298 0 0.24141841662185301 0.45603819576859073 0 0.25282491994113748 0.44831200937164878 0 0.25477099823403621 0.45804476415031298 0 0.22996656543308741 0.44177288309861867 0 0.24141841662185301 0.45603819576859073 0 0.24583280085865111 0.44361242472787987 0 0.24946733303660301 0.43176723098649622 0 0.22996656543308741 0.44177288309861867 0 0.24583280085865111 0.44361242472787987 0 0.24141841662185301 0.45603819576859073 0 0.24583280085865111 0.44361242472787987 0 0.25282491994113748 0.44831200937164878 0 0.24904418528453851 0.48634810883828161 0 0.23645949407781469 0.47608243786178739 0 0.23352830384551029 0.49999999999999978 0 0.24904418528453851 0.48634810883828161 0 0.23352830384551029 0.49999999999999978 0 0.25181722630913472 0.5 0 0.24904418528453851 0.48634810883828161 0 0.23645949407781469 0.47608243786178739 0 0.25047151807745072 0.47036873115219768 0 0.23645949407781469 0.47608243786178739 0 0.221321310837439 0.47674074212904899 0 0.23352830384551029 0.49999999999999978 0 0.22854105436186559 0.46372788353366717 0 0.23645949407781469 0.47608243786178739 0 0.221321310837439 0.47674074212904899 0 0.23352830384551029 0.49999999999999978 0 0.2128199311732181 0.48895490313939532 0 0.21702906166474581 0.5 0 0.23352830384551029 0.49999999999999978 0 0.2128199311732181 0.48895490313939532 0 0.221321310837439 0.47674074212904899 0 0.23352830384551029 0.49999999999999978 0 0.2128199311732181 0.48895490313939532 0 0.2128199311732181 0.48895490313939532 0 0.21702906166474581 0.5 0 0.20052981948398141 0.49999999999999989 0 0.213169792932182 0.46047172596691099 0 0.221321310837439 0.47674074212904899 0 0.19211155850092579 0.47790980627879082 0 0.221321310837439 0.47674074212904899 0 0.2128199311732181 0.48895490313939532 0 0.19211155850092579 0.47790980627879082 0 0.2128199311732181 0.48895490313939532 0 0.19211155850092579 0.47790980627879082 0 0.2128199311732181 0.48895490313939532 0 0.20052981948398141 0.49999999999999989 0 0.19295831529489699 0.4905304616351287 0 0.2128199311732181 0.48895490313939532 0 0.19211155850092579 0.47790980627879082 0 0.19295831529489699 0.4905304616351287 0 0.20052981948398141 0.49999999999999989 0 0.1839227339461352 0.49861489743603538 0 0.20052981948398141 0.49999999999999989 0 0.19295831529489699 0.4905304616351287 0 0.1839227339461352 0.49861489743603538 0 0.19211155850092579 0.47790980627879082 0 0.19295831529489699 0.4905304616351287 0 0.1809625144841838 0.48570342190566712 0 0.1839227339461352 0.49861489743603538 0 0.1809625144841838 0.48570342190566712 0 0.16731564840828889 0.49722979487207219 0 0.1839227339461352 0.49861489743603538 0 0.16731564840828889 0.49722979487207219 0 0.1839227339461352 0.49861489743603538 0 0.1669427425872391 0.49999999999999922 0 0.16731564840828889 0.49722979487207219 0 0.19295831529489699 0.4905304616351287 0 0.1839227339461352 0.49861489743603538 0 0.1809625144841838 0.48570342190566712 0 0.1809625144841838 0.48570342190566712 0 0.16731564840828889 0.49722979487207219 0 0.16935941711846161 0.48204725214512889 0 0.16731564840828889 0.49722979487207219 0 0.157708884996551 0.48584061526662409 0 0.14611751268168829 0.49546177892012921 0 0.16731564840828889 0.49722979487207219 0 0.14611751268168829 0.49546177892012921 0 0.1669427425872391 0.49999999999999922 0 0.16731564840828889 0.49722979487207219 0 0.14611751268168829 0.49546177892012921 0 0.1669427425872391 0.49999999999999922 0 0.16731564840828889 0.49722979487207219 0 0.16731564840828889 0.49722979487207219 0 0.16935941711846161 0.48204725214512889 0 0.16731564840828889 0.49722979487207219 0 0.157708884996551 0.48584061526662409 0 0.16935941711846161 0.48204725214512889 0 0.16382575626869561 0.4735735187060508 0 0.15802571703479451 0.46684670821381258 0 0.1531189490294651 0.47544631339495541 0 0.157708884996551 0.48584061526662409 0 0.16382575626869561 0.4735735187060508 0 0.1531189490294651 0.47544631339495541 0 0.157708884996551 0.48584061526662409 0 0.16382575626869561 0.4735735187060508 0 0.16935941711846161 0.48204725214512889 0 0.16935941711846161 0.48204725214512889 0 0.17140318582863401 0.46686470941818559 0 0.16382575626869561 0.4735735187060508 0 0.16935941711846161 0.48204725214512889 0 0.17140318582863401 0.46686470941818559 0 0.1809625144841838 0.48570342190566712 0 0.16935941711846161 0.48204725214512889 0 0.17140318582863401 0.46686470941818559 0 0.19211155850092579 0.47790980627879082 0 0.1809625144841838 0.48570342190566712 0 0.17140318582863401 0.46686470941818559 0 0.19211155850092579 0.47790980627879082 0 0.17140318582863401 0.46686470941818559 0 0.19479511809318301 0.4526549487178691 0 0.18348770279874721 0.46143911161818069 0 0.17341546959919829 0.45191605883299152 0 0.19211155850092579 0.47790980627879082 0 0.18348770279874721 0.46143911161818069 0 0.17140318582863401 0.46686470941818559 0 0.18348770279874721 0.46143911161818069 0 0.17341546959919829 0.45191605883299152 0 0.17140318582863401 0.46686470941818559 0 0.17341546959919829 0.45191605883299152 0 0.17140318582863401 0.46686470941818559 0 0.19479511809318301 0.4526549487178691 0 0.1809560021812836 0.43814832633623357 0 0.17341546959919829 0.45191605883299152 0 0.1809560021812836 0.43814832633623357 0 0.17341546959919829 0.45191605883299152 0 0.16598328874466911 0.44273574664910909 0 0.17341546959919829 0.45191605883299152 0 0.16598328874466911 0.44273574664910909 0 0.15954778128093949 0.4508222386347599 0 0.16598328874466911 0.44273574664910909 0 0.15954778128093949 0.4508222386347599 0 0.1507341445198021 0.44370602134863157 0 0.16526304614212209 0.42908608809292892 0 0.16598328874466911 0.44273574664910909 0 0.1507341445198021 0.44370602134863157 0 0.16382575626869561 0.4735735187060508 0 0.1651762257979181 0.46354347419730452 0 0.17140318582863401 0.46686470941818559 0 0.1651762257979181 0.46354347419730452 0 0.17140318582863401 0.46686470941818559 0 0.17341546959919829 0.45191605883299152 0 0.1651762257979181 0.46354347419730452 0 0.17140318582863401 0.46686470941818559 0 0.17341546959919829 0.45191605883299152 0 0.15954778128093949 0.4508222386347599 0 0.1651762257979181 0.46354347419730452 0 0.15954778128093949 0.4508222386347599 0 0.1651762257979181 0.46354347419730452 0 0.1582471669695637 0.45974252444074731 0 0.16382575626869561 0.4735735187060508 0 0.1651762257979181 0.46354347419730452 0 0.15802571703479451 0.46684670821381258 0 0.1651762257979181 0.46354347419730452 0 0.1582471669695637 0.45974252444074731 0 0.15802571703479451 0.46684670821381258 0 0.14976048710833001 0.46192771033000529 0 0.1507341445198021 0.44370602134863157 0 0.136404492151351 0.45486193181106682 0 0.1582471669695637 0.45974252444074731 0 0.15802571703479451 0.46684670821381258 0 0.14976048710833001 0.46192771033000529 0 0.15802571703479451 0.46684670821381258 0 0.14976048710833001 0.46192771033000529 0 0.1531189490294651 0.47544631339495541 0 0.15954778128093949 0.4508222386347599 0 0.1582471669695637 0.45974252444074731 0 0.14976048710833001 0.46192771033000529 0 0.14976048710833001 0.46192771033000529 0 0.136404492151351 0.45486193181106682 0 0.13663143795624749 0.46910754811773492 0 0.15954778128093949 0.4508222386347599 0 0.14976048710833001 0.46192771033000529 0 0.1507341445198021 0.44370602134863157 0 0.1507341445198021 0.44370602134863157 0 0.13510526379757609 0.44116740875256688 0 0.136404492151351 0.45486193181106682 0 0.1221607865463437 0.4507156547582637 0 0.12259086230274099 0.42947812748907283 0 0.13510526379757609 0.44116740875256688 0 0.1221607865463437 0.4507156547582637 0 0.13510526379757609 0.44116740875256688 0 0.136404492151351 0.45486193181106682 0 0.136404492151351 0.45486193181106682 0 0.1267882431275838 0.46370707134437261 0 0.13663143795624749 0.46910754811773492 0 0.1221607865463437 0.4507156547582637 0 0.136404492151351 0.45486193181106682 0 0.1267882431275838 0.46370707134437261 0 0.1267882431275838 0.46370707134437261 0 0.12569724768963239 0.47617993877849962 0 0.13663143795624749 0.46910754811773492 0 0.12569724768963239 0.47617993877849962 0 0.13663143795624749 0.46910754811773492 0 0.1364132019148096 0.48384982340983701 0 0.13663143795624749 0.46910754811773492 0 0.1364132019148096 0.48384982340983701 0 0.14361111091913481 0.47574478002545789 0 0.1249193769550877 0.49369376296818718 0 0.1364132019148096 0.48384982340983701 0 0.14611751268168829 0.49546177892012921 0 0.1249193769550877 0.49369376296818718 0 0.14611751268168829 0.49546177892012921 0 0.1249193769550877 0.49369376296818718 0 0.12569724768963239 0.47617993877849962 0 0.1364132019148096 0.48384982340983701 0 0.1249193769550877 0.49369376296818718 0 0.13738437864054501 0.5 0 0.14611751268168829 0.49546177892012921 0 0.1364132019148096 0.48384982340983701 0 0.14611751268168829 0.49546177892012921 0 0.14718343377546941 0.48347361591025501 0 0.1669427425872391 0.49999999999999922 0 0.13738437864054501 0.5 0 0.14611751268168829 0.49546177892012921 0 0.157708884996551 0.48584061526662409 0 0.14611751268168829 0.49546177892012921 0 0.14718343377546941 0.48347361591025501 0 0.157708884996551 0.48584061526662409 0 0.1531189490294651 0.47544631339495541 0 0.14718343377546941 0.48347361591025501 0 0.14976048710833001 0.46192771033000529 0 0.1531189490294651 0.47544631339495541 0 0.14361111091913481 0.47574478002545789 0 0.14976048710833001 0.46192771033000529 0 0.13663143795624749 0.46910754811773492 0 0.14361111091913481 0.47574478002545789 0 0.1364132019148096 0.48384982340983701 0 0.14361111091913481 0.47574478002545789 0 0.14718343377546941 0.48347361591025501 0 0.1531189490294651 0.47544631339495541 0 0.14361111091913481 0.47574478002545789 0 0.14718343377546941 0.48347361591025501 0 0.35832214194920592 0.47929915408112939 0 0.34611268429232461 0.46591887339206078 0 0.3375369348076922 0.4829399206954248 0 0.35832214194920592 0.47929915408112939 0 0.35850557312216419 0.5 0 0.3375369348076922 0.4829399206954248 0 0.35850557312216419 0.5 0 0.37801407526051067 0.48065415083330842 0 0.38797204790529932 0.5 0 0.35832214194920592 0.47929915408112939 0 0.35850557312216419 0.5 0 0.37801407526051067 0.48065415083330842 0 0.35832214194920592 0.47929915408112939 0 0.36980735363827261 0.46050290225189661 0 0.37801407526051067 0.48065415083330842 0 0.36980735363827261 0.46050290225189661 0 0.34502769605759259 0.44546544446971242 0 0.36959298495063608 0.43610817863788948 0 0.35832214194920592 0.47929915408112939 0 0.36980735363827261 0.46050290225189661 0 0.34611268429232461 0.46591887339206078 0 0.36980735363827261 0.46050290225189661 0 0.34502769605759259 0.44546544446971242 0 0.34611268429232461 0.46591887339206078 0 0.36980735363827261 0.46050290225189661 0 0.34611268429232461 0.46591887339206078 0 0.34611268429232461 0.46591887339206078 0 0.3317687487832644 0.45597005559148451 0 0.32241801494637662 0.47133484453222518 0 0.34502769605759259 0.44546544446971242 0 0.34611268429232461 0.46591887339206078 0 0.3317687487832644 0.45597005559148451 0 0.34611268429232461 0.46591887339206078 0 0.32241801494637662 0.47133484453222518 0 0.34502769605759259 0.44546544446971242 0 0.3317687487832644 0.45597005559148451 0 0.32480939915707069 0.44218818576869201 0 0.34502769605759259 0.44546544446971242 0 0.32480939915707069 0.44218818576869201 0 0.33523501366627878 0.43221560569608392 0 0.3107318966111981 0.4514989769174147 0 0.3227404476219688 0.42624713816244092 0 0.3317687487832644 0.45597005559148451 0 0.32480939915707069 0.44218818576869201 0 0.3107318966111981 0.4514989769174147 0 0.32480939915707069 0.44218818576869201 0 0.3107318966111981 0.4514989769174147 0 0.3227404476219688 0.42624713816244092 0 0.3317687487832644 0.45597005559148451 0 0.32241801494637662 0.47133484453222518 0 0.3107318966111981 0.4514989769174147 0 0.32241801494637662 0.47133484453222518 0 0.3375369348076922 0.4829399206954248 0 0.31372501333874958 0.48784291822244708 0 0.34611268429232461 0.46591887339206078 0 0.32241801494637662 0.47133484453222518 0 0.3375369348076922 0.4829399206954248 0 0.35850557312216419 0.5 0 0.3375369348076922 0.4829399206954248 0 0.32903909833902928 0.5 0 0.32903909833902928 0.5 0 0.31372501333874958 0.48784291822244708 0 0.29957262355589431 0.5 0 0.3375369348076922 0.4829399206954248 0 0.32903909833902928 0.5 0 0.31372501333874958 0.48784291822244708 0 0.31372501333874958 0.48784291822244708 0 0.30130976803097798 0.48891801032572652 0 0.29957262355589431 0.5 0 0.31372501333874958 0.48784291822244708 0 0.30130976803097798 0.48891801032572652 0 0.29872334560042851 0.47675081567238892 0 0.30130976803097798 0.48891801032572652 0 0.29957262355589431 0.5 0 0.28978827390519868 0.49553967616935518 0 0.32241801494637662 0.47133484453222518 0 0.29872334560042851 0.47675081567238892 0 0.32241801494637662 0.47133484453222518 0 0.31372501333874958 0.48784291822244708 0 0.29872334560042851 0.47675081567238892 0 0.29872334560042851 0.47675081567238892 0 0.28397488520641462 0.48012192141307769 0 0.28978827390519868 0.49553967616935518 0 0.29872334560042851 0.47675081567238892 0 0.28929399795500932 0.47058792179259418 0 0.29703527816799058 0.46117092995693892 0 0.29872334560042851 0.47675081567238892 0 0.28929399795500932 0.47058792179259418 0 0.28397488520641462 0.48012192141307769 0 0.29872334560042851 0.47675081567238892 0 0.28397488520641462 0.48012192141307769 0 0.28929399795500932 0.47058792179259418 0 0.28397488520641462 0.48012192141307769 0 0.27920072977811172 0.47805830749059319 0 0.28397488520641462 0.48012192141307769 0 0.28978827390519868 0.49553967616935518 0 0.27010614877275918 0.50000000000000067 0 0.29957262355589431 0.5 0 0.28978827390519868 0.49553967616935518 0 0.27010614877275918 0.50000000000000067 0 0.30130976803097798 0.48891801032572652 0 0.29872334560042851 0.47675081567238892 0 0.28978827390519868 0.49553967616935518 0 0.29872334560042851 0.47675081567238892 0 0.28978827390519868 0.49553967616935518 0 0.28397488520641462 0.48012192141307769 0 0.27010614877275918 0.50000000000000067 0 0.27920072977811172 0.47805830749059319 0 0.27010614877275918 0.50000000000000067 0 0.26909437115437917 0.48384867389528768 0 0.26130641782501518 0.49139676135406141 0 0.27010614877275918 0.50000000000000067 0 0.27920072977811172 0.47805830749059319 0 0.26909437115437917 0.48384867389528768 0 0.27010614877275918 0.50000000000000067 0 0.27920072977811172 0.47805830749059319 0 0.27920072977811172 0.47805830749059319 0 0.27306774476234302 0.47644699960251641 0 0.26909437115437917 0.48384867389528768 0 0.27920072977811172 0.47805830749059319 0 0.27306774476234302 0.47644699960251641 0 0.27643472525740193 0.46726539210963169 0 0.26824582816420722 0.47348896141386071 0 0.27306774476234302 0.47644699960251641 0 0.27643472525740193 0.46726539210963169 0 0.26824582816420722 0.47348896141386071 0 0.26909437115437917 0.48384867389528768 0 0.25993240985832161 0.47939275616227872 0 0.26824582816420722 0.47348896141386071 0 0.27306774476234302 0.47644699960251641 0 0.26909437115437917 0.48384867389528768 0 0.24904418528453851 0.48634810883828161 0 0.25993240985832161 0.47939275616227872 0 0.25047151807745072 0.47036873115219768 0 0.26824582816420722 0.47348896141386071 0 0.25993240985832161 0.47939275616227872 0 0.26165523792153211 0.46576309323832682 0 0.25993240985832161 0.47939275616227872 0 0.25047151807745072 0.47036873115219768 0 0.26165523792153211 0.46576309323832682 0 0.27010614877275918 0.50000000000000067 0 0.25181722630913472 0.5 0 0.26130641782501518 0.49139676135406141 0 0.24904418528453851 0.48634810883828161 0 0.25993240985832161 0.47939275616227872 0 0.26130641782501518 0.49139676135406141 0 0.24904418528453851 0.48634810883828161 0 0.25181722630913472 0.5 0 0.26130641782501518 0.49139676135406141 0 0.26909437115437917 0.48384867389528768 0 0.25993240985832161 0.47939275616227872 0 0.26130641782501518 0.49139676135406141 0 0.26490489917960358 0.45079530358348557 0 0.25548676926057468 0.44017180441404491 0 0.26331147225899149 0.43380076267102891 0 0.24946733303660301 0.43176723098649622 0 0.24583280085865111 0.44361242472787987 0 0.25548676926057468 0.44017180441404491 0 0.24583280085865111 0.44361242472787987 0 0.25548676926057468 0.44017180441404491 0 0.25282491994113748 0.44831200937164878 0 0.26490489917960358 0.45079530358348557 0 0.25548676926057468 0.44017180441404491 0 0.25282491994113748 0.44831200937164878 0 0.26490489917960358 0.45079530358348557 0 0.25282491994113748 0.44831200937164878 0 0.25477099823403621 0.45804476415031298 0 0.25047151807745072 0.47036873115219768 0 0.25477099823403621 0.45804476415031298 0 0.26165523792153211 0.46576309323832682 0 0.26490489917960358 0.45079530358348557 0 0.25477099823403621 0.45804476415031298 0 0.26165523792153211 0.46576309323832682 0 0.26490489917960358 0.45079530358348557 0 0.27160577401557351 0.46248804296782559 0 0.27679169795675967 0.45600994403837303 0 0.26490489917960358 0.45079530358348557 0 0.26165523792153211 0.46576309323832682 0 0.27160577401557351 0.46248804296782559 0 0.26824582816420722 0.47348896141386071 0 0.27160577401557351 0.46248804296782559 0 0.27643472525740193 0.46726539210963169 0 0.26824582816420722 0.47348896141386071 0 0.26165523792153211 0.46576309323832682 0 0.27160577401557351 0.46248804296782559 0 0.27160577401557351 0.46248804296782559 0 0.27643472525740193 0.46726539210963169 0 0.27679169795675967 0.45600994403837303 0 0.27643472525740193 0.46726539210963169 0 0.27679169795675967 0.45600994403837303 0 0.28829531078346382 0.45611661498118572 0 0.27903440424894049 0.4453257315987294 0 0.26331147225899149 0.43380076267102891 0 0.26490489917960358 0.45079530358348557 0 0.27903440424894049 0.4453257315987294 0 0.26331147225899149 0.43380076267102891 0 0.26490489917960358 0.45079530358348557 0 0.27679169795675967 0.45600994403837303 0 0.27903440424894049 0.4453257315987294 0 0.27903440424894049 0.4453257315987294 0 0.2917470315179379 0.44281751567604499 0 0.28179675760275558 0.42932557237874241 0 0.27679169795675967 0.45600994403837303 0 0.27903440424894049 0.4453257315987294 0 0.28829531078346382 0.45611661498118572 0 0.27903440424894049 0.4453257315987294 0 0.2917470315179379 0.44281751567604499 0 0.28829531078346382 0.45611661498118572 0 0.2917470315179379 0.44281751567604499 0 0.28829531078346382 0.45611661498118572 0 0.29813183988985342 0.45090032042111128 0 0.27920072977811172 0.47805830749059319 0 0.27643472525740193 0.46726539210963169 0 0.28829531078346382 0.45611661498118572 0 0.28929399795500932 0.47058792179259418 0 0.27920072977811172 0.47805830749059319 0 0.28829531078346382 0.45611661498118572 0 0.27920072977811172 0.47805830749059319 0 0.28829531078346382 0.45611661498118572 0 0.28829531078346382 0.45611661498118572 0 0.29703527816799058 0.46117092995693892 0 0.29813183988985342 0.45090032042111128 0 0.28929399795500932 0.47058792179259418 0 0.28829531078346382 0.45611661498118572 0 0.29703527816799058 0.46117092995693892 0 0.29872334560042851 0.47675081567238892 0 0.29703527816799058 0.46117092995693892 0 0.3107318966111981 0.4514989769174147 0 0.29872334560042851 0.47675081567238892 0 0.3107318966111981 0.4514989769174147 0 0.32241801494637662 0.47133484453222518 0 0.29872334560042851 0.47675081567238892 0 0.3107318966111981 0.4514989769174147 0 0.29703527816799058 0.46117092995693892 0 0.29813183988985342 0.45090032042111128 0 0.3107318966111981 0.4514989769174147 0 0.30159082278473881 0.44219288247638061 0 0.3107318966111981 0.4514989769174147 0 0.30884109342504262 0.43428586920116352 0 0.2917470315179379 0.44281751567604499 0 0.30159082278473881 0.44219288247638061 0 0.29850225247966211 0.43146173016616862 0 0.2917470315179379 0.44281751567604499 0 0.30159082278473881 0.44219288247638061 0 0.29813183988985342 0.45090032042111128 0 0.30159082278473881 0.44219288247638061 0 0.29813183988985342 0.45090032042111128 0 0.3107318966111981 0.4514989769174147 0 0.30884109342504262 0.43428586920116352 0 0.29850225247966211 0.43146173016616862 0 0.30862162828234507 0.42004495563460759 0 0.29850225247966211 0.43146173016616862 0 0.30862162828234507 0.42004495563460759 0 0.29547148538100448 0.41817397575591742 0 0.30159082278473881 0.44219288247638061 0 0.30884109342504262 0.43428586920116352 0 0.29850225247966211 0.43146173016616862 0 0.30862162828234507 0.42004495563460759 0 0.30304430461131138 0.40735012112542651 0 0.3196782615082488 0.40265332564926309 0 0.30862162828234507 0.42004495563460759 0 0.30304430461131138 0.40735012112542651 0 0.29547148538100448 0.41817397575591742 0 0.30304430461131138 0.40735012112542651 0 0.29062365375375682 0.40708788978866228 0 0.29547148538100448 0.41817397575591742 0 0.29062365375375682 0.40708788978866228 0 0.29547148538100448 0.41817397575591742 0 0.28288479604298378 0.41446876034122271 0 0.29547148538100448 0.41817397575591742 0 0.28288479604298378 0.41446876034122271 0 0.28179675760275558 0.42932557237874241 0 0.29062365375375682 0.40708788978866228 0 0.28288479604298378 0.41446876034122271 0 0.28001120465417539 0.40182109974822727 0 0.29850225247966211 0.43146173016616862 0 0.29547148538100448 0.41817397575591742 0 0.28179675760275558 0.42932557237874241 0 0.2917470315179379 0.44281751567604499 0 0.29850225247966211 0.43146173016616862 0 0.28179675760275558 0.42932557237874241 0 0.28179675760275558 0.42932557237874241 0 0.27042562322166658 0.41684269204638819 0 0.26331147225899149 0.43380076267102891 0 0.27903440424894049 0.4453257315987294 0 0.28179675760275558 0.42932557237874241 0 0.26331147225899149 0.43380076267102891 0 0.27042562322166658 0.41684269204638819 0 0.26380858941988822 0.4002294757553399 0 0.28001120465417539 0.40182109974822727 0 0.28288479604298378 0.41446876034122271 0 0.28179675760275558 0.42932557237874241 0 0.27042562322166658 0.41684269204638819 0 0.28288479604298378 0.41446876034122271 0 0.27042562322166658 0.41684269204638819 0 0.28001120465417539 0.40182109974822727 0 0.24649952449278431 0.42147754103885982 0 0.25492995388566009 0.41993008507457552 0 0.26380858941988822 0.4002294757553399 0 0.27042562322166658 0.41684269204638819 0 0.25492995388566009 0.41993008507457552 0 0.26380858941988822 0.4002294757553399 0 0.24649952449278431 0.42147754103885982 0 0.26380858941988822 0.4002294757553399 0 0.2429624777480478 0.39890547698508871 0 0.24649952449278431 0.42147754103885982 0 0.26380858941988822 0.4002294757553399 0 0.24946733303660301 0.43176723098649622 0 0.24649952449278431 0.42147754103885982 0 0.26331147225899149 0.43380076267102891 0 0.24649952449278431 0.42147754103885982 0 0.25492995388566009 0.41993008507457552 0 0.26331147225899149 0.43380076267102891 0 0.24649952449278431 0.42147754103885982 0 0.26331147225899149 0.43380076267102891 0 0.27042562322166658 0.41684269204638819 0 0.25492995388566009 0.41993008507457552 0 0.26331147225899149 0.43380076267102891 0 0.24946733303660301 0.43176723098649622 0 0.25548676926057468 0.44017180441404491 0 0.26331147225899149 0.43380076267102891 0 0.26350653962281989 0.38010735630523079 0 0.25341304662754638 0.38974012394171498 0 0.26380858941988822 0.4002294757553399 0 0.26350653962281989 0.38010735630523079 0 0.25383912625151372 0.37755129754335942 0 0.25710864090743918 0.37145542319719338 0 0.26350653962281989 0.38010735630523079 0 0.25383912625151372 0.37755129754335942 0 0.25341304662754638 0.38974012394171498 0 0.2429624777480478 0.39890547698508871 0 0.25341304662754638 0.38974012394171498 0 0.26380858941988822 0.4002294757553399 0 0.26380858941988822 0.4002294757553399 0 0.28001120465417539 0.40182109974822727 0 0.28036865154730628 0.37990086281960789 0 0.26350653962281989 0.38010735630523079 0 0.28036865154730628 0.37990086281960789 0 0.2641967246118288 0.36596915937278562 0 0.26380858941988822 0.4002294757553399 0 0.28036865154730628 0.37990086281960789 0 0.26350653962281989 0.38010735630523079 0 0.26380858941988822 0.4002294757553399 0 0.28036865154730628 0.37990086281960789 0 0.28036865154730628 0.37990086281960789 0 0.29170647807930872 0.39362549197251728 0 0.2987730087010142 0.37934426936791982 0 0.28036865154730628 0.37990086281960789 0 0.29170647807930872 0.39362549197251728 0 0.28001120465417539 0.40182109974822727 0 0.28036865154730628 0.37990086281960789 0 0.29170647807930872 0.39362549197251728 0 0.29062365375375682 0.40708788978866228 0 0.28001120465417539 0.40182109974822727 0 0.29170647807930872 0.39362549197251728 0 0.30304430461131138 0.40735012112542651 0 0.29062365375375682 0.40708788978866228 0 0.29170647807930872 0.39362549197251728 0 0.30304430461131138 0.40735012112542651 0 0.30637452063024528 0.39219955594670219 0 0.3196782615082488 0.40265332564926309 0 0.30304430461131138 0.40735012112542651 0 0.29170647807930872 0.39362549197251728 0 0.30304430461131138 0.40735012112542651 0 0.29170647807930872 0.39362549197251728 0 0.30637452063024528 0.39219955594670219 0 0.30637452063024528 0.39219955594670219 0 0.2987730087010142 0.37934426936791982 0 0.31661607539452802 0.37905951313608538 0 0.29170647807930872 0.39362549197251728 0 0.30637452063024528 0.39219955594670219 0 0.2987730087010142 0.37934426936791982 0 0.31661607539452802 0.37905951313608538 0 0.32905198958534931 0.38831461949406398 0 0.3196782615082488 0.40265332564926309 0 0.31661607539452802 0.37905951313608538 0 0.32905198958534931 0.38831461949406398 0 0.33389487655237682 0.3658352592629312 0 0.32905198958534931 0.38831461949406398 0 0.34270248502322931 0.38427053755298168 0 0.33389487655237682 0.3658352592629312 0 0.32905198958534931 0.38831461949406398 0 0.34270248502322931 0.38427053755298168 0 0.33272146632259869 0.40525883785771122 0 0.34270248502322931 0.38427053755298168 0 0.33272146632259869 0.40525883785771122 0 0.34270248502322931 0.38427053755298168 0 0.33272146632259869 0.40525883785771122 0 0.34670895149724801 0.40816004440777182 0 0.31661607539452802 0.37905951313608538 0 0.3196782615082488 0.40265332564926309 0 0.32905198958534931 0.38831461949406398 0 0.33272146632259869 0.40525883785771122 0 0.3196782615082488 0.40265332564926309 0 0.30637452063024528 0.39219955594670219 0 0.31661607539452802 0.37905951313608538 0 0.3196782615082488 0.40265332564926309 0 0.3196782615082488 0.40265332564926309 0 0.3227404476219688 0.42624713816244092 0 0.30862162828234507 0.42004495563460759 0 0.3196782615082488 0.40265332564926309 0 0.3227404476219688 0.42624713816244092 0 0.33272146632259869 0.40525883785771122 0 0.3196782615082488 0.40265332564926309 0 0.3227404476219688 0.42624713816244092 0 0.33272146632259869 0.40525883785771122 0 0.3227404476219688 0.42624713816244092 0 0.32480939915707069 0.44218818576869201 0 0.3227404476219688 0.42624713816244092 0 0.3107318966111981 0.4514989769174147 0 0.30884109342504262 0.43428586920116352 0 0.3227404476219688 0.42624713816244092 0 0.32480939915707069 0.44218818576869201 0 0.3227404476219688 0.42624713816244092 0 0.33523501366627878 0.43221560569608392 0 0.30884109342504262 0.43428586920116352 0 0.30862162828234507 0.42004495563460759 0 0.3227404476219688 0.42624713816244092 0 0.34502769605759259 0.44546544446971242 0 0.33523501366627878 0.43221560569608392 0 0.34795858503051302 0.425881111768525 0 0.3227404476219688 0.42624713816244092 0 0.33523501366627878 0.43221560569608392 0 0.33659904832278342 0.4201421825902541 0 0.33523501366627878 0.43221560569608392 0 0.33659904832278342 0.4201421825902541 0 0.34795858503051302 0.425881111768525 0 0.33272146632259869 0.40525883785771122 0 0.3227404476219688 0.42624713816244092 0 0.33659904832278342 0.4201421825902541 0 0.33272146632259869 0.40525883785771122 0 0.33659904832278342 0.4201421825902541 0 0.34670895149724801 0.40816004440777182 0 0.33659904832278342 0.4201421825902541 0 0.34670895149724801 0.40816004440777182 0 0.34795858503051302 0.425881111768525 0 0.34670895149724801 0.40816004440777182 0 0.34795858503051302 0.425881111768525 0 0.36336601300371613 0.41450991002864218 0 0.34670895149724801 0.40816004440777182 0 0.36336601300371613 0.41450991002864218 0 0.35690611128064731 0.3988976866485166 0 0.34502769605759259 0.44546544446971242 0 0.34795858503051302 0.425881111768525 0 0.36959298495063608 0.43610817863788948 0 0.34795858503051302 0.425881111768525 0 0.36959298495063608 0.43610817863788948 0 0.36336601300371613 0.41450991002864218 0 0.36959298495063608 0.43610817863788948 0 0.36336601300371613 0.41450991002864218 0 0.38530342098431941 0.41064856824057122 0 0.36336601300371613 0.41450991002864218 0 0.3736470799201031 0.39378130610698531 0 0.38530342098431941 0.41064856824057122 0 0.3736470799201031 0.39378130610698531 0 0.3601059063978746 0.38125551426405008 0 0.35690611128064731 0.3988976866485166 0 0.36336601300371613 0.41450991002864218 0 0.3736470799201031 0.39378130610698531 0 0.35690611128064731 0.3988976866485166 0 0.3736470799201031 0.39378130610698531 0 0.3601059063978746 0.38125551426405008 0 0.37414389550204002 0.36898578533419818 0 0.34270248502322931 0.38427053755298168 0 0.3601059063978746 0.38125551426405008 0 0.35690611128064731 0.3988976866485166 0 0.34270248502322931 0.38427053755298168 0 0.3601059063978746 0.38125551426405008 0 0.35268350372385993 0.36328223724825232 0 0.34270248502322931 0.38427053755298168 0 0.34670895149724801 0.40816004440777182 0 0.35690611128064731 0.3988976866485166 0 0.35268350372385993 0.36328223724825232 0 0.36266452242448938 0.34229393694352239 0 0.35030182712711511 0.35130594720886232 0 0.35268350372385993 0.36328223724825232 0 0.36266452242448938 0.34229393694352239 0 0.35030182712711511 0.35130594720886232 0 0.35146565257524442 0.34420791440797271 0 0.36266452242448938 0.34229393694352239 0 0.35030182712711511 0.35130594720886232 0 0.35146565257524442 0.34420791440797271 0 0.34269927497721508 0.34493512072036142 0 0.35030182712711511 0.35130594720886232 0 0.35268350372385993 0.36328223724825232 0 0.33389487655237682 0.3658352592629312 0 0.34270248502322931 0.38427053755298168 0 0.35268350372385993 0.36328223724825232 0 0.3601059063978746 0.38125551426405008 0 0.35268350372385993 0.36328223724825232 0 0.37414389550204002 0.36898578533419818 0 0.35268350372385993 0.36328223724825232 0 0.37414389550204002 0.36898578533419818 0 0.36300645299402812 0.35604351837507042 0 0.37414389550204002 0.36898578533419818 0 0.37228166628853332 0.35471301169251829 0 0.36300645299402812 0.35604351837507042 0 0.35268350372385993 0.36328223724825232 0 0.36300645299402812 0.35604351837507042 0 0.36266452242448938 0.34229393694352239 0 0.37228166628853332 0.35471301169251829 0 0.36300645299402812 0.35604351837507042 0 0.36840829020790361 0.34668560051738673 0 0.36300645299402812 0.35604351837507042 0 0.36840829020790361 0.34668560051738673 0 0.36266452242448938 0.34229393694352239 0 0.36840829020790361 0.34668560051738673 0 0.36266452242448938 0.34229393694352239 0 0.36587418437400321 0.34278907974668538 0 0.37228166628853332 0.35471301169251829 0 0.36840829020790361 0.34668560051738673 0 0.37486749369974542 0.34694596905823039 0 0.37486749369974542 0.34694596905823039 0 0.37256750073976291 0.34304532959464751 0 0.37670219357667811 0.34177383067972761 0 0.36840829020790361 0.34668560051738673 0 0.37486749369974542 0.34694596905823039 0 0.37256750073976291 0.34304532959464751 0 0.36124897776362869 0.33531944770056321 0 0.36266452242448938 0.34229393694352239 0 0.36411885078159001 0.32644375487552563 0 0.37256750073976291 0.34304532959464751 0 0.36916640720496519 0.34145859007673351 0 0.37369311900952262 0.33836265764115908 0 0.37256750073976291 0.34304532959464751 0 0.37369311900952262 0.33836265764115908 0 0.37670219357667811 0.34177383067972761 0 0.36266452242448938 0.34229393694352239 0 0.37014896644917339 0.316543878568457 0 0.36770298492566261 0.33637877995368609 0 0.36266452242448938 0.34229393694352239 0 0.37368960646642962 0.31911015363466272 0 0.36770298492566261 0.33637877995368609 0 0.36985494237623989 0.33311962493185521 0 0.37368960646642962 0.31911015363466272 0 0.36266452242448938 0.34229393694352239 0 0.37368960646642962 0.31911015363466272 0 0.36266452242448938 0.34229393694352239 0 0.37014896644917339 0.316543878568457 0 0.36411885078159001 0.32644375487552563 0 0.36840829020790361 0.34668560051738673 0 0.36916640720496519 0.34145859007673351 0 0.36587418437400321 0.34278907974668538 0 0.36840829020790361 0.34668560051738673 0 0.37256750073976291 0.34304532959464751 0 0.36916640720496519 0.34145859007673351 0 0.36916640720496519 0.34145859007673351 0 0.36587418437400321 0.34278907974668538 0 0.36708394454210669 0.33994961910346172 0 0.36916640720496519 0.34145859007673351 0 0.37010024416019238 0.33739894816112592 0 0.36708394454210669 0.33994961910346172 0 0.36916640720496519 0.34145859007673351 0 0.37010024416019238 0.33739894816112592 0 0.37369311900952262 0.33836265764115908 0 0.36770298492566261 0.33637877995368609 0 0.37010024416019238 0.33739894816112592 0 0.36708394454210669 0.33994961910346172 0 0.37010024416019238 0.33739894816112592 0 0.37369311900952262 0.33836265764115908 0 0.3722735272100694 0.33425106354392481 0 0.3722735272100694 0.33425106354392481 0 0.37245621682226088 0.32924087979990557 0 0.375263113682131 0.33313320718557798 0 0.37369311900952262 0.33836265764115908 0 0.3722735272100694 0.33425106354392481 0 0.375263113682131 0.33313320718557798 0 0.3722735272100694 0.33425106354392481 0 0.37245621682226088 0.32924087979990557 0 0.36985494237623989 0.33311962493185521 0 0.37245621682226088 0.32924087979990557 0 0.37577016905582622 0.32787937856968757 0 0.375263113682131 0.33313320718557798 0 0.37010024416019238 0.33739894816112592 0 0.3722735272100694 0.33425106354392481 0 0.36985494237623989 0.33311962493185521 0 0.36770298492566261 0.33637877995368609 0 0.37010024416019238 0.33739894816112592 0 0.36985494237623989 0.33311962493185521 0 0.36128237795215928 0.33126347269122047 0 0.36124897776362869 0.33531944770056321 0 0.36411885078159001 0.32644375487552563 0 0.36150631125237548 0.32912422255951068 0 0.36128237795215928 0.33126347269122047 0 0.36411885078159001 0.32644375487552563 0 0.36150631125237548 0.32912422255951068 0 0.35994194411877378 0.32646204206530971 0 0.35835984371964152 0.33045614064968309 0 0.36128237795215928 0.33126347269122047 0 0.35899626180536931 0.33430086833413269 0 0.35835984371964152 0.33045614064968309 0 0.36150631125237548 0.32912422255951068 0 0.36128237795215928 0.33126347269122047 0 0.35835984371964152 0.33045614064968309 0 0.36128237795215928 0.33126347269122047 0 0.36124897776362869 0.33531944770056321 0 0.35899626180536931 0.33430086833413269 0 0.36124897776362869 0.33531944770056321 0 0.36001134864139028 0.33778823672905661 0 0.35899626180536931 0.33430086833413269 0 0.36124897776362869 0.33531944770056321 0 0.36001134864139028 0.33778823672905661 0 0.36266452242448938 0.34229393694352239 0 0.36001134864139028 0.33778823672905661 0 0.36266452242448938 0.34229393694352239 0 0.3582225103283424 0.33883319475427592 0 0.36266452242448938 0.34229393694352239 0 0.36587418437400321 0.34278907974668538 0 0.36708394454210669 0.33994961910346172 0 0.36770298492566261 0.33637877995368609 0 0.36266452242448938 0.34229393694352239 0 0.36708394454210669 0.33994961910346172 0 0.36266452242448938 0.34229393694352239 0 0.37368960646642962 0.31911015363466272 0 0.37014896644917339 0.316543878568457 0 0.37014896644917339 0.316543878568457 0 0.36604953812300478 0.31497278055865852 0 0.36630954626425261 0.31087512405144152 0 0.37499251130121058 0.31593455150060828 0 0.37014896644917339 0.316543878568457 0 0.37695808612291098 0.31120865645681561 0 0.37499251130121058 0.31593455150060828 0 0.37368960646642962 0.31911015363466272 0 0.37014896644917339 0.316543878568457 0 0.37014896644917339 0.316543878568457 0 0.36646072203027302 0.32009490443849897 0 0.3659238024377004 0.31770243144255911 0 0.37014896644917339 0.316543878568457 0 0.3659238024377004 0.31770243144255911 0 0.36604953812300478 0.31497278055865852 0 0.37245621682226088 0.32924087979990557 0 0.36985494237623989 0.33311962493185521 0 0.37368960646642962 0.31911015363466272 0 0.37245621682226088 0.32924087979990557 0 0.37368960646642962 0.31911015363466272 0 0.37506056064123422 0.32471797871916308 0 0.37245621682226088 0.32924087979990557 0 0.37577016905582622 0.32787937856968757 0 0.37506056064123422 0.32471797871916308 0 0.37014896644917339 0.316543878568457 0 0.36411885078159001 0.32644375487552563 0 0.36646072203027302 0.32009490443849897 0 0.36411885078159001 0.32644375487552563 0 0.35994194411877378 0.32646204206530971 0 0.36132202517978662 0.32303080634539388 0 0.36150631125237548 0.32912422255951068 0 0.36411885078159001 0.32644375487552563 0 0.35994194411877378 0.32646204206530971 0 0.36132202517978662 0.32303080634539388 0 0.36348301458407639 0.32047903077872458 0 0.35962675317161102 0.31893041505789499 0 0.36411885078159001 0.32644375487552563 0 0.36132202517978662 0.32303080634539388 0 0.36348301458407639 0.32047903077872458 0 0.36411885078159001 0.32644375487552563 0 0.36348301458407639 0.32047903077872458 0 0.36646072203027302 0.32009490443849897 0 0.36348301458407639 0.32047903077872458 0 0.36646072203027302 0.32009490443849897 0 0.3659238024377004 0.31770243144255911 0 0.3659238024377004 0.31770243144255911 0 0.36344593390349789 0.31667187251247519 0 0.36604953812300478 0.31497278055865852 0 0.36348301458407639 0.32047903077872458 0 0.3659238024377004 0.31770243144255911 0 0.36344593390349789 0.31667187251247519 0 0.36348301458407639 0.32047903077872458 0 0.36344593390349789 0.31667187251247519 0 0.35962675317161102 0.31893041505789499 0 0.36344593390349789 0.31667187251247519 0 0.35962675317161102 0.31893041505789499 0 0.35878641637012221 0.31305233625990619 0 0.36344593390349789 0.31667187251247519 0 0.36331333565659901 0.31283202127524651 0 0.35878641637012221 0.31305233625990619 0 0.36331333565659901 0.31283202127524651 0 0.36604953812300478 0.31497278055865852 0 0.36630954626425261 0.31087512405144152 0 0.36344593390349789 0.31667187251247519 0 0.36331333565659901 0.31283202127524651 0 0.36604953812300478 0.31497278055865852 0 0.35878641637012221 0.31305233625990619 0 0.35512602374864599 0.31718053618965047 0 0.35090510471213721 0.31152713165908658 0 0.35512602374864599 0.31718053618965047 0 0.34983435518440159 0.31943204998396652 0 0.35090510471213721 0.31152713165908658 0 0.35962675317161102 0.31893041505789499 0 0.35878641637012221 0.31305233625990619 0 0.35512602374864599 0.31718053618965047 0 0.35962675317161102 0.31893041505789499 0 0.35512602374864599 0.31718053618965047 0 0.35673455485560862 0.32229528426682241 0 0.35512602374864599 0.31718053618965047 0 0.35673455485560862 0.32229528426682241 0 0.34983435518440159 0.31943204998396652 0 0.35673455485560862 0.32229528426682241 0 0.35060422568955008 0.32587015674736058 0 0.34983435518440159 0.31943204998396652 0 0.35994194411877378 0.32646204206530971 0 0.36132202517978662 0.32303080634539388 0 0.35673455485560862 0.32229528426682241 0 0.36132202517978662 0.32303080634539388 0 0.35962675317161102 0.31893041505789499 0 0.35673455485560862 0.32229528426682241 0 0.35994194411877378 0.32646204206530971 0 0.35673455485560862 0.32229528426682241 0 0.35627338036128769 0.32705738058013539 0 0.35994194411877378 0.32646204206530971 0 0.35627338036128769 0.32705738058013539 0 0.35835984371964152 0.33045614064968309 0 0.35627338036128769 0.32705738058013539 0 0.35060422568955008 0.32587015674736058 0 0.35398721241228231 0.33095327650953749 0 0.35673455485560862 0.32229528426682241 0 0.35627338036128769 0.32705738058013539 0 0.35060422568955008 0.32587015674736058 0 0.35060422568955008 0.32587015674736058 0 0.34514221143703899 0.32919058107390442 0 0.34284551192874652 0.32364904383841531 0 0.35060422568955008 0.32587015674736058 0 0.34983435518440159 0.31943204998396652 0 0.34284551192874652 0.32364904383841531 0 0.34983435518440159 0.31943204998396652 0 0.34480088275632298 0.31606258733578418 0 0.35090510471213721 0.31152713165908658 0 0.34983435518440159 0.31943204998396652 0 0.34480088275632298 0.31606258733578418 0 0.34284551192874652 0.32364904383841531 0 0.35146565257524442 0.34420791440797271 0 0.36266452242448938 0.34229393694352239 0 0.35562031764263757 0.34031424282986023 0 0.35302683950207769 0.33602013814058929 0 0.35562031764263757 0.34031424282986023 0 0.35672120529774148 0.33684362974708199 0 0.35202203774268331 0.33965573310897551 0 0.35302683950207769 0.33602013814058929 0 0.35562031764263757 0.34031424282986023 0 0.35146565257524442 0.34420791440797271 0 0.35202203774268331 0.33965573310897551 0 0.35562031764263757 0.34031424282986023 0 0.36266452242448938 0.34229393694352239 0 0.35562031764263757 0.34031424282986023 0 0.3582225103283424 0.33883319475427592 0 0.35562031764263757 0.34031424282986023 0 0.3582225103283424 0.33883319475427592 0 0.35672120529774148 0.33684362974708199 0 0.36001134864139028 0.33778823672905661 0 0.3582225103283424 0.33883319475427592 0 0.35672120529774148 0.33684362974708199 0 0.36001134864139028 0.33778823672905661 0 0.35672120529774148 0.33684362974708199 0 0.35899626180536931 0.33430086833413269 0 0.35899626180536931 0.33430086833413269 0 0.35641212776078268 0.33381706902087938 0 0.35835984371964152 0.33045614064968309 0 0.35672120529774148 0.33684362974708199 0 0.35899626180536931 0.33430086833413269 0 0.35641212776078268 0.33381706902087938 0 0.35627338036128769 0.32705738058013539 0 0.35835984371964152 0.33045614064968309 0 0.35398721241228231 0.33095327650953749 0 0.35641212776078268 0.33381706902087938 0 0.35835984371964152 0.33045614064968309 0 0.35398721241228231 0.33095327650953749 0 0.35302683950207769 0.33602013814058929 0 0.35641212776078268 0.33381706902087938 0 0.35398721241228231 0.33095327650953749 0 0.35302683950207769 0.33602013814058929 0 0.35398721241228231 0.33095327650953749 0 0.34924685744035389 0.33249877391857741 0 0.35302683950207769 0.33602013814058929 0 0.35672120529774148 0.33684362974708199 0 0.35641212776078268 0.33381706902087938 0 0.35302683950207769 0.33602013814058929 0 0.34924685744035389 0.33249877391857741 0 0.34788509595764172 0.33882226599831611 0 0.35060422568955008 0.32587015674736058 0 0.34924685744035389 0.33249877391857741 0 0.34514221143703899 0.32919058107390442 0 0.35060422568955008 0.32587015674736058 0 0.35398721241228231 0.33095327650953749 0 0.34924685744035389 0.33249877391857741 0 0.34924685744035389 0.33249877391857741 0 0.34514221143703899 0.32919058107390442 0 0.34474234507332802 0.33433591834825649 0 0.34924685744035389 0.33249877391857741 0 0.34474234507332802 0.33433591834825649 0 0.34788509595764172 0.33882226599831611 0 0.34474234507332802 0.33433591834825649 0 0.34788509595764172 0.33882226599831611 0 0.34057592936449049 0.33809639891542392 0 0.35146565257524442 0.34420791440797271 0 0.34788509595764172 0.33882226599831611 0 0.34269927497721508 0.34493512072036142 0 0.35202203774268331 0.33965573310897551 0 0.35302683950207769 0.33602013814058929 0 0.34788509595764172 0.33882226599831611 0 0.35146565257524442 0.34420791440797271 0 0.35202203774268331 0.33965573310897551 0 0.34788509595764172 0.33882226599831611 0 0.34057592936449049 0.33809639891542392 0 0.33318390910610529 0.34358855052096038 0 0.34269927497721508 0.34493512072036142 0 0.34788509595764172 0.33882226599831611 0 0.34057592936449049 0.33809639891542392 0 0.34269927497721508 0.34493512072036142 0 0.34474234507332802 0.33433591834825649 0 0.34057592936449049 0.33809639891542392 0 0.33946855119551672 0.33096103471374028 0 0.34514221143703899 0.32919058107390442 0 0.34474234507332802 0.33433591834825649 0 0.33946855119551672 0.33096103471374028 0 0.34057592936449049 0.33809639891542392 0 0.33946855119551672 0.33096103471374028 0 0.33283637980140879 0.33469331179832718 0 0.33946855119551672 0.33096103471374028 0 0.33283637980140879 0.33469331179832718 0 0.33464693517381472 0.32630086361949601 0 0.33283637980140879 0.33469331179832718 0 0.33464693517381472 0.32630086361949601 0 0.3250964778074269 0.32978689602061512 0 0.34057592936449049 0.33809639891542392 0 0.33283637980140879 0.33469331179832718 0 0.33318390910610529 0.34358855052096038 0 0.33283637980140879 0.33469331179832718 0 0.33318390910610529 0.34358855052096038 0 0.32611481079287369 0.33974729713420021 0 0.34480088275632298 0.31606258733578418 0 0.33769186663180051 0.31814262317354819 0 0.34192449374142192 0.30753297203612773 0 0.34480088275632298 0.31606258733578418 0 0.33769186663180051 0.31814262317354819 0 0.34284551192874652 0.32364904383841531 0 0.33946855119551672 0.33096103471374028 0 0.34284551192874652 0.32364904383841531 0 0.33464693517381472 0.32630086361949601 0 0.33769186663180051 0.31814262317354819 0 0.34284551192874652 0.32364904383841531 0 0.33464693517381472 0.32630086361949601 0 0.34514221143703899 0.32919058107390442 0 0.33946855119551672 0.33096103471374028 0 0.34284551192874652 0.32364904383841531 0 0.33769186663180051 0.31814262317354819 0 0.33464693517381472 0.32630086361949601 0 0.32994282367798861 0.32057227217232959 0 0.33464693517381472 0.32630086361949601 0 0.32994282367798861 0.32057227217232959 0 0.3250964778074269 0.32978689602061512 0 0.33769186663180051 0.31814262317354819 0 0.32994282367798861 0.32057227217232959 0 0.32867162081685902 0.31028670060733149 0 0.32176892132522322 0.32006025561378759 0 0.31440941436971798 0.31242774502049953 0 0.32867162081685902 0.31028670060733149 0 0.32994282367798861 0.32057227217232959 0 0.32176892132522322 0.32006025561378759 0 0.32867162081685902 0.31028670060733149 0 0.32176892132522322 0.32006025561378759 0 0.31484893044661 0.32778579360563193 0 0.3250964778074269 0.32978689602061512 0 0.32994282367798861 0.32057227217232959 0 0.32176892132522322 0.32006025561378759 0 0.3250964778074269 0.32978689602061512 0 0.32176892132522322 0.32006025561378759 0 0.31484893044661 0.32778579360563193 0 0.31440941436971798 0.31242774502049953 0 0.32611481079287369 0.33974729713420021 0 0.3250964778074269 0.32978689602061512 0 0.31767498628904178 0.33862919533695518 0 0.32611481079287369 0.33974729713420021 0 0.31767498628904178 0.33862919533695518 0 0.32336406622478242 0.34852958887145069 0 0.33283637980140879 0.33469331179832718 0 0.32611481079287369 0.33974729713420021 0 0.3250964778074269 0.32978689602061512 0 0.31484893044661 0.32778579360563193 0 0.31767498628904178 0.33862919533695518 0 0.30654896287530792 0.34033791233229299 0 0.31484893044661 0.32778579360563193 0 0.3250964778074269 0.32978689602061512 0 0.31767498628904178 0.33862919533695518 0 0.31767498628904178 0.33862919533695518 0 0.31315570067328902 0.3464643712977632 0 0.32336406622478242 0.34852958887145069 0 0.31315570067328902 0.3464643712977632 0 0.31355388928080707 0.35546570062290778 0 0.32336406622478242 0.34852958887145069 0 0.32336406622478242 0.34852958887145069 0 0.33442175170730049 0.35218858713626039 0 0.32437013183195901 0.3602157298059272 0 0.31355388928080707 0.35546570062290778 0 0.32336406622478242 0.34852958887145069 0 0.32437013183195901 0.3602157298059272 0 0.33318390910610529 0.34358855052096038 0 0.32611481079287369 0.33974729713420021 0 0.32336406622478242 0.34852958887145069 0 0.35030182712711511 0.35130594720886232 0 0.33442175170730049 0.35218858713626039 0 0.33389487655237682 0.3658352592629312 0 0.33318390910610529 0.34358855052096038 0 0.32336406622478242 0.34852958887145069 0 0.33442175170730049 0.35218858713626039 0 0.35030182712711511 0.35130594720886232 0 0.33442175170730049 0.35218858713626039 0 0.34269927497721508 0.34493512072036142 0 0.33318390910610529 0.34358855052096038 0 0.33442175170730049 0.35218858713626039 0 0.34269927497721508 0.34493512072036142 0 0.34270248502322931 0.38427053755298168 0 0.35268350372385993 0.36328223724825232 0 0.33389487655237682 0.3658352592629312 0 0.33442175170730049 0.35218858713626039 0 0.33389487655237682 0.3658352592629312 0 0.32437013183195901 0.3602157298059272 0 0.31661607539452802 0.37905951313608538 0 0.33389487655237682 0.3658352592629312 0 0.32437013183195901 0.3602157298059272 0 0.31661607539452802 0.37905951313608538 0 0.31355388928080707 0.35546570062290778 0 0.32437013183195901 0.3602157298059272 0 0.31661607539452802 0.37905951313608538 0 0.31355388928080707 0.35546570062290778 0 0.31661607539452802 0.37905951313608538 0 0.31355388928080707 0.35546570062290778 0 0.30541822204374358 0.36584678197342768 0 0.2987730087010142 0.37934426936791982 0 0.31661607539452802 0.37905951313608538 0 0.30541822204374358 0.36584678197342768 0 0.30541822204374358 0.36584678197342768 0 0.30393955747459928 0.35096595789874813 0 0.29215410451095353 0.36543341035917859 0 0.2987730087010142 0.37934426936791982 0 0.30541822204374358 0.36584678197342768 0 0.29215410451095353 0.36543341035917859 0 0.31315570067328902 0.3464643712977632 0 0.30393955747459928 0.35096595789874813 0 0.30654896287530792 0.34033791233229299 0 0.31315570067328902 0.3464643712977632 0 0.31355388928080707 0.35546570062290778 0 0.30393955747459928 0.35096595789874813 0 0.31355388928080707 0.35546570062290778 0 0.30541822204374358 0.36584678197342768 0 0.30393955747459928 0.35096595789874813 0 0.30393955747459928 0.35096595789874813 0 0.29215410451095353 0.36543341035917859 0 0.30393955747459928 0.35096595789874813 0 0.29720735802849829 0.34424744790442102 0 0.29027641861796738 0.35164951467646482 0 0.30393955747459928 0.35096595789874813 0 0.29720735802849829 0.34424744790442102 0 0.30654896287530792 0.34033791233229299 0 0.29720735802849829 0.34424744790442102 0 0.29027641861796738 0.35164951467646482 0 0.28998304713239348 0.34105976447064218 0 0.30393955747459928 0.35096595789874813 0 0.29027641861796738 0.35164951467646482 0 0.29215410451095353 0.36543341035917859 0 0.29027641861796738 0.35164951467646482 0 0.29215410451095353 0.36543341035917859 0 0.27920137084664282 0.3573603676334649 0 0.29027641861796738 0.35164951467646482 0 0.27920137084664282 0.3573603676334649 0 0.28068773357058369 0.34198453751068081 0 0.29027641861796738 0.35164951467646482 0 0.28068773357058369 0.34198453751068081 0 0.28998304713239348 0.34105976447064218 0 0.28036865154730628 0.37990086281960789 0 0.29215410451095353 0.36543341035917859 0 0.27920137084664282 0.3573603676334649 0 0.28036865154730628 0.37990086281960789 0 0.2987730087010142 0.37934426936791982 0 0.29215410451095353 0.36543341035917859 0 0.28036865154730628 0.37990086281960789 0 0.29215410451095353 0.36543341035917859 0 0.28036865154730628 0.37990086281960789 0 0.27920137084664282 0.3573603676334649 0 0.26173146881309822 0.35734024057335978 0 0.28036865154730628 0.37990086281960789 0 0.26173146881309822 0.35734024057335978 0 0.28036865154730628 0.37990086281960789 0 0.26173146881309822 0.35734024057335978 0 0.2641967246118288 0.36596915937278562 0 0.27920137084664282 0.3573603676334649 0 0.27030047393074008 0.3474963096498429 0 0.26173146881309822 0.35734024057335978 0 0.27920137084664282 0.3573603676334649 0 0.27030047393074008 0.3474963096498429 0 0.28068773357058369 0.34198453751068081 0 0.2430942860788903 0.33477961832711151 0 0.26173146881309822 0.35734024057335978 0 0.27030047393074008 0.3474963096498429 0 0.26173146881309822 0.35734024057335978 0 0.26240083601839698 0.33727672217147331 0 0.23816107804029091 0.35120524212074949 0 0.26173146881309822 0.35734024057335978 0 0.2641967246118288 0.36596915937278562 0 0.23816107804029091 0.35120524212074949 0 0.2641967246118288 0.36596915937278562 0 0.2492643002430574 0.365916522193315 0 0.24311907173897271 0.36013203008567057 0 0.2641967246118288 0.36596915937278562 0 0.2492643002430574 0.365916522193315 0 0.25710864090743918 0.37145542319719338 0 0.2641967246118288 0.36596915937278562 0 0.2492643002430574 0.365916522193315 0 0.25383912625151372 0.37755129754335942 0 0.25710864090743918 0.37145542319719338 0 0.26350653962281989 0.38010735630523079 0 0.25710864090743918 0.37145542319719338 0 0.2641967246118288 0.36596915937278562 0 0.2484846271056145 0.31037308609574782 0 0.25508783524565293 0.32209220201309929 0 0.26836904206483531 0.31075971332937607 0 0.25508783524565293 0.32209220201309929 0 0.26240083601839698 0.33727672217147331 0 0.26677092012209491 0.32204036282613252 0 0.25508783524565293 0.32209220201309929 0 0.26677092012209491 0.32204036282613252 0 0.26836904206483531 0.31075971332937607 0 0.2430942860788903 0.33477961832711151 0 0.25508783524565293 0.32209220201309929 0 0.26240083601839698 0.33727672217147331 0 0.2430942860788903 0.33477961832711151 0 0.26173146881309822 0.35734024057335978 0 0.26240083601839698 0.33727672217147331 0 0.26240083601839698 0.33727672217147331 0 0.27184092000699639 0.33891315949469752 0 0.27388917516664008 0.32964775149744319 0 0.26240083601839698 0.33727672217147331 0 0.27388917516664008 0.32964775149744319 0 0.26677092012209491 0.32204036282613252 0 0.27030047393074008 0.3474963096498429 0 0.26240083601839698 0.33727672217147331 0 0.27184092000699639 0.33891315949469752 0 0.27030047393074008 0.3474963096498429 0 0.27184092000699639 0.33891315949469752 0 0.28068773357058369 0.34198453751068081 0 0.27184092000699639 0.33891315949469752 0 0.28068773357058369 0.34198453751068081 0 0.27388917516664008 0.32964775149744319 0 0.28068773357058369 0.34198453751068081 0 0.27388917516664008 0.32964775149744319 0 0.28570907475377572 0.33188311037056872 0 0.27388917516664008 0.32964775149744319 0 0.26677092012209491 0.32204036282613252 0 0.28178409254690689 0.31684790712797722 0 0.27388917516664008 0.32964775149744319 0 0.28178409254690689 0.31684790712797722 0 0.28570907475377572 0.33188311037056872 0 0.26677092012209491 0.32204036282613252 0 0.28178409254690689 0.31684790712797722 0 0.26836904206483531 0.31075971332937607 0 0.28178409254690689 0.31684790712797722 0 0.29262159606390598 0.32453461147271162 0 0.29660332646403359 0.30785121346786842 0 0.28178409254690689 0.31684790712797722 0 0.29262159606390598 0.32453461147271162 0 0.28570907475377572 0.33188311037056872 0 0.28068773357058369 0.34198453751068081 0 0.28570907475377572 0.33188311037056872 0 0.28998304713239348 0.34105976447064218 0 0.29262159606390598 0.32453461147271162 0 0.28570907475377572 0.33188311037056872 0 0.29603465069114282 0.33553421189107618 0 0.29720735802849829 0.34424744790442102 0 0.29603465069114282 0.33553421189107618 0 0.28998304713239348 0.34105976447064218 0 0.28570907475377572 0.33188311037056872 0 0.29603465069114282 0.33553421189107618 0 0.28998304713239348 0.34105976447064218 0 0.29720735802849829 0.34424744790442102 0 0.29603465069114282 0.33553421189107618 0 0.30654896287530792 0.34033791233229299 0 0.29603465069114282 0.33553421189107618 0 0.30654896287530792 0.34033791233229299 0 0.30445412428221041 0.32558903425911379 0 0.29262159606390598 0.32453461147271162 0 0.29603465069114282 0.33553421189107618 0 0.30445412428221041 0.32558903425911379 0 0.31484893044661 0.32778579360563193 0 0.30654896287530792 0.34033791233229299 0 0.30445412428221041 0.32558903425911379 0 0.31767498628904178 0.33862919533695518 0 0.31315570067328902 0.3464643712977632 0 0.30654896287530792 0.34033791233229299 0 0.30445412428221041 0.32558903425911379 0 0.29660332646403359 0.30785121346786842 0 0.31440941436971798 0.31242774502049953 0 0.29262159606390598 0.32453461147271162 0 0.30445412428221041 0.32558903425911379 0 0.29660332646403359 0.30785121346786842 0 0.31484893044661 0.32778579360563193 0 0.30445412428221041 0.32558903425911379 0 0.31440941436971798 0.31242774502049953 0 0.30822946874662033 0.29998271616579031 0 0.29660332646403359 0.30785121346786842 0 0.31440941436971798 0.31242774502049953 0 0.30822946874662033 0.29998271616579031 0 0.30055108247350393 0.28416894361273021 0 0.29660332646403359 0.30785121346786842 0 0.30822946874662033 0.29998271616579031 0 0.30055108247350393 0.28416894361273021 0 0.32109763140443309 0.29547610107375327 0 0.30055108247350393 0.28416894361273021 0 0.29660332646403359 0.30785121346786842 0 0.27430616976337108 0.29100628718303567 0 0.30055108247350393 0.28416894361273021 0 0.27430616976337108 0.29100628718303567 0 0.28443506245096839 0.27205148705280008 0 0.30055108247350393 0.28416894361273021 0 0.27430616976337108 0.29100628718303567 0 0.28178409254690689 0.31684790712797722 0 0.29660332646403359 0.30785121346786842 0 0.27430616976337108 0.29100628718303567 0 0.28178409254690689 0.31684790712797722 0 0.26836904206483531 0.31075971332937607 0 0.27430616976337108 0.29100628718303567 0 0.28178409254690689 0.31684790712797722 0 0.27430616976337108 0.29100628718303567 0 0.27430616976337108 0.29100628718303567 0 0.25121587924780342 0.29702178630611242 0 0.27430616976337108 0.29100628718303567 0 0.25953152444998728 0.28294166139542631 0 0.25121587924780342 0.29702178630611242 0 0.26836904206483531 0.31075971332937607 0 0.27430616976337108 0.29100628718303567 0 0.25121587924780342 0.29702178630611242 0 0.26836904206483531 0.31075971332937607 0 0.25121587924780342 0.29702178630611242 0 0.2484846271056145 0.31037308609574782 0 0.26836904206483531 0.31075971332937607 0 0.25121587924780342 0.29702178630611242 0 0.25102838231212438 0.26850893423506528 0 0.26790857605335527 0.26889798384773289 0 0.26221447651104962 0.2479993693513689 0 0.26790857605335527 0.26889798384773289 0 0.26221447651104962 0.2479993693513689 0 0.25953152444998728 0.28294166139542631 0 0.25102838231212438 0.26850893423506528 0 0.26790857605335527 0.26889798384773289 0 0.27430616976337108 0.29100628718303567 0 0.26790857605335527 0.26889798384773289 0 0.28443506245096839 0.27205148705280008 0 0.27430616976337108 0.29100628718303567 0 0.25953152444998728 0.28294166139542631 0 0.26790857605335527 0.26889798384773289 0 0.27430616976337108 0.29100628718303567 0 0.26790857605335527 0.26889798384773289 0 0.26790857605335527 0.26889798384773289 0 0.28119448123381058 0.25405304303149878 0 0.26221447651104962 0.2479993693513689 0 0.26790857605335527 0.26889798384773289 0 0.28119448123381058 0.25405304303149878 0 0.28443506245096839 0.27205148705280008 0 0.28119448123381058 0.25405304303149878 0 0.28443506245096839 0.27205148705280008 0 0.2982150027308012 0.26213117758900317 0 0.28119448123381058 0.25405304303149878 0 0.2982150027308012 0.26213117758900317 0 0.30328699804120918 0.24394477185791469 0 0.30055108247350393 0.28416894361273021 0 0.28443506245096839 0.27205148705280008 0 0.2982150027308012 0.26213117758900317 0 0.30055108247350393 0.28416894361273021 0 0.2982150027308012 0.26213117758900317 0 0.31879452400631653 0.25919465198291952 0 0.2982150027308012 0.26213117758900317 0 0.31879452400631653 0.25919465198291952 0 0.30328699804120918 0.24394477185791469 0 0.31879452400631653 0.25919465198291952 0 0.33092809789354199 0.24744869965648561 0 0.31845456220733243 0.24449663650262579 0 0.31879452400631653 0.25919465198291952 0 0.33565265393095528 0.25675142138279861 0 0.33982225619875311 0.26765994074234428 0 0.31879452400631653 0.25919465198291952 0 0.33982225619875311 0.26765994074234428 0 0.31879452400631653 0.25919465198291952 0 0.33565265393095528 0.25675142138279861 0 0.33092809789354199 0.24744869965648561 0 0.33565265393095528 0.25675142138279861 0 0.33982225619875311 0.26765994074234428 0 0.34536281311255052 0.25941060478944128 0 0.33565265393095528 0.25675142138279861 0 0.3433555784436142 0.25004320974280247 0 0.33092809789354199 0.24744869965648561 0 0.33565265393095528 0.25675142138279861 0 0.3433555784436142 0.25004320974280247 0 0.34536281311255052 0.25941060478944128 0 0.31879452400631653 0.25919465198291952 0 0.33982225619875311 0.26765994074234428 0 0.32679599518363661 0.27733160004242491 0 0.33982225619875311 0.26765994074234428 0 0.32679599518363661 0.27733160004242491 0 0.34056182851336592 0.28206143899133118 0 0.30055108247350393 0.28416894361273021 0 0.32679599518363661 0.27733160004242491 0 0.30055108247350393 0.28416894361273021 0 0.31879452400631653 0.25919465198291952 0 0.32679599518363661 0.27733160004242491 0 0.32679599518363661 0.27733160004242491 0 0.32109763140443309 0.29547610107375327 0 0.33248404658197278 0.28876668272462419 0 0.30055108247350393 0.28416894361273021 0 0.32679599518363661 0.27733160004242491 0 0.32109763140443309 0.29547610107375327 0 0.32109763140443309 0.29547610107375327 0 0.31440941436971798 0.31242774502049953 0 0.32867162081685902 0.31028670060733149 0 0.30822946874662033 0.29998271616579031 0 0.32109763140443309 0.29547610107375327 0 0.31440941436971798 0.31242774502049953 0 0.32867162081685902 0.31028670060733149 0 0.33472549883669622 0.29791121211074773 0 0.34192449374142192 0.30753297203612773 0 0.32109763140443309 0.29547610107375327 0 0.32867162081685902 0.31028670060733149 0 0.33472549883669622 0.29791121211074773 0 0.33472549883669622 0.29791121211074773 0 0.34281583705185747 0.29966479619329672 0 0.34192449374142192 0.30753297203612773 0 0.33769186663180051 0.31814262317354819 0 0.32867162081685902 0.31028670060733149 0 0.34192449374142192 0.30753297203612773 0 0.32679599518363661 0.27733160004242491 0 0.33248404658197278 0.28876668272462419 0 0.34056182851336592 0.28206143899133118 0 0.32109763140443309 0.29547610107375327 0 0.33472549883669622 0.29791121211074773 0 0.33248404658197278 0.28876668272462419 0 0.33472549883669622 0.29791121211074773 0 0.33248404658197278 0.28876668272462419 0 0.34417327957572558 0.29277050597204329 0 0.33472549883669622 0.29791121211074773 0 0.34281583705185747 0.29966479619329672 0 0.34417327957572558 0.29277050597204329 0 0.33248404658197278 0.28876668272462419 0 0.34056182851336592 0.28206143899133118 0 0.34417327957572558 0.29277050597204329 0 0.34056182851336592 0.28206143899133118 0 0.34979868535227071 0.28728326233729501 0 0.34417327957572558 0.29277050597204329 0 0.34056182851336592 0.28206143899133118 0 0.34979868535227071 0.28728326233729501 0 0.35183199075491411 0.27966461044832719 0 0.34417327957572558 0.29277050597204329 0 0.35334053836337709 0.29410458558147129 0 0.34972900846361488 0.30172704795696642 0 0.34979868535227071 0.28728326233729501 0 0.34417327957572558 0.29277050597204329 0 0.35334053836337709 0.29410458558147129 0 0.34979868535227071 0.28728326233729501 0 0.35334053836337709 0.29410458558147129 0 0.35722235408413222 0.28831366276426512 0 0.35334053836337709 0.29410458558147129 0 0.35826071325737319 0.3003277240158499 0 0.36091512844171192 0.29433704443458902 0 0.35334053836337709 0.29410458558147129 0 0.35722235408413222 0.28831366276426512 0 0.36091512844171192 0.29433704443458902 0 0.34979868535227071 0.28728326233729501 0 0.35722235408413222 0.28831366276426512 0 0.35183199075491411 0.27966461044832719 0 0.35722235408413222 0.28831366276426512 0 0.36152496379752869 0.28359539021876212 0 0.35183199075491411 0.27966461044832719 0 0.34480088275632298 0.31606258733578418 0 0.34192449374142192 0.30753297203612773 0 0.35090510471213721 0.31152713165908658 0 0.34192449374142192 0.30753297203612773 0 0.35090510471213721 0.31152713165908658 0 0.34972900846361488 0.30172704795696642 0 0.34281583705185747 0.29966479619329672 0 0.34417327957572558 0.29277050597204329 0 0.34972900846361488 0.30172704795696642 0 0.34281583705185747 0.29966479619329672 0 0.34192449374142192 0.30753297203612773 0 0.34972900846361488 0.30172704795696642 0 0.34972900846361488 0.30172704795696642 0 0.35826071325737319 0.3003277240158499 0 0.35721607615581658 0.30656573559573969 0 0.35334053836337709 0.29410458558147129 0 0.34972900846361488 0.30172704795696642 0 0.35826071325737319 0.3003277240158499 0 0.35090510471213721 0.31152713165908658 0 0.34972900846361488 0.30172704795696642 0 0.35721607615581658 0.30656573559573969 0 0.35878641637012221 0.31305233625990619 0 0.35090510471213721 0.31152713165908658 0 0.35721607615581658 0.30656573559573969 0 0.37014896644917339 0.316543878568457 0 0.37763341047385651 0.29079382019339128 0 0.37014896644917339 0.316543878568457 0 0.37108481648816682 0.30013899891886681 0 0.36845835323010317 0.30596496181531441 0 0.37014896644917339 0.316543878568457 0 0.37763341047385651 0.29079382019339128 0 0.37695808612291098 0.31120865645681561 0 0.37014896644917339 0.316543878568457 0 0.37108481648816682 0.30013899891886681 0 0.37763341047385651 0.29079382019339128 0 0.36630954626425261 0.31087512405144152 0 0.36228941999803421 0.30896529616435242 0 0.36543096483439103 0.3064802843427199 0 0.36331333565659901 0.31283202127524651 0 0.36630954626425261 0.31087512405144152 0 0.36228941999803421 0.30896529616435242 0 0.36331333565659901 0.31283202127524651 0 0.35878641637012221 0.31305233625990619 0 0.36228941999803421 0.30896529616435242 0 0.35878641637012221 0.31305233625990619 0 0.35721607615581658 0.30656573559573969 0 0.36228941999803421 0.30896529616435242 0 0.35721607615581658 0.30656573559573969 0 0.36228941999803421 0.30896529616435242 0 0.36268018070702418 0.30398627546106088 0 0.36630954626425261 0.31087512405144152 0 0.36543096483439103 0.3064802843427199 0 0.36845835323010317 0.30596496181531441 0 0.36228941999803421 0.30896529616435242 0 0.36543096483439103 0.3064802843427199 0 0.36268018070702418 0.30398627546106088 0 0.36543096483439103 0.3064802843427199 0 0.36607900901995372 0.30349396637540749 0 0.36845835323010317 0.30596496181531441 0 0.36607900901995372 0.30349396637540749 0 0.36268018070702418 0.30398627546106088 0 0.36558719123160882 0.29969948119116269 0 0.36607900901995372 0.30349396637540749 0 0.36558719123160882 0.29969948119116269 0 0.36823835509664099 0.30133882906677939 0 0.36543096483439103 0.3064802843427199 0 0.36607900901995372 0.30349396637540749 0 0.36268018070702418 0.30398627546106088 0 0.35826071325737319 0.3003277240158499 0 0.35721607615581658 0.30656573559573969 0 0.36268018070702418 0.30398627546106088 0 0.35826071325737319 0.3003277240158499 0 0.36268018070702418 0.30398627546106088 0 0.36558719123160882 0.29969948119116269 0 0.35826071325737319 0.3003277240158499 0 0.36558719123160882 0.29969948119116269 0 0.36091512844171192 0.29433704443458902 0 0.36871223371641282 0.29817542324200702 0 0.37108481648816682 0.30013899891886681 0 0.37014933742706652 0.29575476169949788 0 0.36558719123160882 0.29969948119116269 0 0.36871223371641282 0.29817542324200702 0 0.36734652779664789 0.29411680932906442 0 0.36558719123160882 0.29969948119116269 0 0.36871223371641282 0.29817542324200702 0 0.36823835509664099 0.30133882906677939 0 0.36871223371641282 0.29817542324200702 0 0.37108481648816682 0.30013899891886681 0 0.36823835509664099 0.30133882906677939 0 0.37108481648816682 0.30013899891886681 0 0.36823835509664099 0.30133882906677939 0 0.36845835323010317 0.30596496181531441 0 0.36607900901995372 0.30349396637540749 0 0.36823835509664099 0.30133882906677939 0 0.36845835323010317 0.30596496181531441 0 0.37014896644917339 0.316543878568457 0 0.36630954626425261 0.31087512405144152 0 0.36845835323010317 0.30596496181531441 0 0.36812955944888692 0.28419813691800921 0 0.36084998839118931 0.2761252295017701 0 0.37969218042614078 0.28371066929036243 0 0.36152496379752869 0.28359539021876212 0 0.36812955944888692 0.28419813691800921 0 0.36084998839118931 0.2761252295017701 0 0.36414496955441777 0.28941104037434479 0 0.36911771796651938 0.28986917351547109 0 0.36812955944888692 0.28419813691800921 0 0.36152496379752869 0.28359539021876212 0 0.36414496955441777 0.28941104037434479 0 0.36812955944888692 0.28419813691800921 0 0.35722235408413222 0.28831366276426512 0 0.36152496379752869 0.28359539021876212 0 0.36414496955441777 0.28941104037434479 0 0.35722235408413222 0.28831366276426512 0 0.36091512844171192 0.29433704443458902 0 0.36414496955441777 0.28941104037434479 0 0.36558719123160882 0.29969948119116269 0 0.36091512844171192 0.29433704443458902 0 0.36734652779664789 0.29411680932906442 0 0.36091512844171192 0.29433704443458902 0 0.36414496955441777 0.28941104037434479 0 0.36734652779664789 0.29411680932906442 0 0.36414496955441777 0.28941104037434479 0 0.36911771796651938 0.28986917351547109 0 0.36734652779664789 0.29411680932906442 0 0.36911771796651938 0.28986917351547109 0 0.37026464520563152 0.29279186409727531 0 0.36734652779664789 0.29411680932906442 0 0.37108481648816682 0.30013899891886681 0 0.37306860395079622 0.29341917559567809 0 0.37763341047385651 0.29079382019339128 0 0.36911771796651938 0.28986917351547109 0 0.37026464520563152 0.29279186409727531 0 0.37237913536365119 0.29056320862162688 0 0.36871223371641282 0.29817542324200702 0 0.36734652779664789 0.29411680932906442 0 0.37014933742706652 0.29575476169949788 0 0.37026464520563152 0.29279186409727531 0 0.36734652779664789 0.29411680932906442 0 0.37014933742706652 0.29575476169949788 0 0.37108481648816682 0.30013899891886681 0 0.37014933742706652 0.29575476169949788 0 0.37306860395079622 0.29341917559567809 0 0.37026464520563152 0.29279186409727531 0 0.37014933742706652 0.29575476169949788 0 0.37306860395079622 0.29341917559567809 0 0.36911771796651938 0.28986917351547109 0 0.37237913536365119 0.29056320862162688 0 0.37333201972158658 0.2878654242033048 0 0.37306860395079622 0.29341917559567809 0 0.37237913536365119 0.29056320862162688 0 0.37763341047385651 0.29079382019339128 0 0.37237913536365119 0.29056320862162688 0 0.37333201972158658 0.2878654242033048 0 0.37763341047385651 0.29079382019339128 0 0.37026464520563152 0.29279186409727531 0 0.37306860395079622 0.29341917559567809 0 0.37237913536365119 0.29056320862162688 0 0.37333201972158658 0.2878654242033048 0 0.36812955944888692 0.28419813691800921 0 0.37969218042614078 0.28371066929036243 0 0.36911771796651938 0.28986917351547109 0 0.37333201972158658 0.2878654242033048 0 0.36812955944888692 0.28419813691800921 0 0.36084998839118931 0.2761252295017701 0 0.37969218042614078 0.28371066929036243 0 0.36084998839118931 0.2761252295017701 0 0.37017340450925651 0.266060206293324 0 0.3539366042426153 0.26554047293381039 0 0.36084998839118931 0.2761252295017701 0 0.38460708535355081 0.26680105137204091 0 0.36084998839118931 0.2761252295017701 0 0.37017340450925651 0.266060206293324 0 0.38460708535355081 0.26680105137204091 0 0.3539366042426153 0.26554047293381039 0 0.38129994004966872 0.25577407136566988 0 0.37169426656027921 0.24972740256563611 0 0.37017340450925651 0.266060206293324 0 0.3539366042426153 0.26554047293381039 0 0.38129994004966872 0.25577407136566988 0 0.3539366042426153 0.26554047293381039 0 0.37169426656027921 0.24972740256563611 0 0.36205361842742478 0.24882498742118489 0 0.3539366042426153 0.26554047293381039 0 0.38129994004966872 0.25577407136566988 0 0.3539366042426153 0.26554047293381039 0 0.35175757775775729 0.2532797976346674 0 0.36205361842742478 0.24882498742118489 0 0.3433555784436142 0.25004320974280247 0 0.35175757775775729 0.2532797976346674 0 0.34536281311255052 0.25941060478944128 0 0.33982225619875311 0.26765994074234428 0 0.3539366042426153 0.26554047293381039 0 0.34536281311255052 0.25941060478944128 0 0.3539366042426153 0.26554047293381039 0 0.35175757775775729 0.2532797976346674 0 0.34536281311255052 0.25941060478944128 0 0.33982225619875311 0.26765994074234428 0 0.36084998839118931 0.2761252295017701 0 0.33982225619875311 0.26765994074234428 0 0.36084998839118931 0.2761252295017701 0 0.3539366042426153 0.26554047293381039 0 0.33982225619875311 0.26765994074234428 0 0.36084998839118931 0.2761252295017701 0 0.35183199075491411 0.27966461044832719 0 0.33982225619875311 0.26765994074234428 0 0.34056182851336592 0.28206143899133118 0 0.35183199075491411 0.27966461044832719 0 0.36152496379752869 0.28359539021876212 0 0.36084998839118931 0.2761252295017701 0 0.35183199075491411 0.27966461044832719 0 0.36084998839118931 0.2761252295017701 0 0.35183199075491411 0.27966461044832719 0 0.39945440726228237 0.27350419034528239 0 0.38460708535355081 0.26680105137204091 0 0.40768566828284042 0.25774317622192677 0 0.39945440726228237 0.27350419034528239 0 0.4092682188351508 0.26816031590002881 0 0.40768566828284042 0.25774317622192677 0 0.39945440726228237 0.27350419034528239 0 0.38460708535355081 0.26680105137204091 0 0.3904751567012596 0.27530993325585928 0 0.39945440726228237 0.27350419034528239 0 0.3904751567012596 0.27530993325585928 0 0.39488150240831521 0.28173053148540511 0 0.39945440726228237 0.27350419034528239 0 0.40366985246608472 0.28285995447659418 0 0.40929088926209078 0.279020096056181 0 0.39945440726228237 0.27350419034528239 0 0.4092682188351508 0.26816031590002881 0 0.40929088926209078 0.279020096056181 0 0.39945440726228237 0.27350419034528239 0 0.39488150240831521 0.28173053148540511 0 0.40366985246608472 0.28285995447659418 0 0.38783836144724232 0.2556839199238965 0 0.38129994004966872 0.25577407136566988 0 0.40866327585672191 0.24600766979752939 0 0.38460708535355081 0.26680105137204091 0 0.40768566828284042 0.25774317622192677 0 0.38783836144724232 0.2556839199238965 0 0.40768566828284042 0.25774317622192677 0 0.40866327585672191 0.24600766979752939 0 0.38783836144724232 0.2556839199238965 0 0.38460708535355081 0.26680105137204091 0 0.40768566828284042 0.25774317622192677 0 0.38129994004966872 0.25577407136566988 0 0.40866327585672191 0.24600766979752939 0 0.38783836144724232 0.2556839199238965 0 0.38129994004966872 0.25577407136566988 0 0.38460708535355081 0.26680105137204091 0 0.38783836144724232 0.2556839199238965 0 0.38460708535355081 0.26680105137204091 0 0.38129994004966872 0.25577407136566988 0 0.37169426656027921 0.24972740256563611 0 0.38106847269238292 0.24536179082341181 0 0.37017340450925651 0.266060206293324 0 0.38129994004966872 0.25577407136566988 0 0.38460708535355081 0.26680105137204091 0 0.36084998839118931 0.2761252295017701 0 0.38460708535355081 0.26680105137204091 0 0.37969218042614078 0.28371066929036243 0 0.38460708535355081 0.26680105137204091 0 0.3904751567012596 0.27530993325585928 0 0.37969218042614078 0.28371066929036243 0 0.38460708535355081 0.26680105137204091 0 0.37969218042614078 0.28371066929036243 0 0.3904751567012596 0.27530993325585928 0 0.37969218042614078 0.28371066929036243 0 0.39488150240831521 0.28173053148540511 0 0.37969218042614078 0.28371066929036243 0 0.37763341047385651 0.29079382019339128 0 0.40259214502479168 0.29292967641552992 0 0.37763341047385651 0.29079382019339128 0 0.4027243230010164 0.30147339632314252 0 0.37969218042614078 0.28371066929036243 0 0.37763341047385651 0.29079382019339128 0 0.37333201972158658 0.2878654242033048 0 0.37969218042614078 0.28371066929036243 0 0.37763341047385651 0.29079382019339128 0 0.37763341047385651 0.29079382019339128 0 0.37695808612291098 0.31120865645681561 0 0.38599374742651271 0.30414296713942529 0 0.37763341047385651 0.29079382019339128 0 0.38599374742651271 0.30414296713942529 0 0.4027243230010164 0.30147339632314252 0 0.37695808612291098 0.31120865645681561 0 0.38599374742651271 0.30414296713942529 0 0.38754735899376969 0.31282171123814728 0 0.38599374742651271 0.30414296713942529 0 0.4027243230010164 0.30147339632314252 0 0.38754735899376969 0.31282171123814728 0 0.4027243230010164 0.30147339632314252 0 0.3956366020903157 0.32248231082130752 0 0.38754735899376969 0.31282171123814728 0 0.37969218042614078 0.28371066929036243 0 0.40259214502479168 0.29292967641552992 0 0.37969218042614078 0.28371066929036243 0 0.39488150240831521 0.28173053148540511 0 0.40259214502479168 0.29292967641552992 0 0.37763341047385651 0.29079382019339128 0 0.4027243230010164 0.30147339632314252 0 0.40259214502479168 0.29292967641552992 0 0.4027243230010164 0.30147339632314252 0 0.40259214502479168 0.29292967641552992 0 0.41139710839419091 0.29189735433941028 0 0.40259214502479168 0.29292967641552992 0 0.40366985246608472 0.28285995447659418 0 0.41139710839419091 0.29189735433941028 0 0.39488150240831521 0.28173053148540511 0 0.40259214502479168 0.29292967641552992 0 0.40366985246608472 0.28285995447659418 0 0.40366985246608472 0.28285995447659418 0 0.41139710839419091 0.29189735433941028 0 0.40929088926209078 0.279020096056181 0 0.41139710839419091 0.29189735433941028 0 0.42781523552817591 0.31215297245289481 0 0.42226183937510081 0.28327127115801121 0 0.41139710839419091 0.29189735433941028 0 0.42226183937510081 0.28327127115801121 0 0.40929088926209078 0.279020096056181 0 0.4027243230010164 0.30147339632314252 0 0.41139710839419091 0.29189735433941028 0 0.42781523552817591 0.31215297245289481 0 0.4027243230010164 0.30147339632314252 0 0.42781523552817591 0.31215297245289481 0 0.41357021602424721 0.32279281759874212 0 0.4027243230010164 0.30147339632314252 0 0.42781523552817591 0.31215297245289481 0 0.42781523552817591 0.31215297245289481 0 0.42226183937510081 0.28327127115801121 0 0.42781523552817591 0.31215297245289481 0 0.42226183937510081 0.28327127115801121 0 0.44120727567718632 0.28746005308771089 0 0.42226183937510081 0.28327127115801121 0 0.43023391716603732 0.27040224467912161 0 0.44120727567718632 0.28746005308771089 0 0.42226183937510081 0.28327127115801121 0 0.43023391716603732 0.27040224467912161 0 0.41664462513020523 0.25422696758609492 0 0.43023391716603732 0.27040224467912161 0 0.43692075095235122 0.26433370861442979 0 0.44373838257505849 0.27050131303512348 0 0.42226183937510081 0.28327127115801121 0 0.4092682188351508 0.26816031590002881 0 0.41664462513020523 0.25422696758609492 0 0.42226183937510081 0.28327127115801121 0 0.41664462513020523 0.25422696758609492 0 0.42226183937510081 0.28327127115801121 0 0.4092682188351508 0.26816031590002881 0 0.40929088926209078 0.279020096056181 0 0.40768566828284042 0.25774317622192677 0 0.41664462513020523 0.25422696758609492 0 0.40866327585672191 0.24600766979752939 0 0.40768566828284042 0.25774317622192677 0 0.41664462513020523 0.25422696758609492 0 0.4092682188351508 0.26816031590002881 0 0.40768566828284042 0.25774317622192677 0 0.41664462513020523 0.25422696758609492 0 0.42749544465446981 0.25699566217507153 0 0.45166362976964691 0.25106894999712381 0 0.43076425121212841 0.2486853010718087 0 0.41664462513020523 0.25422696758609492 0 0.42749544465446981 0.25699566217507153 0 0.43076425121212841 0.2486853010718087 0 0.43023391716603732 0.27040224467912161 0 0.41664462513020523 0.25422696758609492 0 0.42749544465446981 0.25699566217507153 0 0.41664462513020523 0.25422696758609492 0 0.43076425121212841 0.2486853010718087 0 0.42749544465446981 0.25699566217507153 0 0.43692075095235122 0.26433370861442979 0 0.44456450099631911 0.26043047377218492 0 0.43023391716603732 0.27040224467912161 0 0.42749544465446981 0.25699566217507153 0 0.43692075095235122 0.26433370861442979 0 0.42749544465446981 0.25699566217507153 0 0.45166362976964691 0.25106894999712381 0 0.42749544465446981 0.25699566217507153 0 0.44456450099631911 0.26043047377218492 0 0.45166362976964691 0.25106894999712381 0 0.43692075095235122 0.26433370861442979 0 0.44456450099631911 0.26043047377218492 0 0.44373838257505849 0.27050131303512348 0 0.44456450099631911 0.26043047377218492 0 0.44373838257505849 0.27050131303512348 0 0.45508065662597141 0.26402805921732958 0 0.44456450099631911 0.26043047377218492 0 0.45166362976964691 0.25106894999712381 0 0.45508065662597141 0.26402805921732958 0 0.44373838257505849 0.27050131303512348 0 0.45472874274978531 0.27586911806656422 0 0.44120727567718632 0.28746005308771089 0 0.43023391716603732 0.27040224467912161 0 0.44373838257505849 0.27050131303512348 0 0.44120727567718632 0.28746005308771089 0 0.44373838257505849 0.27050131303512348 0 0.45472874274978531 0.27586911806656422 0 0.45508065662597141 0.26402805921732958 0 0.45472874274978531 0.27586911806656422 0 0.46665275363318931 0.27127710252775639 0 0.46192346945889701 0.28817835066990299 0 0.45472874274978531 0.27586911806656422 0 0.46665275363318931 0.27127710252775639 0 0.45508065662597141 0.26402805921732958 0 0.45166362976964691 0.25106894999712381 0 0.46652816171208539 0.25830808769848879 0 0.47583181488482379 0.2451422378191761 0 0.45166362976964691 0.25106894999712381 0 0.45508065662597141 0.26402805921732958 0 0.46652816171208539 0.25830808769848879 0 0.46665275363318931 0.27127710252775639 0 0.45508065662597141 0.26402805921732958 0 0.46652816171208539 0.25830808769848879 0 0.46665275363318931 0.27127710252775639 0 0.46652816171208539 0.25830808769848879 0 0.48341195364679568 0.26002408893105827 0 0.46652816171208539 0.25830808769848879 0 0.48341195364679568 0.26002408893105827 0 0.47583181488482379 0.2451422378191761 0 0.46665275363318931 0.27127710252775639 0 0.48341195364679568 0.26002408893105827 0 0.48138518434246891 0.28130646820503019 0 0.46665275363318931 0.27127710252775639 0 0.48138518434246891 0.28130646820503019 0 0.46192346945889701 0.28817835066990299 0 0.5 0.26671351767664991 0 0.5 0.29421150971207138 0 0.48138518434246891 0.28130646820503019 0 0.48341195364679568 0.26002408893105827 0 0.5 0.26671351767664991 0 0.48138518434246891 0.28130646820503019 0 0.48341195364679568 0.26002408893105827 0 0.5 0.26671351767664991 0 0.50000000000000067 0.2392155256412283 0 0.5 0.29421150971207138 0 0.47556093647901088 0.30733800586058863 0 0.5 0.32170950174749302 0 0.5 0.29421150971207138 0 0.48138518434246891 0.28130646820503019 0 0.47556093647901088 0.30733800586058863 0 0.48138518434246891 0.28130646820503019 0 0.47556093647901088 0.30733800586058863 0 0.46192346945889701 0.28817835066990299 0 0.47556093647901088 0.30733800586058863 0 0.45214514511688908 0.30370412902975941 0 0.45421880844117613 0.32339126307769928 0 0.47556093647901088 0.30733800586058863 0 0.46192346945889701 0.28817835066990299 0 0.45214514511688908 0.30370412902975941 0 0.46192346945889701 0.28817835066990299 0 0.44120727567718632 0.28746005308771089 0 0.45214514511688908 0.30370412902975941 0 0.45472874274978531 0.27586911806656422 0 0.46192346945889701 0.28817835066990299 0 0.44120727567718632 0.28746005308771089 0 0.42781523552817591 0.31215297245289481 0 0.44120727567718632 0.28746005308771089 0 0.45214514511688908 0.30370412902975941 0 0.42781523552817591 0.31215297245289481 0 0.45421880844117613 0.32339126307769928 0 0.43298436918619881 0.33903622913929549 0 0.42781523552817591 0.31215297245289481 0 0.45214514511688908 0.30370412902975941 0 0.45421880844117613 0.32339126307769928 0 0.42781523552817591 0.31215297245289481 0 0.45421880844117613 0.32339126307769928 0 0.45421880844117613 0.32339126307769928 0 0.45970761232660212 0.34692044601787542 0 0.43298436918619881 0.33903622913929549 0 0.45421880844117613 0.32339126307769928 0 0.48062238135417568 0.33462955370250519 0 0.45421880844117613 0.32339126307769928 0 0.48062238135417568 0.33462955370250519 0 0.45970761232660212 0.34692044601787542 0 0.47556093647901088 0.30733800586058863 0 0.45421880844117613 0.32339126307769928 0 0.48062238135417568 0.33462955370250519 0 0.48062238135417568 0.33462955370250519 0 0.5 0.32170950174749302 0 0.5 0.34920749378291471 0 0.47556093647901088 0.30733800586058863 0 0.48062238135417568 0.33462955370250519 0 0.5 0.32170950174749302 0 0.5 0.34920749378291471 0 0.48254603458521478 0.3522402998402685 0 0.5 0.37670548581833618 0 0.48062238135417568 0.33462955370250519 0 0.5 0.34920749378291471 0 0.48254603458521478 0.3522402998402685 0 0.48254603458521478 0.3522402998402685 0 0.46972057754862501 0.36630584452178799 0 0.45970761232660212 0.34692044601787542 0 0.48062238135417568 0.33462955370250519 0 0.48254603458521478 0.3522402998402685 0 0.45970761232660212 0.34692044601787542 0 0.48254603458521478 0.3522402998402685 0 0.46972057754862501 0.36630584452178799 0 0.5 0.37670548581833618 0 0.46972057754862501 0.36630584452178799 0 0.43815350284422228 0.36591948582569622 0 0.45848938469160699 0.38276388730883248 0 0.46972057754862501 0.36630584452178799 0 0.45970761232660212 0.34692044601787542 0 0.43815350284422228 0.36591948582569622 0 0.45970761232660212 0.34692044601787542 0 0.43815350284422228 0.36591948582569622 0 0.43298436918619881 0.33903622913929549 0 0.43815350284422228 0.36591948582569622 0 0.4167242930516859 0.35972934744593471 0 0.42344095457037051 0.38268701701273461 0 0.4167242930516859 0.35972934744593471 0 0.40101385701800268 0.38518895784325291 0 0.4167242930516859 0.35972934744593471 0 0.40181680918128981 0.35947395412181382 0 0.40101385701800268 0.38518895784325291 0 0.4167242930516859 0.35972934744593471 0 0.40869055031553031 0.33881917925707022 0 0.40181680918128981 0.35947395412181382 0 0.4167242930516859 0.35972934744593471 0 0.43298436918619881 0.33903622913929549 0 0.40869055031553031 0.33881917925707022 0 0.43815350284422228 0.36591948582569622 0 0.4167242930516859 0.35972934744593471 0 0.43298436918619881 0.33903622913929549 0 0.43815350284422228 0.36591948582569622 0 0.43298436918619881 0.33903622913929549 0 0.42781523552817591 0.31215297245289481 0 0.43298436918619881 0.33903622913929549 0 0.42781523552817591 0.31215297245289481 0 0.43298436918619881 0.33903622913929549 0 0.41357021602424721 0.32279281759874212 0 0.43298436918619881 0.33903622913929549 0 0.41357021602424721 0.32279281759874212 0 0.40869055031553031 0.33881917925707022 0 0.40869055031553031 0.33881917925707022 0 0.39369601167170543 0.33564153172070438 0 0.39209274976778918 0.34814598654190299 0 0.40869055031553031 0.33881917925707022 0 0.39369601167170543 0.33564153172070438 0 0.3956366020903157 0.32248231082130752 0 0.39369601167170543 0.33564153172070438 0 0.3956366020903157 0.32248231082130752 0 0.38362385659697051 0.32926172455430031 0 0.39369601167170543 0.33564153172070438 0 0.38635485741833753 0.33883185827426582 0 0.39209274976778918 0.34814598654190299 0 0.41357021602424721 0.32279281759874212 0 0.40869055031553031 0.33881917925707022 0 0.3956366020903157 0.32248231082130752 0 0.4027243230010164 0.30147339632314252 0 0.41357021602424721 0.32279281759874212 0 0.3956366020903157 0.32248231082130752 0 0.3956366020903157 0.32248231082130752 0 0.38754735899376969 0.31282171123814728 0 0.38479800915553353 0.32074741934569512 0 0.38754735899376969 0.31282171123814728 0 0.38479800915553353 0.32074741934569512 0 0.37917338616632867 0.3168755173424983 0 0.3956366020903157 0.32248231082130752 0 0.38479800915553353 0.32074741934569512 0 0.38362385659697051 0.32926172455430031 0 0.38479800915553353 0.32074741934569512 0 0.37832625022041982 0.32264150287239662 0 0.38362385659697051 0.32926172455430031 0 0.37577016905582622 0.32787937856968757 0 0.37832625022041982 0.32264150287239662 0 0.38362385659697051 0.32926172455430031 0 0.37577016905582622 0.32787937856968757 0 0.37506056064123422 0.32471797871916308 0 0.37832625022041982 0.32264150287239662 0 0.37368960646642962 0.31911015363466272 0 0.37506056064123422 0.32471797871916308 0 0.37832625022041982 0.32264150287239662 0 0.37695808612291098 0.31120865645681561 0 0.38754735899376969 0.31282171123814728 0 0.37917338616632867 0.3168755173424983 0 0.38479800915553353 0.32074741934569512 0 0.37832625022041982 0.32264150287239662 0 0.37917338616632867 0.3168755173424983 0 0.37368960646642962 0.31911015363466272 0 0.37832625022041982 0.32264150287239662 0 0.37917338616632867 0.3168755173424983 0 0.37499251130121058 0.31593455150060828 0 0.37368960646642962 0.31911015363466272 0 0.37917338616632867 0.3168755173424983 0 0.37499251130121058 0.31593455150060828 0 0.37695808612291098 0.31120865645681561 0 0.37917338616632867 0.3168755173424983 0 0.38635485741833753 0.33883185827426582 0 0.3795813787571668 0.3363772241379393 0 0.38278029029805521 0.34473282441648212 0 0.39369601167170543 0.33564153172070438 0 0.38635485741833753 0.33883185827426582 0 0.38362385659697051 0.32926172455430031 0 0.38635485741833753 0.33883185827426582 0 0.38362385659697051 0.32926172455430031 0 0.3795813787571668 0.3363772241379393 0 0.37577016905582622 0.32787937856968757 0 0.38362385659697051 0.32926172455430031 0 0.37868435463470768 0.3315773541462857 0 0.38362385659697051 0.32926172455430031 0 0.37868435463470768 0.3315773541462857 0 0.3795813787571668 0.3363772241379393 0 0.37577016905582622 0.32787937856968757 0 0.37868435463470768 0.3315773541462857 0 0.375263113682131 0.33313320718557798 0 0.37868435463470768 0.3315773541462857 0 0.375263113682131 0.33313320718557798 0 0.3795813787571668 0.3363772241379393 0 0.37369311900952262 0.33836265764115908 0 0.3795813787571668 0.3363772241379393 0 0.37670219357667811 0.34177383067972761 0 0.3795813787571668 0.3363772241379393 0 0.37670219357667811 0.34177383067972761 0 0.38278029029805521 0.34473282441648212 0 0.37369311900952262 0.33836265764115908 0 0.375263113682131 0.33313320718557798 0 0.3795813787571668 0.3363772241379393 0 0.3809821990389497 0.35490418517770578 0 0.39056259575344082 0.36548629952090861 0 0.39209274976778918 0.34814598654190299 0 0.37486749369974542 0.34694596905823039 0 0.37670219357667811 0.34177383067972761 0 0.38278029029805521 0.34473282441648212 0 0.37486749369974542 0.34694596905823039 0 0.38278029029805521 0.34473282441648212 0 0.3809821990389497 0.35490418517770578 0 0.38278029029805521 0.34473282441648212 0 0.3809821990389497 0.35490418517770578 0 0.39209274976778918 0.34814598654190299 0 0.38635485741833753 0.33883185827426582 0 0.38278029029805521 0.34473282441648212 0 0.39209274976778918 0.34814598654190299 0 0.37228166628853332 0.35471301169251829 0 0.37486749369974542 0.34694596905823039 0 0.3809821990389497 0.35490418517770578 0 0.37414389550204002 0.36898578533419818 0 0.3809821990389497 0.35490418517770578 0 0.39056259575344082 0.36548629952090861 0 0.37414389550204002 0.36898578533419818 0 0.39056259575344082 0.36548629952090861 0 0.40101385701800268 0.38518895784325291 0 0.37414389550204002 0.36898578533419818 0 0.37228166628853332 0.35471301169251829 0 0.3809821990389497 0.35490418517770578 0 0.39056259575344082 0.36548629952090861 0 0.40181680918128981 0.35947395412181382 0 0.40101385701800268 0.38518895784325291 0 0.39056259575344082 0.36548629952090861 0 0.40181680918128981 0.35947395412181382 0 0.39209274976778918 0.34814598654190299 0 0.40869055031553031 0.33881917925707022 0 0.40181680918128981 0.35947395412181382 0 0.39209274976778918 0.34814598654190299 0 0.40101385701800268 0.38518895784325291 0 0.38530342098431941 0.41064856824057122 0 0.40101385701800268 0.38518895784325291 0 0.38530342098431941 0.41064856824057122 0 0.41521715527738928 0.40390661881175682 0 0.3736470799201031 0.39378130610698531 0 0.37414389550204002 0.36898578533419818 0 0.40101385701800268 0.38518895784325291 0 0.3736470799201031 0.39378130610698531 0 0.40101385701800268 0.38518895784325291 0 0.38530342098431941 0.41064856824057122 0 0.36959298495063608 0.43610817863788948 0 0.38530342098431941 0.41064856824057122 0 0.36959298495063608 0.43610817863788948 0 0.38530342098431941 0.41064856824057122 0 0.3889231515195431 0.43141286456833011 0 0.3889231515195431 0.43141286456833011 0 0.40362265567455102 0.42304679086704539 0 0.39942544658573009 0.43872588670818857 0 0.40362265567455102 0.42304679086704539 0 0.41248490446316177 0.43293377153942381 0 0.39942544658573009 0.43872588670818857 0 0.38530342098431941 0.41064856824057122 0 0.3889231515195431 0.43141286456833011 0 0.40362265567455102 0.42304679086704539 0 0.38530342098431941 0.41064856824057122 0 0.40362265567455102 0.42304679086704539 0 0.41521715527738928 0.40390661881175682 0 0.40362265567455102 0.42304679086704539 0 0.42233359500988371 0.42307221464191669 0 0.41521715527738928 0.40390661881175682 0 0.40362265567455102 0.42304679086704539 0 0.41248490446316177 0.43293377153942381 0 0.42233359500988371 0.42307221464191669 0 0.41248490446316177 0.43293377153942381 0 0.42233359500988371 0.42307221464191669 0 0.42326813014219627 0.43909650749986368 0 0.42233359500988371 0.42307221464191669 0 0.43681876433844857 0.43497208046478802 0 0.42326813014219627 0.43909650749986368 0 0.42233359500988371 0.42307221464191669 0 0.43681876433844857 0.43497208046478802 0 0.43655617137350622 0.42038510460191503 0 0.42233359500988371 0.42307221464191669 0 0.42830887421762198 0.41018013153495869 0 0.41521715527738928 0.40390661881175682 0 0.42233359500988371 0.42307221464191669 0 0.42830887421762198 0.41018013153495869 0 0.43655617137350622 0.42038510460191503 0 0.42830887421762198 0.41018013153495869 0 0.43655617137350622 0.42038510460191503 0 0.439625884597032 0.40642404903869822 0 0.42978568865087441 0.39901034440009059 0 0.42344095457037051 0.38268701701273461 0 0.4433226365022459 0.39280274251209668 0 0.42978568865087441 0.39901034440009059 0 0.41521715527738928 0.40390661881175682 0 0.42344095457037051 0.38268701701273461 0 0.42830887421762198 0.41018013153495869 0 0.42978568865087441 0.39901034440009059 0 0.439625884597032 0.40642404903869822 0 0.42830887421762198 0.41018013153495869 0 0.42978568865087441 0.39901034440009059 0 0.41521715527738928 0.40390661881175682 0 0.4167242930516859 0.35972934744593471 0 0.40101385701800268 0.38518895784325291 0 0.42344095457037051 0.38268701701273461 0 0.40101385701800268 0.38518895784325291 0 0.41521715527738928 0.40390661881175682 0 0.42344095457037051 0.38268701701273461 0 0.43815350284422228 0.36591948582569622 0 0.42344095457037051 0.38268701701273461 0 0.4433226365022459 0.39280274251209668 0 0.43815350284422228 0.36591948582569622 0 0.4433226365022459 0.39280274251209668 0 0.43815350284422228 0.36591948582569622 0 0.4433226365022459 0.39280274251209668 0 0.45848938469160699 0.38276388730883248 0 0.4433226365022459 0.39280274251209668 0 0.4587292321942566 0.40377894109977869 0 0.44849177016026981 0.41968599919849731 0 0.4433226365022459 0.39280274251209668 0 0.44849177016026981 0.41968599919849731 0 0.42978568865087441 0.39901034440009059 0 0.4433226365022459 0.39280274251209668 0 0.439625884597032 0.40642404903869822 0 0.4433226365022459 0.39280274251209668 0 0.4587292321942566 0.40377894109977869 0 0.45848938469160699 0.38276388730883248 0 0.4587292321942566 0.40377894109977869 0 0.45848938469160699 0.38276388730883248 0 0.47720201034463561 0.39055994944820821 0 0.46972057754862501 0.36630584452178799 0 0.45848938469160699 0.38276388730883248 0 0.47720201034463561 0.39055994944820821 0 0.46972057754862501 0.36630584452178799 0 0.47720201034463561 0.39055994944820821 0 0.5 0.37670548581833618 0 0.47720201034463561 0.39055994944820821 0 0.5 0.40420347785375749 0 0.47329291580914951 0.41490179660840648 0 0.4587292321942566 0.40377894109977869 0 0.47720201034463561 0.39055994944820821 0 0.47329291580914951 0.41490179660840648 0 0.47720201034463561 0.39055994944820821 0 0.5 0.40420347785375749 0 0.5 0.37670548581833618 0 0.48546521128148462 0.42572005307568972 0 0.49999999999999828 0.43170146988917901 0 0.48502495584706629 0.44181750450007778 0 0.49999999999999828 0.43170146988917901 0 0.48502495584706629 0.44181750450007778 0 0.5 0.40420347785375749 0 0.48546521128148462 0.42572005307568972 0 0.47329291580914951 0.41490179660840648 0 0.5 0.40420347785375749 0 0.48546521128148462 0.42572005307568972 0 0.49999999999999828 0.43170146988917901 0 0.48546521128148462 0.42572005307568972 0 0.47462076711180717 0.43403653248997731 0 0.48502495584706629 0.44181750450007778 0 0.47329291580914951 0.41490179660840648 0 0.47462076711180717 0.43403653248997731 0 0.45927084092720188 0.43580976915473651 0 0.48546521128148462 0.42572005307568972 0 0.47329291580914951 0.41490179660840648 0 0.47462076711180717 0.43403653248997731 0 0.45927084092720188 0.43580976915473651 0 0.44849177016026981 0.41968599919849731 0 0.47329291580914951 0.41490179660840648 0 0.45927084092720188 0.43580976915473651 0 0.44849177016026981 0.41968599919849731 0 0.45927084092720188 0.43580976915473651 0 0.44849177016026981 0.41968599919849731 0 0.45165089640657707 0.43611575462809582 0 0.4587292321942566 0.40377894109977869 0 0.47329291580914951 0.41490179660840648 0 0.44849177016026981 0.41968599919849731 0 0.4433226365022459 0.39280274251209668 0 0.44849177016026981 0.41968599919849731 0 0.439625884597032 0.40642404903869822 0 0.43655617137350622 0.42038510460191503 0 0.44849177016026981 0.41968599919849731 0 0.439625884597032 0.40642404903869822 0 0.44849177016026981 0.41968599919849731 0 0.439625884597032 0.40642404903869822 0 0.44849177016026981 0.41968599919849731 0 0.45165089640657707 0.43611575462809582 0 0.44386952542921521 0.4295111469185629 0 0.44849177016026981 0.41968599919849731 0 0.45165089640657707 0.43611575462809582 0 0.45165089640657707 0.43611575462809582 0 0.44386952542921521 0.4295111469185629 0 0.44519082659473158 0.43782150968735878 0 0.43655617137350622 0.42038510460191503 0 0.44849177016026981 0.41968599919849731 0 0.44386952542921521 0.4295111469185629 0 0.43681876433844857 0.43497208046478802 0 0.43655617137350622 0.42038510460191503 0 0.44386952542921521 0.4295111469185629 0 0.43681876433844857 0.43497208046478802 0 0.44386952542921521 0.4295111469185629 0 0.44519082659473158 0.43782150968735878 0 0.43681876433844857 0.43497208046478802 0 0.44519082659473158 0.43782150968735878 0 0.44362096681603608 0.44566090358066651 0 0.43681876433844857 0.43497208046478802 0 0.44362096681603608 0.44566090358066651 0 0.43343701099378978 0.44857281610427868 0 0.44362096681603608 0.44566090358066651 0 0.44110505044236059 0.45564825146568327 0 0.43343701099378978 0.44857281610427868 0 0.44362096681603608 0.44566090358066651 0 0.45255374853073171 0.45216262504332899 0 0.45221828903371142 0.44335246171580328 0 0.44362096681603608 0.44566090358066651 0 0.45255374853073171 0.45216262504332899 0 0.44110505044236059 0.45564825146568327 0 0.44519082659473158 0.43782150968735878 0 0.44362096681603608 0.44566090358066651 0 0.45221828903371142 0.44335246171580328 0 0.45165089640657707 0.43611575462809582 0 0.44519082659473158 0.43782150968735878 0 0.45221828903371142 0.44335246171580328 0 0.45255374853073171 0.45216262504332899 0 0.44518446721829791 0.46873079822848901 0 0.44110505044236059 0.45564825146568327 0 0.44518446721829791 0.46873079822848901 0 0.44110505044236059 0.45564825146568327 0 0.43072905865294731 0.46311411437165317 0 0.47284597636140308 0.45611600571247141 0 0.46302896313844299 0.47272331085799019 0 0.45255374853073171 0.45216262504332899 0 0.44518446721829791 0.46873079822848901 0 0.47004991169413368 0.45193353911097589 0 0.47004991169413368 0.45193353911097589 0 0.47284597636140308 0.45611600571247141 0 0.46302896313844299 0.47272331085799019 0 0.44518446721829791 0.46873079822848901 0 0.47004991169413368 0.45193353911097589 0 0.46302896313844299 0.47272331085799019 0 0.44518446721829791 0.46873079822848901 0 0.47004991169413368 0.45193353911097589 0 0.45927084092720188 0.43580976915473651 0 0.47004991169413368 0.45193353911097589 0 0.45927084092720188 0.43580976915473651 0 0.45930684530103161 0.44617181272829648 0 0.47004991169413368 0.45193353911097589 0 0.47462076711180717 0.43403653248997731 0 0.45927084092720188 0.43580976915473651 0 0.47004991169413368 0.45193353911097589 0 0.45255374853073171 0.45216262504332899 0 0.45930684530103161 0.44617181272829648 0 0.47004991169413368 0.45193353911097589 0 0.45927084092720188 0.43580976915473651 0 0.45221828903371142 0.44335246171580328 0 0.45930684530103161 0.44617181272829648 0 0.45927084092720188 0.43580976915473651 0 0.45165089640657707 0.43611575462809582 0 0.45221828903371142 0.44335246171580328 0 0.45255374853073171 0.45216262504332899 0 0.45221828903371142 0.44335246171580328 0 0.45930684530103161 0.44617181272829648 0 0.47462076711180717 0.43403653248997731 0 0.47004991169413368 0.45193353911097589 0 0.48502495584706629 0.44181750450007778 0 0.48189680466807888 0.45106209462173341 0 0.47450081081676521 0.45331654521044668 0 0.48502495584706629 0.44181750450007778 0 0.47004991169413368 0.45193353911097589 0 0.48502495584706629 0.44181750450007778 0 0.47004991169413368 0.45193353911097589 0 0.47450081081676521 0.45331654521044668 0 0.48502495584706629 0.44181750450007778 0 0.47284597636140308 0.45611600571247141 0 0.48050552008400071 0.46757346096286262 0 0.46302896313844299 0.47272331085799019 0 0.47004991169413368 0.45193353911097589 0 0.47284597636140308 0.45611600571247141 0 0.47004991169413368 0.45193353911097589 0 0.47450081081676521 0.45331654521044668 0 0.47284597636140308 0.45611600571247141 0 0.47450081081676521 0.45331654521044668 0 0.47284597636140308 0.45611600571247141 0 0.47951191807974908 0.45654698881850991 0 0.47450081081676521 0.45331654521044668 0 0.47284597636140308 0.45611600571247141 0 0.47284597636140308 0.45611600571247141 0 0.48050552008400071 0.46757346096286262 0 0.47284597636140308 0.45611600571247141 0 0.48050552008400071 0.46757346096286262 0 0.47951191807974908 0.45654698881850991 0 0.48189680466807888 0.45106209462173341 0 0.47951191807974908 0.45654698881850991 0 0.4878104784684959 0.4546668375850359 0 0.48050552008400071 0.46757346096286262 0 0.47951191807974908 0.45654698881850991 0 0.4878104784684959 0.4546668375850359 0 0.48189680466807888 0.45106209462173341 0 0.47450081081676521 0.45331654521044668 0 0.47951191807974908 0.45654698881850991 0 0.48050552008400071 0.46757346096286262 0 0.4878104784684959 0.4546668375850359 0 0.49999999999999928 0.46182898591187349 0 0.48050552008400071 0.46757346096286262 0 0.49999999999999928 0.46182898591187349 0 0.49999999999999828 0.43170146988917901 0 0.4878104784684959 0.4546668375850359 0 0.49999999999999928 0.46182898591187349 0 0.49999999999999828 0.43170146988917901 0 0.4878104784684959 0.4546668375850359 0 0.48502495584706629 0.44181750450007778 0 0.48189680466807888 0.45106209462173341 0 0.4878104784684959 0.4546668375850359 0 0.48502495584706629 0.44181750450007778 0 0.49999999999999928 0.46182898591187349 0 0.5 0.5 0 0.49753071700976492 0.4930404390193398 0 0.5 0.5 0 0.47501141284236448 0.48698608464618232 0 0.44690499747156931 0.4999999999999995 0 0.5 0.5 0 0.49753071700976492 0.4930404390193398 0 0.47501141284236448 0.48698608464618232 0 0.49753071700976492 0.4930404390193398 0 0.48901811854688337 0.4803069499911008 0 0.47501141284236448 0.48698608464618232 0 0.49753071700976492 0.4930404390193398 0 0.48901811854688337 0.4803069499911008 0 0.48050552008400071 0.46757346096286262 0 0.49999999999999928 0.46182898591187349 0 0.48901811854688337 0.4803069499911008 0 0.49999999999999928 0.46182898591187349 0 0.49753071700976492 0.4930404390193398 0 0.48901811854688337 0.4803069499911008 0 0.48050552008400071 0.46757346096286262 0 0.48901811854688337 0.4803069499911008 0 0.48050552008400071 0.46757346096286262 0 0.46302896313844299 0.47272331085799019 0 0.48901811854688337 0.4803069499911008 0 0.47689100365292297 0.47689745161453417 0 0.47501141284236448 0.48698608464618232 0 0.48050552008400071 0.46757346096286262 0 0.47689100365292297 0.47689745161453417 0 0.46302896313844299 0.47272331085799019 0 0.48050552008400071 0.46757346096286262 0 0.48901811854688337 0.4803069499911008 0 0.47689100365292297 0.47689745161453417 0 0.47689100365292297 0.47689745161453417 0 0.47501141284236448 0.48698608464618232 0 0.46302896313844299 0.47272331085799019 0 0.47501141284236448 0.48698608464618232 0 0.45496698030500621 0.48636165542899479 0 0.44690499747156931 0.4999999999999995 0 0.47501141284236448 0.48698608464618232 0 0.45496698030500621 0.48636165542899479 0 0.46302896313844299 0.47272331085799019 0 0.45496698030500621 0.48636165542899479 0 0.46302896313844299 0.47272331085799019 0 0.46302896313844299 0.47272331085799019 0 0.43620850627812668 0.48062654530969717 0 0.44518446721829791 0.46873079822848901 0 0.46302896313844299 0.47272331085799019 0 0.43620850627812668 0.48062654530969717 0 0.45496698030500621 0.48636165542899479 0 0.46302896313844299 0.47272331085799019 0 0.43620850627812668 0.48062654530969717 0 0.45496698030500621 0.48636165542899479 0 0.44690499747156931 0.4999999999999995 0 0.43620850627812668 0.48062654530969717 0 0.45496698030500621 0.48636165542899479 0 0.44690499747156931 0.4999999999999995 0 0.42031902274246069 0.48552805734600057 0 0.41743852268843429 0.5 0 0.43620850627812668 0.48062654530969717 0 0.44690499747156931 0.4999999999999995 0 0.41743852268843429 0.5 0 0.43620850627812668 0.48062654530969717 0 0.42031902274246069 0.48552805734600057 0 0.41743852268843429 0.5 0 0.40134209412993838 0.48520307466421098 0 0.42031902274246069 0.48552805734600057 0 0.40973563488985532 0.47579104778557152 0 0.40134209412993838 0.48520307466421098 0 0.42031902274246069 0.48552805734600057 0 0.40973563488985532 0.47579104778557152 0 0.41789473538963601 0.46705380048502582 0 0.44518446721829791 0.46873079822848901 0 0.42031902274246069 0.48552805734600057 0 0.43072905865294731 0.46311411437165317 0 0.44518446721829791 0.46873079822848901 0 0.42031902274246069 0.48552805734600057 0 0.43620850627812668 0.48062654530969717 0 0.44518446721829791 0.46873079822848901 0 0.42031902274246069 0.48552805734600057 0 0.42031902274246069 0.48552805734600057 0 0.43072905865294731 0.46311411437165317 0 0.41789473538963601 0.46705380048502582 0 0.44110505044236059 0.45564825146568327 0 0.43072905865294731 0.46311411437165317 0 0.43343701099378978 0.44857281610427868 0 0.43072905865294731 0.46311411437165317 0 0.43343701099378978 0.44857281610427868 0 0.42053980660522761 0.45341513910658388 0 0.43072905865294731 0.46311411437165317 0 0.41789473538963601 0.46705380048502582 0 0.42053980660522761 0.45341513910658388 0 0.43681876433844857 0.43497208046478802 0 0.43343701099378978 0.44857281610427868 0 0.42326813014219627 0.43909650749986368 0 0.43343701099378978 0.44857281610427868 0 0.42326813014219627 0.43909650749986368 0 0.42053980660522761 0.45341513910658388 0 0.41248490446316177 0.43293377153942381 0 0.42326813014219627 0.43909650749986368 0 0.41215324011006321 0.44426916471351768 0 0.42326813014219627 0.43909650749986368 0 0.41215324011006321 0.44426916471351768 0 0.42053980660522761 0.45341513910658388 0 0.41215324011006321 0.44426916471351768 0 0.42053980660522761 0.45341513910658388 0 0.40575666434273311 0.45838443146516472 0 0.41248490446316177 0.43293377153942381 0 0.41215324011006321 0.44426916471351768 0 0.39942544658573009 0.43872588670818857 0 0.40973563488985532 0.47579104778557152 0 0.41789473538963601 0.46705380048502582 0 0.40575666434273311 0.45838443146516472 0 0.41789473538963601 0.46705380048502582 0 0.42053980660522761 0.45341513910658388 0 0.40575666434273311 0.45838443146516472 0 0.40973563488985532 0.47579104778557152 0 0.40575666434273311 0.45838443146516472 0 0.39457326129307041 0.46924519202038539 0 0.40575666434273311 0.45838443146516472 0 0.38748492612950952 0.44892285829301931 0 0.39457326129307041 0.46924519202038539 0 0.40575666434273311 0.45838443146516472 0 0.39942544658573009 0.43872588670818857 0 0.38748492612950952 0.44892285829301931 0 0.3889231515195431 0.43141286456833011 0 0.39942544658573009 0.43872588670818857 0 0.38748492612950952 0.44892285829301931 0 0.41215324011006321 0.44426916471351768 0 0.40575666434273311 0.45838443146516472 0 0.39942544658573009 0.43872588670818857 0 0.36980735363827261 0.46050290225189661 0 0.36959298495063608 0.43610817863788948 0 0.38748492612950952 0.44892285829301931 0 0.36959298495063608 0.43610817863788948 0 0.3889231515195431 0.43141286456833011 0 0.38748492612950952 0.44892285829301931 0 0.36980735363827261 0.46050290225189661 0 0.38748492612950952 0.44892285829301931 0 0.39457326129307041 0.46924519202038539 0 0.36980735363827261 0.46050290225189661 0 0.37801407526051067 0.48065415083330842 0 0.39457326129307041 0.46924519202038539 0 0.37801407526051067 0.48065415083330842 0 0.38797204790529932 0.5 0 0.40134209412993838 0.48520307466421098 0 0.41743852268843429 0.5 0 0.38797204790529932 0.5 0 0.40134209412993838 0.48520307466421098 0 0.40973563488985532 0.47579104778557152 0 0.40134209412993838 0.48520307466421098 0 0.39457326129307041 0.46924519202038539 0 0.37801407526051067 0.48065415083330842 0 0.40134209412993838 0.48520307466421098 0 0.39457326129307041 0.46924519202038539 0 0.33471388977496319 0.083869725553476451 0 0.32003772732572838 0.080925826065863432 0 0.34163206045391592 0.099703108374672819 0 0.32003772732572838 0.080925826065863432 0 0.34163206045391592 0.099703108374672819 0 0.33471388977496319 0.083869725553476451 0 0.34163206045391592 0.099703108374672819 0 0.35085433501378249 0.086695181415402722 0 0.33471388977496319 0.083869725553476451 0 0.34209731100959018 0.06531632876058778 0 0.3490795063897344 0.076610282135673974 0 0.33471388977496319 0.083869725553476451 0 0.34209731100959018 0.06531632876058778 0 0.32721969837032222 0.069259436753723466 0 0.33471388977496319 0.083869725553476451 0 0.32721969837032222 0.069259436753723466 0 0.32003772732572838 0.080925826065863432 0 0.31518448171420999 0.065085558788002928 0 0.32721969837032222 0.069259436753723466 0 0.32003772732572838 0.080925826065863432 0 0.32003772732572838 0.080925826065863432 0 0.31657863646219547 0.093324099257994786 0 0.34163206045391592 0.099703108374672819 0 0.32003772732572838 0.080925826065863432 0 0.31657863646219547 0.093324099257994786 0 0.30227411453462139 0.089652133027170247 0 0.33471388977496319 0.083869725553476451 0 0.32003772732572838 0.080925826065863432 0 0.31657863646219547 0.093324099257994786 0 0.32025759602694659 0.1047776340902011 0 0.34163206045391592 0.099703108374672819 0 0.31657863646219547 0.093324099257994786 0 0.32025759602694659 0.1047776340902011 0 0.30640852481201453 0.1024735992044304 0 0.32025759602694659 0.1047776340902011 0 0.31114536757858358 0.11742006929579971 0 0.30640852481201453 0.1024735992044304 0 0.32606950933900308 0.1158177097477945 0 0.31114536757858358 0.11742006929579971 0 0.3195478300457561 0.1332621056988223 0 0.32025759602694659 0.1047776340902011 0 0.32606950933900308 0.1158177097477945 0 0.31114536757858358 0.11742006929579971 0 0.33761965874988609 0.1186889285033586 0 0.34163206045391592 0.099703108374672819 0 0.34956654336434939 0.1234914401014125 0 0.32606950933900308 0.1158177097477945 0 0.33761965874988609 0.1186889285033586 0 0.34163206045391592 0.099703108374672819 0 0.32606950933900308 0.1158177097477945 0 0.33761965874988609 0.1186889285033586 0 0.33436770153514289 0.13112975471366969 0 0.33761965874988609 0.1186889285033586 0 0.34956654336434939 0.1234914401014125 0 0.33436770153514289 0.13112975471366969 0 0.32025759602694659 0.1047776340902011 0 0.32606950933900308 0.1158177097477945 0 0.34163206045391592 0.099703108374672819 0 0.34163206045391592 0.099703108374672819 0 0.35755874922647762 0.098360434014750309 0 0.36322639358210312 0.11848039068348271 0 0.34163206045391592 0.099703108374672819 0 0.36322639358210312 0.11848039068348271 0 0.34163206045391592 0.099703108374672819 0 0.35755874922647762 0.098360434014750309 0 0.35085433501378249 0.086695181415402722 0 0.34163206045391592 0.099703108374672819 0 0.34956654336434939 0.1234914401014125 0 0.36322639358210312 0.11848039068348271 0 0.36322639358210312 0.11848039068348271 0 0.37045299287494049 0.09679375479102828 0 0.38005682511468147 0.12140739343396729 0 0.35755874922647762 0.098360434014750309 0 0.36322639358210312 0.11848039068348271 0 0.37045299287494049 0.09679375479102828 0 0.35755874922647762 0.098360434014750309 0 0.37045299287494049 0.09679375479102828 0 0.35979627253246887 0.087956112087811941 0 0.37045299287494049 0.09679375479102828 0 0.36986657419494789 0.075759843690150083 0 0.37682589963749002 0.081332762740894418 0 0.37045299287494049 0.09679375479102828 0 0.35979627253246887 0.087956112087811941 0 0.36084916063519962 0.072180116148089279 0 0.37045299287494049 0.09679375479102828 0 0.36084916063519962 0.072180116148089279 0 0.36986657419494789 0.075759843690150083 0 0.37045299287494049 0.09679375479102828 0 0.36084916063519962 0.072180116148089279 0 0.35755874922647762 0.098360434014750309 0 0.35979627253246887 0.087956112087811941 0 0.35085433501378249 0.086695181415402722 0 0.35979627253246887 0.087956112087811941 0 0.35560274156159061 0.081403828627082772 0 0.36084916063519962 0.072180116148089279 0 0.33471388977496319 0.083869725553476451 0 0.35085433501378249 0.086695181415402722 0 0.3490795063897344 0.076610282135673974 0 0.35979627253246887 0.087956112087811941 0 0.35560274156159061 0.081403828627082772 0 0.35085433501378249 0.086695181415402722 0 0.35560274156159061 0.081403828627082772 0 0.35085433501378249 0.086695181415402722 0 0.3490795063897344 0.076610282135673974 0 0.34209731100959018 0.06531632876058778 0 0.3490795063897344 0.076610282135673974 0 0.36084916063519962 0.072180116148089279 0 0.36448270712015302 0.068442951443566186 0 0.36084916063519962 0.072180116148089279 0 0.35124532839545858 0.047566477505150237 0 0.35560274156159061 0.081403828627082772 0 0.3490795063897344 0.076610282135673974 0 0.36084916063519962 0.072180116148089279 0 0.36448270712015302 0.068442951443566186 0 0.36084916063519962 0.072180116148089279 0 0.36986657419494789 0.075759843690150083 0 0.36986657419494789 0.075759843690150083 0 0.37596532967213542 0.069868995675824025 0 0.37682589963749002 0.081332762740894418 0 0.36448270712015302 0.068442951443566186 0 0.36986657419494789 0.075759843690150083 0 0.37084641292541748 0.06878424193773866 0 0.36986657419494789 0.075759843690150083 0 0.37084641292541748 0.06878424193773866 0 0.37596532967213542 0.069868995675824025 0 0.36448270712015302 0.068442951443566186 0 0.37084641292541748 0.06878424193773866 0 0.37307104071443398 0.061065176941414383 0 0.37084641292541748 0.06878424193773866 0 0.37307104071443398 0.061065176941414383 0 0.37596532967213542 0.069868995675824025 0 0.36448270712015302 0.068442951443566186 0 0.37307104071443398 0.061065176941414383 0 0.37146335928247548 0.04052602251159599 0 0.36448270712015302 0.068442951443566186 0 0.37146335928247548 0.04052602251159599 0 0.35124532839545858 0.047566477505150237 0 0.36448270712015302 0.068442951443566186 0 0.37146335928247548 0.04052602251159599 0 0.37146335928247548 0.04052602251159599 0 0.35572529983931911 0.032753521421585163 0 0.36312657459820519 0.022962182453169309 0 0.37146335928247548 0.04052602251159599 0 0.35572529983931911 0.032753521421585163 0 0.35124532839545858 0.047566477505150237 0 0.35572529983931911 0.032753521421585163 0 0.35124532839545858 0.047566477505150237 0 0.3321968515854315 0.028027004478648001 0 0.36084916063519962 0.072180116148089279 0 0.35124532839545858 0.047566477505150237 0 0.34209731100959018 0.06531632876058778 0 0.36084916063519962 0.072180116148089279 0 0.35124532839545858 0.047566477505150237 0 0.36312657459820519 0.022962182453169309 0 0.35936362748920009 0.0091271431172253586 0 0.37844401144479839 0.012609093579625891 0 0.35936362748920009 0.0091271431172253586 0 0.37844401144479839 0.012609093579625891 0 0.36665723294200347 -0.001883505129568449 0 0.35936362748920009 0.0091271431172253586 0 0.36665723294200347 -0.001883505129568449 0 0.35531676971978082 -0.0033532784323768001 0 0.37146335928247548 0.04052602251159599 0 0.36312657459820519 0.022962182453169309 0 0.37844401144479839 0.012609093579625891 0 0.37146335928247548 0.04052602251159599 0 0.37844401144479839 0.012609093579625891 0 0.35572529983931911 0.032753521421585163 0 0.35063657493523293 0.0197951316358141 0 0.3321968515854315 0.028027004478648001 0 0.35572529983931911 0.032753521421585163 0 0.36312657459820519 0.022962182453169309 0 0.35063657493523293 0.0197951316358141 0 0.36312657459820519 0.022962182453169309 0 0.35063657493523293 0.0197951316358141 0 0.35936362748920009 0.0091271431172253586 0 0.35936362748920009 0.0091271431172253586 0 0.33689267375143878 0.0039255003288513873 0 0.35531676971978082 -0.0033532784323768001 0 0.35063657493523293 0.0197951316358141 0 0.35936362748920009 0.0091271431172253586 0 0.33689267375143878 0.0039255003288513873 0 0.33689267375143878 0.0039255003288513873 0 0.3321968515854315 0.028027004478648001 0 0.30352242257352219 0.0039185454548519476 0 0.35063657493523293 0.0197951316358141 0 0.33689267375143878 0.0039255003288513873 0 0.3321968515854315 0.028027004478648001 0 0.3321968515854315 0.028027004478648001 0 0.32406508202711942 0.05109974460068676 0 0.30086563814790429 0.035038583275740692 0 0.34209731100959018 0.06531632876058778 0 0.32721969837032222 0.069259436753723466 0 0.32406508202711942 0.05109974460068676 0 0.34209731100959018 0.06531632876058778 0 0.35124532839545858 0.047566477505150237 0 0.32406508202711942 0.05109974460068676 0 0.35124532839545858 0.047566477505150237 0 0.3321968515854315 0.028027004478648001 0 0.32406508202711942 0.05109974460068676 0 0.31518448171420999 0.065085558788002928 0 0.32721969837032222 0.069259436753723466 0 0.32406508202711942 0.05109974460068676 0 0.31518448171420999 0.065085558788002928 0 0.32406508202711942 0.05109974460068676 0 0.29882370077581188 0.062479238108283437 0 0.32406508202711942 0.05109974460068676 0 0.29882370077581188 0.062479238108283437 0 0.30086563814790429 0.035038583275740692 0 0.32406508202711942 0.05109974460068676 0 0.30086563814790429 0.035038583275740692 0 0.30086563814790429 0.035038583275740692 0 0.28350496565293731 0.043820562147367653 0 0.27766619426868899 0.018977421950794569 0 0.29882370077581188 0.062479238108283437 0 0.30086563814790429 0.035038583275740692 0 0.28350496565293731 0.043820562147367653 0 0.29882370077581188 0.062479238108283437 0 0.28350496565293731 0.043820562147367653 0 0.28339325744793759 0.061338593161917712 0 0.3321968515854315 0.028027004478648001 0 0.30086563814790429 0.035038583275740692 0 0.30352242257352219 0.0039185454548519476 0 0.30086563814790429 0.035038583275740692 0 0.27766619426868899 0.018977421950794569 0 0.30086563814790429 0.035038583275740692 0 0.30352242257352219 0.0039185454548519476 0 0.27766619426868899 0.018977421950794569 0 0.30352242257352219 0.0039185454548519476 0 0.27766619426868899 0.018977421950794569 0 0.27708695819087842 -0.0025378708656911609 0 0.27766619426868899 0.018977421950794569 0 0.25446675038947358 0.0029162606258486688 0 0.27766619426868899 0.018977421950794569 0 0.26047117107291767 -0.0019720443344692288 0 0.27708695819087842 -0.0025378708656911609 0 0.27766619426868899 0.018977421950794569 0 0.2600935707136679 0.019574361616358959 0 0.26464981823601458 0.038183209123269009 0 0.2600935707136679 0.019574361616358959 0 0.26464981823601458 0.038183209123269009 0 0.25044211127373811 0.032849993626191502 0 0.27766619426868899 0.018977421950794569 0 0.2600935707136679 0.019574361616358959 0 0.25446675038947358 0.0029162606258486688 0 0.27766619426868899 0.018977421950794569 0 0.25446675038947358 0.0029162606258486688 0 0.26047117107291767 -0.0019720443344692288 0 0.25446675038947358 0.0029162606258486688 0 0.26047117107291767 -0.0019720443344692288 0 0.28339325744793759 0.061338593161917712 0 0.2699795556074106 0.054659435659755229 0 0.26514968559830832 0.069915803624621298 0 0.28350496565293731 0.043820562147367653 0 0.28339325744793759 0.061338593161917712 0 0.2699795556074106 0.054659435659755229 0 0.28350496565293731 0.043820562147367653 0 0.27766619426868899 0.018977421950794569 0 0.26464981823601458 0.038183209123269009 0 0.28350496565293731 0.043820562147367653 0 0.2699795556074106 0.054659435659755229 0 0.26464981823601458 0.038183209123269009 0 0.26464981823601458 0.038183209123269009 0 0.25174039047255609 0.044464402284776217 0 0.2585751734657834 0.052327775232976027 0 0.26464981823601458 0.038183209123269009 0 0.25044211127373811 0.032849993626191502 0 0.25174039047255609 0.044464402284776217 0 0.25174039047255609 0.044464402284776217 0 0.25102243244437311 0.053297338652025752 0 0.2585751734657834 0.052327775232976027 0 0.2699795556074106 0.054659435659755229 0 0.26464981823601458 0.038183209123269009 0 0.2585751734657834 0.052327775232976027 0 0.2699795556074106 0.054659435659755229 0 0.2585751734657834 0.052327775232976027 0 0.26000268679747079 0.061003988239662958 0 0.2699795556074106 0.054659435659755229 0 0.26000268679747079 0.061003988239662958 0 0.26514968559830832 0.069915803624621298 0 0.2585751734657834 0.052327775232976027 0 0.26000268679747079 0.061003988239662958 0 0.2530174900015254 0.0600809219264858 0 0.25102243244437311 0.053297338652025752 0 0.2585751734657834 0.052327775232976027 0 0.2530174900015254 0.0600809219264858 0 0.24751669685985911 0.059618880130872708 0 0.25102243244437311 0.053297338652025752 0 0.2530174900015254 0.0600809219264858 0 0.24853219730195361 0.063845178725116872 0 0.2530174900015254 0.0600809219264858 0 0.25274476311700622 0.067427493409812952 0 0.2530174900015254 0.0600809219264858 0 0.25274476311700622 0.067427493409812952 0 0.26000268679747079 0.061003988239662958 0 0.2530174900015254 0.0600809219264858 0 0.25274476311700622 0.067427493409812952 0 0.25274476311700622 0.067427493409812952 0 0.25243039498113262 0.075895774732197205 0 0.24842415088314279 0.069033451464499671 0 0.25274476311700622 0.067427493409812952 0 0.25243039498113262 0.075895774732197205 0 0.25274476311700622 0.067427493409812952 0 0.25243039498113262 0.075895774732197205 0 0.26514968559830832 0.069915803624621298 0 0.25243039498113262 0.075895774732197205 0 0.26514968559830832 0.069915803624621298 0 0.26417250328098718 0.085299079350852347 0 0.25243039498113262 0.075895774732197205 0 0.26514968559830832 0.069915803624621298 0 0.26000268679747079 0.061003988239662958 0 0.25274476311700622 0.067427493409812952 0 0.26514968559830832 0.069915803624621298 0 0.25274476311700622 0.067427493409812952 0 0.26514968559830832 0.069915803624621298 0 0.25243039498113262 0.075895774732197205 0 0.26417250328098718 0.085299079350852347 0 0.25158482098595109 0.098673396421397969 0 0.25243039498113262 0.075895774732197205 0 0.25158482098595109 0.098673396421397969 0 0.26417250328098718 0.085299079350852347 0 0.27563544099652842 0.091217529053328833 0 0.26597619666038957 0.098681263799979324 0 0.26417250328098718 0.085299079350852347 0 0.27658940398852799 0.081360569412953818 0 0.27563544099652842 0.091217529053328833 0 0.26514968559830832 0.069915803624621298 0 0.26417250328098718 0.085299079350852347 0 0.27658940398852799 0.081360569412953818 0 0.27658940398852799 0.081360569412953818 0 0.27563544099652842 0.091217529053328833 0 0.28742128170162778 0.087331448045782731 0 0.28339325744793759 0.061338593161917712 0 0.26514968559830832 0.069915803624621298 0 0.29259370646201821 0.075420814845242989 0 0.26514968559830832 0.069915803624621298 0 0.27658940398852799 0.081360569412953818 0 0.29259370646201821 0.075420814845242989 0 0.28339325744793759 0.061338593161917712 0 0.26514968559830832 0.069915803624621298 0 0.26514968559830832 0.069915803624621298 0 0.29259370646201821 0.075420814845242989 0 0.29882370077581188 0.062479238108283437 0 0.28339325744793759 0.061338593161917712 0 0.29259370646201821 0.075420814845242989 0 0.27658940398852799 0.081360569412953818 0 0.29259370646201821 0.075420814845242989 0 0.28742128170162778 0.087331448045782731 0 0.27563544099652842 0.091217529053328833 0 0.28742128170162778 0.087331448045782731 0 0.29001374252644291 0.099006193890217781 0 0.28742128170162778 0.087331448045782731 0 0.30227411453462139 0.089652133027170247 0 0.29001374252644291 0.099006193890217781 0 0.29259370646201821 0.075420814845242989 0 0.28742128170162778 0.087331448045782731 0 0.30227411453462139 0.089652133027170247 0 0.32003772732572838 0.080925826065863432 0 0.29259370646201821 0.075420814845242989 0 0.30227411453462139 0.089652133027170247 0 0.32003772732572838 0.080925826065863432 0 0.29259370646201821 0.075420814845242989 0 0.32003772732572838 0.080925826065863432 0 0.29882370077581188 0.062479238108283437 0 0.29259370646201821 0.075420814845242989 0 0.32003772732572838 0.080925826065863432 0 0.29882370077581188 0.062479238108283437 0 0.31518448171420999 0.065085558788002928 0 0.32003772732572838 0.080925826065863432 0 0.29882370077581188 0.062479238108283437 0 0.29818169174329712 0.11066146566519899 0 0.31114536757858358 0.11742006929579971 0 0.294250496481684 0.12267566802032639 0 0.31114536757858358 0.11742006929579971 0 0.294250496481684 0.12267566802032639 0 0.30313841955192899 0.13260249050964579 0 0.29818169174329712 0.11066146566519899 0 0.31114536757858358 0.11742006929579971 0 0.30640852481201453 0.1024735992044304 0 0.30227411453462139 0.089652133027170247 0 0.30640852481201453 0.1024735992044304 0 0.29001374252644291 0.099006193890217781 0 0.29818169174329712 0.11066146566519899 0 0.30640852481201453 0.1024735992044304 0 0.29001374252644291 0.099006193890217781 0 0.31657863646219547 0.093324099257994786 0 0.30227411453462139 0.089652133027170247 0 0.30640852481201453 0.1024735992044304 0 0.29818169174329712 0.11066146566519899 0 0.29001374252644291 0.099006193890217781 0 0.28729541733308872 0.1128284558108848 0 0.29001374252644291 0.099006193890217781 0 0.28729541733308872 0.1128284558108848 0 0.27577858748266387 0.1072301355245756 0 0.29818169174329712 0.11066146566519899 0 0.28729541733308872 0.1128284558108848 0 0.294250496481684 0.12267566802032639 0 0.28729541733308872 0.1128284558108848 0 0.294250496481684 0.12267566802032639 0 0.28067449336876182 0.1220521091494646 0 0.28067449336876182 0.1220521091494646 0 0.26956705708048567 0.1198361090660386 0 0.27577858748266387 0.1072301355245756 0 0.28729541733308872 0.1128284558108848 0 0.28067449336876182 0.1220521091494646 0 0.27577858748266387 0.1072301355245756 0 0.26956705708048567 0.1198361090660386 0 0.27577858748266387 0.1072301355245756 0 0.26270963055581759 0.11098617864974181 0 0.27563544099652842 0.091217529053328833 0 0.27577858748266387 0.1072301355245756 0 0.26597619666038957 0.098681263799979324 0 0.27563544099652842 0.091217529053328833 0 0.29001374252644291 0.099006193890217781 0 0.27577858748266387 0.1072301355245756 0 0.27577858748266387 0.1072301355245756 0 0.26597619666038957 0.098681263799979324 0 0.26270963055581759 0.11098617864974181 0 0.25158482098595109 0.098673396421397969 0 0.25094552198087999 0.11589449234768209 0 0.25158482098595109 0.098673396421397969 0 0.26270963055581759 0.11098617864974181 0 0.25094552198087999 0.11589449234768209 0 0.26417250328098718 0.085299079350852347 0 0.26597619666038957 0.098681263799979324 0 0.25158482098595109 0.098673396421397969 0 0.26597619666038957 0.098681263799979324 0 0.25158482098595109 0.098673396421397969 0 0.26270963055581759 0.11098617864974181 0 0.25158482098595109 0.098673396421397969 0 0.26270963055581759 0.11098617864974181 0 0.25094552198087999 0.11589449234768209 0 0.25030622297580962 0.13311558827396619 0 0.26022612795132161 0.12333036834530881 0 0.25094552198087999 0.11589449234768209 0 0.25030622297580962 0.13311558827396619 0 0.26956705708048567 0.1198361090660386 0 0.26022612795132161 0.12333036834530881 0 0.26270963055581759 0.11098617864974181 0 0.26022612795132161 0.12333036834530881 0 0.26270963055581759 0.11098617864974181 0 0.25094552198087999 0.11589449234768209 0 0.26956705708048567 0.1198361090660386 0 0.26022612795132161 0.12333036834530881 0 0.26675796828336718 0.1380571931171293 0 0.26022612795132161 0.12333036834530881 0 0.25030622297580962 0.13311558827396619 0 0.26675796828336718 0.1380571931171293 0 0.25030622297580962 0.13311558827396619 0 0.26675796828336718 0.1380571931171293 0 0.25030622297580962 0.13311558827396619 0 0.26675796828336718 0.1380571931171293 0 0.25638724149227848 0.14295410589973731 0 0.25004344172447263 0.14019424959050239 0 0.25030622297580962 0.13311558827396619 0 0.25638724149227848 0.14295410589973731 0 0.25004344172447263 0.14019424959050239 0 0.25030622297580962 0.13311558827396619 0 0.26675796828336718 0.1380571931171293 0 0.28320971359092417 0.1429987979602943 0 0.26675796828336718 0.1380571931171293 0 0.28666270206708028 0.1324408374186071 0 0.28320971359092417 0.1429987979602943 0 0.28067449336876182 0.1220521091494646 0 0.26956705708048567 0.1198361090660386 0 0.26675796828336718 0.1380571931171293 0 0.28067449336876182 0.1220521091494646 0 0.26675796828336718 0.1380571931171293 0 0.28666270206708028 0.1324408374186071 0 0.26675796828336718 0.1380571931171293 0 0.27436529468354132 0.15433220537778311 0 0.26010861073109098 0.15248373785575309 0 0.26675796828336718 0.1380571931171293 0 0.27436529468354132 0.15433220537778311 0 0.28320971359092417 0.1429987979602943 0 0.26675796828336718 0.1380571931171293 0 0.26010861073109098 0.15248373785575309 0 0.25638724149227848 0.14295410589973731 0 0.2496536413094039 0.15044712256699261 0 0.25004344172447263 0.14019424959050239 0 0.25638724149227848 0.14295410589973731 0 0.24653130607993951 0.16237692388552691 0 0.2496536413094039 0.15044712256699261 0 0.26010861073109098 0.15248373785575309 0 0.2496536413094039 0.15044712256699261 0 0.26010861073109098 0.15248373785575309 0 0.25638724149227848 0.14295410589973731 0 0.24653130607993951 0.16237692388552691 0 0.25292738168467233 0.17649485219682931 0 0.26638423851283249 0.16867758561061549 0 0.24653130607993951 0.16237692388552691 0 0.26010861073109098 0.15248373785575309 0 0.26638423851283249 0.16867758561061549 0 0.24528107816237801 0.1907036486386274 0 0.25292738168467233 0.17649485219682931 0 0.26633433714882182 0.18577592949096661 0 0.25292738168467233 0.17649485219682931 0 0.26633433714882182 0.18577592949096661 0 0.26638423851283249 0.16867758561061549 0 0.27723266788850742 0.181048228772968 0 0.26638423851283249 0.16867758561061549 0 0.28391425324491287 0.17071999404263091 0 0.26633433714882182 0.18577592949096661 0 0.27723266788850742 0.181048228772968 0 0.26638423851283249 0.16867758561061549 0 0.27436529468354132 0.15433220537778311 0 0.26010861073109098 0.15248373785575309 0 0.26638423851283249 0.16867758561061549 0 0.27436529468354132 0.15433220537778311 0 0.26638423851283249 0.16867758561061549 0 0.28391425324491287 0.17071999404263091 0 0.27436529468354132 0.15433220537778311 0 0.28391425324491287 0.17071999404263091 0 0.29097703849613438 0.15773848939083679 0 0.28391425324491287 0.17071999404263091 0 0.2931647794093819 0.16879209887591959 0 0.29097703849613438 0.15773848939083679 0 0.2931647794093819 0.16879209887591959 0 0.29097703849613438 0.15773848939083679 0 0.30040947706207388 0.16512632217721829 0 0.28391425324491287 0.17071999404263091 0 0.28743664533084129 0.187357279865842 0 0.29743995151898561 0.17866098634217961 0 0.27723266788850742 0.181048228772968 0 0.28391425324491287 0.17071999404263091 0 0.28743664533084129 0.187357279865842 0 0.28391425324491287 0.17071999404263091 0 0.2931647794093819 0.16879209887591959 0 0.29743995151898561 0.17866098634217961 0 0.28743664533084129 0.187357279865842 0 0.29743995151898561 0.17866098634217961 0 0.29971043857951379 0.19298806906372529 0 0.29743995151898561 0.17866098634217961 0 0.30929675685570829 0.1858318568065235 0 0.29971043857951379 0.19298806906372529 0 0.29743995151898561 0.17866098634217961 0 0.3101655001798202 0.17563615506282959 0 0.30040947706207388 0.16512632217721829 0 0.29743995151898561 0.17866098634217961 0 0.3101655001798202 0.17563615506282959 0 0.30929675685570829 0.1858318568065235 0 0.30040947706207388 0.16512632217721829 0 0.30453528129870422 0.15487579661148021 0 0.32848741365188411 0.1727716232507491 0 0.29097703849613438 0.15773848939083679 0 0.30040947706207388 0.16512632217721829 0 0.30453528129870422 0.15487579661148021 0 0.2931647794093819 0.16879209887591959 0 0.29743995151898561 0.17866098634217961 0 0.30040947706207388 0.16512632217721829 0 0.29097703849613438 0.15773848939083679 0 0.30453528129870422 0.15487579661148021 0 0.29618567382365713 0.14404403195872001 0 0.30453528129870422 0.15487579661148021 0 0.30873747279203018 0.14281046260302349 0 0.29618567382365713 0.14404403195872001 0 0.30453528129870422 0.15487579661148021 0 0.30873747279203018 0.14281046260302349 0 0.32007589174333823 0.14676000458717811 0 0.30873747279203018 0.14281046260302349 0 0.30313841955192899 0.13260249050964579 0 0.3195478300457561 0.1332621056988223 0 0.31114536757858358 0.11742006929579971 0 0.30313841955192899 0.13260249050964579 0 0.3195478300457561 0.1332621056988223 0 0.30873747279203018 0.14281046260302349 0 0.30313841955192899 0.13260249050964579 0 0.29618567382365713 0.14404403195872001 0 0.294250496481684 0.12267566802032639 0 0.30313841955192899 0.13260249050964579 0 0.28666270206708028 0.1324408374186071 0 0.30313841955192899 0.13260249050964579 0 0.28666270206708028 0.1324408374186071 0 0.29618567382365713 0.14404403195872001 0 0.294250496481684 0.12267566802032639 0 0.28067449336876182 0.1220521091494646 0 0.28666270206708028 0.1324408374186071 0 0.28666270206708028 0.1324408374186071 0 0.28320971359092417 0.1429987979602943 0 0.29618567382365713 0.14404403195872001 0 0.27436529468354132 0.15433220537778311 0 0.29097703849613438 0.15773848939083679 0 0.28320971359092417 0.1429987979602943 0 0.29097703849613438 0.15773848939083679 0 0.28320971359092417 0.1429987979602943 0 0.29618567382365713 0.14404403195872001 0 0.28119448123381058 0.25405304303149878 0 0.26221447651104962 0.2479993693513689 0 0.28440499104296979 0.23439140090611099 0 0.26221447651104962 0.2479993693513689 0 0.26853130556434218 0.23400660741274959 0 0.28440499104296979 0.23439140090611099 0 0.26221447651104962 0.2479993693513689 0 0.28440499104296979 0.23439140090611099 0 0.2457442494512444 0.24022391879071339 0 0.26221447651104962 0.2479993693513689 0 0.25511338863332461 0.22468137717712711 0 0.26221447651104962 0.2479993693513689 0 0.25511338863332461 0.22468137717712711 0 0.26853130556434218 0.23400660741274959 0 0.26221447651104962 0.2479993693513689 0 0.25511338863332461 0.22468137717712711 0 0.25511338863332461 0.22468137717712711 0 0.25242827713160498 0.21540237912569379 0 0.25511338863332461 0.22468137717712711 0 0.2794126892910288 0.21617120911671081 0 0.25511338863332461 0.22468137717712711 0 0.26853130556434218 0.23400660741274959 0 0.2794126892910288 0.21617120911671081 0 0.26853130556434218 0.23400660741274959 0 0.2794126892910288 0.21617120911671081 0 0.28440499104296979 0.23439140090611099 0 0.25511338863332461 0.22468137717712711 0 0.2794126892910288 0.21617120911671081 0 0.26644318031571418 0.20408753099865831 0 0.2794126892910288 0.21617120911671081 0 0.26644318031571418 0.20408753099865831 0 0.27722953884408802 0.19656269719262509 0 0.24528107816237801 0.1907036486386274 0 0.26644318031571418 0.20408753099865831 0 0.25242827713160498 0.21540237912569379 0 0.25511338863332461 0.22468137717712711 0 0.26644318031571418 0.20408753099865831 0 0.25242827713160498 0.21540237912569379 0 0.26644318031571418 0.20408753099865831 0 0.25242827713160498 0.21540237912569379 0 0.24528107816237801 0.1907036486386274 0 0.26633433714882182 0.18577592949096661 0 0.26644318031571418 0.20408753099865831 0 0.26633433714882182 0.18577592949096661 0 0.26644318031571418 0.20408753099865831 0 0.27722953884408802 0.19656269719262509 0 0.27723266788850742 0.181048228772968 0 0.28743664533084129 0.187357279865842 0 0.27722953884408802 0.19656269719262509 0 0.26633433714882182 0.18577592949096661 0 0.27723266788850742 0.181048228772968 0 0.27722953884408802 0.19656269719262509 0 0.28743664533084129 0.187357279865842 0 0.27722953884408802 0.19656269719262509 0 0.28939512316467059 0.2005252056429343 0 0.28743664533084129 0.187357279865842 0 0.28939512316467059 0.2005252056429343 0 0.29971043857951379 0.19298806906372529 0 0.30929675685570829 0.1858318568065235 0 0.29971043857951379 0.19298806906372529 0 0.31162694501442678 0.19735313208654229 0 0.29971043857951379 0.19298806906372529 0 0.31162694501442678 0.19735313208654229 0 0.30371198994873311 0.20766104105629449 0 0.28939512316467059 0.2005252056429343 0 0.29971043857951379 0.19298806906372529 0 0.30371198994873311 0.20766104105629449 0 0.2794126892910288 0.21617120911671081 0 0.30371198994873311 0.20766104105629449 0 0.2794126892910288 0.21617120911671081 0 0.30371198994873311 0.20766104105629449 0 0.30659550557489001 0.220783432460853 0 0.2794126892910288 0.21617120911671081 0 0.27722953884408802 0.19656269719262509 0 0.28939512316467059 0.2005252056429343 0 0.2794126892910288 0.21617120911671081 0 0.28939512316467059 0.2005252056429343 0 0.30371198994873311 0.20766104105629449 0 0.30659550557489001 0.220783432460853 0 0.28440499104296979 0.23439140090611099 0 0.2794126892910288 0.21617120911671081 0 0.30659550557489001 0.220783432460853 0 0.28440499104296979 0.23439140090611099 0 0.30659550557489001 0.220783432460853 0 0.30328699804120918 0.24394477185791469 0 0.28440499104296979 0.23439140090611099 0 0.30659550557489001 0.220783432460853 0 0.30328699804120918 0.24394477185791469 0 0.31607427666693672 0.2331905299380852 0 0.28119448123381058 0.25405304303149878 0 0.30328699804120918 0.24394477185791469 0 0.28440499104296979 0.23439140090611099 0 0.3433555784436142 0.25004320974280247 0 0.34183468199228573 0.23727684870966961 0 0.33092809789354199 0.24744869965648561 0 0.34183468199228573 0.23727684870966961 0 0.3288410404878227 0.2348757256337824 0 0.33092809789354199 0.24744869965648561 0 0.3288410404878227 0.2348757256337824 0 0.33092809789354199 0.24744869965648561 0 0.31845456220733243 0.24449663650262579 0 0.31879452400631653 0.25919465198291952 0 0.30328699804120918 0.24394477185791469 0 0.31845456220733243 0.24449663650262579 0 0.30328699804120918 0.24394477185791469 0 0.31845456220733243 0.24449663650262579 0 0.31607427666693672 0.2331905299380852 0 0.3288410404878227 0.2348757256337824 0 0.31845456220733243 0.24449663650262579 0 0.31607427666693672 0.2331905299380852 0 0.3288410404878227 0.2348757256337824 0 0.31607427666693672 0.2331905299380852 0 0.32372534117020862 0.22390137225637691 0 0.30659550557489001 0.220783432460853 0 0.31607427666693672 0.2331905299380852 0 0.32372534117020862 0.22390137225637691 0 0.3288410404878227 0.2348757256337824 0 0.32372534117020862 0.22390137225637691 0 0.33832986301458301 0.22348170923356889 0 0.34183468199228573 0.23727684870966961 0 0.3288410404878227 0.2348757256337824 0 0.33832986301458301 0.22348170923356889 0 0.32372534117020862 0.22390137225637691 0 0.33832986301458301 0.22348170923356889 0 0.32878602010681029 0.20717546401559489 0 0.33832986301458301 0.22348170923356889 0 0.32878602010681029 0.20717546401559489 0 0.35089693608391498 0.21212819010674691 0 0.32878602010681029 0.20717546401559489 0 0.35097653463873058 0.19356749557033681 0 0.35089693608391498 0.21212819010674691 0 0.30659550557489001 0.220783432460853 0 0.32372534117020862 0.22390137225637691 0 0.32878602010681029 0.20717546401559489 0 0.31162694501442678 0.19735313208654229 0 0.30371198994873311 0.20766104105629449 0 0.32878602010681029 0.20717546401559489 0 0.30371198994873311 0.20766104105629449 0 0.30659550557489001 0.220783432460853 0 0.32878602010681029 0.20717546401559489 0 0.30659550557489001 0.220783432460853 0 0.32878602010681029 0.20717546401559489 0 0.32878602010681029 0.20717546401559489 0 0.31972446529152482 0.19052244909679969 0 0.3336272658304279 0.18895925974375941 0 0.31162694501442678 0.19735313208654229 0 0.32878602010681029 0.20717546401559489 0 0.31972446529152482 0.19052244909679969 0 0.30929675685570829 0.1858318568065235 0 0.31162694501442678 0.19735313208654229 0 0.31972446529152482 0.19052244909679969 0 0.32878602010681029 0.20717546401559489 0 0.3336272658304279 0.18895925974375941 0 0.35097653463873058 0.19356749557033681 0 0.32878602010681029 0.20717546401559489 0 0.35097653463873058 0.19356749557033681 0 0.3336272658304279 0.18895925974375941 0 0.35097653463873058 0.19356749557033681 0 0.35656535024169428 0.1804169243242798 0 0.35097653463873058 0.19356749557033681 0 0.35896651107905142 0.20360726904620211 0 0.35089693608391498 0.21212819010674691 0 0.35097653463873058 0.19356749557033681 0 0.36405518175537521 0.19484170215684679 0 0.35896651107905142 0.20360726904620211 0 0.35097653463873058 0.19356749557033681 0 0.36405518175537521 0.19484170215684679 0 0.35656535024169428 0.1804169243242798 0 0.36405518175537521 0.19484170215684679 0 0.35656535024169428 0.1804169243242798 0 0.38464328683150451 0.18806222539781059 0 0.36405518175537521 0.19484170215684679 0 0.36923798170140371 0.20928007436804161 0 0.38464328683150451 0.18806222539781059 0 0.36405518175537521 0.19484170215684679 0 0.36923798170140371 0.20928007436804161 0 0.35896651107905142 0.20360726904620211 0 0.36923798170140371 0.20928007436804161 0 0.36132702422268731 0.21787493872225441 0 0.35896651107905142 0.20360726904620211 0 0.36923798170140371 0.20928007436804161 0 0.36132702422268731 0.21787493872225441 0 0.37292139258550783 0.22672254500020811 0 0.36132702422268731 0.21787493872225441 0 0.35896651107905142 0.20360726904620211 0 0.35089693608391498 0.21212819010674691 0 0.34183468199228573 0.23727684870966961 0 0.33832986301458301 0.22348170923356889 0 0.35524969613090918 0.22837961108452459 0 0.36132702422268731 0.21787493872225441 0 0.35089693608391498 0.21212819010674691 0 0.35524969613090918 0.22837961108452459 0 0.33832986301458301 0.22348170923356889 0 0.35089693608391498 0.21212819010674691 0 0.35524969613090918 0.22837961108452459 0 0.36132702422268731 0.21787493872225441 0 0.35524969613090918 0.22837961108452459 0 0.37292139258550783 0.22672254500020811 0 0.35524969613090918 0.22837961108452459 0 0.37292139258550783 0.22672254500020811 0 0.36587213359177301 0.2378375665458646 0 0.37292139258550783 0.22672254500020811 0 0.36587213359177301 0.2378375665458646 0 0.3757768555661396 0.240133652284411 0 0.36587213359177301 0.2378375665458646 0 0.37169426656027921 0.24972740256563611 0 0.3757768555661396 0.240133652284411 0 0.36587213359177301 0.2378375665458646 0 0.37169426656027921 0.24972740256563611 0 0.36205361842742478 0.24882498742118489 0 0.36587213359177301 0.2378375665458646 0 0.36205361842742478 0.24882498742118489 0 0.35356337405553911 0.24205426642971811 0 0.35175757775775729 0.2532797976346674 0 0.36205361842742478 0.24882498742118489 0 0.35356337405553911 0.24205426642971811 0 0.35524969613090918 0.22837961108452459 0 0.36587213359177301 0.2378375665458646 0 0.35356337405553911 0.24205426642971811 0 0.34183468199228573 0.23727684870966961 0 0.35524969613090918 0.22837961108452459 0 0.35356337405553911 0.24205426642971811 0 0.3433555784436142 0.25004320974280247 0 0.34183468199228573 0.23727684870966961 0 0.35356337405553911 0.24205426642971811 0 0.3433555784436142 0.25004320974280247 0 0.35175757775775729 0.2532797976346674 0 0.35356337405553911 0.24205426642971811 0 0.33379856680907583 0.1437068241164389 0 0.32007589174333823 0.14676000458717811 0 0.33365817402274128 0.15789089208148979 0 0.33379856680907583 0.1437068241164389 0 0.33365817402274128 0.15789089208148979 0 0.34780073530519279 0.14835628742565241 0 0.33379856680907583 0.1437068241164389 0 0.34780073530519279 0.14835628742565241 0 0.34586764947947463 0.1362539899128139 0 0.33379856680907583 0.1437068241164389 0 0.33436770153514289 0.13112975471366969 0 0.34586764947947463 0.1362539899128139 0 0.34956654336434939 0.1234914401014125 0 0.33436770153514289 0.13112975471366969 0 0.34586764947947463 0.1362539899128139 0 0.33379856680907583 0.1437068241164389 0 0.33436770153514289 0.13112975471366969 0 0.3195478300457561 0.1332621056988223 0 0.32606950933900308 0.1158177097477945 0 0.33436770153514289 0.13112975471366969 0 0.3195478300457561 0.1332621056988223 0 0.30873747279203018 0.14281046260302349 0 0.3195478300457561 0.1332621056988223 0 0.32007589174333823 0.14676000458717811 0 0.30453528129870422 0.15487579661148021 0 0.32007589174333823 0.14676000458717811 0 0.33365817402274128 0.15789089208148979 0 0.33379856680907583 0.1437068241164389 0 0.3195478300457561 0.1332621056988223 0 0.32007589174333823 0.14676000458717811 0 0.30453528129870422 0.15487579661148021 0 0.33365817402274128 0.15789089208148979 0 0.30453528129870422 0.15487579661148021 0 0.32848741365188411 0.1727716232507491 0 0.33365817402274128 0.15789089208148979 0 0.30040947706207388 0.16512632217721829 0 0.32848741365188411 0.1727716232507491 0 0.3101655001798202 0.17563615506282959 0 0.30040947706207388 0.16512632217721829 0 0.32848741365188411 0.1727716232507491 0 0.3101655001798202 0.17563615506282959 0 0.31983557186529732 0.18171103000860481 0 0.32848741365188411 0.1727716232507491 0 0.3336272658304279 0.18895925974375941 0 0.31983557186529732 0.18171103000860481 0 0.32848741365188411 0.1727716232507491 0 0.3101655001798202 0.17563615506282959 0 0.30929675685570829 0.1858318568065235 0 0.31983557186529732 0.18171103000860481 0 0.30929675685570829 0.1858318568065235 0 0.31972446529152482 0.19052244909679969 0 0.31983557186529732 0.18171103000860481 0 0.31972446529152482 0.19052244909679969 0 0.3336272658304279 0.18895925974375941 0 0.31983557186529732 0.18171103000860481 0 0.32848741365188411 0.1727716232507491 0 0.34507730906385942 0.16855187839241309 0 0.35656535024169428 0.1804169243242798 0 0.3336272658304279 0.18895925974375941 0 0.32848741365188411 0.1727716232507491 0 0.35656535024169428 0.1804169243242798 0 0.32848741365188411 0.1727716232507491 0 0.35656535024169428 0.1804169243242798 0 0.32848741365188411 0.1727716232507491 0 0.33365817402274128 0.15789089208148979 0 0.34507730906385942 0.16855187839241309 0 0.33365817402274128 0.15789089208148979 0 0.34507730906385942 0.16855187839241309 0 0.36278106674677829 0.1609059875514994 0 0.34507730906385942 0.16855187839241309 0 0.35656535024169428 0.1804169243242798 0 0.36278106674677829 0.1609059875514994 0 0.33365817402274128 0.15789089208148979 0 0.36278106674677829 0.1609059875514994 0 0.35656535024169428 0.1804169243242798 0 0.37356219856206202 0.1741215612114578 0 0.38464328683150451 0.18806222539781059 0 0.35656535024169428 0.1804169243242798 0 0.38464328683150451 0.18806222539781059 0 0.35656535024169428 0.1804169243242798 0 0.37356219856206202 0.1741215612114578 0 0.36278106674677829 0.1609059875514994 0 0.36278106674677829 0.1609059875514994 0 0.36531512046589693 0.1378839500987098 0 0.37680076681991098 0.15092733218095339 0 0.36278106674677829 0.1609059875514994 0 0.34780073530519279 0.14835628742565241 0 0.36531512046589693 0.1378839500987098 0 0.34780073530519279 0.14835628742565241 0 0.34586764947947463 0.1362539899128139 0 0.36531512046589693 0.1378839500987098 0 0.33365817402274128 0.15789089208148979 0 0.36278106674677829 0.1609059875514994 0 0.34780073530519279 0.14835628742565241 0 0.34956654336434939 0.1234914401014125 0 0.34586764947947463 0.1362539899128139 0 0.36531512046589693 0.1378839500987098 0 0.34956654336434939 0.1234914401014125 0 0.36322639358210312 0.11848039068348271 0 0.36531512046589693 0.1378839500987098 0 0.36322639358210312 0.11848039068348271 0 0.36531512046589693 0.1378839500987098 0 0.38482072671029011 0.13725767299229241 0 0.36322639358210312 0.11848039068348271 0 0.38482072671029011 0.13725767299229241 0 0.36322639358210312 0.11848039068348271 0 0.38482072671029011 0.13725767299229241 0 0.38005682511468147 0.12140739343396729 0 0.38482072671029011 0.13725767299229241 0 0.39398634319161102 0.12556361147638159 0 0.38005682511468147 0.12140739343396729 0 0.38482072671029011 0.13725767299229241 0 0.39398634319161102 0.12556361147638159 0 0.40386822996399702 0.1370092008917044 0 0.39398634319161102 0.12556361147638159 0 0.40386822996399702 0.1370092008917044 0 0.40630256149234217 0.12337914253670321 0 0.38482072671029011 0.13725767299229241 0 0.40641505983847698 0.15603495530110209 0 0.38482072671029011 0.13725767299229241 0 0.40386822996399702 0.1370092008917044 0 0.40641505983847698 0.15603495530110209 0 0.38482072671029011 0.13725767299229241 0 0.39190395947081519 0.16392108302150901 0 0.40641505983847698 0.15603495530110209 0 0.36531512046589693 0.1378839500987098 0 0.38482072671029011 0.13725767299229241 0 0.37680076681991098 0.15092733218095339 0 0.38482072671029011 0.13725767299229241 0 0.37680076681991098 0.15092733218095339 0 0.39190395947081519 0.16392108302150901 0 0.36278106674677829 0.1609059875514994 0 0.39190395947081519 0.16392108302150901 0 0.36278106674677829 0.1609059875514994 0 0.37680076681991098 0.15092733218095339 0 0.39190395947081519 0.16392108302150901 0 0.37356219856206202 0.1741215612114578 0 0.36278106674677829 0.1609059875514994 0 0.39190395947081519 0.16392108302150901 0 0.37356219856206202 0.1741215612114578 0 0.39190395947081519 0.16392108302150901 0 0.38464328683150451 0.18806222539781059 0 0.4059128807594603 0.17981630131623391 0 0.39190395947081519 0.16392108302150901 0 0.38464328683150451 0.18806222539781059 0 0.39190395947081519 0.16392108302150901 0 0.42102685219485209 0.16693617849151851 0 0.40641505983847698 0.15603495530110209 0 0.4059128807594603 0.17981630131623391 0 0.39190395947081519 0.16392108302150901 0 0.42102685219485209 0.16693617849151851 0 0.42102685219485209 0.16693617849151851 0 0.40641505983847698 0.15603495530110209 0 0.41490094777653419 0.14712571815411829 0 0.39190395947081519 0.16392108302150901 0 0.42102685219485209 0.16693617849151851 0 0.4059128807594603 0.17981630131623391 0 0.42102685219485209 0.16693617849151851 0 0.42759287120751482 0.1799189573059411 0 0.4059128807594603 0.17981630131623391 0 0.42759287120751482 0.1799189573059411 0 0.42045703890892938 0.19185412915784311 0 0.42102685219485209 0.16693617849151851 0 0.42759287120751482 0.1799189573059411 0 0.45014974491888898 0.16995127396152809 0 0.42759287120751482 0.1799189573059411 0 0.42045703890892938 0.19185412915784311 0 0.43799329450951457 0.1898848624547933 0 0.42102685219485209 0.16693617849151851 0 0.45014974491888898 0.16995127396152809 0 0.42102685219485209 0.16693617849151851 0 0.43641214087317609 0.15776157540708571 0 0.42820809332857229 0.14540676379554701 0 0.42102685219485209 0.16693617849151851 0 0.43641214087317609 0.15776157540708571 0 0.45014974491888898 0.16995127396152809 0 0.43641214087317609 0.15776157540708571 0 0.42820809332857229 0.14540676379554701 0 0.44305345270963392 0.14224085277467549 0 0.42820809332857229 0.14540676379554701 0 0.43267139290449452 0.12562392175117529 0 0.41815906511665779 0.13368892679480551 0 0.42820809332857229 0.14540676379554701 0 0.43267139290449452 0.12562392175117529 0 0.44305345270963392 0.14224085277467549 0 0.43267139290449452 0.12562392175117529 0 0.41815906511665779 0.13368892679480551 0 0.41840244549433692 0.1204435227777134 0 0.41815906511665779 0.13368892679480551 0 0.41840244549433692 0.1204435227777134 0 0.40630256149234217 0.12337914253670321 0 0.40386822996399702 0.1370092008917044 0 0.41815906511665779 0.13368892679480551 0 0.40630256149234217 0.12337914253670321 0 0.40386822996399702 0.1370092008917044 0 0.41815906511665779 0.13368892679480551 0 0.41490094777653419 0.14712571815411829 0 0.42102685219485209 0.16693617849151851 0 0.42820809332857229 0.14540676379554701 0 0.41490094777653419 0.14712571815411829 0 0.40386822996399702 0.1370092008917044 0 0.40641505983847698 0.15603495530110209 0 0.41490094777653419 0.14712571815411829 0 0.42820809332857229 0.14540676379554701 0 0.41815906511665779 0.13368892679480551 0 0.41490094777653419 0.14712571815411829 0 0.39196586341458151 0.242441409442547 0 0.40329821407583749 0.23025496453590971 0 0.40866327585672191 0.24600766979752939 0 0.38129994004966872 0.25577407136566988 0 0.39196586341458151 0.242441409442547 0 0.40866327585672191 0.24600766979752939 0 0.38129994004966872 0.25577407136566988 0 0.39196586341458151 0.242441409442547 0 0.38106847269238292 0.24536179082341181 0 0.37169426656027921 0.24972740256563611 0 0.38106847269238292 0.24536179082341181 0 0.3757768555661396 0.240133652284411 0 0.37292139258550783 0.22672254500020811 0 0.3757768555661396 0.240133652284411 0 0.38460543787124563 0.238732418458795 0 0.38106847269238292 0.24536179082341181 0 0.3757768555661396 0.240133652284411 0 0.38460543787124563 0.238732418458795 0 0.39196586341458151 0.242441409442547 0 0.38106847269238292 0.24536179082341181 0 0.38460543787124563 0.238732418458795 0 0.39196586341458151 0.242441409442547 0 0.38460543787124563 0.238732418458795 0 0.38844350160088592 0.2284985707660753 0 0.37292139258550783 0.22672254500020811 0 0.38460543787124563 0.238732418458795 0 0.38844350160088592 0.2284985707660753 0 0.37292139258550783 0.22672254500020811 0 0.38844350160088592 0.2284985707660753 0 0.38369130631537601 0.21297307403445409 0 0.38844350160088592 0.2284985707660753 0 0.39679964264504158 0.21937630878092959 0 0.38369130631537601 0.21297307403445409 0 0.38844350160088592 0.2284985707660753 0 0.39679964264504158 0.21937630878092959 0 0.40329821407583749 0.23025496453590971 0 0.39196586341458151 0.242441409442547 0 0.38844350160088592 0.2284985707660753 0 0.40329821407583749 0.23025496453590971 0 0.39679964264504158 0.21937630878092959 0 0.40329821407583749 0.23025496453590971 0 0.41066806580544729 0.2160617609406458 0 0.39598296716959969 0.20626700748070109 0 0.40513352984814438 0.19492560706685999 0 0.41066806580544729 0.2160617609406458 0 0.39679964264504158 0.21937630878092959 0 0.39598296716959969 0.20626700748070109 0 0.41066806580544729 0.2160617609406458 0 0.39679964264504158 0.21937630878092959 0 0.39598296716959969 0.20626700748070109 0 0.38369130631537601 0.21297307403445409 0 0.36923798170140371 0.20928007436804161 0 0.37292139258550783 0.22672254500020811 0 0.38369130631537601 0.21297307403445409 0 0.36923798170140371 0.20928007436804161 0 0.38369130631537601 0.21297307403445409 0 0.38464328683150451 0.18806222539781059 0 0.39598296716959969 0.20626700748070109 0 0.38369130631537601 0.21297307403445409 0 0.38464328683150451 0.18806222539781059 0 0.39598296716959969 0.20626700748070109 0 0.38464328683150451 0.18806222539781059 0 0.40513352984814438 0.19492560706685999 0 0.4059128807594603 0.17981630131623391 0 0.38464328683150451 0.18806222539781059 0 0.40513352984814438 0.19492560706685999 0 0.40513352984814438 0.19492560706685999 0 0.42045703890892938 0.19185412915784311 0 0.42444067869502011 0.20693424997503959 0 0.4059128807594603 0.17981630131623391 0 0.40513352984814438 0.19492560706685999 0 0.42045703890892938 0.19185412915784311 0 0.42045703890892938 0.19185412915784311 0 0.42444067869502011 0.20693424997503959 0 0.43799329450951457 0.1898848624547933 0 0.42444067869502011 0.20693424997503959 0 0.44184419378540352 0.2076794424592901 0 0.43799329450951457 0.1898848624547933 0 0.42444067869502011 0.20693424997503959 0 0.4302098735549707 0.2206458244329694 0 0.44184419378540352 0.2076794424592901 0 0.42444067869502011 0.20693424997503959 0 0.41066806580544729 0.2160617609406458 0 0.4302098735549707 0.2206458244329694 0 0.40513352984814438 0.19492560706685999 0 0.42444067869502011 0.20693424997503959 0 0.41066806580544729 0.2160617609406458 0 0.41066806580544729 0.2160617609406458 0 0.41777320819135039 0.22984229758728861 0 0.4302098735549707 0.2206458244329694 0 0.40329821407583749 0.23025496453590971 0 0.41066806580544729 0.2160617609406458 0 0.41777320819135039 0.22984229758728861 0 0.4302098735549707 0.2206458244329694 0 0.43602661166377499 0.2362412682293889 0 0.44584438813649652 0.2203436080528294 0 0.41777320819135039 0.22984229758728861 0 0.4302098735549707 0.2206458244329694 0 0.43602661166377499 0.2362412682293889 0 0.43602661166377499 0.2362412682293889 0 0.43076425121212841 0.2486853010718087 0 0.40866327585672191 0.24600766979752939 0 0.43602661166377499 0.2362412682293889 0 0.40866327585672191 0.24600766979752939 0 0.41777320819135039 0.22984229758728861 0 0.43602661166377499 0.2362412682293889 0 0.40866327585672191 0.24600766979752939 0 0.41664462513020523 0.25422696758609492 0 0.43076425121212841 0.2486853010718087 0 0.40866327585672191 0.24600766979752939 0 0.40329821407583749 0.23025496453590971 0 0.41777320819135039 0.22984229758728861 0 0.40866327585672191 0.24600766979752939 0 0.45166362976964691 0.25106894999712381 0 0.45384283414141641 0.23962742592169059 0 0.47583181488482379 0.2451422378191761 0 0.45166362976964691 0.25106894999712381 0 0.47583181488482379 0.2451422378191761 0 0.45384283414141641 0.23962742592169059 0 0.47692141707070451 0.23056955077157251 0 0.45166362976964691 0.25106894999712381 0 0.43076425121212841 0.2486853010718087 0 0.45384283414141641 0.23962742592169059 0 0.43602661166377499 0.2362412682293889 0 0.43076425121212841 0.2486853010718087 0 0.45384283414141641 0.23962742592169059 0 0.43076425121212841 0.2486853010718087 0 0.45384283414141641 0.23962742592169059 0 0.43602661166377499 0.2362412682293889 0 0.46338994747082818 0.22647486666124839 0 0.43602661166377499 0.2362412682293889 0 0.44584438813649652 0.2203436080528294 0 0.46338994747082818 0.22647486666124839 0 0.43602661166377499 0.2362412682293889 0 0.45384283414141641 0.23962742592169059 0 0.46338994747082818 0.22647486666124839 0 0.44584438813649652 0.2203436080528294 0 0.46338994747082818 0.22647486666124839 0 0.4574246187180494 0.20998202225832771 0 0.45384283414141641 0.23962742592169059 0 0.46338994747082818 0.22647486666124839 0 0.47692141707070451 0.23056955077157251 0 0.46338994747082818 0.22647486666124839 0 0.4574246187180494 0.20998202225832771 0 0.47311107537994651 0.21060674662752529 0 0.4574246187180494 0.20998202225832771 0 0.46861366351278472 0.19789432193598561 0 0.47311107537994651 0.21060674662752529 0 0.44584438813649652 0.2203436080528294 0 0.4574246187180494 0.20998202225832771 0 0.44184419378540352 0.2076794424592901 0 0.4302098735549707 0.2206458244329694 0 0.44584438813649652 0.2203436080528294 0 0.44184419378540352 0.2076794424592901 0 0.4574246187180494 0.20998202225832771 0 0.44184419378540352 0.2076794424592901 0 0.45120510308892831 0.19507838461398491 0 0.44184419378540352 0.2076794424592901 0 0.43799329450951457 0.1898848624547933 0 0.45120510308892831 0.19507838461398491 0 0.4574246187180494 0.20998202225832771 0 0.45120510308892831 0.19507838461398491 0 0.46861366351278472 0.19789432193598561 0 0.45120510308892831 0.19507838461398491 0 0.46861366351278472 0.19789432193598561 0 0.45014974491888898 0.16995127396152809 0 0.46861366351278472 0.19789432193598561 0 0.48377650321145821 0.20030440734603891 0 0.47890777313388699 0.17818810929941131 0 0.46861366351278472 0.19789432193598561 0 0.48377650321145821 0.20030440734603891 0 0.47311107537994651 0.21060674662752529 0 0.48377650321145821 0.20030440734603891 0 0.5 0.19442179120654851 0 0.47890777313388699 0.17818810929941131 0 0.48377650321145821 0.20030440734603891 0 0.5 0.19442179120654851 0 0.49075328327788142 0.2167084650931079 0 0.5 0.19442179120654851 0 0.49075328327788142 0.2167084650931079 0 0.49999999999999339 0.2215116756214566 0 0.48377650321145821 0.20030440734603891 0 0.49075328327788142 0.2167084650931079 0 0.47311107537994651 0.21060674662752529 0 0.46338994747082818 0.22647486666124839 0 0.49075328327788142 0.2167084650931079 0 0.47311107537994651 0.21060674662752529 0 0.46338994747082818 0.22647486666124839 0 0.49075328327788142 0.2167084650931079 0 0.46338994747082818 0.22647486666124839 0 0.49075328327788142 0.2167084650931079 0 0.47692141707070451 0.23056955077157251 0 0.47692141707070451 0.23056955077157251 0 0.49999999999999339 0.2215116756214566 0 0.50000000000000067 0.2392155256412283 0 0.49075328327788142 0.2167084650931079 0 0.47692141707070451 0.23056955077157251 0 0.49999999999999339 0.2215116756214566 0 0.47692141707070451 0.23056955077157251 0 0.49999999999999339 0.2215116756214566 0 0.50000000000000067 0.2392155256412283 0 0.47583181488482379 0.2451422378191761 0 0.48341195364679568 0.26002408893105827 0 0.50000000000000067 0.2392155256412283 0 0.47583181488482379 0.2451422378191761 0 0.47692141707070451 0.23056955077157251 0 0.50000000000000067 0.2392155256412283 0 0.47583181488482379 0.2451422378191761 0 0.45384283414141641 0.23962742592169059 0 0.47692141707070451 0.23056955077157251 0 0.47583181488482379 0.2451422378191761 0 0.46053260521531592 0.14091734283165991 0 0.45014974491888898 0.16995127396152809 0 0.47759274938693741 0.15337993901402261 0 0.46053260521531592 0.14091734283165991 0 0.47596637305353268 0.1236489788231635 0 0.45094723062946279 0.12208098845927939 0 0.46053260521531592 0.14091734283165991 0 0.44305345270963392 0.14224085277467549 0 0.45094723062946279 0.12208098845927939 0 0.43267139290449452 0.12562392175117529 0 0.44305345270963392 0.14224085277467549 0 0.45094723062946279 0.12208098845927939 0 0.46053260521531592 0.14091734283165991 0 0.44305345270963392 0.14224085277467549 0 0.45014974491888898 0.16995127396152809 0 0.43641214087317609 0.15776157540708571 0 0.44305345270963392 0.14224085277467549 0 0.45014974491888898 0.16995127396152809 0 0.42759287120751482 0.1799189573059411 0 0.43799329450951457 0.1898848624547933 0 0.45014974491888898 0.16995127396152809 0 0.43799329450951457 0.1898848624547933 0 0.45120510308892831 0.19507838461398491 0 0.45014974491888898 0.16995127396152809 0 0.46861366351278472 0.19789432193598561 0 0.45014974491888898 0.16995127396152809 0 0.47890777313388699 0.17818810929941131 0 0.45014974491888898 0.16995127396152809 0 0.47890777313388699 0.17818810929941131 0 0.47759274938693741 0.15337993901402261 0 0.5 0.19442179120654851 0 0.47890777313388699 0.17818810929941131 0 0.5 0.16733190679164031 0 0.47890777313388699 0.17818810929941131 0 0.5 0.16733190679164031 0 0.47759274938693741 0.15337993901402261 0 0.5 0.16733190679164031 0 0.47759274938693741 0.15337993901402261 0 0.5 0.14024202237673219 0 0.46053260521531592 0.14091734283165991 0 0.47759274938693741 0.15337993901402261 0 0.47596637305353268 0.1236489788231635 0 0.5 0.14024202237673219 0 0.5 0.11315213796182411 0 0.47596637305353268 0.1236489788231635 0 0.47759274938693741 0.15337993901402261 0 0.5 0.14024202237673219 0 0.47596637305353268 0.1236489788231635 0 0.5 0.11315213796182411 0 0.48146508414057748 0.097867616362435003 0 0.47596637305353268 0.1236489788231635 0 0.5 0.11315213796182411 0 0.48146508414057748 0.097867616362435003 0 0.5 0.08606225354691599 0 0.48146508414057748 0.097867616362435003 0 0.46684480345772023 0.083704774648097419 0 0.46085076100455152 0.1051260388446932 0 0.48146508414057748 0.097867616362435003 0 0.47596637305353268 0.1236489788231635 0 0.46085076100455152 0.1051260388446932 0 0.5 0.08606225354691599 0 0.48297411160829701 0.071419164250366693 0 0.5 0.058972369132007867 0 0.48146508414057748 0.097867616362435003 0 0.5 0.08606225354691599 0 0.48297411160829701 0.071419164250366693 0 0.48146508414057748 0.097867616362435003 0 0.48297411160829701 0.071419164250366693 0 0.46684480345772023 0.083704774648097419 0 0.48297411160829701 0.071419164250366693 0 0.46368779630991369 0.062884433647911922 0 0.46684480345772023 0.083704774648097419 0 0.46368779630991369 0.062884433647911922 0 0.4455316944648699 0.078385408113317706 0 0.46368779630991369 0.062884433647911922 0 0.46684480345772023 0.083704774648097419 0 0.4455316944648699 0.078385408113317706 0 0.46684480345772023 0.083704774648097419 0 0.4455316944648699 0.078385408113317706 0 0.46085076100455152 0.1051260388446932 0 0.4455316944648699 0.078385408113317706 0 0.46085076100455152 0.1051260388446932 0 0.43655847815144871 0.087567909291679069 0 0.4455316944648699 0.078385408113317706 0 0.43655847815144871 0.087567909291679069 0 0.43300293116684879 0.070359854062556224 0 0.4455316944648699 0.078385408113317706 0 0.43300293116684879 0.070359854062556224 0 0.44432728466234178 0.059795406129610977 0 0.46368779630991369 0.062884433647911922 0 0.4455316944648699 0.078385408113317706 0 0.44432728466234178 0.059795406129610977 0 0.47596637305353268 0.1236489788231635 0 0.46085076100455152 0.1051260388446932 0 0.45094723062946279 0.12208098845927939 0 0.46085076100455152 0.1051260388446932 0 0.43655847815144871 0.087567909291679069 0 0.46085076100455152 0.1051260388446932 0 0.43845481143497073 0.110031162788742 0 0.43302597451412722 0.09911942802672713 0 0.46085076100455152 0.1051260388446932 0 0.43302597451412722 0.09911942802672713 0 0.43655847815144871 0.087567909291679069 0 0.43267139290449452 0.12562392175117529 0 0.45094723062946279 0.12208098845927939 0 0.43845481143497073 0.110031162788742 0 0.46085076100455152 0.1051260388446932 0 0.45094723062946279 0.12208098845927939 0 0.43845481143497073 0.110031162788742 0 0.43267139290449452 0.12562392175117529 0 0.43845481143497073 0.110031162788742 0 0.42512360996164289 0.1101942667169049 0 0.43267139290449452 0.12562392175117529 0 0.42512360996164289 0.1101942667169049 0 0.41840244549433692 0.1204435227777134 0 0.42512360996164289 0.1101942667169049 0 0.41840244549433692 0.1204435227777134 0 0.41145911669595331 0.1096997076075869 0 0.41840244549433692 0.1204435227777134 0 0.41145911669595331 0.1096997076075869 0 0.40630256149234217 0.12337914253670321 0 0.41145911669595331 0.1096997076075869 0 0.41782870111656589 0.098086010242617663 0 0.40188519574572068 0.098349840232826835 0 0.41782870111656589 0.098086010242617663 0 0.41132824907511162 0.087668761689670915 0 0.40188519574572068 0.098349840232826835 0 0.42512360996164289 0.1101942667169049 0 0.41145911669595331 0.1096997076075869 0 0.41782870111656589 0.098086010242617663 0 0.41782870111656589 0.098086010242617663 0 0.43302597451412722 0.09911942802672713 0 0.42198136315300161 0.08812274721924529 0 0.42512360996164289 0.1101942667169049 0 0.41782870111656589 0.098086010242617663 0 0.43302597451412722 0.09911942802672713 0 0.43845481143497073 0.110031162788742 0 0.42512360996164289 0.1101942667169049 0 0.43302597451412722 0.09911942802672713 0 0.43655847815144871 0.087567909291679069 0 0.42198136315300161 0.08812274721924529 0 0.41226619529834591 0.070009779738664735 0 0.43655847815144871 0.087567909291679069 0 0.41226619529834591 0.070009779738664735 0 0.43302597451412722 0.09911942802672713 0 0.43655847815144871 0.087567909291679069 0 0.42198136315300161 0.08812274721924529 0 0.43300293116684879 0.070359854062556224 0 0.41226619529834591 0.070009779738664735 0 0.42739758089851382 0.054541393999090262 0 0.43655847815144871 0.087567909291679069 0 0.43300293116684879 0.070359854062556224 0 0.41226619529834591 0.070009779738664735 0 0.42198136315300161 0.08812274721924529 0 0.41226619529834591 0.070009779738664735 0 0.41132824907511162 0.087668761689670915 0 0.41226619529834591 0.070009779738664735 0 0.41132824907511162 0.087668761689670915 0 0.39992923875424519 0.082621500021195282 0 0.41782870111656589 0.098086010242617663 0 0.42198136315300161 0.08812274721924529 0 0.41132824907511162 0.087668761689670915 0 0.41132824907511162 0.087668761689670915 0 0.39992923875424519 0.082621500021195282 0 0.40188519574572068 0.098349840232826835 0 0.39992923875424519 0.082621500021195282 0 0.38759228221014619 0.095233220303727467 0 0.40188519574572068 0.098349840232826835 0 0.39992923875424519 0.082621500021195282 0 0.38759228221014619 0.095233220303727467 0 0.41226619529834591 0.070009779738664735 0 0.39707386889515511 0.070908779594843374 0 0.39683376059791597 0.058855427163935138 0 0.41226619529834591 0.070009779738664735 0 0.39683376059791597 0.058855427163935138 0 0.41226619529834591 0.070009779738664735 0 0.39992923875424519 0.082621500021195282 0 0.41226619529834591 0.070009779738664735 0 0.39992923875424519 0.082621500021195282 0 0.39707386889515511 0.070908779594843374 0 0.39992923875424519 0.082621500021195282 0 0.39707386889515511 0.070908779594843374 0 0.38583977896057609 0.075316135258006081 0 0.39707386889515511 0.070908779594843374 0 0.38282045226763678 0.060547433734587333 0 0.39683376059791597 0.058855427163935138 0 0.39707386889515511 0.070908779594843374 0 0.38583977896057609 0.075316135258006081 0 0.38282045226763678 0.060547433734587333 0 0.38583977896057609 0.075316135258006081 0 0.37596532967213542 0.069868995675824025 0 0.37682589963749002 0.081332762740894418 0 0.37307104071443398 0.061065176941414383 0 0.37596532967213542 0.069868995675824025 0 0.38282045226763678 0.060547433734587333 0 0.38583977896057609 0.075316135258006081 0 0.37596532967213542 0.069868995675824025 0 0.38282045226763678 0.060547433734587333 0 0.39992923875424519 0.082621500021195282 0 0.38412803848747967 0.086259474622970303 0 0.38759228221014619 0.095233220303727467 0 0.39992923875424519 0.082621500021195282 0 0.38583977896057609 0.075316135258006081 0 0.38412803848747967 0.086259474622970303 0 0.37045299287494049 0.09679375479102828 0 0.38412803848747967 0.086259474622970303 0 0.38759228221014619 0.095233220303727467 0 0.38583977896057609 0.075316135258006081 0 0.38412803848747967 0.086259474622970303 0 0.37682589963749002 0.081332762740894418 0 0.37045299287494049 0.09679375479102828 0 0.38412803848747967 0.086259474622970303 0 0.37682589963749002 0.081332762740894418 0 0.37045299287494049 0.09679375479102828 0 0.38005682511468147 0.12140739343396729 0 0.37045299287494049 0.09679375479102828 0 0.38759228221014619 0.095233220303727467 0 0.38890959528695412 0.1083938038889192 0 0.37045299287494049 0.09679375479102828 0 0.38890959528695412 0.1083938038889192 0 0.38005682511468147 0.12140739343396729 0 0.39398634319161102 0.12556361147638159 0 0.38890959528695412 0.1083938038889192 0 0.38005682511468147 0.12140739343396729 0 0.39398634319161102 0.12556361147638159 0 0.38890959528695412 0.1083938038889192 0 0.39948393258462489 0.11301500309558379 0 0.39398634319161102 0.12556361147638159 0 0.40630256149234217 0.12337914253670321 0 0.39948393258462489 0.11301500309558379 0 0.41145911669595331 0.1096997076075869 0 0.40630256149234217 0.12337914253670321 0 0.39948393258462489 0.11301500309558379 0 0.41145911669595331 0.1096997076075869 0 0.39948393258462489 0.11301500309558379 0 0.40188519574572068 0.098349840232826835 0 0.38759228221014619 0.095233220303727467 0 0.38890959528695412 0.1083938038889192 0 0.40188519574572068 0.098349840232826835 0 0.38890959528695412 0.1083938038889192 0 0.39948393258462489 0.11301500309558379 0 0.40188519574572068 0.098349840232826835 0 0.3912475249538237 0.025882868266216091 0 0.40325323122183843 0.024352223252143548 0 0.39536881189699241 0.01378873843063998 0 0.3912475249538237 0.025882868266216091 0 0.40325323122183843 0.024352223252143548 0 0.39805180056669343 0.032772735105760037 0 0.40325323122183843 0.024352223252143548 0 0.39805180056669343 0.032772735105760037 0 0.40655765028286611 0.035582104639029083 0 0.40325323122183843 0.024352223252143548 0 0.39536881189699241 0.01378873843063998 0 0.40720094273855439 0.01372602960598159 0 0.40060323373222451 0.0042547197705496897 0 0.39536881189699241 0.01378873843063998 0 0.40720094273855439 0.01372602960598159 0 0.40060323373222451 0.0042547197705496897 0 0.41081432206005303 0.0037114498956348132 0 0.4046584776842293 -0.0050702490882302163 0 0.40060323373222451 0.0042547197705496897 0 0.41081432206005303 0.0037114498956348132 0 0.40720094273855439 0.01372602960598159 0 0.40060323373222451 0.0042547197705496897 0 0.39025836247721268 0.0036292771787240202 0 0.39531848553630572 -0.0042569273994520467 0 0.40060323373222451 0.0042547197705496897 0 0.39536881189699241 0.01378873843063998 0 0.39025836247721268 0.0036292771787240202 0 0.37844401144479839 0.012609093579625891 0 0.38356146703633898 -0.0078565650350033434 0 0.37844401144479839 0.012609093579625891 0 0.39025836247721268 0.0036292771787240202 0 0.38356146703633898 -0.0078565650350033434 0 0.39536881189699241 0.01378873843063998 0 0.37844401144479839 0.012609093579625891 0 0.39025836247721268 0.0036292771787240202 0 0.3912475249538237 0.025882868266216091 0 0.37844401144479839 0.012609093579625891 0 0.38063223185621792 0.036578263657106522 0 0.37844401144479839 0.012609093579625891 0 0.38063223185621792 0.036578263657106522 0 0.37146335928247548 0.04052602251159599 0 0.37844401144479839 0.012609093579625891 0 0.38063223185621792 0.036578263657106522 0 0.3912475249538237 0.025882868266216091 0 0.39536881189699241 0.01378873843063998 0 0.37844401144479839 0.012609093579625891 0 0.37146335928247548 0.04052602251159599 0 0.38063223185621792 0.036578263657106522 0 0.38282045226763678 0.060547433734587333 0 0.3912475249538237 0.025882868266216091 0 0.38063223185621792 0.036578263657106522 0 0.3908528121234538 0.035995570554822158 0 0.38063223185621792 0.036578263657106522 0 0.38791705742610771 0.044539104287684539 0 0.3908528121234538 0.035995570554822158 0 0.38791705742610771 0.044539104287684539 0 0.38282045226763678 0.060547433734587333 0 0.39079668350586277 0.051215399393808793 0 0.37307104071443398 0.061065176941414383 0 0.37146335928247548 0.04052602251159599 0 0.38282045226763678 0.060547433734587333 0 0.38063223185621792 0.036578263657106522 0 0.38791705742610771 0.044539104287684539 0 0.38282045226763678 0.060547433734587333 0 0.38063223185621792 0.036578263657106522 0 0.38282045226763678 0.060547433734587333 0 0.38282045226763678 0.060547433734587333 0 0.39683376059791597 0.058855427163935138 0 0.39079668350586277 0.051215399393808793 0 0.41226619529834591 0.070009779738664735 0 0.39683376059791597 0.058855427163935138 0 0.40948896714378957 0.05055434744181983 0 0.39683376059791597 0.058855427163935138 0 0.39079668350586277 0.051215399393808793 0 0.39674782008621368 0.04348041067995833 0 0.39683376059791597 0.058855427163935138 0 0.39674782008621368 0.04348041067995833 0 0.40948896714378957 0.05055434744181983 0 0.3908528121234538 0.035995570554822158 0 0.39805180056669343 0.032772735105760037 0 0.39674782008621368 0.04348041067995833 0 0.3912475249538237 0.025882868266216091 0 0.3908528121234538 0.035995570554822158 0 0.39805180056669343 0.032772735105760037 0 0.38791705742610771 0.044539104287684539 0 0.3908528121234538 0.035995570554822158 0 0.39674782008621368 0.04348041067995833 0 0.38791705742610771 0.044539104287684539 0 0.39079668350586277 0.051215399393808793 0 0.39674782008621368 0.04348041067995833 0 0.39674782008621368 0.04348041067995833 0 0.40655765028286611 0.035582104639029083 0 0.40948896714378957 0.05055434744181983 0 0.39805180056669343 0.032772735105760037 0 0.39674782008621368 0.04348041067995833 0 0.40655765028286611 0.035582104639029083 0 0.40655765028286611 0.035582104639029083 0 0.41713079569888262 0.040856968430241461 0 0.41557099838193923 0.024039796491718179 0 0.41713079569888262 0.040856968430241461 0 0.42755741698364552 0.032815777208855347 0 0.41557099838193923 0.024039796491718179 0 0.40655765028286611 0.035582104639029083 0 0.41713079569888262 0.040856968430241461 0 0.40948896714378957 0.05055434744181983 0 0.41226619529834591 0.070009779738664735 0 0.40948896714378957 0.05055434744181983 0 0.42739758089851382 0.054541393999090262 0 0.41713079569888262 0.040856968430241461 0 0.40948896714378957 0.05055434744181983 0 0.42739758089851382 0.054541393999090262 0 0.41226619529834591 0.070009779738664735 0 0.42739758089851382 0.054541393999090262 0 0.43300293116684879 0.070359854062556224 0 0.42739758089851382 0.054541393999090262 0 0.44432728466234178 0.059795406129610977 0 0.41713079569888262 0.040856968430241461 0 0.42739758089851382 0.054541393999090262 0 0.42755741698364552 0.032815777208855347 0 0.42739758089851382 0.054541393999090262 0 0.42755741698364552 0.032815777208855347 0 0.44252896649868317 0.039073008259517338 0 0.42739758089851382 0.054541393999090262 0 0.44252896649868317 0.039073008259517338 0 0.42755741698364552 0.032815777208855347 0 0.4358194844604939 0.024219735287320941 0 0.44252896649868317 0.039073008259517338 0 0.42755741698364552 0.032815777208855347 0 0.41557099838193923 0.024039796491718179 0 0.4265644217351573 0.014684511896395219 0 0.4358194844604939 0.024219735287320941 0 0.4265644217351573 0.014684511896395219 0 0.44548351627008242 0.01642882659412407 0 0.42755741698364552 0.032815777208855347 0 0.4358194844604939 0.024219735287320941 0 0.4265644217351573 0.014684511896395219 0 0.41557099838193923 0.024039796491718179 0 0.4165272652869268 0.01155925859927168 0 0.4265644217351573 0.014684511896395219 0 0.41557099838193923 0.024039796491718179 0 0.40720094273855439 0.01372602960598159 0 0.4165272652869268 0.01155925859927168 0 0.40325323122183843 0.024352223252143548 0 0.41557099838193923 0.024039796491718179 0 0.40720094273855439 0.01372602960598159 0 0.40325323122183843 0.024352223252143548 0 0.40655765028286611 0.035582104639029083 0 0.41557099838193923 0.024039796491718179 0 0.41081432206005303 0.0037114498956348132 0 0.40720094273855439 0.01372602960598159 0 0.4165272652869268 0.01155925859927168 0 0.4165272652869268 0.01155925859927168 0 0.42248564151892998 0.0016345051066286029 0 0.4265644217351573 0.014684511896395219 0 0.41081432206005303 0.0037114498956348132 0 0.4165272652869268 0.01155925859927168 0 0.42248564151892998 0.0016345051066286029 0 0.42248564151892998 0.0016345051066286029 0 0.4265644217351573 0.014684511896395219 0 0.4382820622288856 -0.0014159552958160841 0 0.4265644217351573 0.014684511896395219 0 0.44548351627008242 0.01642882659412407 0 0.4382820622288856 -0.0014159552958160841 0 0.45100246047295739 0.0046664116742636159 0 0.44548351627008242 0.01642882659412407 0 0.4382820622288856 -0.0014159552958160841 0 0.45100246047295739 0.0046664116742636159 0 0.44548351627008242 0.01642882659412407 0 0.4580470330794123 0.0188547641718908 0 0.4358194844604939 0.024219735287320941 0 0.4514029071021442 0.02821869916314456 0 0.44548351627008242 0.01642882659412407 0 0.4358194844604939 0.024219735287320941 0 0.4514029071021442 0.02821869916314456 0 0.44252896649868317 0.039073008259517338 0 0.4514029071021442 0.02821869916314456 0 0.44548351627008242 0.01642882659412407 0 0.4580470330794123 0.0188547641718908 0 0.4514029071021442 0.02821869916314456 0 0.4580470330794123 0.0188547641718908 0 0.46553563141862692 0.027383902935855992 0 0.4580470330794123 0.0188547641718908 0 0.46553563141862692 0.027383902935855992 0 0.471035018561343 0.01684384088441979 0 0.4580470330794123 0.0188547641718908 0 0.4620271672997433 0.0081957990277541914 0 0.471035018561343 0.01684384088441979 0 0.4620271672997433 0.0081957990277541914 0 0.47207727543944228 0.0077163925679632076 0 0.45540766643685782 -0.0078732224449345398 0 0.4620271672997433 0.0081957990277541914 0 0.47207727543944228 0.0077163925679632076 0 0.471035018561343 0.01684384088441979 0 0.45100246047295739 0.0046664116742636159 0 0.4620271672997433 0.0081957990277541914 0 0.45540766643685782 -0.0078732224449345398 0 0.45100246047295739 0.0046664116742636159 0 0.4580470330794123 0.0188547641718908 0 0.4620271672997433 0.0081957990277541914 0 0.42739758089851382 0.054541393999090262 0 0.44432728466234178 0.059795406129610977 0 0.44252896649868317 0.039073008259517338 0 0.44432728466234178 0.059795406129610977 0 0.44252896649868317 0.039073008259517338 0 0.46100281088556699 0.043351957730158222 0 0.4514029071021442 0.02821869916314456 0 0.44252896649868317 0.039073008259517338 0 0.46100281088556699 0.043351957730158222 0 0.4514029071021442 0.02821869916314456 0 0.46553563141862692 0.027383902935855992 0 0.46100281088556699 0.043351957730158222 0 0.46553563141862692 0.027383902935855992 0 0.46100281088556699 0.043351957730158222 0 0.4764725540003833 0.035303178421407518 0 0.46368779630991369 0.062884433647911922 0 0.44432728466234178 0.059795406129610977 0 0.46100281088556699 0.043351957730158222 0 0.48297411160829701 0.071419164250366693 0 0.46368779630991369 0.062884433647911922 0 0.48184389815495748 0.047383459182506117 0 0.46368779630991369 0.062884433647911922 0 0.46100281088556699 0.043351957730158222 0 0.48184389815495748 0.047383459182506117 0 0.46368779630991369 0.062884433647911922 0 0.48184389815495748 0.047383459182506117 0 0.46100281088556699 0.043351957730158222 0 0.48184389815495748 0.047383459182506117 0 0.4764725540003833 0.035303178421407518 0 0.48184389815495748 0.047383459182506117 0 0.50000000000000089 0.031882484717099757 0 0.48184389815495748 0.047383459182506117 0 0.50000000000000089 0.031882484717099757 0 0.5 0.058972369132007867 0 0.48184389815495748 0.047383459182506117 0 0.4764725540003833 0.035303178421407518 0 0.50000000000000089 0.031882484717099757 0 0.48297411160829701 0.071419164250366693 0 0.48184389815495748 0.047383459182506117 0 0.5 0.058972369132007867 0 0.48173822001607031 0.002441982684480838 0 0.47207727543944228 0.0077163925679632076 0 0.45540766643685782 -0.0078732224449345398 0 0.48073089036299149 0.01447516008145705 0 0.48088876464914698 0.0066420825236524483 0 0.47207727543944228 0.0077163925679632076 0 0.48088876464914698 0.0066420825236524483 0 0.48173822001607031 0.002441982684480838 0 0.48944624590280772 0.014576472087587141 0 0.48073089036299149 0.01447516008145705 0 0.48088876464914698 0.0066420825236524483 0 0.48944624590280772 0.014576472087587141 0 0.48088876464914698 0.0066420825236524483 0 0.48173822001607031 0.002441982684480838 0 0.47207727543944228 0.0077163925679632076 0 0.48088876464914698 0.0066420825236524483 0 0.48173822001607031 0.002441982684480838 0 0.48073089036299149 0.01447516008145705 0 0.47207727543944228 0.0077163925679632076 0 0.471035018561343 0.01684384088441979 0 0.46553563141862692 0.027383902935855992 0 0.471035018561343 0.01684384088441979 0 0.48098968552297122 0.023479159592672289 0 0.46553563141862692 0.027383902935855992 0 0.4764725540003833 0.035303178421407518 0 0.48098968552297122 0.023479159592672289 0 0.48073089036299149 0.01447516008145705 0 0.471035018561343 0.01684384088441979 0 0.48098968552297122 0.023479159592672289 0 0.48073089036299149 0.01447516008145705 0 0.48098968552297122 0.023479159592672289 0 0.48944624590280772 0.014576472087587141 0 0.50000000000000089 0.031882484717099757 0 0.50000000000000044 0.0095961811708810997 0 0.48944624590280772 0.014576472087587141 0 0.4764725540003833 0.035303178421407518 0 0.50000000000000089 0.031882484717099757 0 0.48098968552297122 0.023479159592672289 0 0.50000000000000089 0.031882484717099757 0 0.48098968552297122 0.023479159592672289 0 0.48944624590280772 0.014576472087587141 0 0.48173822001607031 0.002441982684480838 0 0.50000000000000044 0.0095961811708810997 0 0.48944624590280772 0.014576472087587141 0 0.48173822001607031 0.002441982684480838 0 0.50000000000000044 0.0095961811708810997 0 0.48173822001607031 0.002441982684480838 0 0.50000000000000044 0.0095961811708810997 0 0.5 -0.01553848795347695 0 0.48173822001607031 0.002441982684480838 0 0.5 -0.01553848795347695 0 0.48723509010938909 -0.024737082977995831 0 0.48173822001607031 0.002441982684480838 0 0.48723509010938909 -0.024737082977995831 0 0.48173822001607031 0.002441982684480838 0 0.46944239540012012 -0.021901386132034111 0 0.45540766643685782 -0.0078732224449345398 0 0.48173822001607031 0.002441982684480838 0 0.46944239540012012 -0.021901386132034111 0 0.48723509010938909 -0.024737082977995831 0 0.46944239540012012 -0.021901386132034111 0 0.48723509010938909 -0.024737082977995831 0 0.47311684284700922 -0.039980301183512167 0 0.5 -0.01553848795347695 0 0.48723509010938909 -0.024737082977995831 0 0.5 -0.040673157077835087 0 0.48723509010938909 -0.024737082977995831 0 0.49273196020270971 -0.051916148640471983 0 0.48034048547664182 -0.050194577481915269 0 0.48723509010938909 -0.024737082977995831 0 0.49273196020270971 -0.051916148640471983 0 0.48723509010938909 -0.024737082977995831 0 0.5 -0.040673157077835087 0 0.49273196020270971 -0.051916148640471983 0 0.5 -0.040673157077835087 0 0.49273196020270971 -0.051916148640471983 0 0.5 -0.065807826202193331 0 0.49273196020270971 -0.051916148640471983 0 0.48384360039889979 -0.062204599920787272 0 0.48034048547664182 -0.050194577481915269 0 0.48034048547664182 -0.050194577481915269 0 0.47035120232490191 -0.060528185902064997 0 0.47311684284700922 -0.039980301183512167 0 0.47035120232490191 -0.060528185902064997 0 0.47311684284700922 -0.039980301183512167 0 0.48384360039889979 -0.062204599920787272 0 0.48034048547664182 -0.050194577481915269 0 0.47035120232490191 -0.060528185902064997 0 0.48723509010938909 -0.024737082977995831 0 0.48034048547664182 -0.050194577481915269 0 0.47311684284700922 -0.039980301183512167 0 0.46944239540012012 -0.021901386132034111 0 0.47311684284700922 -0.039980301183512167 0 0.44971415759127392 -0.039358306738208573 0 0.47035120232490191 -0.060528185902064997 0 0.47311684284700922 -0.039980301183512167 0 0.44971415759127392 -0.039358306738208573 0 0.47035120232490191 -0.060528185902064997 0 0.44971415759127392 -0.039358306738208573 0 0.47035120232490191 -0.060528185902064997 0 0.43963483674523918 -0.055334607978488382 0 0.44971415759127392 -0.039358306738208573 0 0.43963483674523918 -0.055334607978488382 0 0.44971415759127392 -0.039358306738208573 0 0.42419530264354072 -0.042652000491910397 0 0.46944239540012012 -0.021901386132034111 0 0.44971415759127392 -0.039358306738208573 0 0.45540766643685782 -0.0078732224449345398 0 0.44971415759127392 -0.039358306738208573 0 0.42907711285764621 -0.01818842757435184 0 0.44971415759127392 -0.039358306738208573 0 0.45540766643685782 -0.0078732224449345398 0 0.42907711285764621 -0.01818842757435184 0 0.45540766643685782 -0.0078732224449345398 0 0.42907711285764621 -0.01818842757435184 0 0.45100246047295739 0.0046664116742636159 0 0.4382820622288856 -0.0014159552958160841 0 0.45540766643685782 -0.0078732224449345398 0 0.4382820622288856 -0.0014159552958160841 0 0.45540766643685782 -0.0078732224449345398 0 0.42907711285764621 -0.01818842757435184 0 0.48173822001607031 0.002441982684480838 0 0.45540766643685782 -0.0078732224449345398 0 0.47129126618897188 -0.1223351355815797 0 0.47148248434309947 -0.114916285604633 0 0.48087269318342413 -0.1216818802472065 0 0.47148248434309947 -0.114916285604633 0 0.48087269318342413 -0.1216818802472065 0 0.47838814501791832 -0.1066654575105275 0 0.48087269318342413 -0.1216818802472065 0 0.48924328608656842 -0.1141618265083332 0 0.47838814501791832 -0.1066654575105275 0 0.5 -0.1122204549214597 0 0.48924328608656842 -0.1141618265083332 0 0.5 -0.13349841451636779 0 0.48087269318342413 -0.1216818802472065 0 0.48924328608656842 -0.1141618265083332 0 0.5 -0.13349841451636779 0 0.5 -0.1122204549214597 0 0.48924328608656842 -0.1141618265083332 0 0.48827073793524339 -0.097774102912636218 0 0.48924328608656842 -0.1141618265083332 0 0.48827073793524339 -0.097774102912636218 0 0.47838814501791832 -0.1066654575105275 0 0.5 -0.1122204549214597 0 0.48827073793524339 -0.097774102912636218 0 0.50000000000000266 -0.090942495326551576 0 0.47652975213937199 -0.091635549067057065 0 0.46683976751390588 -0.086617099886465918 0 0.46456669494636288 -0.10350535152343909 0 0.48827073793524339 -0.097774102912636218 0 0.47838814501791832 -0.1066654575105275 0 0.47652975213937199 -0.091635549067057065 0 0.47148248434309947 -0.114916285604633 0 0.47838814501791832 -0.1066654575105275 0 0.46456669494636288 -0.10350535152343909 0 0.47838814501791832 -0.1066654575105275 0 0.47652975213937199 -0.091635549067057065 0 0.46456669494636288 -0.10350535152343909 0 0.48827073793524339 -0.097774102912636218 0 0.47652975213937199 -0.091635549067057065 0 0.48517560116245317 -0.075735340614307423 0 0.47652975213937199 -0.091635549067057065 0 0.48517560116245317 -0.075735340614307423 0 0.46683976751390588 -0.086617099886465918 0 0.47652975213937199 -0.091635549067057065 0 0.46683976751390588 -0.086617099886465918 0 0.50000000000000266 -0.090942495326551576 0 0.49822883029603021 -0.079095214302948247 0 0.5 -0.065807826202193331 0 0.48827073793524339 -0.097774102912636218 0 0.50000000000000266 -0.090942495326551576 0 0.48517560116245317 -0.075735340614307423 0 0.50000000000000266 -0.090942495326551576 0 0.48517560116245317 -0.075735340614307423 0 0.50000000000000266 -0.090942495326551576 0 0.49822883029603021 -0.079095214302948247 0 0.48517560116245317 -0.075735340614307423 0 0.49273196020270971 -0.051916148640471983 0 0.49822883029603021 -0.079095214302948247 0 0.48384360039889979 -0.062204599920787272 0 0.49822883029603021 -0.079095214302948247 0 0.48517560116245317 -0.075735340614307423 0 0.49273196020270971 -0.051916148640471983 0 0.48384360039889979 -0.062204599920787272 0 0.49822883029603021 -0.079095214302948247 0 0.49273196020270971 -0.051916148640471983 0 0.49822883029603021 -0.079095214302948247 0 0.5 -0.065807826202193331 0 0.47035120232490191 -0.060528185902064997 0 0.48517560116245317 -0.075735340614307423 0 0.47035120232490191 -0.060528185902064997 0 0.48517560116245317 -0.075735340614307423 0 0.46683976751390588 -0.086617099886465918 0 0.48384360039889979 -0.062204599920787272 0 0.47035120232490191 -0.060528185902064997 0 0.48517560116245317 -0.075735340614307423 0 0.47035120232490191 -0.060528185902064997 0 0.46683976751390588 -0.086617099886465918 0 0.47035120232490191 -0.060528185902064997 0 0.44249197108241189 -0.074007360679063244 0 0.46683976751390588 -0.086617099886465918 0 0.47035120232490191 -0.060528185902064997 0 0.43963483674523918 -0.055334607978488382 0 0.44249197108241189 -0.074007360679063244 0 0.44249197108241189 -0.074007360679063244 0 0.46683976751390588 -0.086617099886465918 0 0.4490662803509099 -0.094083529251462475 0 0.44249197108241189 -0.074007360679063244 0 0.4490662803509099 -0.094083529251462475 0 0.42834270349958448 -0.099226311759436261 0 0.44249197108241189 -0.074007360679063244 0 0.46683976751390588 -0.086617099886465918 0 0.46683976751390588 -0.086617099886465918 0 0.46456669494636288 -0.10350535152343909 0 0.4490662803509099 -0.094083529251462475 0 0.46683976751390588 -0.086617099886465918 0 0.46456669494636288 -0.10350535152343909 0 0.46456669494636288 -0.10350535152343909 0 0.4490662803509099 -0.094083529251462475 0 0.44386094964032902 -0.11054798122052439 0 0.4490662803509099 -0.094083529251462475 0 0.44386094964032902 -0.11054798122052439 0 0.42834270349958448 -0.099226311759436261 0 0.44386094964032902 -0.11054798122052439 0 0.46257396642688631 -0.12529077885077469 0 0.45239247298790419 -0.125419693033265 0 0.44386094964032902 -0.11054798122052439 0 0.42916935431308728 -0.1205456085246996 0 0.4435038969132965 -0.12540022695152131 0 0.44386094964032902 -0.11054798122052439 0 0.45239247298790419 -0.125419693033265 0 0.4435038969132965 -0.12540022695152131 0 0.44386094964032902 -0.11054798122052439 0 0.46229362237882032 -0.1203936031604123 0 0.46257396642688631 -0.12529077885077469 0 0.46456669494636288 -0.10350535152343909 0 0.46229362237882032 -0.1203936031604123 0 0.46456669494636288 -0.10350535152343909 0 0.44386094964032902 -0.11054798122052439 0 0.46229362237882032 -0.1203936031604123 0 0.44386094964032902 -0.11054798122052439 0 0.46257396642688631 -0.12529077885077469 0 0.47148248434309947 -0.114916285604633 0 0.46456669494636288 -0.10350535152343909 0 0.46229362237882032 -0.1203936031604123 0 0.47129126618897188 -0.1223351355815797 0 0.46229362237882032 -0.1203936031604123 0 0.46257396642688631 -0.12529077885077469 0 0.47129126618897188 -0.1223351355815797 0 0.47148248434309947 -0.114916285604633 0 0.46229362237882032 -0.1203936031604123 0 0.44386094964032902 -0.11054798122052439 0 0.42916935431308728 -0.1205456085246996 0 0.42834270349958448 -0.099226311759436261 0 0.41143930547928681 -0.11934523636421419 0 0.42916935431308728 -0.1205456085246996 0 0.42834270349958448 -0.099226311759436261 0 0.41143930547928681 -0.11934523636421419 0 0.40555832972599831 -0.095826118330896617 0 0.41143930547928681 -0.11934523636421419 0 0.42834270349958448 -0.099226311759436261 0 0.40555832972599831 -0.095826118330896617 0 0.42834270349958448 -0.099226311759436261 0 0.41884290658632428 -0.080552882507727325 0 0.40555832972599831 -0.095826118330896617 0 0.41884290658632428 -0.080552882507727325 0 0.39967735397270959 -0.072307000297579083 0 0.40555832972599831 -0.095826118330896617 0 0.44249197108241189 -0.074007360679063244 0 0.42834270349958448 -0.099226311759436261 0 0.41884290658632428 -0.080552882507727325 0 0.44249197108241189 -0.074007360679063244 0 0.41814417465091752 -0.061397621471661459 0 0.43963483674523918 -0.055334607978488382 0 0.44249197108241189 -0.074007360679063244 0 0.41814417465091752 -0.061397621471661459 0 0.44249197108241189 -0.074007360679063244 0 0.41884290658632428 -0.080552882507727325 0 0.41814417465091752 -0.061397621471661459 0 0.41884290658632428 -0.080552882507727325 0 0.39967735397270959 -0.072307000297579083 0 0.41814417465091752 -0.061397621471661459 0 0.39967735397270959 -0.072307000297579083 0 0.38669795957132042 -0.057310603286660967 0 0.37240766699872252 -0.068318548019290964 0 0.39967735397270959 -0.072307000297579083 0 0.37781097748786241 -0.089314889372882261 0 0.37240766699872252 -0.068318548019290964 0 0.39967735397270959 -0.072307000297579083 0 0.37781097748786241 -0.089314889372882261 0 0.40555832972599831 -0.095826118330896617 0 0.39967735397270959 -0.072307000297579083 0 0.40555832972599831 -0.095826118330896617 0 0.40555832972599831 -0.095826118330896617 0 0.38953803654933628 -0.10754997095337659 0 0.39823574772599779 -0.11763079726210079 0 0.37781097748786241 -0.089314889372882261 0 0.40555832972599831 -0.095826118330896617 0 0.38953803654933628 -0.10754997095337659 0 0.37781097748786241 -0.089314889372882261 0 0.38953803654933628 -0.10754997095337659 0 0.37644505785585192 -0.1058120404938334 0 0.38953803654933628 -0.10754997095337659 0 0.37644505785585192 -0.1058120404938334 0 0.37720890243704291 -0.12310924361699779 0 0.38953803654933628 -0.10754997095337659 0 0.37720890243704291 -0.12310924361699779 0 0.38918813321375051 -0.12739880168557821 0 0.38953803654933628 -0.10754997095337659 0 0.39823574772599779 -0.11763079726210079 0 0.38918813321375051 -0.12739880168557821 0 0.41143930547928681 -0.11934523636421419 0 0.39823574772599779 -0.11763079726210079 0 0.40257569972698831 -0.13396225485532559 0 0.41143930547928681 -0.11934523636421419 0 0.40555832972599831 -0.095826118330896617 0 0.39823574772599779 -0.11763079726210079 0 0.42011428296152808 -0.02169968792975261 0 0.41401194260749391 -0.028450411104576211 0 0.41343304557213612 -0.018371446868227208 0 0.42011428296152808 -0.02169968792975261 0 0.41343304557213612 -0.018371446868227208 0 0.41928481904255338 -0.01548900553927589 0 0.42011428296152808 -0.02169968792975261 0 0.41928481904255338 -0.01548900553927589 0 0.42542521438275183 -0.0144422395697206 0 0.42011428296152808 -0.02169968792975261 0 0.41401194260749391 -0.028450411104576211 0 0.42742255973229643 -0.030069766767760062 0 0.41401194260749391 -0.028450411104576211 0 0.40522076275047969 -0.019933987949522329 0 0.40044964155059998 -0.029094842751199331 0 0.41401194260749391 -0.028450411104576211 0 0.41343304557213612 -0.018371446868227208 0 0.40522076275047969 -0.019933987949522329 0 0.41343304557213612 -0.018371446868227208 0 0.40806592415966281 -0.01253819616599721 0 0.40522076275047969 -0.019933987949522329 0 0.40806592415966281 -0.01253819616599721 0 0.4135204533098043 -0.0054466611181140526 0 0.41498054603746559 -0.011947546426581419 0 0.41343304557213612 -0.018371446868227208 0 0.40806592415966281 -0.01253819616599721 0 0.41498054603746559 -0.011947546426581419 0 0.41081432206005303 0.0037114498956348132 0 0.4135204533098043 -0.0054466611181140526 0 0.4046584776842293 -0.0050702490882302163 0 0.40806592415966281 -0.01253819616599721 0 0.4135204533098043 -0.0054466611181140526 0 0.4046584776842293 -0.0050702490882302163 0 0.41081432206005303 0.0037114498956348132 0 0.42248564151892998 0.0016345051066286029 0 0.4135204533098043 -0.0054466611181140526 0 0.42248564151892998 0.0016345051066286029 0 0.4135204533098043 -0.0054466611181140526 0 0.42119781252485211 -0.0083000839364812864 0 0.41343304557213612 -0.018371446868227208 0 0.41498054603746559 -0.011947546426581419 0 0.41928481904255338 -0.01548900553927589 0 0.4135204533098043 -0.0054466611181140526 0 0.41498054603746559 -0.011947546426581419 0 0.42119781252485211 -0.0083000839364812864 0 0.41498054603746559 -0.011947546426581419 0 0.42119781252485211 -0.0083000839364812864 0 0.41928481904255338 -0.01548900553927589 0 0.42542521438275183 -0.0144422395697206 0 0.42820760236351979 -0.0076976995852137747 0 0.42907711285764621 -0.01818842757435184 0 0.4382820622288856 -0.0014159552958160841 0 0.42820760236351979 -0.0076976995852137747 0 0.42907711285764621 -0.01818842757435184 0 0.42119781252485211 -0.0083000839364812864 0 0.41928481904255338 -0.01548900553927589 0 0.42542521438275183 -0.0144422395697206 0 0.42248564151892998 0.0016345051066286029 0 0.4382820622288856 -0.0014159552958160841 0 0.42820760236351979 -0.0076976995852137747 0 0.42119781252485211 -0.0083000839364812864 0 0.42542521438275183 -0.0144422395697206 0 0.42820760236351979 -0.0076976995852137747 0 0.42248564151892998 0.0016345051066286029 0 0.42119781252485211 -0.0083000839364812864 0 0.42820760236351979 -0.0076976995852137747 0 0.44971415759127392 -0.039358306738208573 0 0.42907711285764621 -0.01818842757435184 0 0.42742255973229643 -0.030069766767760062 0 0.42011428296152808 -0.02169968792975261 0 0.42907711285764621 -0.01818842757435184 0 0.42742255973229643 -0.030069766767760062 0 0.42011428296152808 -0.02169968792975261 0 0.42542521438275183 -0.0144422395697206 0 0.42907711285764621 -0.01818842757435184 0 0.42011428296152808 -0.02169968792975261 0 0.42907711285764621 -0.01818842757435184 0 0.42542521438275183 -0.0144422395697206 0 0.42907711285764621 -0.01818842757435184 0 0.44971415759127392 -0.039358306738208573 0 0.42742255973229643 -0.030069766767760062 0 0.42419530264354072 -0.042652000491910397 0 0.41401194260749391 -0.028450411104576211 0 0.42742255973229643 -0.030069766767760062 0 0.42419530264354072 -0.042652000491910397 0 0.43963483674523918 -0.055334607978488382 0 0.42419530264354072 -0.042652000491910397 0 0.41814417465091752 -0.061397621471661459 0 0.41814417465091752 -0.061397621471661459 0 0.41107184061272262 -0.047596707948501772 0 0.39379637821942232 -0.04878788226426127 0 0.42419530264354072 -0.042652000491910397 0 0.41814417465091752 -0.061397621471661459 0 0.41107184061272262 -0.047596707948501772 0 0.41401194260749391 -0.028450411104576211 0 0.42419530264354072 -0.042652000491910397 0 0.40815150693701141 -0.037549327566173699 0 0.42419530264354072 -0.042652000491910397 0 0.41107184061272262 -0.047596707948501772 0 0.40815150693701141 -0.037549327566173699 0 0.41401194260749391 -0.028450411104576211 0 0.40815150693701141 -0.037549327566173699 0 0.40044964155059998 -0.029094842751199331 0 0.41107184061272262 -0.047596707948501772 0 0.40815150693701141 -0.037549327566173699 0 0.39379637821942232 -0.04878788226426127 0 0.40815150693701141 -0.037549327566173699 0 0.39379637821942232 -0.04878788226426127 0 0.40044964155059998 -0.029094842751199331 0 0.39379637821942232 -0.04878788226426127 0 0.38867892262788012 -0.028322223649632432 0 0.39379637821942232 -0.04878788226426127 0 0.38867892262788012 -0.028322223649632432 0 0.40044964155059998 -0.029094842751199331 0 0.39967735397270959 -0.072307000297579083 0 0.39379637821942232 -0.04878788226426127 0 0.38669795957132042 -0.057310603286660967 0 0.41814417465091752 -0.061397621471661459 0 0.39379637821942232 -0.04878788226426127 0 0.39967735397270959 -0.072307000297579083 0 0.39379637821942232 -0.04878788226426127 0 0.39967735397270959 -0.072307000297579083 0 0.41814417465091752 -0.061397621471661459 0 0.39379637821942232 -0.04878788226426127 0 0.39379637821942232 -0.04878788226426127 0 0.38896036142985008 -0.046283306103098283 0 0.38669795957132042 -0.057310603286660967 0 0.37839056082150663 -0.050608978831784571 0 0.37240766699872252 -0.068318548019290964 0 0.38669795957132042 -0.057310603286660967 0 0.37839056082150663 -0.050608978831784571 0 0.38896036142985008 -0.046283306103098283 0 0.39379637821942232 -0.04878788226426127 0 0.38669795957132042 -0.057310603286660967 0 0.38896036142985008 -0.046283306103098283 0 0.39379637821942232 -0.04878788226426127 0 0.38896036142985008 -0.046283306103098283 0 0.38867892262788012 -0.028322223649632432 0 0.3834615598562825 -0.037386722635115492 0 0.38896036142985008 -0.046283306103098283 0 0.38867892262788012 -0.028322223649632432 0 0.37839056082150663 -0.050608978831784571 0 0.3834615598562825 -0.037386722635115492 0 0.38896036142985008 -0.046283306103098283 0 0.37839056082150663 -0.050608978831784571 0 0.3834615598562825 -0.037386722635115492 0 0.37356965880113402 -0.040783236975350308 0 0.38867892262788012 -0.028322223649632432 0 0.38356146703633898 -0.0078565650350033434 0 0.3834615598562825 -0.037386722635115492 0 0.37600683512296651 -0.014087071697862221 0 0.37356965880113402 -0.040783236975350308 0 0.3834615598562825 -0.037386722635115492 0 0.38867892262788012 -0.028322223649632432 0 0.37600683512296651 -0.014087071697862221 0 0.38867892262788012 -0.028322223649632432 0 0.37600683512296651 -0.014087071697862221 0 0.38356146703633898 -0.0078565650350033434 0 0.38867892262788012 -0.028322223649632432 0 0.39658225960386179 -0.014459285545308009 0 0.38356146703633898 -0.0078565650350033434 0 0.38867892262788012 -0.028322223649632432 0 0.40044964155059998 -0.029094842751199331 0 0.39658225960386179 -0.014459285545308009 0 0.40522076275047969 -0.019933987949522329 0 0.40044964155059998 -0.029094842751199331 0 0.39658225960386179 -0.014459285545308009 0 0.40806592415966281 -0.01253819616599721 0 0.40522076275047969 -0.019933987949522329 0 0.39658225960386179 -0.014459285545308009 0 0.40060323373222451 0.0042547197705496897 0 0.4046584776842293 -0.0050702490882302163 0 0.39531848553630572 -0.0042569273994520467 0 0.40806592415966281 -0.01253819616599721 0 0.4046584776842293 -0.0050702490882302163 0 0.39658225960386179 -0.014459285545308009 0 0.4046584776842293 -0.0050702490882302163 0 0.39658225960386179 -0.014459285545308009 0 0.39531848553630572 -0.0042569273994520467 0 0.39658225960386179 -0.014459285545308009 0 0.39531848553630572 -0.0042569273994520467 0 0.38356146703633898 -0.0078565650350033434 0 0.39025836247721268 0.0036292771787240202 0 0.39531848553630572 -0.0042569273994520467 0 0.38356146703633898 -0.0078565650350033434 0 0.37844401144479839 0.012609093579625891 0 0.37600683512296651 -0.014087071697862221 0 0.37844401144479839 0.012609093579625891 0 0.37600683512296651 -0.014087071697862221 0 0.38356146703633898 -0.0078565650350033434 0 0.37600683512296651 -0.014087071697862221 0 0.36665723294200347 -0.001883505129568449 0 0.35850646790810559 -0.01395473468271459 0 0.37844401144479839 0.012609093579625891 0 0.37600683512296651 -0.014087071697862221 0 0.36665723294200347 -0.001883505129568449 0 0.36665723294200347 -0.001883505129568449 0 0.35531676971978082 -0.0033532784323768001 0 0.35850646790810559 -0.01395473468271459 0 0.37600683512296651 -0.014087071697862221 0 0.37356965880113402 -0.040783236975350308 0 0.37600683512296651 -0.014087071697862221 0 0.36404947753274258 -0.026706798856440471 0 0.35850646790810559 -0.01395473468271459 0 0.37600683512296651 -0.014087071697862221 0 0.36404947753274258 -0.026706798856440471 0 0.37356965880113402 -0.040783236975350308 0 0.34748556133762742 -0.02738266599094942 0 0.35850646790810559 -0.01395473468271459 0 0.34370628527030811 -0.0115647124322744 0 0.36404947753274258 -0.026706798856440471 0 0.34748556133762742 -0.02738266599094942 0 0.35850646790810559 -0.01395473468271459 0 0.36404947753274258 -0.026706798856440471 0 0.34748556133762742 -0.02738266599094942 0 0.36012817770438982 -0.039413746555128387 0 0.33689267375143878 0.0039255003288513873 0 0.35531676971978082 -0.0033532784323768001 0 0.34370628527030811 -0.0115647124322744 0 0.35531676971978082 -0.0033532784323768001 0 0.35850646790810559 -0.01395473468271459 0 0.34370628527030811 -0.0115647124322744 0 0.33689267375143878 0.0039255003288513873 0 0.34370628527030811 -0.0115647124322744 0 0.32469666258817742 -0.019557632270551 0 0.33689267375143878 0.0039255003288513873 0 0.30352242257352219 0.0039185454548519476 0 0.32469666258817742 -0.019557632270551 0 0.34748556133762742 -0.02738266599094942 0 0.34370628527030811 -0.0115647124322744 0 0.32469666258817742 -0.019557632270551 0 0.34748556133762742 -0.02738266599094942 0 0.32469666258817742 -0.019557632270551 0 0.33457477032001748 -0.043965109755099818 0 0.31326255248553708 -0.043768501277314603 0 0.32924913997341337 -0.063603686862235317 0 0.31014365419524398 -0.06072536978512106 0 0.31326255248553708 -0.043768501277314603 0 0.32924913997341337 -0.063603686862235317 0 0.31326255248553708 -0.043768501277314603 0 0.33457477032001748 -0.043965109755099818 0 0.32924913997341337 -0.063603686862235317 0 0.32469666258817742 -0.019557632270551 0 0.31326255248553708 -0.043768501277314603 0 0.33457477032001748 -0.043965109755099818 0 0.33457477032001748 -0.043965109755099818 0 0.34313363496153881 -0.061193084728204693 0 0.35029003257871461 -0.048624574981710279 0 0.33457477032001748 -0.043965109755099818 0 0.34313363496153881 -0.061193084728204693 0 0.32924913997341337 -0.063603686862235317 0 0.35029003257871461 -0.048624574981710279 0 0.36524615827173029 -0.053571455971191423 0 0.35631850447425872 -0.066333179594821989 0 0.34313363496153881 -0.061193084728204693 0 0.35029003257871461 -0.048624574981710279 0 0.35631850447425872 -0.066333179594821989 0 0.35029003257871461 -0.048624574981710279 0 0.36012817770438982 -0.039413746555128387 0 0.36524615827173029 -0.053571455971191423 0 0.34748556133762742 -0.02738266599094942 0 0.33457477032001748 -0.043965109755099818 0 0.35029003257871461 -0.048624574981710279 0 0.34748556133762742 -0.02738266599094942 0 0.35029003257871461 -0.048624574981710279 0 0.36012817770438982 -0.039413746555128387 0 0.36404947753274258 -0.026706798856440471 0 0.36012817770438982 -0.039413746555128387 0 0.37356965880113402 -0.040783236975350308 0 0.36012817770438982 -0.039413746555128387 0 0.37356965880113402 -0.040783236975350308 0 0.36524615827173029 -0.053571455971191423 0 0.37839056082150663 -0.050608978831784571 0 0.36524615827173029 -0.053571455971191423 0 0.37240766699872252 -0.068318548019290964 0 0.37839056082150663 -0.050608978831784571 0 0.37356965880113402 -0.040783236975350308 0 0.36524615827173029 -0.053571455971191423 0 0.36524615827173029 -0.053571455971191423 0 0.37240766699872252 -0.068318548019290964 0 0.35631850447425872 -0.066333179594821989 0 0.37240766699872252 -0.068318548019290964 0 0.36259903827425999 -0.08213590949324566 0 0.35631850447425872 -0.066333179594821989 0 0.37781097748786241 -0.089314889372882261 0 0.37240766699872252 -0.068318548019290964 0 0.36259903827425999 -0.08213590949324566 0 0.37781097748786241 -0.089314889372882261 0 0.36259903827425999 -0.08213590949324566 0 0.3612223149491664 -0.1032740580320769 0 0.34523572746128989 -0.083438872447156087 0 0.3612223149491664 -0.1032740580320769 0 0.36259903827425999 -0.08213590949324566 0 0.34523572746128989 -0.083438872447156087 0 0.3612223149491664 -0.1032740580320769 0 0.34313363496153881 -0.061193084728204693 0 0.34523572746128989 -0.083438872447156087 0 0.35631850447425872 -0.066333179594821989 0 0.36259903827425999 -0.08213590949324566 0 0.34523572746128989 -0.083438872447156087 0 0.35631850447425872 -0.066333179594821989 0 0.37720890243704291 -0.12310924361699779 0 0.36253108037134668 -0.1248744885805331 0 0.3612223149491664 -0.1032740580320769 0 0.37644505785585192 -0.1058120404938334 0 0.37720890243704291 -0.12310924361699779 0 0.3612223149491664 -0.1032740580320769 0 0.37720890243704291 -0.12310924361699779 0 0.3612223149491664 -0.1032740580320769 0 0.37781097748786241 -0.089314889372882261 0 0.37644505785585192 -0.1058120404938334 0 0.3612223149491664 -0.1032740580320769 0 0.34523572746128989 -0.083438872447156087 0 0.3612223149491664 -0.1032740580320769 0 0.33932087337301742 -0.1007066993955318 0 0.3612223149491664 -0.1032740580320769 0 0.34941185211170689 -0.1127717253903176 0 0.33932087337301742 -0.1007066993955318 0 0.36253108037134668 -0.1248744885805331 0 0.33587402752894302 -0.122350175475488 0 0.36253108037134668 -0.1248744885805331 0 0.34941185211170689 -0.1127717253903176 0 0.33587402752894302 -0.122350175475488 0 0.36253108037134668 -0.1248744885805331 0 0.3612223149491664 -0.1032740580320769 0 0.34941185211170689 -0.1127717253903176 0 0.34941185211170689 -0.1127717253903176 0 0.33587402752894302 -0.122350175475488 0 0.33932087337301742 -0.1007066993955318 0 0.33587402752894302 -0.122350175475488 0 0.33932087337301742 -0.1007066993955318 0 0.31943204723016899 -0.10139701157958859 0 0.33932087337301742 -0.1007066993955318 0 0.31943204723016899 -0.10139701157958859 0 0.32474927095682959 -0.081008353448563344 0 0.33587402752894302 -0.122350175475488 0 0.31943204723016899 -0.10139701157958859 0 0.3092169746865393 -0.1198258623704429 0 0.33587402752894302 -0.122350175475488 0 0.3092169746865393 -0.1198258623704429 0 0.34523572746128989 -0.083438872447156087 0 0.32924913997341337 -0.063603686862235317 0 0.32474927095682959 -0.081008353448563344 0 0.34523572746128989 -0.083438872447156087 0 0.32924913997341337 -0.063603686862235317 0 0.34313363496153881 -0.061193084728204693 0 0.34523572746128989 -0.083438872447156087 0 0.32924913997341337 -0.063603686862235317 0 0.34523572746128989 -0.083438872447156087 0 0.33932087337301742 -0.1007066993955318 0 0.32474927095682959 -0.081008353448563344 0 0.31943204723016899 -0.10139701157958859 0 0.32474927095682959 -0.081008353448563344 0 0.31117343018006932 -0.08835554327446378 0 0.32474927095682959 -0.081008353448563344 0 0.30201438303726968 -0.075929904193525521 0 0.32474927095682959 -0.081008353448563344 0 0.30201438303726968 -0.075929904193525521 0 0.31117343018006932 -0.08835554327446378 0 0.32924913997341337 -0.063603686862235317 0 0.32474927095682959 -0.081008353448563344 0 0.31014365419524398 -0.06072536978512106 0 0.32474927095682959 -0.081008353448563344 0 0.30201438303726968 -0.075929904193525521 0 0.31014365419524398 -0.06072536978512106 0 0.30201438303726968 -0.075929904193525521 0 0.31014365419524398 -0.06072536978512106 0 0.29222542489931519 -0.060978945333093171 0 0.31117343018006932 -0.08835554327446378 0 0.29442961060618023 -0.089764156713605506 0 0.30306705175182019 -0.101009202806625 0 0.30201438303726968 -0.075929904193525521 0 0.31117343018006932 -0.08835554327446378 0 0.29442961060618023 -0.089764156713605506 0 0.29442961060618023 -0.089764156713605506 0 0.28691460331806928 -0.079185378374353493 0 0.27734124638624891 -0.089737863242296378 0 0.30201438303726968 -0.075929904193525521 0 0.29442961060618023 -0.089764156713605506 0 0.28691460331806928 -0.079185378374353493 0 0.30201438303726968 -0.075929904193525521 0 0.27927949511770961 -0.070851454938488739 0 0.29222542489931519 -0.060978945333093171 0 0.30201438303726968 -0.075929904193525521 0 0.27927949511770961 -0.070851454938488739 0 0.30201438303726968 -0.075929904193525521 0 0.28691460331806928 -0.079185378374353493 0 0.27927949511770961 -0.070851454938488739 0 0.28691460331806928 -0.079185378374353493 0 0.27927949511770961 -0.070851454938488739 0 0.27809334201771629 -0.079209584513290715 0 0.28691460331806928 -0.079185378374353493 0 0.27927949511770961 -0.070851454938488739 0 0.27927949511770961 -0.070851454938488739 0 0.27868582307562201 -0.055886184139343542 0 0.29222542489931519 -0.060978945333093171 0 0.31943204723016899 -0.10139701157958859 0 0.3092169746865393 -0.1198258623704429 0 0.30306705175182019 -0.101009202806625 0 0.3092169746865393 -0.1198258623704429 0 0.30306705175182019 -0.101009202806625 0 0.28879183359809052 -0.10393054527906551 0 0.31943204723016899 -0.10139701157958859 0 0.31117343018006932 -0.08835554327446378 0 0.30306705175182019 -0.101009202806625 0 0.28879183359809052 -0.10393054527906551 0 0.28255992184413548 -0.11730154926539781 0 0.27267591943638608 -0.1048970298088977 0 0.29442961060618023 -0.089764156713605506 0 0.28879183359809052 -0.10393054527906551 0 0.27734124638624891 -0.089737863242296378 0 0.29442961060618023 -0.089764156713605506 0 0.30306705175182019 -0.101009202806625 0 0.28879183359809052 -0.10393054527906551 0 0.3092169746865393 -0.1198258623704429 0 0.28255992184413548 -0.11730154926539781 0 0.3092169746865393 -0.1198258623704429 0 0.28879183359809052 -0.10393054527906551 0 0.28255992184413548 -0.11730154926539781 0 0.3092169746865393 -0.1198258623704429 0 0.28255992184413548 -0.11730154926539781 0 0.28721398294742878 -0.13035474923543569 0 0.28255992184413548 -0.11730154926539781 0 0.26776517015272971 -0.1222840496799191 0 0.28721398294742878 -0.13035474923543569 0 0.28255992184413548 -0.11730154926539781 0 0.26776517015272971 -0.1222840496799191 0 0.27267591943638608 -0.1048970298088977 0 0.26776517015272971 -0.1222840496799191 0 0.27267591943638608 -0.1048970298088977 0 0.26047800574605201 -0.11084537767631369 0 0.28879183359809052 -0.10393054527906551 0 0.27267591943638608 -0.1048970298088977 0 0.27734124638624891 -0.089737863242296378 0 0.27267591943638608 -0.1048970298088977 0 0.27734124638624891 -0.089737863242296378 0 0.26256105175446781 -0.092679464148907056 0 0.25771864553297669 -0.099620140202181948 0 0.26047800574605201 -0.11084537767631369 0 0.24375228786211539 -0.116580291014256 0 0.27267591943638608 -0.1048970298088977 0 0.25771864553297669 -0.099620140202181948 0 0.26256105175446781 -0.092679464148907056 0 0.25771864553297669 -0.099620140202181948 0 0.25304747237378489 -0.090741332181114118 0 0.24292322406264641 -0.096552741650977186 0 0.25771864553297669 -0.099620140202181948 0 0.26256105175446781 -0.092679464148907056 0 0.25304747237378489 -0.090741332181114118 0 0.27267591943638608 -0.1048970298088977 0 0.25771864553297669 -0.099620140202181948 0 0.26047800574605201 -0.11084537767631369 0 0.26776517015272971 -0.1222840496799191 0 0.26153006621115998 -0.13421007507225571 0 0.24375228786211539 -0.116580291014256 0 0.26776517015272971 -0.1222840496799191 0 0.24375228786211539 -0.116580291014256 0 0.26776517015272971 -0.1222840496799191 0 0.26047800574605201 -0.11084537767631369 0 0.24375228786211539 -0.116580291014256 0 0.27927949511770961 -0.070851454938488739 0 0.25811154610651499 -0.066123023671663908 0 0.26329678137076351 -0.053405898285071182 0 0.27927949511770961 -0.070851454938488739 0 0.25811154610651499 -0.066123023671663908 0 0.26883802324883782 -0.077063641498024305 0 0.27927949511770961 -0.070851454938488739 0 0.25811154610651499 -0.066123023671663908 0 0.26883802324883782 -0.077063641498024305 0 0.27927949511770961 -0.070851454938488739 0 0.27809334201771629 -0.079209584513290715 0 0.26883802324883782 -0.077063641498024305 0 0.27809334201771629 -0.079209584513290715 0 0.27734124638624891 -0.089737863242296378 0 0.26883802324883782 -0.077063641498024305 0 0.27734124638624891 -0.089737863242296378 0 0.25202197504294188 -0.078400955310045109 0 0.28691460331806928 -0.079185378374353493 0 0.27809334201771629 -0.079209584513290715 0 0.27734124638624891 -0.089737863242296378 0 0.27734124638624891 -0.089737863242296378 0 0.26256105175446781 -0.092679464148907056 0 0.25202197504294188 -0.078400955310045109 0 0.27734124638624891 -0.089737863242296378 0 0.25202197504294188 -0.078400955310045109 0 0.26256105175446781 -0.092679464148907056 0 0.25304747237378489 -0.090741332181114118 0 0.25202197504294188 -0.078400955310045109 0 0.25304747237378489 -0.090741332181114118 0 0.25202197504294188 -0.078400955310045109 0 0.24624903761231479 -0.086847438891893419 0 0.26883802324883782 -0.077063641498024305 0 0.25202197504294188 -0.078400955310045109 0 0.25811154610651499 -0.066123023671663908 0 0.25811154610651499 -0.066123023671663908 0 0.26329678137076351 -0.053405898285071182 0 0.24870160087168189 -0.052882304334001928 0 0.26329678137076351 -0.053405898285071182 0 0.24870160087168189 -0.052882304334001928 0 0.24731406762381819 -0.035960341631652723 0 0.27927949511770961 -0.070851454938488739 0 0.26329678137076351 -0.053405898285071182 0 0.27868582307562201 -0.055886184139343542 0 0.27927949511770961 -0.070851454938488739 0 0.26329678137076351 -0.053405898285071182 0 0.26329678137076351 -0.053405898285071182 0 0.27868582307562201 -0.055886184139343542 0 0.27337213238318842 -0.044040078526876879 0 0.27868582307562201 -0.055886184139343542 0 0.27337213238318842 -0.044040078526876879 0 0.28525528160713332 -0.050154543613187753 0 0.26329678137076351 -0.053405898285071182 0 0.27337213238318842 -0.044040078526876879 0 0.26311483972878968 -0.036713614733010089 0 0.27337213238318842 -0.044040078526876879 0 0.27217486102646721 -0.027861542379398439 0 0.28494473946257981 -0.034556038004921102 0 0.27337213238318842 -0.044040078526876879 0 0.26311483972878968 -0.036713614733010089 0 0.27217486102646721 -0.027861542379398439 0 0.27337213238318842 -0.044040078526876879 0 0.28525528160713332 -0.050154543613187753 0 0.28494473946257981 -0.034556038004921102 0 0.26311483972878968 -0.036713614733010089 0 0.25941635623971138 -0.02230021284205122 0 0.24731406762381819 -0.035960341631652723 0 0.26329678137076351 -0.053405898285071182 0 0.24731406762381819 -0.035960341631652723 0 0.26329678137076351 -0.053405898285071182 0 0.26311483972878968 -0.036713614733010089 0 0.24731406762381819 -0.035960341631652723 0 0.25941635623971138 -0.02230021284205122 0 0.24731406762381819 -0.035960341631652723 0 0.2482857443068576 -0.021714794414400052 0 0.25941635623971138 -0.02230021284205122 0 0.25508119948702751 -0.010083838205662381 0 0.2482857443068576 -0.021714794414400052 0 0.26311483972878968 -0.036713614733010089 0 0.25941635623971138 -0.02230021284205122 0 0.27217486102646721 -0.027861542379398439 0 0.2541426920980116 -0.0036136263454906951 0 0.25508119948702751 -0.010083838205662381 0 0.24138147174972829 -0.0061427828714447699 0 0.2541426920980116 -0.0036136263454906951 0 0.25508119948702751 -0.010083838205662381 0 0.26047117107291767 -0.0019720443344692288 0 0.25446675038947358 0.0029162606258486688 0 0.2541426920980116 -0.0036136263454906951 0 0.26047117107291767 -0.0019720443344692288 0 0.25941635623971138 -0.02230021284205122 0 0.25508119948702751 -0.010083838205662381 0 0.26474460583379889 -0.01023883548432745 0 0.25941635623971138 -0.02230021284205122 0 0.26474460583379889 -0.01023883548432745 0 0.27166734417845928 -0.01430021117376327 0 0.25508119948702751 -0.010083838205662381 0 0.26474460583379889 -0.01023883548432745 0 0.26047117107291767 -0.0019720443344692288 0 0.26474460583379889 -0.01023883548432745 0 0.26047117107291767 -0.0019720443344692288 0 0.27708695819087842 -0.0025378708656911609 0 0.26474460583379889 -0.01023883548432745 0 0.27166734417845928 -0.01430021117376327 0 0.27708695819087842 -0.0025378708656911609 0 0.27166734417845928 -0.01430021117376327 0 0.27708695819087842 -0.0025378708656911609 0 0.28469269166600031 -0.01545933141113482 0 0.27217486102646721 -0.027861542379398439 0 0.28469269166600031 -0.01545933141113482 0 0.28494473946257981 -0.034556038004921102 0 0.25941635623971138 -0.02230021284205122 0 0.27166734417845928 -0.01430021117376327 0 0.27217486102646721 -0.027861542379398439 0 0.27166734417845928 -0.01430021117376327 0 0.27217486102646721 -0.027861542379398439 0 0.28469269166600031 -0.01545933141113482 0 0.28469269166600031 -0.01545933141113482 0 0.29727596499766062 -0.023933315692393788 0 0.28494473946257981 -0.034556038004921102 0 0.30352242257352219 0.0039185454548519476 0 0.28469269166600031 -0.01545933141113482 0 0.29727596499766062 -0.023933315692393788 0 0.30352242257352219 0.0039185454548519476 0 0.27708695819087842 -0.0025378708656911609 0 0.28469269166600031 -0.01545933141113482 0 0.30352242257352219 0.0039185454548519476 0 0.32469666258817742 -0.019557632270551 0 0.29727596499766062 -0.023933315692393788 0 0.32469666258817742 -0.019557632270551 0 0.31326255248553708 -0.043768501277314603 0 0.29727596499766062 -0.023933315692393788 0 0.31326255248553708 -0.043768501277314603 0 0.29727596499766062 -0.023933315692393788 0 0.2968975050950291 -0.045887416406534938 0 0.31326255248553708 -0.043768501277314603 0 0.29727596499766062 -0.023933315692393788 0 0.31326255248553708 -0.043768501277314603 0 0.2968975050950291 -0.045887416406534938 0 0.31014365419524398 -0.06072536978512106 0 0.2968975050950291 -0.045887416406534938 0 0.31014365419524398 -0.06072536978512106 0 0.29222542489931519 -0.060978945333093171 0 0.2968975050950291 -0.045887416406534938 0 0.29222542489931519 -0.060978945333093171 0 0.28525528160713332 -0.050154543613187753 0 0.27868582307562201 -0.055886184139343542 0 0.29222542489931519 -0.060978945333093171 0 0.28525528160713332 -0.050154543613187753 0 0.2968975050950291 -0.045887416406534938 0 0.28525528160713332 -0.050154543613187753 0 0.28494473946257981 -0.034556038004921102 0 0.29727596499766062 -0.023933315692393788 0 0.2968975050950291 -0.045887416406534938 0 0.28494473946257981 -0.034556038004921102 0 0.29579617193404978 -0.19432558104056491 0 0.30588539897632072 -0.22256652654210629 0 0.2776594049058328 -0.2175861504380624 0 0.29579617193404978 -0.19432558104056491 0 0.2776594049058328 -0.2175861504380624 0 0.2764107852420567 -0.19644220614923899 0 0.29579617193404978 -0.19432558104056491 0 0.2764107852420567 -0.19644220614923899 0 0.2792899687438003 -0.18116405860585089 0 0.29579617193404978 -0.19432558104056491 0 0.31045946319455608 -0.20263901644370941 0 0.31057073564158039 -0.17760626025882659 0 0.29579617193404978 -0.19432558104056491 0 0.30588539897632072 -0.22256652654210629 0 0.31045946319455608 -0.20263901644370941 0 0.30588539897632072 -0.22256652654210629 0 0.32020032842118662 -0.2136972324735969 0 0.29579617193404978 -0.19432558104056491 0 0.31045946319455608 -0.20263901644370941 0 0.30588539897632072 -0.22256652654210629 0 0.29681701546221179 -0.23419681124085551 0 0.31597462601859122 -0.25080747204364812 0 0.30111904597271899 -0.2536098058489899 0 0.30588539897632072 -0.22256652654210629 0 0.29681701546221179 -0.23419681124085551 0 0.31597462601859122 -0.25080747204364812 0 0.30588539897632072 -0.22256652654210629 0 0.31597462601859122 -0.25080747204364812 0 0.29681701546221179 -0.23419681124085551 0 0.31597462601859122 -0.25080747204364812 0 0.29681701546221179 -0.23419681124085551 0 0.30111904597271899 -0.2536098058489899 0 0.28456511698073272 -0.25518130134833977 0 0.29681701546221179 -0.23419681124085551 0 0.27830026498091959 -0.23745462562099759 0 0.28456511698073272 -0.25518130134833977 0 0.30588539897632072 -0.22256652654210629 0 0.29681701546221179 -0.23419681124085551 0 0.2776594049058328 -0.2175861504380624 0 0.29681701546221179 -0.23419681124085551 0 0.27830026498091959 -0.23745462562099759 0 0.2776594049058328 -0.2175861504380624 0 0.29681701546221179 -0.23419681124085551 0 0.2776594049058328 -0.2175861504380624 0 0.26584409390649738 -0.23415831621220631 0 0.27830026498091959 -0.23745462562099759 0 0.2776594049058328 -0.2175861504380624 0 0.26584409390649738 -0.23415831621220631 0 0.25658827463044448 -0.2222138965281123 0 0.2776594049058328 -0.2175861504380624 0 0.27830026498091959 -0.23745462562099759 0 0.28456511698073272 -0.25518130134833977 0 0.26629969424128969 -0.25192769388052821 0 0.26584409390649738 -0.23415831621220631 0 0.27830026498091959 -0.23745462562099759 0 0.26629969424128969 -0.25192769388052821 0 0.26584409390649738 -0.23415831621220631 0 0.25037283077400019 -0.2416092145933311 0 0.26629969424128969 -0.25192769388052821 0 0.25037283077400019 -0.2416092145933311 0 0.25658827463044448 -0.2222138965281123 0 0.2446094219978813 -0.2276121794933563 0 0.26584409390649738 -0.23415831621220631 0 0.25037283077400019 -0.2416092145933311 0 0.25658827463044448 -0.2222138965281123 0 0.25658827463044448 -0.2222138965281123 0 0.2776594049058328 -0.2175861504380624 0 0.25850179434945381 -0.20097548963526929 0 0.25658827463044448 -0.2222138965281123 0 0.25850179434945381 -0.20097548963526929 0 0.23907695871134879 -0.21289681242661959 0 0.2776594049058328 -0.2175861504380624 0 0.25850179434945381 -0.20097548963526929 0 0.2776594049058328 -0.2175861504380624 0 0.2764107852420567 -0.19644220614923899 0 0.25850179434945381 -0.20097548963526929 0 0.2764107852420567 -0.19644220614923899 0 0.25850179434945381 -0.20097548963526929 0 0.26539786460737957 -0.18100391429238191 0 0.25850179434945381 -0.20097548963526929 0 0.26539786460737957 -0.18100391429238191 0 0.23934418379307471 -0.18436482883247621 0 0.26539786460737957 -0.18100391429238191 0 0.25449645062408999 -0.16331052089379791 0 0.23934418379307471 -0.18436482883247621 0 0.26539786460737957 -0.18100391429238191 0 0.25449645062408999 -0.16331052089379791 0 0.27043371620885309 -0.16438603764101259 0 0.25449645062408999 -0.16331052089379791 0 0.27043371620885309 -0.16438603764101259 0 0.2633734196266177 -0.15149826902969399 0 0.27043371620885309 -0.16438603764101259 0 0.2792899687438003 -0.18116405860585089 0 0.28570694489177878 -0.1660846355390232 0 0.27043371620885309 -0.16438603764101259 0 0.27930784456020519 -0.15183985913025491 0 0.28570694489177878 -0.1660846355390232 0 0.26539786460737957 -0.18100391429238191 0 0.27043371620885309 -0.16438603764101259 0 0.2792899687438003 -0.18116405860585089 0 0.2764107852420567 -0.19644220614923899 0 0.26539786460737957 -0.18100391429238191 0 0.2792899687438003 -0.18116405860585089 0 0.26153006621115998 -0.13421007507225571 0 0.24375228786211539 -0.116580291014256 0 0.24955680073527009 -0.143898101237383 0 0.26153006621115998 -0.13421007507225571 0 0.24375228786211539 -0.116580291014256 0 0.25449645062408999 -0.16331052089379791 0 0.2633734196266177 -0.15149826902969399 0 0.24955680073527009 -0.143898101237383 0 0.26153006621115998 -0.13421007507225571 0 0.2633734196266177 -0.15149826902969399 0 0.24955680073527009 -0.143898101237383 0 0.27043371620885309 -0.16438603764101259 0 0.2633734196266177 -0.15149826902969399 0 0.27930784456020519 -0.15183985913025491 0 0.27561771784950778 -0.13784369003748159 0 0.28570694489177878 -0.1660846355390232 0 0.26153006621115998 -0.13421007507225571 0 0.27930784456020519 -0.15183985913025491 0 0.27561771784950778 -0.13784369003748159 0 0.27930784456020519 -0.15183985913025491 0 0.27561771784950778 -0.13784369003748159 0 0.28570694489177878 -0.1660846355390232 0 0.26153006621115998 -0.13421007507225571 0 0.2633734196266177 -0.15149826902969399 0 0.27930784456020519 -0.15183985913025491 0 0.26153006621115998 -0.13421007507225571 0 0.27930784456020519 -0.15183985913025491 0 0.26776517015272971 -0.1222840496799191 0 0.27561771784950778 -0.13784369003748159 0 0.28721398294742878 -0.13035474923543569 0 0.26776517015272971 -0.1222840496799191 0 0.26153006621115998 -0.13421007507225571 0 0.27561771784950778 -0.13784369003748159 0 0.27561771784950778 -0.13784369003748159 0 0.28721398294742878 -0.13035474923543569 0 0.28891568690104508 -0.14625428249578579 0 0.28721398294742878 -0.13035474923543569 0 0.28891568690104508 -0.14625428249578579 0 0.29920842625061578 -0.1386190615635868 0 0.28891568690104508 -0.14625428249578579 0 0.29920842625061578 -0.1386190615635868 0 0.29789574789403661 -0.15876522012859751 0 0.27561771784950778 -0.13784369003748159 0 0.28891568690104508 -0.14625428249578579 0 0.28570694489177878 -0.1660846355390232 0 0.30985117626407932 -0.1486491484402036 0 0.29920842625061578 -0.1386190615635868 0 0.29789574789403661 -0.15876522012859751 0 0.30985117626407932 -0.1486491484402036 0 0.29789574789403661 -0.15876522012859751 0 0.3134799250960158 -0.16133035304856411 0 0.30985117626407932 -0.1486491484402036 0 0.29920842625061578 -0.1386190615635868 0 0.31980994510895661 -0.13408045692276491 0 0.3092169746865393 -0.1198258623704429 0 0.28721398294742878 -0.13035474923543569 0 0.29920842625061578 -0.1386190615635868 0 0.3092169746865393 -0.1198258623704429 0 0.29920842625061578 -0.1386190615635868 0 0.31980994510895661 -0.13408045692276491 0 0.29579617193404978 -0.19432558104056491 0 0.2792899687438003 -0.18116405860585089 0 0.28570694489177878 -0.1660846355390232 0 0.29579617193404978 -0.19432558104056491 0 0.28570694489177878 -0.1660846355390232 0 0.29579617193404978 -0.19432558104056491 0 0.28570694489177878 -0.1660846355390232 0 0.29784246694311001 -0.17248502473641619 0 0.28891568690104508 -0.14625428249578579 0 0.28570694489177878 -0.1660846355390232 0 0.29789574789403661 -0.15876522012859751 0 0.28570694489177878 -0.1660846355390232 0 0.29789574789403661 -0.15876522012859751 0 0.29784246694311001 -0.17248502473641619 0 0.29789574789403661 -0.15876522012859751 0 0.31057073564158039 -0.17760626025882659 0 0.3134799250960158 -0.16133035304856411 0 0.29789574789403661 -0.15876522012859751 0 0.31057073564158039 -0.17760626025882659 0 0.29784246694311001 -0.17248502473641619 0 0.29789574789403661 -0.15876522012859751 0 0.31057073564158039 -0.17760626025882659 0 0.29579617193404978 -0.19432558104056491 0 0.31057073564158039 -0.17760626025882659 0 0.29784246694311001 -0.17248502473641619 0 0.31057073564158039 -0.17760626025882659 0 0.33117051957001492 -0.16690810347740409 0 0.33960500058918919 -0.18923554211963439 0 0.31057073564158039 -0.17760626025882659 0 0.32324572338912438 -0.19644730038905581 0 0.3134799250960158 -0.16133035304856411 0 0.33117051957001492 -0.16690810347740409 0 0.32297156368297691 -0.15191279281852399 0 0.31057073564158039 -0.17760626025882659 0 0.3134799250960158 -0.16133035304856411 0 0.33117051957001492 -0.16690810347740409 0 0.33117051957001492 -0.16690810347740409 0 0.34312821131240068 -0.1490342399984359 0 0.35150112372442083 -0.17432517416681301 0 0.33117051957001492 -0.16690810347740409 0 0.35150112372442083 -0.17432517416681301 0 0.33960500058918919 -0.18923554211963439 0 0.33587402752894302 -0.122350175475488 0 0.3092169746865393 -0.1198258623704429 0 0.31980994510895661 -0.13408045692276491 0 0.30985117626407932 -0.1486491484402036 0 0.31980994510895661 -0.13408045692276491 0 0.32297156368297691 -0.15191279281852399 0 0.30985117626407932 -0.1486491484402036 0 0.3134799250960158 -0.16133035304856411 0 0.32297156368297691 -0.15191279281852399 0 0.33117051957001492 -0.16690810347740409 0 0.32297156368297691 -0.15191279281852399 0 0.34312821131240068 -0.1490342399984359 0 0.31980994510895661 -0.13408045692276491 0 0.32297156368297691 -0.15191279281852399 0 0.34312821131240068 -0.1490342399984359 0 0.33587402752894302 -0.122350175475488 0 0.31980994510895661 -0.13408045692276491 0 0.34312821131240068 -0.1490342399984359 0 0.36253108037134668 -0.1248744885805331 0 0.33587402752894302 -0.122350175475488 0 0.3555623608711499 -0.1359942506039106 0 0.33587402752894302 -0.122350175475488 0 0.34312821131240068 -0.1490342399984359 0 0.3555623608711499 -0.1359942506039106 0 0.34312821131240068 -0.1490342399984359 0 0.3555623608711499 -0.1359942506039106 0 0.36858459771950869 -0.15733985743645959 0 0.3555623608711499 -0.1359942506039106 0 0.36652086356581781 -0.12946943863695781 0 0.36858459771950869 -0.15733985743645959 0 0.36652086356581781 -0.12946943863695781 0 0.36858459771950869 -0.15733985743645959 0 0.36652086356581781 -0.12946943863695781 0 0.36858459771950869 -0.15733985743645959 0 0.3787995421462832 -0.1425544525875144 0 0.36652086356581781 -0.12946943863695781 0 0.37808333446084269 -0.1309391893982525 0 0.3787995421462832 -0.1425544525875144 0 0.36253108037134668 -0.1248744885805331 0 0.36652086356581781 -0.12946943863695781 0 0.37808333446084269 -0.1309391893982525 0 0.36253108037134668 -0.1248744885805331 0 0.3555623608711499 -0.1359942506039106 0 0.36652086356581781 -0.12946943863695781 0 0.35150112372442083 -0.17432517416681301 0 0.37064833187319962 -0.1852102762359614 0 0.35587008128221181 -0.19822302573298239 0 0.35150112372442083 -0.17432517416681301 0 0.35587008128221181 -0.19822302573298239 0 0.33960500058918919 -0.18923554211963439 0 0.34312821131240068 -0.1490342399984359 0 0.35150112372442083 -0.17432517416681301 0 0.36858459771950869 -0.15733985743645959 0 0.36858459771950869 -0.15733985743645959 0 0.37064833187319962 -0.1852102762359614 0 0.35150112372442083 -0.17432517416681301 0 0.36858459771950869 -0.15733985743645959 0 0.37064833187319962 -0.1852102762359614 0 0.36858459771950869 -0.15733985743645959 0 0.37064833187319962 -0.1852102762359614 0 0.3834788620725188 -0.17954848884060079 0 0.37064833187319962 -0.1852102762359614 0 0.37271206602689039 -0.21308069503546309 0 0.38139900114097952 -0.20469292352659629 0 0.37064833187319962 -0.1852102762359614 0 0.37271206602689039 -0.21308069503546309 0 0.37064833187319962 -0.1852102762359614 0 0.37271206602689039 -0.21308069503546309 0 0.35587008128221181 -0.19822302573298239 0 0.37271206602689039 -0.21308069503546309 0 0.35603419272415182 -0.2169366224123114 0 0.35587008128221181 -0.19822302573298239 0 0.35603419272415182 -0.2169366224123114 0 0.35587008128221181 -0.19822302573298239 0 0.33592071113666833 -0.21528834051928489 0 0.35587008128221181 -0.19822302573298239 0 0.33960500058918919 -0.18923554211963439 0 0.33592071113666833 -0.21528834051928489 0 0.33960500058918919 -0.18923554211963439 0 0.33592071113666833 -0.21528834051928489 0 0.32324572338912438 -0.19644730038905581 0 0.33592071113666833 -0.21528834051928489 0 0.32324572338912438 -0.19644730038905581 0 0.33592071113666833 -0.21528834051928489 0 0.32020032842118662 -0.2136972324735969 0 0.32324572338912438 -0.19644730038905581 0 0.31045946319455608 -0.20263901644370941 0 0.32020032842118662 -0.2136972324735969 0 0.32324572338912438 -0.19644730038905581 0 0.31057073564158039 -0.17760626025882659 0 0.33960500058918919 -0.18923554211963439 0 0.32324572338912438 -0.19644730038905581 0 0.31045946319455608 -0.20263901644370941 0 0.31057073564158039 -0.17760626025882659 0 0.32324572338912438 -0.19644730038905581 0 0.32549034540926353 -0.23154497847382799 0 0.33517615116993849 -0.24743488902137309 0 0.31597462601859122 -0.25080747204364812 0 0.30588539897632072 -0.22256652654210629 0 0.32549034540926353 -0.23154497847382799 0 0.31597462601859122 -0.25080747204364812 0 0.30588539897632072 -0.22256652654210629 0 0.32020032842118662 -0.2136972324735969 0 0.32549034540926353 -0.23154497847382799 0 0.33592071113666833 -0.21528834051928489 0 0.32020032842118662 -0.2136972324735969 0 0.32549034540926353 -0.23154497847382799 0 0.33592071113666833 -0.21528834051928489 0 0.32549034540926353 -0.23154497847382799 0 0.34859569888421221 -0.23412938064951411 0 0.33592071113666833 -0.21528834051928489 0 0.34859569888421221 -0.23412938064951411 0 0.32549034540926353 -0.23154497847382799 0 0.33517615116993849 -0.24743488902137309 0 0.34859569888421221 -0.23412938064951411 0 0.33517615116993849 -0.24743488902137309 0 0.34859569888421221 -0.23412938064951411 0 0.35185333732921159 -0.25428502110151557 0 0.34859569888421221 -0.23412938064951411 0 0.36075586336603621 -0.2426037127049111 0 0.35185333732921159 -0.25428502110151557 0 0.34859569888421221 -0.23412938064951411 0 0.36291464790978972 -0.22902601310760301 0 0.36075586336603621 -0.2426037127049111 0 0.35603419272415182 -0.2169366224123114 0 0.34859569888421221 -0.23412938064951411 0 0.36291464790978972 -0.22902601310760301 0 0.35603419272415182 -0.2169366224123114 0 0.33592071113666833 -0.21528834051928489 0 0.34859569888421221 -0.23412938064951411 0 0.37271206602689039 -0.21308069503546309 0 0.35603419272415182 -0.2169366224123114 0 0.36291464790978972 -0.22902601310760301 0 0.37271206602689039 -0.21308069503546309 0 0.37477580018058132 -0.24095111383496479 0 0.37555308153547928 -0.22286467051027881 0 0.37271206602689039 -0.21308069503546309 0 0.37477580018058132 -0.24095111383496479 0 0.37271206602689039 -0.21308069503546309 0 0.36291464790978972 -0.22902601310760301 0 0.37477580018058132 -0.24095111383496479 0 0.36075586336603621 -0.2426037127049111 0 0.37477580018058132 -0.24095111383496479 0 0.36563983252638571 -0.25462703483095822 0 0.36291464790978972 -0.22902601310760301 0 0.36075586336603621 -0.2426037127049111 0 0.37477580018058132 -0.24095111383496479 0 0.37477580018058132 -0.24095111383496479 0 0.39321551516580561 -0.23618023300957031 0 0.38725375881062551 -0.25185160038302579 0 0.39321551516580561 -0.23618023300957031 0 0.41087794879613182 -0.2494957955088617 0 0.40741230325918792 -0.23450562481703699 0 0.39321551516580561 -0.23618023300957031 0 0.41087794879613182 -0.2494957955088617 0 0.39321551516580561 -0.23618023300957031 0 0.38725375881062551 -0.25185160038302579 0 0.39640803358832022 -0.25154779433757402 0 0.39321551516580561 -0.23618023300957031 0 0.41087794879613182 -0.2494957955088617 0 0.39640803358832022 -0.25154779433757402 0 0.4055308246994358 -0.22407667781788709 0 0.39424069285124719 -0.22310079746779379 0 0.40434357831770951 -0.21487406561090469 0 0.4055308246994358 -0.22407667781788709 0 0.39424069285124719 -0.22310079746779379 0 0.40741230325918792 -0.23450562481703699 0 0.39321551516580561 -0.23618023300957031 0 0.39424069285124719 -0.22310079746779379 0 0.40741230325918792 -0.23450562481703699 0 0.37477580018058132 -0.24095111383496479 0 0.39321551516580561 -0.23618023300957031 0 0.37555308153547928 -0.22286467051027881 0 0.39424069285124719 -0.22310079746779379 0 0.37555308153547928 -0.22286467051027881 0 0.38300691860546521 -0.21527996176244341 0 0.39321551516580561 -0.23618023300957031 0 0.37555308153547928 -0.22286467051027881 0 0.39321551516580561 -0.23618023300957031 0 0.39424069285124719 -0.22310079746779379 0 0.37555308153547928 -0.22286467051027881 0 0.37271206602689039 -0.21308069503546309 0 0.37555308153547928 -0.22286467051027881 0 0.38300691860546521 -0.21527996176244341 0 0.37271206602689039 -0.21308069503546309 0 0.38139900114097952 -0.20469292352659629 0 0.38300691860546521 -0.21527996176244341 0 0.38139900114097952 -0.20469292352659629 0 0.39078770323730427 -0.19674260859680251 0 0.39112975147272949 -0.2126607222720846 0 0.38139900114097952 -0.20469292352659629 0 0.38300691860546521 -0.21527996176244341 0 0.39112975147272949 -0.2126607222720846 0 0.39424069285124719 -0.22310079746779379 0 0.38300691860546521 -0.21527996176244341 0 0.39112975147272949 -0.2126607222720846 0 0.37064833187319962 -0.1852102762359614 0 0.38139900114097952 -0.20469292352659629 0 0.39078770323730427 -0.19674260859680251 0 0.39078770323730427 -0.19674260859680251 0 0.40475141021500721 -0.1910589369573561 0 0.39510197637232292 -0.1839605883432579 0 0.39078770323730427 -0.19674260859680251 0 0.40426546228868082 -0.20108352786525729 0 0.397631623829106 -0.20634023108626229 0 0.39078770323730427 -0.19674260859680251 0 0.40426546228868082 -0.20108352786525729 0 0.40475141021500721 -0.1910589369573561 0 0.39078770323730427 -0.19674260859680251 0 0.39112975147272949 -0.2126607222720846 0 0.397631623829106 -0.20634023108626229 0 0.39112975147272949 -0.2126607222720846 0 0.397631623829106 -0.20634023108626229 0 0.40434357831770951 -0.21487406561090469 0 0.39424069285124719 -0.22310079746779379 0 0.39112975147272949 -0.2126607222720846 0 0.40434357831770951 -0.21487406561090469 0 0.40426546228868082 -0.20108352786525729 0 0.397631623829106 -0.20634023108626229 0 0.40434357831770951 -0.21487406561090469 0 0.40434357831770951 -0.21487406561090469 0 0.41713092845542321 -0.20900944133272009 0 0.41612672436959858 -0.22382622337581301 0 0.40426546228868082 -0.20108352786525729 0 0.40434357831770951 -0.21487406561090469 0 0.41713092845542321 -0.20900944133272009 0 0.41713092845542321 -0.20900944133272009 0 0.42330136258736267 -0.2174116668913772 0 0.41612672436959858 -0.22382622337581301 0 0.40475141021500721 -0.1910589369573561 0 0.41487892771890261 -0.19826025474908979 0 0.4146572714410397 -0.186958864794112 0 0.40426546228868082 -0.20108352786525729 0 0.41713092845542321 -0.20900944133272009 0 0.41487892771890261 -0.19826025474908979 0 0.40426546228868082 -0.20108352786525729 0 0.40475141021500721 -0.1910589369573561 0 0.41487892771890261 -0.19826025474908979 0 0.41713092845542321 -0.20900944133272009 0 0.41487892771890261 -0.19826025474908979 0 0.42701217502226602 -0.19751647228806199 0 0.41487892771890261 -0.19826025474908979 0 0.42053294087941678 -0.1923617771039739 0 0.42701217502226602 -0.19751647228806199 0 0.42053294087941678 -0.1923617771039739 0 0.4146572714410397 -0.186958864794112 0 0.42558338933545942 -0.1867115165846317 0 0.41487892771890261 -0.19826025474908979 0 0.42053294087941678 -0.1923617771039739 0 0.4146572714410397 -0.186958864794112 0 0.42701217502226602 -0.19751647228806199 0 0.43844209377108118 -0.18689286854296691 0 0.44355474576021348 -0.2050869029196882 0 0.42053294087941678 -0.1923617771039739 0 0.42701217502226602 -0.19751647228806199 0 0.42558338933545942 -0.1867115165846317 0 0.42701217502226602 -0.19751647228806199 0 0.42558338933545942 -0.1867115165846317 0 0.43844209377108118 -0.18689286854296691 0 0.42701217502226602 -0.19751647228806199 0 0.43006687167525981 -0.21185300334864521 0 0.44355474576021348 -0.2050869029196882 0 0.41713092845542321 -0.20900944133272009 0 0.42330136258736267 -0.2174116668913772 0 0.43006687167525981 -0.21185300334864521 0 0.42330136258736267 -0.2174116668913772 0 0.43006687167525981 -0.21185300334864521 0 0.42988092584916948 -0.2249579995083304 0 0.41713092845542321 -0.20900944133272009 0 0.42701217502226602 -0.19751647228806199 0 0.43006687167525981 -0.21185300334864521 0 0.43006687167525981 -0.21185300334864521 0 0.42988092584916948 -0.2249579995083304 0 0.44009267276725389 -0.2176624614444449 0 0.42330136258736267 -0.2174116668913772 0 0.42988092584916948 -0.2249579995083304 0 0.41612672436959858 -0.22382622337581301 0 0.42988092584916948 -0.2249579995083304 0 0.43458399188612801 -0.2397076170126072 0 0.42159465327244361 -0.23640953485310751 0 0.42988092584916948 -0.2249579995083304 0 0.42159465327244361 -0.23640953485310751 0 0.41612672436959858 -0.22382622337581301 0 0.42988092584916948 -0.2249579995083304 0 0.43458399188612801 -0.2397076170126072 0 0.44416109061426973 -0.22983272991065171 0 0.43458399188612801 -0.2397076170126072 0 0.42656562700980838 -0.24831468624349931 0 0.4372088962240912 -0.25169219704383999 0 0.43458399188612801 -0.2397076170126072 0 0.42656562700980838 -0.24831468624349931 0 0.42159465327244361 -0.23640953485310751 0 0.42656562700980838 -0.24831468624349931 0 0.42159465327244361 -0.23640953485310751 0 0.41087794879613182 -0.2494957955088617 0 0.42159465327244361 -0.23640953485310751 0 0.41087794879613182 -0.2494957955088617 0 0.40741230325918792 -0.23450562481703699 0 0.4055308246994358 -0.22407667781788709 0 0.40741230325918792 -0.23450562481703699 0 0.41612672436959858 -0.22382622337581301 0 0.4055308246994358 -0.22407667781788709 0 0.40434357831770951 -0.21487406561090469 0 0.41612672436959858 -0.22382622337581301 0 0.42159465327244361 -0.23640953485310751 0 0.40741230325918792 -0.23450562481703699 0 0.41612672436959858 -0.22382622337581301 0 0.39823574772599779 -0.11763079726210079 0 0.40257569972698831 -0.13396225485532559 0 0.38918813321375051 -0.12739880168557821 0 0.40257569972698831 -0.13396225485532559 0 0.38918813321375051 -0.12739880168557821 0 0.39017348084279901 -0.13955387731924049 0 0.38918813321375051 -0.12739880168557821 0 0.37808333446084269 -0.1309391893982525 0 0.39017348084279901 -0.13955387731924049 0 0.37720890243704291 -0.12310924361699779 0 0.36253108037134668 -0.1248744885805331 0 0.38918813321375051 -0.12739880168557821 0 0.36253108037134668 -0.1248744885805331 0 0.38918813321375051 -0.12739880168557821 0 0.37808333446084269 -0.1309391893982525 0 0.36253108037134668 -0.1248744885805331 0 0.38918813321375051 -0.12739880168557821 0 0.37808333446084269 -0.1309391893982525 0 0.39017348084279901 -0.13955387731924049 0 0.3787995421462832 -0.1425544525875144 0 0.36858459771950869 -0.15733985743645959 0 0.3787995421462832 -0.1425544525875144 0 0.38535727780346091 -0.1527557998392445 0 0.39017348084279901 -0.13955387731924049 0 0.3787995421462832 -0.1425544525875144 0 0.38535727780346091 -0.1527557998392445 0 0.40257569972698831 -0.13396225485532559 0 0.39822107621443897 -0.1501202070538992 0 0.41732028123257531 -0.14286435439753159 0 0.40257569972698831 -0.13396225485532559 0 0.39017348084279901 -0.13955387731924049 0 0.39822107621443897 -0.1501202070538992 0 0.39017348084279901 -0.13955387731924049 0 0.38535727780346091 -0.1527557998392445 0 0.39822107621443897 -0.1501202070538992 0 0.39822107621443897 -0.1501202070538992 0 0.39107178753907162 -0.16851380255406381 0 0.40713652226246821 -0.16744863749245631 0 0.39107178753907162 -0.16851380255406381 0 0.40713652226246821 -0.16744863749245631 0 0.38535727780346091 -0.1527557998392445 0 0.39822107621443897 -0.1501202070538992 0 0.39107178753907162 -0.16851380255406381 0 0.39107178753907162 -0.16851380255406381 0 0.40460499843718001 -0.17902112385493851 0 0.40713652226246821 -0.16744863749245631 0 0.36858459771950869 -0.15733985743645959 0 0.38535727780346091 -0.1527557998392445 0 0.39107178753907162 -0.16851380255406381 0 0.36858459771950869 -0.15733985743645959 0 0.39107178753907162 -0.16851380255406381 0 0.3834788620725188 -0.17954848884060079 0 0.39107178753907162 -0.16851380255406381 0 0.3834788620725188 -0.17954848884060079 0 0.39510197637232292 -0.1839605883432579 0 0.39078770323730427 -0.19674260859680251 0 0.3834788620725188 -0.17954848884060079 0 0.39510197637232292 -0.1839605883432579 0 0.37064833187319962 -0.1852102762359614 0 0.39078770323730427 -0.19674260859680251 0 0.3834788620725188 -0.17954848884060079 0 0.39107178753907162 -0.16851380255406381 0 0.39510197637232292 -0.1839605883432579 0 0.40460499843718001 -0.17902112385493851 0 0.40475141021500721 -0.1910589369573561 0 0.39510197637232292 -0.1839605883432579 0 0.40460499843718001 -0.17902112385493851 0 0.40475141021500721 -0.1910589369573561 0 0.40460499843718001 -0.17902112385493851 0 0.4146572714410397 -0.186958864794112 0 0.40460499843718001 -0.17902112385493851 0 0.41491102279317088 -0.17618591298838529 0 0.4146572714410397 -0.186958864794112 0 0.40460499843718001 -0.17902112385493851 0 0.41491102279317088 -0.17618591298838529 0 0.40713652226246821 -0.16744863749245631 0 0.41491102279317088 -0.17618591298838529 0 0.42527009306055918 -0.1746571334479238 0 0.4232012569858648 -0.16638347243084889 0 0.41491102279317088 -0.17618591298838529 0 0.42095079563492938 -0.18072636251124541 0 0.42527009306055918 -0.1746571334479238 0 0.41491102279317088 -0.17618591298838529 0 0.42095079563492938 -0.18072636251124541 0 0.4146572714410397 -0.186958864794112 0 0.42095079563492938 -0.18072636251124541 0 0.4146572714410397 -0.186958864794112 0 0.42558338933545942 -0.1867115165846317 0 0.43180268423531071 -0.1802632517690351 0 0.42527009306055918 -0.1746571334479238 0 0.44880083799057491 -0.164686103644653 0 0.42095079563492938 -0.18072636251124541 0 0.42558338933545942 -0.1867115165846317 0 0.43180268423531071 -0.1802632517690351 0 0.42558338933545942 -0.1867115165846317 0 0.43180268423531071 -0.1802632517690351 0 0.43844209377108118 -0.18689286854296691 0 0.42095079563492938 -0.18072636251124541 0 0.43180268423531071 -0.1802632517690351 0 0.42527009306055918 -0.1746571334479238 0 0.42527009306055918 -0.1746571334479238 0 0.4232012569858648 -0.16638347243084889 0 0.44880083799057491 -0.164686103644653 0 0.4232012569858648 -0.16638347243084889 0 0.43334283997313311 -0.15135273030925811 0 0.44880083799057491 -0.164686103644653 0 0.4232012569858648 -0.16638347243084889 0 0.44880083799057491 -0.164686103644653 0 0.42527009306055918 -0.1746571334479238 0 0.4232012569858648 -0.16638347243084889 0 0.4232012569858648 -0.16638347243084889 0 0.40713652226246821 -0.16744863749245631 0 0.41732028123257531 -0.14286435439753159 0 0.41491102279317088 -0.17618591298838529 0 0.4232012569858648 -0.16638347243084889 0 0.40713652226246821 -0.16744863749245631 0 0.4232012569858648 -0.16638347243084889 0 0.40713652226246821 -0.16744863749245631 0 0.4232012569858648 -0.16638347243084889 0 0.41732028123257531 -0.14286435439753159 0 0.39822107621443897 -0.1501202070538992 0 0.40713652226246821 -0.16744863749245631 0 0.41732028123257531 -0.14286435439753159 0 0.41732028123257531 -0.14286435439753159 0 0.43334283997313311 -0.15135273030925811 0 0.43763345530417341 -0.13584027725706749 0 0.4232012569858648 -0.16638347243084889 0 0.41732028123257531 -0.14286435439753159 0 0.43334283997313311 -0.15135273030925811 0 0.42916935431308728 -0.1205456085246996 0 0.41732028123257531 -0.14286435439753159 0 0.43763345530417341 -0.13584027725706749 0 0.42916935431308728 -0.1205456085246996 0 0.4435038969132965 -0.12540022695152131 0 0.43763345530417341 -0.13584027725706749 0 0.41143930547928681 -0.11934523636421419 0 0.42916935431308728 -0.1205456085246996 0 0.41732028123257531 -0.14286435439753159 0 0.41143930547928681 -0.11934523636421419 0 0.40257569972698831 -0.13396225485532559 0 0.41732028123257531 -0.14286435439753159 0 0.41143930547928681 -0.11934523636421419 0 0.41732028123257531 -0.14286435439753159 0 0.46257396642688631 -0.12529077885077469 0 0.46381730130484328 -0.1363472541609663 0 0.4585659370706795 -0.1308283620105129 0 0.46381730130484328 -0.1363472541609663 0 0.4585659370706795 -0.1308283620105129 0 0.45274550479158487 -0.1345999168850856 0 0.46381730130484328 -0.1363472541609663 0 0.45274550479158487 -0.1345999168850856 0 0.46138481906560302 -0.14686228775601681 0 0.46257396642688631 -0.12529077885077469 0 0.4585659370706795 -0.1308283620105129 0 0.45239247298790419 -0.125419693033265 0 0.4585659370706795 -0.1308283620105129 0 0.45239247298790419 -0.125419693033265 0 0.45274550479158487 -0.1345999168850856 0 0.45239247298790419 -0.125419693033265 0 0.4435038969132965 -0.12540022695152131 0 0.45274550479158487 -0.1345999168850856 0 0.4435038969132965 -0.12540022695152131 0 0.43763345530417341 -0.13584027725706749 0 0.45274550479158487 -0.1345999168850856 0 0.43763345530417341 -0.13584027725706749 0 0.45274550479158487 -0.1345999168850856 0 0.44678149142501389 -0.1466682631704162 0 0.43334283997313311 -0.15135273030925811 0 0.44678149142501389 -0.1466682631704162 0 0.44880083799057491 -0.164686103644653 0 0.44678149142501389 -0.1466682631704162 0 0.46138481906560302 -0.14686228775601681 0 0.44880083799057491 -0.164686103644653 0 0.43334283997313311 -0.15135273030925811 0 0.43763345530417341 -0.13584027725706749 0 0.44678149142501389 -0.1466682631704162 0 0.45274550479158487 -0.1345999168850856 0 0.44678149142501389 -0.1466682631704162 0 0.46138481906560302 -0.14686228775601681 0 0.46138481906560302 -0.14686228775601681 0 0.44880083799057491 -0.164686103644653 0 0.47440041899528501 -0.16298873485845719 0 0.44880083799057491 -0.164686103644653 0 0.46834799031954211 -0.17915452781490099 0 0.47440041899528501 -0.16298873485845719 0 0.44880083799057491 -0.164686103644653 0 0.47440041899528501 -0.16298873485845719 0 0.43180268423531071 -0.1802632517690351 0 0.44880083799057491 -0.164686103644653 0 0.43844209377108118 -0.18689286854296691 0 0.44880083799057491 -0.164686103644653 0 0.43844209377108118 -0.18689286854296691 0 0.45508032593701309 -0.1914137801830845 0 0.44880083799057491 -0.164686103644653 0 0.46834799031954211 -0.17915452781490099 0 0.45508032593701309 -0.1914137801830845 0 0.46834799031954211 -0.17915452781490099 0 0.48419704391512092 -0.17843144908975531 0 0.47440041899528501 -0.16298873485845719 0 0.46834799031954211 -0.17915452781490099 0 0.48419704391512092 -0.17843144908975531 0 0.47823681026078202 -0.19812675643970101 0 0.48419704391512092 -0.17843144908975531 0 0.49999999999999523 -0.16129136607226169 0 0.5 -0.1905958602634561 0 0.49999999999999523 -0.16129136607226169 0 0.47440041899528501 -0.16298873485845719 0 0.50000000000000067 -0.1547763741112759 0 0.48419704391512092 -0.17843144908975531 0 0.49999999999999523 -0.16129136607226169 0 0.47440041899528501 -0.16298873485845719 0 0.49999999999999523 -0.16129136607226169 0 0.47440041899528501 -0.16298873485845719 0 0.46138481906560302 -0.14686228775601681 0 0.47440041899528501 -0.16298873485845719 0 0.48128698321344371 -0.14003357648102521 0 0.46381730130484328 -0.1363472541609663 0 0.46138481906560302 -0.14686228775601681 0 0.48128698321344371 -0.14003357648102521 0 0.50000000000000067 -0.1547763741112759 0 0.48128698321344371 -0.14003357648102521 0 0.50000000000000067 -0.1547763741112759 0 0.5 -0.13349841451636779 0 0.48128698321344371 -0.14003357648102521 0 0.47440041899528501 -0.16298873485845719 0 0.50000000000000067 -0.1547763741112759 0 0.48128698321344371 -0.14003357648102521 0 0.48087269318342413 -0.1216818802472065 0 0.5 -0.13349841451636779 0 0.48128698321344371 -0.14003357648102521 0 0.46257396642688631 -0.12529077885077469 0 0.48128698321344371 -0.14003357648102521 0 0.46257396642688631 -0.12529077885077469 0 0.46381730130484328 -0.1363472541609663 0 0.48128698321344371 -0.14003357648102521 0 0.47129126618897188 -0.1223351355815797 0 0.48087269318342413 -0.1216818802472065 0 0.48128698321344371 -0.14003357648102521 0 0.47129126618897188 -0.1223351355815797 0 0.46257396642688631 -0.12529077885077469 0 0.48128698321344371 -0.14003357648102521 0 0.46029750420545162 -0.23134667767863379 0 0.45079963313025367 -0.219495204315066 0 0.46126535540865482 -0.21094244298034759 0 0.46029750420545162 -0.23134667767863379 0 0.46126535540865482 -0.21094244298034759 0 0.47937109712497578 -0.22608105856418539 0 0.46029750420545162 -0.23134667767863379 0 0.44856132313442931 -0.24393079079591279 0 0.47387431588802909 -0.25499376211151131 0 0.46029750420545162 -0.23134667767863379 0 0.44856132313442931 -0.24393079079591279 0 0.44416109061426973 -0.22983272991065171 0 0.43458399188612801 -0.2397076170126072 0 0.44856132313442931 -0.24393079079591279 0 0.4372088962240912 -0.25169219704383999 0 0.43458399188612801 -0.2397076170126072 0 0.44856132313442931 -0.24393079079591279 0 0.44416109061426973 -0.22983272991065171 0 0.46029750420545162 -0.23134667767863379 0 0.44416109061426973 -0.22983272991065171 0 0.45079963313025367 -0.219495204315066 0 0.44416109061426973 -0.22983272991065171 0 0.45079963313025367 -0.219495204315066 0 0.44009267276725389 -0.2176624614444449 0 0.42988092584916948 -0.2249579995083304 0 0.44416109061426973 -0.22983272991065171 0 0.44009267276725389 -0.2176624614444449 0 0.45079963313025367 -0.219495204315066 0 0.44355474576021348 -0.2050869029196882 0 0.46126535540865482 -0.21094244298034759 0 0.43006687167525981 -0.21185300334864521 0 0.44009267276725389 -0.2176624614444449 0 0.44355474576021348 -0.2050869029196882 0 0.45079963313025367 -0.219495204315066 0 0.44009267276725389 -0.2176624614444449 0 0.44355474576021348 -0.2050869029196882 0 0.43844209377108118 -0.18689286854296691 0 0.44355474576021348 -0.2050869029196882 0 0.45508032593701309 -0.1914137801830845 0 0.46834799031954211 -0.17915452781490099 0 0.45508032593701309 -0.1914137801830845 0 0.47823681026078202 -0.19812675643970101 0 0.44355474576021348 -0.2050869029196882 0 0.45508032593701309 -0.1914137801830845 0 0.46126535540865482 -0.21094244298034759 0 0.45508032593701309 -0.1914137801830845 0 0.46126535540865482 -0.21094244298034759 0 0.47823681026078202 -0.19812675643970101 0 0.46126535540865482 -0.21094244298034759 0 0.47823681026078202 -0.19812675643970101 0 0.47937109712497578 -0.22608105856418539 0 0.48419704391512092 -0.17843144908975531 0 0.47823681026078202 -0.19812675643970101 0 0.5 -0.1905958602634561 0 0.47823681026078202 -0.19812675643970101 0 0.5 -0.1905958602634561 0 0.5 -0.21990035445465039 0 0.47823681026078202 -0.19812675643970101 0 0.5 -0.21990035445465039 0 0.47937109712497578 -0.22608105856418539 0 0.5 -0.21990035445465039 0 0.47937109712497578 -0.22608105856418539 0 0.50000000000000444 -0.24920484864584491 0 0.46029750420545162 -0.23134667767863379 0 0.47937109712497578 -0.22608105856418539 0 0.47387431588802909 -0.25499376211151131 0 0.47937109712497578 -0.22608105856418539 0 0.50000000000000444 -0.24920484864584491 0 0.47387431588802909 -0.25499376211151131 0 0.50000000000000444 -0.24920484864584491 0 0.4915669900217115 -0.25615479242606781 0 0.5 -0.27170772691138367 0 0.50000000000000444 -0.24920484864584491 0 0.4915669900217115 -0.25615479242606781 0 0.47387431588802909 -0.25499376211151131 0 0.50000000000000444 -0.24920484864584491 0 0.47387431588802909 -0.25499376211151131 0 0.4915669900217115 -0.25615479242606781 0 0.48280749151585822 -0.27129304150170008 0 0.47954864786353962 -0.26301133191085868 0 0.4915669900217115 -0.25615479242606781 0 0.5 -0.27170772691138367 0 0.48280749151585822 -0.27129304150170008 0 0.5 -0.27170772691138367 0 0.48280749151585822 -0.27129304150170008 0 0.48951500520952212 -0.28458010338455908 0 0.48280749151585822 -0.27129304150170008 0 0.47474596181800061 -0.28621450290334632 0 0.48951500520952212 -0.28458010338455908 0 0.48280749151585822 -0.27129304150170008 0 0.47416229901770612 -0.26612875971404459 0 0.47954864786353962 -0.26301133191085868 0 0.48280749151585822 -0.27129304150170008 0 0.47416229901770612 -0.26612875971404459 0 0.47052118473631321 -0.27447720361836658 0 0.47416229901770612 -0.26612875971404459 0 0.47052118473631321 -0.27447720361836658 0 0.46319689217890331 -0.26835660325056299 0 0.48280749151585822 -0.27129304150170008 0 0.47052118473631321 -0.27447720361836658 0 0.47474596181800061 -0.28621450290334632 0 0.4915669900217115 -0.25615479242606781 0 0.46965781089888248 -0.25846873400162218 0 0.4915669900217115 -0.25615479242606781 0 0.47387431588802909 -0.25499376211151131 0 0.46965781089888248 -0.25846873400162218 0 0.4915669900217115 -0.25615479242606781 0 0.47954864786353962 -0.26301133191085868 0 0.46965781089888248 -0.25846873400162218 0 0.47416229901770612 -0.26612875971404459 0 0.47954864786353962 -0.26301133191085868 0 0.46965781089888248 -0.25846873400162218 0 0.47416229901770612 -0.26612875971404459 0 0.46965781089888248 -0.25846873400162218 0 0.46319689217890331 -0.26835660325056299 0 0.46965781089888248 -0.25846873400162218 0 0.46319689217890331 -0.26835660325056299 0 0.4477486317760534 -0.26078267557717671 0 0.44856132313442931 -0.24393079079591279 0 0.47387431588802909 -0.25499376211151131 0 0.4477486317760534 -0.26078267557717671 0 0.47387431588802909 -0.25499376211151131 0 0.4477486317760534 -0.26078267557717671 0 0.46965781089888248 -0.25846873400162218 0 0.4477486317760534 -0.26078267557717671 0 0.47387431588802909 -0.25499376211151131 0 0.46965781089888248 -0.25846873400162218 0 0.4477486317760534 -0.26078267557717671 0 0.47052118473631321 -0.27447720361836658 0 0.45389453446556111 -0.28192564334160541 0 0.47474596181800061 -0.28621450290334632 0 0.47052118473631321 -0.27447720361836658 0 0.46319689217890331 -0.26835660325056299 0 0.45389453446556111 -0.28192564334160541 0 0.46319689217890331 -0.26835660325056299 0 0.4477486317760534 -0.26078267557717671 0 0.45389453446556111 -0.28192564334160541 0 0.45389453446556111 -0.28192564334160541 0 0.430823863629894 -0.26453285558412298 0 0.45389453446556111 -0.28192564334160541 0 0.430823863629894 -0.26453285558412298 0 0.43570592202634773 -0.28205449164250063 0 0.4477486317760534 -0.26078267557717671 0 0.45389453446556111 -0.28192564334160541 0 0.430823863629894 -0.26453285558412298 0 0.4477486317760534 -0.26078267557717671 0 0.42854038242645709 -0.26281135800815408 0 0.44856132313442931 -0.24393079079591279 0 0.4477486317760534 -0.26078267557717671 0 0.4372088962240912 -0.25169219704383999 0 0.4477486317760534 -0.26078267557717671 0 0.42854038242645709 -0.26281135800815408 0 0.4372088962240912 -0.25169219704383999 0 0.4477486317760534 -0.26078267557717671 0 0.430823863629894 -0.26453285558412298 0 0.44815314542162782 -0.30273998798419938 0 0.44271266904340639 -0.31513600928105973 0 0.43092107089682352 -0.30573631325696571 0 0.44815314542162782 -0.30273998798419938 0 0.43874415768382158 -0.29310671547163403 0 0.43092107089682352 -0.30573631325696571 0 0.43874415768382158 -0.29310671547163403 0 0.45389453446556111 -0.28192564334160541 0 0.43570592202634773 -0.28205449164250063 0 0.44815314542162782 -0.30273998798419938 0 0.43874415768382158 -0.29310671547163403 0 0.45389453446556111 -0.28192564334160541 0 0.45389453446556111 -0.28192564334160541 0 0.46668010371271101 -0.29937682325086112 0 0.47474596181800061 -0.28621450290334632 0 0.44815314542162782 -0.30273998798419938 0 0.45389453446556111 -0.28192564334160541 0 0.46668010371271101 -0.29937682325086112 0 0.46668010371271101 -0.29937682325086112 0 0.45907432653114449 -0.32014896664993769 0 0.44815314542162782 -0.30273998798419938 0 0.46668010371271101 -0.29937682325086112 0 0.45907432653114449 -0.32014896664993769 0 0.46668010371271101 -0.29937682325086112 0 0.48375110351916628 -0.30725513966339157 0 0.45907432653114449 -0.32014896664993769 0 0.46668010371271101 -0.29937682325086112 0 0.48375110351916628 -0.30725513966339157 0 0.47474596181800061 -0.28621450290334632 0 0.48375110351916628 -0.30725513966339157 0 0.47474596181800061 -0.28621450290334632 0 0.48951500520952212 -0.28458010338455908 0 0.48375110351916628 -0.30725513966339157 0 0.5 -0.29421060517692271 0 0.48951500520952212 -0.28458010338455908 0 0.5 -0.27170772691138367 0 0.5 -0.29421060517692271 0 0.48951500520952212 -0.28458010338455908 0 0.48375110351916628 -0.30725513966339157 0 0.5 -0.29421060517692271 0 0.49999999999999972 -0.31671348344246159 0 0.48375110351916628 -0.30725513966339157 0 0.49999999999999972 -0.31671348344246159 0 0.48658745812515303 -0.32591538654610069 0 0.49999999999999972 -0.31671348344246159 0 0.49107839048707969 -0.33844651150006611 0 0.49999999999999972 -0.31671348344246159 0 0.48658745812515303 -0.32591538654610069 0 0.49107839048707969 -0.33844651150006611 0 0.49999999999999972 -0.31671348344246159 0 0.5 -0.34354646621870782 0 0.49107839048707969 -0.33844651150006611 0 0.48658745812515303 -0.32591538654610069 0 0.49107839048707969 -0.33844651150006611 0 0.48013111160135669 -0.33592777501669763 0 0.48658745812515303 -0.32591538654610069 0 0.48013111160135669 -0.33592777501669763 0 0.47588582758327369 -0.32632043512378739 0 0.48013111160135669 -0.33592777501669763 0 0.46883970942210401 -0.33989811375075968 0 0.47588582758327369 -0.32632043512378739 0 0.48375110351916628 -0.30725513966339157 0 0.48658745812515303 -0.32591538654610069 0 0.47588582758327369 -0.32632043512378739 0 0.48375110351916628 -0.30725513966339157 0 0.47588582758327369 -0.32632043512378739 0 0.45907432653114449 -0.32014896664993769 0 0.5 -0.37037944899495368 0 0.48466784746851571 -0.3739080713738358 0 0.48215678097416009 -0.36017953955767068 0 0.5 -0.34354646621870782 0 0.49107839048707969 -0.33844651150006611 0 0.48215678097416009 -0.36017953955767068 0 0.49107839048707969 -0.33844651150006611 0 0.48013111160135669 -0.33592777501669763 0 0.48215678097416009 -0.36017953955767068 0 0.5 -0.34354646621870782 0 0.5 -0.37037944899495368 0 0.48215678097416009 -0.36017953955767068 0 0.49107839048707969 -0.33844651150006611 0 0.48215678097416009 -0.36017953955767068 0 0.48013111160135669 -0.33592777501669763 0 0.46883970942210401 -0.33989811375075968 0 0.48215678097416009 -0.36017953955767068 0 0.46883970942210401 -0.33989811375075968 0 0.48215678097416009 -0.36017953955767068 0 0.46166172922915721 -0.35810144835948332 0 0.48215678097416009 -0.36017953955767068 0 0.47323517146124039 -0.38191256761527542 0 0.48215678097416009 -0.36017953955767068 0 0.4671179630262795 -0.37324494563770522 0 0.47323517146124039 -0.38191256761527542 0 0.48466784746851571 -0.3739080713738358 0 0.48215678097416009 -0.36017953955767068 0 0.47323517146124039 -0.38191256761527542 0 0.48215678097416009 -0.36017953955767068 0 0.4671179630262795 -0.37324494563770522 0 0.46166172922915721 -0.35810144835948332 0 0.45652460043480969 -0.37267172771365881 0 0.46166172922915721 -0.35810144835948332 0 0.44386277216801179 -0.36169325344809122 0 0.45652460043480969 -0.37267172771365881 0 0.4671179630262795 -0.37324494563770522 0 0.46166172922915721 -0.35810144835948332 0 0.46883970942210401 -0.33989811375075968 0 0.46166172922915721 -0.35810144835948332 0 0.45146854934957792 -0.34092111004901438 0 0.43963091224731599 -0.34751792105314822 0 0.44386277216801179 -0.36169325344809122 0 0.45146854934957792 -0.34092111004901438 0 0.44386277216801179 -0.36169325344809122 0 0.45146854934957792 -0.34092111004901438 0 0.46166172922915721 -0.35810144835948332 0 0.44386277216801179 -0.36169325344809122 0 0.45146854934957792 -0.34092111004901438 0 0.44386277216801179 -0.36169325344809122 0 0.43376943787959182 -0.36708850497004442 0 0.43808065797110041 -0.37748478958974491 0 0.45652460043480969 -0.37267172771365881 0 0.44386277216801179 -0.36169325344809122 0 0.44783900322824399 -0.38008781189722518 0 0.44386277216801179 -0.36169325344809122 0 0.43808065797110041 -0.37748478958974491 0 0.44386277216801179 -0.36169325344809122 0 0.43808065797110041 -0.37748478958974491 0 0.44783900322824399 -0.38008781189722518 0 0.45652460043480969 -0.37267172771365881 0 0.44386277216801179 -0.36169325344809122 0 0.46883970942210401 -0.33989811375075968 0 0.45907432653114449 -0.32014896664993769 0 0.45146854934957792 -0.34092111004901438 0 0.45907432653114449 -0.32014896664993769 0 0.45146854934957792 -0.34092111004901438 0 0.46883970942210401 -0.33989811375075968 0 0.47588582758327369 -0.32632043512378739 0 0.45907432653114449 -0.32014896664993769 0 0.43963091224731599 -0.34751792105314822 0 0.45146854934957792 -0.34092111004901438 0 0.43565299676263758 -0.3352386806192425 0 0.45146854934957792 -0.34092111004901438 0 0.44493724809618768 -0.32603283426431229 0 0.43565299676263758 -0.3352386806192425 0 0.45907432653114449 -0.32014896664993769 0 0.45146854934957792 -0.34092111004901438 0 0.44493724809618768 -0.32603283426431229 0 0.45907432653114449 -0.32014896664993769 0 0.44493724809618768 -0.32603283426431229 0 0.44271266904340639 -0.31513600928105973 0 0.44493724809618768 -0.32603283426431229 0 0.44271266904340639 -0.31513600928105973 0 0.43047755427124879 -0.32102194424988317 0 0.44815314542162782 -0.30273998798419938 0 0.45907432653114449 -0.32014896664993769 0 0.44271266904340639 -0.31513600928105973 0 0.44271266904340639 -0.31513600928105973 0 0.43047755427124879 -0.32102194424988317 0 0.43092107089682352 -0.30573631325696571 0 0.43047755427124879 -0.32102194424988317 0 0.41919911313656122 -0.31385112706466711 0 0.41739686236043672 -0.32199345155319897 0 0.43047755427124879 -0.32102194424988317 0 0.41919911313656122 -0.31385112706466711 0 0.43092107089682352 -0.30573631325696571 0 0.43047755427124879 -0.32102194424988317 0 0.42053718701310799 -0.32957674384091618 0 0.41739686236043672 -0.32199345155319897 0 0.44493724809618768 -0.32603283426431229 0 0.43047755427124879 -0.32102194424988317 0 0.43565299676263758 -0.3352386806192425 0 0.43565299676263758 -0.3352386806192425 0 0.42053718701310799 -0.32957674384091618 0 0.4250793590774925 -0.34540704162396091 0 0.43963091224731599 -0.34751792105314822 0 0.43565299676263758 -0.3352386806192425 0 0.4250793590774925 -0.34540704162396091 0 0.43047755427124879 -0.32102194424988317 0 0.43565299676263758 -0.3352386806192425 0 0.42053718701310799 -0.32957674384091618 0 0.4062959459869725 -0.32912082979983148 0 0.4250793590774925 -0.34540704162396091 0 0.41055923831377589 -0.34398547157316572 0 0.42053718701310799 -0.32957674384091618 0 0.4062959459869725 -0.32912082979983148 0 0.4250793590774925 -0.34540704162396091 0 0.4062959459869725 -0.32912082979983148 0 0.4250793590774925 -0.34540704162396091 0 0.42053718701310799 -0.32957674384091618 0 0.4062959459869725 -0.32912082979983148 0 0.40802480504278882 -0.32457497099322458 0 0.4062959459869725 -0.32912082979983148 0 0.40802480504278882 -0.32457497099322458 0 0.4062959459869725 -0.32912082979983148 0 0.40802480504278882 -0.32457497099322458 0 0.40572459905769331 -0.31910551143285631 0 0.40802480504278882 -0.32457497099322458 0 0.4119015194344513 -0.31818912214386269 0 0.41739686236043672 -0.32199345155319897 0 0.40802480504278882 -0.32457497099322458 0 0.4119015194344513 -0.31818912214386269 0 0.40572459905769331 -0.31910551143285631 0 0.4119015194344513 -0.31818912214386269 0 0.41919911313656122 -0.31385112706466711 0 0.40916221757477672 -0.31142054967536659 0 0.4119015194344513 -0.31818912214386269 0 0.40572459905769331 -0.31910551143285631 0 0.40916221757477672 -0.31142054967536659 0 0.4119015194344513 -0.31818912214386269 0 0.41919911313656122 -0.31385112706466711 0 0.41739686236043672 -0.32199345155319897 0 0.42053718701310799 -0.32957674384091618 0 0.40802480504278882 -0.32457497099322458 0 0.41739686236043672 -0.32199345155319897 0 0.44386277216801179 -0.36169325344809122 0 0.43376943787959182 -0.36708850497004442 0 0.42728564025893462 -0.35958684797927032 0 0.42489657602010461 -0.37065940299189432 0 0.43376943787959182 -0.36708850497004442 0 0.43808065797110041 -0.37748478958974491 0 0.42489657602010461 -0.37065940299189432 0 0.43376943787959182 -0.36708850497004442 0 0.42728564025893462 -0.35958684797927032 0 0.44386277216801179 -0.36169325344809122 0 0.4250793590774925 -0.34540704162396091 0 0.43963091224731599 -0.34751792105314822 0 0.44386277216801179 -0.36169325344809122 0 0.4250793590774925 -0.34540704162396091 0 0.44386277216801179 -0.36169325344809122 0 0.42728564025893462 -0.35958684797927032 0 0.4250793590774925 -0.34540704162396091 0 0.42728564025893462 -0.35958684797927032 0 0.4250793590774925 -0.34540704162396091 0 0.41069622259092692 -0.35617360609135817 0 0.4250793590774925 -0.34540704162396091 0 0.41055923831377589 -0.34398547157316572 0 0.41069622259092692 -0.35617360609135817 0 0.41055923831377589 -0.34398547157316572 0 0.41069622259092692 -0.35617360609135817 0 0.40016542559971202 -0.34524040877751239 0 0.42489657602010461 -0.37065940299189432 0 0.42728564025893462 -0.35958684797927032 0 0.41069622259092692 -0.35617360609135817 0 0.42489657602010461 -0.37065940299189432 0 0.41069622259092692 -0.35617360609135817 0 0.4070765621089808 -0.37107032214525337 0 0.42489657602010461 -0.37065940299189432 0 0.41069622259092692 -0.35617360609135817 0 0.39585190457779329 -0.37201308858561799 0 0.3940349052124521 -0.36135998775519362 0 0.38601585554704992 -0.38244526212700758 0 0.41069622259092692 -0.35617360609135817 0 0.4070765621089808 -0.37107032214525337 0 0.3940349052124521 -0.36135998775519362 0 0.4070765621089808 -0.37107032214525337 0 0.39585190457779329 -0.37201308858561799 0 0.3940349052124521 -0.36135998775519362 0 0.39585190457779329 -0.37201308858561799 0 0.3940349052124521 -0.36135998775519362 0 0.3940349052124521 -0.36135998775519362 0 0.40016542559971202 -0.34524040877751239 0 0.38974443050024338 -0.33620485529262373 0 0.3940349052124521 -0.36135998775519362 0 0.38974443050024338 -0.33620485529262373 0 0.3940349052124521 -0.36135998775519362 0 0.40016542559971202 -0.34524040877751239 0 0.41069622259092692 -0.35617360609135817 0 0.3940349052124521 -0.36135998775519362 0 0.40016542559971202 -0.34524040877751239 0 0.3940349052124521 -0.36135998775519362 0 0.38974443050024338 -0.33620485529262373 0 0.37368731816096312 -0.34897020548070451 0 0.3940349052124521 -0.36135998775519362 0 0.38601585554704992 -0.38244526212700758 0 0.3940349052124521 -0.36135998775519362 0 0.38601585554704992 -0.38244526212700758 0 0.3689120952668708 -0.37284951495870189 0 0.3940349052124521 -0.36135998775519362 0 0.3689120952668708 -0.37284951495870189 0 0.37368731816096312 -0.34897020548070451 0 0.4062959459869725 -0.32912082979983148 0 0.40572459905769331 -0.31910551143285631 0 0.39816778062817881 -0.31191488097197773 0 0.4062959459869725 -0.32912082979983148 0 0.38974443050024338 -0.33620485529262373 0 0.38545395578803499 -0.31104972283005378 0 0.4062959459869725 -0.32912082979983148 0 0.38545395578803499 -0.31104972283005378 0 0.4062959459869725 -0.32912082979983148 0 0.38545395578803499 -0.31104972283005378 0 0.39816778062817881 -0.31191488097197773 0 0.40572459905769331 -0.31910551143285631 0 0.39816778062817881 -0.31191488097197773 0 0.40916221757477672 -0.31142054967536659 0 0.4062959459869725 -0.32912082979983148 0 0.40016542559971202 -0.34524040877751239 0 0.38974443050024338 -0.33620485529262373 0 0.4062959459869725 -0.32912082979983148 0 0.40016542559971202 -0.34524040877751239 0 0.4062959459869725 -0.32912082979983148 0 0.41055923831377589 -0.34398547157316572 0 0.40016542559971202 -0.34524040877751239 0 0.38974443050024338 -0.33620485529262373 0 0.36945761595668469 -0.32738841673247931 0 0.37368731816096312 -0.34897020548070451 0 0.38974443050024338 -0.33620485529262373 0 0.38545395578803499 -0.31104972283005378 0 0.36945761595668469 -0.32738841673247931 0 0.38974443050024338 -0.33620485529262373 0 0.38545395578803499 -0.31104972283005378 0 0.38545395578803499 -0.31104972283005378 0 0.38245755150739558 -0.29348174920317632 0 0.37101427446782781 -0.29852975601036341 0 0.38545395578803499 -0.31104972283005378 0 0.38245755150739558 -0.29348174920317632 0 0.38545395578803499 -0.31104972283005378 0 0.37101427446782781 -0.29852975601036341 0 0.38545395578803499 -0.31104972283005378 0 0.39567659353887108 -0.29306988619604551 0 0.38245755150739558 -0.29348174920317632 0 0.39816778062817881 -0.31191488097197773 0 0.40563314249086863 -0.30155395497769039 0 0.39567659353887108 -0.29306988619604551 0 0.38545395578803499 -0.31104972283005378 0 0.39816778062817881 -0.31191488097197773 0 0.39567659353887108 -0.29306988619604551 0 0.39816778062817881 -0.31191488097197773 0 0.40563314249086863 -0.30155395497769039 0 0.40916221757477672 -0.31142054967536659 0 0.39567659353887108 -0.29306988619604551 0 0.40514250542832608 -0.27022331558021301 0 0.41160024963212011 -0.28933460066763711 0 0.40563314249086863 -0.30155395497769039 0 0.39567659353887108 -0.29306988619604551 0 0.41160024963212011 -0.28933460066763711 0 0.38245755150739558 -0.29348174920317632 0 0.37946114722675722 -0.27591377557629859 0 0.39567659353887108 -0.29306988619604551 0 0.38245755150739558 -0.29348174920317632 0 0.37946114722675722 -0.27591377557629859 0 0.38245755150739558 -0.29348174920317632 0 0.37795999762798671 -0.28395322059410122 0 0.37946114722675722 -0.27591377557629859 0 0.37519981906117678 -0.29055939022370142 0 0.38245755150739558 -0.29348174920317632 0 0.37101427446782781 -0.29852975601036341 0 0.37519981906117678 -0.29055939022370142 0 0.38245755150739558 -0.29348174920317632 0 0.37795999762798671 -0.28395322059410122 0 0.37795999762798671 -0.28395322059410122 0 0.37946114722675722 -0.27591377557629859 0 0.37739853904771847 -0.27637080706343392 0 0.37739853904771847 -0.27637080706343392 0 0.37683953433427181 -0.26882153263446662 0 0.37273728942595791 -0.27740364396778311 0 0.37795999762798671 -0.28395322059410122 0 0.37739853904771847 -0.27637080706343392 0 0.37273728942595791 -0.27740364396778311 0 0.37946114722675722 -0.27591377557629859 0 0.38774772661347989 -0.26664574742688191 0 0.3964002279028962 -0.26984905957103239 0 0.37946114722675722 -0.27591377557629859 0 0.3964002279028962 -0.26984905957103239 0 0.37795999762798671 -0.28395322059410122 0 0.37739853904771847 -0.27637080706343392 0 0.37739853904771847 -0.27637080706343392 0 0.37273728942595791 -0.27740364396778311 0 0.37946114722675722 -0.27591377557629859 0 0.37739853904771847 -0.27637080706343392 0 0.37683953433427181 -0.26882153263446662 0 0.37946114722675722 -0.27591377557629859 0 0.37739853904771847 -0.27637080706343392 0 0.37946114722675722 -0.27591377557629859 0 0.37843581040967561 -0.26746760801825881 0 0.38284686623937531 -0.26497045393317709 0 0.37946114722675722 -0.27591377557629859 0 0.37683953433427181 -0.26882153263446662 0 0.37843581040967561 -0.26746760801825881 0 0.37739853904771847 -0.27637080706343392 0 0.37683953433427181 -0.26882153263446662 0 0.37683953433427181 -0.26882153263446662 0 0.37843581040967561 -0.26746760801825881 0 0.37946114722675722 -0.27591377557629859 0 0.38774772661347989 -0.26664574742688191 0 0.38284686623937531 -0.26497045393317709 0 0.37477580018058132 -0.24095111383496479 0 0.37683953433427181 -0.26882153263446662 0 0.38107906364546162 -0.25934379353391329 0 0.37477580018058132 -0.24095111383496479 0 0.37683953433427181 -0.26882153263446662 0 0.37477580018058132 -0.24095111383496479 0 0.38107906364546162 -0.25934379353391329 0 0.38725375881062551 -0.25185160038302579 0 0.37843581040967561 -0.26746760801825881 0 0.38107906364546162 -0.25934379353391329 0 0.38284686623937531 -0.26497045393317709 0 0.37683953433427181 -0.26882153263446662 0 0.37843581040967561 -0.26746760801825881 0 0.38107906364546162 -0.25934379353391329 0 0.38107906364546162 -0.25934379353391329 0 0.38632261189823958 -0.26200045239958702 0 0.38284686623937531 -0.26497045393317709 0 0.38774772661347989 -0.26664574742688191 0 0.38632261189823958 -0.26200045239958702 0 0.38284686623937531 -0.26497045393317709 0 0.38774772661347989 -0.26664574742688191 0 0.38955528694719099 -0.2630172622662057 0 0.39295554709344072 -0.26445586107842978 0 0.38774772661347989 -0.26664574742688191 0 0.38632261189823958 -0.26200045239958702 0 0.38955528694719099 -0.2630172622662057 0 0.38632261189823958 -0.26200045239958702 0 0.38955528694719099 -0.2630172622662057 0 0.39119526218360401 -0.25896698815992442 0 0.38632261189823958 -0.26200045239958702 0 0.38725375881062551 -0.25185160038302579 0 0.39119526218360401 -0.25896698815992442 0 0.38107906364546162 -0.25934379353391329 0 0.38632261189823958 -0.26200045239958702 0 0.38725375881062551 -0.25185160038302579 0 0.40314688718896508 -0.2619981766022052 0 0.39707581272688741 -0.26613449373937459 0 0.41345304600685079 -0.26440480953867462 0 0.39707581272688741 -0.26613449373937459 0 0.41345304600685079 -0.26440480953867462 0 0.38725375881062551 -0.25185160038302579 0 0.39640803358832022 -0.25154779433757402 0 0.39119526218360401 -0.25896698815992442 0 0.39640803358832022 -0.25154779433757402 0 0.39702034872720737 -0.26014738253762237 0 0.39119526218360401 -0.25896698815992442 0 0.39702034872720737 -0.26014738253762237 0 0.39119526218360401 -0.25896698815992442 0 0.39295554709344072 -0.26445586107842978 0 0.38955528694719099 -0.2630172622662057 0 0.39119526218360401 -0.25896698815992442 0 0.39295554709344072 -0.26445586107842978 0 0.39702034872720737 -0.26014738253762237 0 0.39295554709344072 -0.26445586107842978 0 0.39707581272688741 -0.26613449373937459 0 0.39702034872720737 -0.26014738253762237 0 0.40314688718896508 -0.2619981766022052 0 0.39707581272688741 -0.26613449373937459 0 0.40314688718896508 -0.2619981766022052 0 0.40257909468765629 -0.25704117102420471 0 0.40998094690083942 -0.2590606397541646 0 0.39702034872720737 -0.26014738253762237 0 0.40314688718896508 -0.2619981766022052 0 0.40257909468765629 -0.25704117102420471 0 0.39640803358832022 -0.25154779433757402 0 0.39702034872720737 -0.26014738253762237 0 0.40257909468765629 -0.25704117102420471 0 0.41087794879613182 -0.2494957955088617 0 0.39640803358832022 -0.25154779433757402 0 0.40257909468765629 -0.25704117102420471 0 0.40514250542832608 -0.27022331558021301 0 0.3964002279028962 -0.26984905957103239 0 0.41345304600685079 -0.26440480953867462 0 0.37946114722675722 -0.27591377557629859 0 0.40514250542832608 -0.27022331558021301 0 0.3964002279028962 -0.26984905957103239 0 0.39707581272688741 -0.26613449373937459 0 0.3964002279028962 -0.26984905957103239 0 0.41345304600685079 -0.26440480953867462 0 0.37946114722675722 -0.27591377557629859 0 0.40514250542832608 -0.27022331558021301 0 0.3964002279028962 -0.26984905957103239 0 0.41345304600685079 -0.26440480953867462 0 0.39567659353887108 -0.29306988619604551 0 0.37946114722675722 -0.27591377557629859 0 0.40514250542832608 -0.27022331558021301 0 0.38774772661347989 -0.26664574742688191 0 0.39295554709344072 -0.26445586107842978 0 0.3964002279028962 -0.26984905957103239 0 0.39295554709344072 -0.26445586107842978 0 0.39707581272688741 -0.26613449373937459 0 0.3964002279028962 -0.26984905957103239 0 0.40514250542832608 -0.27022331558021301 0 0.41345304600685079 -0.26440480953867462 0 0.430823863629894 -0.26453285558412298 0 0.40514250542832608 -0.27022331558021301 0 0.430823863629894 -0.26453285558412298 0 0.40514250542832608 -0.27022331558021301 0 0.42166373126508722 -0.27984448092147479 0 0.41160024963212011 -0.28933460066763711 0 0.40514250542832608 -0.27022331558021301 0 0.42166373126508722 -0.27984448092147479 0 0.430823863629894 -0.26453285558412298 0 0.41087794879613182 -0.2494957955088617 0 0.41984775782459283 -0.2623632460968765 0 0.42854038242645709 -0.26281135800815408 0 0.41087794879613182 -0.2494957955088617 0 0.42854038242645709 -0.26281135800815408 0 0.41087794879613182 -0.2494957955088617 0 0.40257909468765629 -0.25704117102420471 0 0.40998094690083942 -0.2590606397541646 0 0.41087794879613182 -0.2494957955088617 0 0.40998094690083942 -0.2590606397541646 0 0.41984775782459283 -0.2623632460968765 0 0.40314688718896508 -0.2619981766022052 0 0.40998094690083942 -0.2590606397541646 0 0.41345304600685079 -0.26440480953867462 0 0.41345304600685079 -0.26440480953867462 0 0.41984775782459283 -0.2623632460968765 0 0.42854038242645709 -0.26281135800815408 0 0.40998094690083942 -0.2590606397541646 0 0.41345304600685079 -0.26440480953867462 0 0.41984775782459283 -0.2623632460968765 0 0.41345304600685079 -0.26440480953867462 0 0.42854038242645709 -0.26281135800815408 0 0.41345304600685079 -0.26440480953867462 0 0.41984775782459283 -0.2623632460968765 0 0.42656562700980838 -0.24831468624349931 0 0.41087794879613182 -0.2494957955088617 0 0.42854038242645709 -0.26281135800815408 0 0.4477486317760534 -0.26078267557717671 0 0.42854038242645709 -0.26281135800815408 0 0.430823863629894 -0.26453285558412298 0 0.41345304600685079 -0.26440480953867462 0 0.42854038242645709 -0.26281135800815408 0 0.430823863629894 -0.26453285558412298 0 0.42854038242645709 -0.26281135800815408 0 0.430823863629894 -0.26453285558412298 0 0.42656562700980838 -0.24831468624349931 0 0.42854038242645709 -0.26281135800815408 0 0.4372088962240912 -0.25169219704383999 0 0.42166373126508722 -0.27984448092147479 0 0.430823863629894 -0.26453285558412298 0 0.43570592202634773 -0.28205449164250063 0 0.42166373126508722 -0.27984448092147479 0 0.43570592202634773 -0.28205449164250063 0 0.42504611560874761 -0.29307714113289868 0 0.43874415768382158 -0.29310671547163403 0 0.43570592202634773 -0.28205449164250063 0 0.42504611560874761 -0.29307714113289868 0 0.43874415768382158 -0.29310671547163403 0 0.42504611560874761 -0.29307714113289868 0 0.43092107089682352 -0.30573631325696571 0 0.41919911313656122 -0.31385112706466711 0 0.43092107089682352 -0.30573631325696571 0 0.41692698488998292 -0.30249561446253759 0 0.42504611560874761 -0.29307714113289868 0 0.43092107089682352 -0.30573631325696571 0 0.41692698488998292 -0.30249561446253759 0 0.41919911313656122 -0.31385112706466711 0 0.41692698488998292 -0.30249561446253759 0 0.40916221757477672 -0.31142054967536659 0 0.40563314249086863 -0.30155395497769039 0 0.41692698488998292 -0.30249561446253759 0 0.40916221757477672 -0.31142054967536659 0 0.40563314249086863 -0.30155395497769039 0 0.41692698488998292 -0.30249561446253759 0 0.41160024963212011 -0.28933460066763711 0 0.42166373126508722 -0.27984448092147479 0 0.42504611560874761 -0.29307714113289868 0 0.41160024963212011 -0.28933460066763711 0 0.42504611560874761 -0.29307714113289868 0 0.41692698488998292 -0.30249561446253759 0 0.41160024963212011 -0.28933460066763711 0 0.5 -0.5 0 0.47532784176218862 -0.47257481327436679 0 0.43264288253940292 -0.48275234633568048 0 0.5 -0.5 0 0.41749257905485199 -0.50000000000000033 0 0.43264288253940292 -0.48275234633568048 0 0.47532784176218862 -0.47257481327436679 0 0.44779318602395363 -0.46550469267136052 0 0.43264288253940292 -0.48275234633568048 0 0.44779318602395363 -0.46550469267136052 0 0.43264288253940292 -0.48275234633568048 0 0.5 -0.5 0 0.47532784176218862 -0.47257481327436679 0 0.49999999999999828 -0.44642064777577001 0 0.47532784176218862 -0.47257481327436679 0 0.47918453573141367 -0.4495963838019249 0 0.46294348950850428 -0.44825703900704061 0 0.47532784176218862 -0.47257481327436679 0 0.49999999999999828 -0.44642064777577001 0 0.47918453573141367 -0.4495963838019249 0 0.49999999999999828 -0.44642064777577001 0 0.47846681165496419 -0.4311330351505217 0 0.49999999999999828 -0.44642064777577001 0 0.47918453573141367 -0.4495963838019249 0 0.47846681165496419 -0.4311330351505217 0 0.47918453573141367 -0.4495963838019249 0 0.46294348950850428 -0.44825703900704061 0 0.47846681165496419 -0.4311330351505217 0 0.46294348950850428 -0.44825703900704061 0 0.44442683605218691 -0.44583817528272968 0 0.45721208074107311 -0.43281318479414382 0 0.46294348950850428 -0.44825703900704061 0 0.44779318602395363 -0.46550469267136052 0 0.47532784176218862 -0.47257481327436679 0 0.46294348950850428 -0.44825703900704061 0 0.44779318602395363 -0.46550469267136052 0 0.44779318602395363 -0.46550469267136052 0 0.44442683605218691 -0.44583817528272968 0 0.43057418754349119 -0.46211781715143319 0 0.46294348950850428 -0.44825703900704061 0 0.44779318602395363 -0.46550469267136052 0 0.44442683605218691 -0.44583817528272968 0 0.44442683605218691 -0.44583817528272968 0 0.44324354583686831 -0.42153379012121539 0 0.45721208074107311 -0.43281318479414382 0 0.44442683605218691 -0.44583817528272968 0 0.44324354583686831 -0.42153379012121539 0 0.42653452723640378 -0.44279137365393179 0 0.44324354583686831 -0.42153379012121539 0 0.45693362330993059 -0.41584542252527262 0 0.45721208074107311 -0.43281318479414382 0 0.45693362330993059 -0.41584542252527262 0 0.4354004349648965 -0.40055780990002432 0 0.44324354583686831 -0.42153379012121539 0 0.45693362330993059 -0.41584542252527262 0 0.4354004349648965 -0.40055780990002432 0 0.45693362330993059 -0.41584542252527262 0 0.46461049463358839 -0.41117161714406408 0 0.47846681165496419 -0.4311330351505217 0 0.45693362330993059 -0.41584542252527262 0 0.46461049463358839 -0.41117161714406408 0 0.45329728287846061 -0.39963099679296588 0 0.46294348950850428 -0.44825703900704061 0 0.45721208074107311 -0.43281318479414382 0 0.47846681165496419 -0.4311330351505217 0 0.45693362330993059 -0.41584542252527262 0 0.45721208074107311 -0.43281318479414382 0 0.47846681165496419 -0.4311330351505217 0 0.45693362330993059 -0.41584542252527262 0 0.47846681165496419 -0.4311330351505217 0 0.49999999999999828 -0.44642064777577001 0 0.47846681165496419 -0.4311330351505217 0 0.5 -0.42181653977348488 0 0.5 -0.42181653977348488 0 0.48394518954555588 -0.41195106762427058 0 0.49999999999999789 -0.3972124317711998 0 0.47846681165496419 -0.4311330351505217 0 0.5 -0.42181653977348488 0 0.48394518954555588 -0.41195106762427058 0 0.46461049463358839 -0.41117161714406408 0 0.47846681165496419 -0.4311330351505217 0 0.48394518954555588 -0.41195106762427058 0 0.46461049463358839 -0.41117161714406408 0 0.48394518954555588 -0.41195106762427058 0 0.47664864143922919 -0.39842171428208217 0 0.47664864143922919 -0.39842171428208217 0 0.47975395238035062 -0.3854291032725421 0 0.46812846895096999 -0.38912968091376021 0 0.47664864143922919 -0.39842171428208217 0 0.49999999999999789 -0.3972124317711998 0 0.48779058149940679 -0.38751051868815611 0 0.48394518954555588 -0.41195106762427058 0 0.47664864143922919 -0.39842171428208217 0 0.49999999999999789 -0.3972124317711998 0 0.47664864143922919 -0.39842171428208217 0 0.49999999999999789 -0.3972124317711998 0 0.5 -0.37037944899495368 0 0.49999999999999789 -0.3972124317711998 0 0.48779058149940679 -0.38751051868815611 0 0.5 -0.37037944899495368 0 0.48466784746851571 -0.3739080713738358 0 0.48779058149940679 -0.38751051868815611 0 0.48466784746851571 -0.3739080713738358 0 0.47975395238035062 -0.3854291032725421 0 0.47323517146124039 -0.38191256761527542 0 0.48466784746851571 -0.3739080713738358 0 0.48779058149940679 -0.38751051868815611 0 0.47975395238035062 -0.3854291032725421 0 0.47664864143922919 -0.39842171428208217 0 0.48779058149940679 -0.38751051868815611 0 0.47975395238035062 -0.3854291032725421 0 0.47975395238035062 -0.3854291032725421 0 0.47323517146124039 -0.38191256761527542 0 0.46812846895096999 -0.38912968091376021 0 0.46918642870160698 -0.38365020197922722 0 0.47323517146124039 -0.38191256761527542 0 0.46812846895096999 -0.38912968091376021 0 0.4671179630262795 -0.37324494563770522 0 0.46918642870160698 -0.38365020197922722 0 0.47323517146124039 -0.38191256761527542 0 0.45652460043480969 -0.37267172771365881 0 0.4671179630262795 -0.37324494563770522 0 0.46918642870160698 -0.38365020197922722 0 0.45652460043480969 -0.37267172771365881 0 0.46918642870160698 -0.38365020197922722 0 0.45652460043480969 -0.37267172771365881 0 0.45606522570456098 -0.38599652494351028 0 0.44783900322824399 -0.38008781189722518 0 0.45652460043480969 -0.37267172771365881 0 0.46918642870160698 -0.38365020197922722 0 0.45606522570456098 -0.38599652494351028 0 0.46918642870160698 -0.38365020197922722 0 0.45606522570456098 -0.38599652494351028 0 0.46812846895096999 -0.38912968091376021 0 0.46461049463358839 -0.41117161714406408 0 0.47664864143922919 -0.39842171428208217 0 0.45329728287846061 -0.39963099679296588 0 0.47664864143922919 -0.39842171428208217 0 0.45329728287846061 -0.39963099679296588 0 0.47664864143922919 -0.39842171428208217 0 0.46812846895096999 -0.38912968091376021 0 0.45329728287846061 -0.39963099679296588 0 0.46461049463358839 -0.41117161714406408 0 0.45329728287846061 -0.39963099679296588 0 0.45606522570456098 -0.38599652494351028 0 0.46812846895096999 -0.38912968091376021 0 0.45329728287846061 -0.39963099679296588 0 0.45693362330993059 -0.41584542252527262 0 0.45329728287846061 -0.39963099679296588 0 0.4354004349648965 -0.40055780990002432 0 0.45329728287846061 -0.39963099679296588 0 0.4354004349648965 -0.40055780990002432 0 0.45329728287846061 -0.39963099679296588 0 0.4390969294492823 -0.3851451998924304 0 0.4354004349648965 -0.40055780990002432 0 0.45329728287846061 -0.39963099679296588 0 0.4390969294492823 -0.3851451998924304 0 0.45606522570456098 -0.38599652494351028 0 0.4390969294492823 -0.3851451998924304 0 0.44783900322824399 -0.38008781189722518 0 0.45606522570456098 -0.38599652494351028 0 0.45329728287846061 -0.39963099679296588 0 0.4390969294492823 -0.3851451998924304 0 0.4390969294492823 -0.3851451998924304 0 0.43808065797110041 -0.37748478958974491 0 0.44783900322824399 -0.38008781189722518 0 0.42782015831496062 -0.38505662608606978 0 0.4354004349648965 -0.40055780990002432 0 0.41188669282555868 -0.38386409155992901 0 0.42489657602010461 -0.37065940299189432 0 0.4390969294492823 -0.3851451998924304 0 0.42782015831496062 -0.38505662608606978 0 0.42489657602010461 -0.37065940299189432 0 0.4390969294492823 -0.3851451998924304 0 0.43808065797110041 -0.37748478958974491 0 0.42489657602010461 -0.37065940299189432 0 0.4390969294492823 -0.3851451998924304 0 0.4390969294492823 -0.3851451998924304 0 0.42782015831496062 -0.38505662608606978 0 0.4354004349648965 -0.40055780990002432 0 0.4354004349648965 -0.40055780990002432 0 0.41188669282555868 -0.38386409155992901 0 0.4354004349648965 -0.40055780990002432 0 0.40669862042327182 -0.40204417319942209 0 0.4354004349648965 -0.40055780990002432 0 0.40669862042327182 -0.40204417319942209 0 0.41188669282555868 -0.38386409155992901 0 0.42489657602010461 -0.37065940299189432 0 0.42782015831496062 -0.38505662608606978 0 0.41188669282555868 -0.38386409155992901 0 0.42489657602010461 -0.37065940299189432 0 0.4070765621089808 -0.37107032214525337 0 0.41188669282555868 -0.38386409155992901 0 0.4070765621089808 -0.37107032214525337 0 0.39585190457779329 -0.37201308858561799 0 0.39886607975096749 -0.38470810625682389 0 0.40669862042327182 -0.40204417319942209 0 0.41188669282555868 -0.38386409155992901 0 0.39886607975096749 -0.38470810625682389 0 0.4070765621089808 -0.37107032214525337 0 0.41188669282555868 -0.38386409155992901 0 0.39886607975096749 -0.38470810625682389 0 0.39585190457779329 -0.37201308858561799 0 0.39886607975096749 -0.38470810625682389 0 0.38601585554704992 -0.38244526212700758 0 0.39886607975096749 -0.38470810625682389 0 0.38601585554704992 -0.38244526212700758 0 0.37799680588164719 -0.40353053649882148 0 0.38601585554704992 -0.38244526212700758 0 0.37799680588164719 -0.40353053649882148 0 0.38601585554704992 -0.38244526212700758 0 0.37799680588164719 -0.40353053649882148 0 0.36816388811638329 -0.39545065246060412 0 0.37799680588164719 -0.40353053649882148 0 0.37635446215448021 -0.40784891206015261 0 0.37799680588164719 -0.40353053649882148 0 0.37505152225636262 -0.40368306209891941 0 0.37635446215448021 -0.40784891206015261 0 0.37799680588164719 -0.40353053649882148 0 0.37505152225636262 -0.40368306209891941 0 0.40669862042327182 -0.40204417319942209 0 0.39886607975096749 -0.38470810625682389 0 0.37799680588164719 -0.40353053649882148 0 0.40669862042327182 -0.40204417319942209 0 0.37799680588164719 -0.40353053649882148 0 0.40669862042327182 -0.40204417319942209 0 0.38553791301154328 -0.41840677215457472 0 0.40567792500840172 -0.4277251834563135 0 0.40669862042327182 -0.40204417319942209 0 0.37799680588164719 -0.40353053649882148 0 0.38553791301154328 -0.41840677215457472 0 0.38553791301154328 -0.41840677215457472 0 0.36905142820508552 -0.42917232846767789 0 0.37241381966677689 -0.417360225696081 0 0.38553791301154328 -0.41840677215457472 0 0.37635446215448021 -0.40784891206015261 0 0.37241381966677689 -0.417360225696081 0 0.37799680588164719 -0.40353053649882148 0 0.38553791301154328 -0.41840677215457472 0 0.37635446215448021 -0.40784891206015261 0 0.38553791301154328 -0.41840677215457472 0 0.38807715457860831 -0.4388905332329941 0 0.36905142820508552 -0.42917232846767789 0 0.38553791301154328 -0.41840677215457472 0 0.40567792500840172 -0.4277251834563135 0 0.38807715457860831 -0.4388905332329941 0 0.40567792500840172 -0.4277251834563135 0 0.42351101069396863 -0.41893046606618117 0 0.42653452723640378 -0.44279137365393179 0 0.4354004349648965 -0.40055780990002432 0 0.40669862042327182 -0.40204417319942209 0 0.42351101069396863 -0.41893046606618117 0 0.40669862042327182 -0.40204417319942209 0 0.40567792500840172 -0.4277251834563135 0 0.42351101069396863 -0.41893046606618117 0 0.44324354583686831 -0.42153379012121539 0 0.4354004349648965 -0.40055780990002432 0 0.42351101069396863 -0.41893046606618117 0 0.44324354583686831 -0.42153379012121539 0 0.42653452723640378 -0.44279137365393179 0 0.44324354583686831 -0.42153379012121539 0 0.42351101069396863 -0.41893046606618117 0 0.42653452723640378 -0.44279137365393179 0 0.44442683605218691 -0.44583817528272968 0 0.42653452723640378 -0.44279137365393179 0 0.43057418754349119 -0.46211781715143319 0 0.42653452723640378 -0.44279137365393179 0 0.43057418754349119 -0.46211781715143319 0 0.40982550863593931 -0.46404895718664829 0 0.42653452723640378 -0.44279137365393179 0 0.40982550863593931 -0.46404895718664829 0 0.42653452723640378 -0.44279137365393179 0 0.40982550863593931 -0.46404895718664829 0 0.4036378289262339 -0.44671034290208689 0 0.40567792500840172 -0.4277251834563135 0 0.42653452723640378 -0.44279137365393179 0 0.4036378289262339 -0.44671034290208689 0 0.40567792500840172 -0.4277251834563135 0 0.4036378289262339 -0.44671034290208689 0 0.38807715457860831 -0.4388905332329941 0 0.4036378289262339 -0.44671034290208689 0 0.38807715457860831 -0.4388905332329941 0 0.38807402917181633 -0.46009566698054732 0 0.38807715457860831 -0.4388905332329941 0 0.3733961412993268 -0.45022493016754961 0 0.36905142820508552 -0.42917232846767789 0 0.38807715457860831 -0.4388905332329941 0 0.38807402917181633 -0.46009566698054732 0 0.3733961412993268 -0.45022493016754961 0 0.38807402917181633 -0.46009566698054732 0 0.36593927904035028 -0.47432204071884282 0 0.3733961412993268 -0.45022493016754961 0 0.40982550863593931 -0.46404895718664829 0 0.4036378289262339 -0.44671034290208689 0 0.38807402917181633 -0.46009566698054732 0 0.40982550863593931 -0.46404895718664829 0 0.39311649003547477 -0.48530654071936469 0 0.40982550863593931 -0.46404895718664829 0 0.38807402917181633 -0.46009566698054732 0 0.39311649003547477 -0.48530654071936469 0 0.38807402917181633 -0.46009566698054732 0 0.39311649003547477 -0.48530654071936469 0 0.36593927904035028 -0.47432204071884282 0 0.37603974257992701 -0.49999999999999978 0 0.39311649003547477 -0.48530654071936469 0 0.36593927904035028 -0.47432204071884282 0 0.37603974257992701 -0.49999999999999978 0 0.39676616081738958 -0.5 0 0.39311649003547477 -0.48530654071936469 0 0.39676616081738958 -0.5 0 0.39311649003547477 -0.48530654071936469 0 0.41749257905485199 -0.50000000000000033 0 0.40982550863593931 -0.46404895718664829 0 0.41749257905485199 -0.50000000000000033 0 0.43264288253940292 -0.48275234633568048 0 0.40982550863593931 -0.46404895718664829 0 0.39311649003547477 -0.48530654071936469 0 0.41749257905485199 -0.50000000000000033 0 0.43057418754349119 -0.46211781715143319 0 0.40982550863593931 -0.46404895718664829 0 0.43264288253940292 -0.48275234633568048 0 0.44779318602395363 -0.46550469267136052 0 0.43057418754349119 -0.46211781715143319 0 0.43264288253940292 -0.48275234633568048 0 0.41749257905485199 -0.50000000000000033 0 0.43264288253940292 -0.48275234633568048 0 0.32215468257820618 -0.5 0 0.33760568703239408 -0.47417818032706111 0 0.31005432530219129 -0.48106067464861729 0 0.33760568703239408 -0.47417818032706111 0 0.3189449745883719 -0.46117016543644002 0 0.31005432530219129 -0.48106067464861729 0 0.32215468257820618 -0.5 0 0.33760568703239408 -0.47417818032706111 0 0.34909721257906662 -0.5 0 0.37603974257992701 -0.49999999999999978 0 0.34909721257906662 -0.5 0 0.36593927904035028 -0.47432204071884282 0 0.37603974257992701 -0.49999999999999978 0 0.36593927904035028 -0.47432204071884282 0 0.33760568703239408 -0.47417818032706111 0 0.34909721257906662 -0.5 0 0.36593927904035028 -0.47432204071884282 0 0.33760568703239408 -0.47417818032706111 0 0.36593927904035028 -0.47432204071884282 0 0.35583881550077368 -0.44864408143768569 0 0.36593927904035028 -0.47432204071884282 0 0.35583881550077368 -0.44864408143768569 0 0.36593927904035028 -0.47432204071884282 0 0.3733961412993268 -0.45022493016754961 0 0.35583881550077368 -0.44864408143768569 0 0.3733961412993268 -0.45022493016754961 0 0.35583881550077368 -0.44864408143768569 0 0.36905142820508552 -0.42917232846767789 0 0.35583881550077368 -0.44864408143768569 0 0.33540415989768779 -0.44905252560006492 0 0.34573835196119679 -0.42296612215652868 0 0.33760568703239408 -0.47417818032706111 0 0.35583881550077368 -0.44864408143768569 0 0.33540415989768779 -0.44905252560006492 0 0.33760568703239408 -0.47417818032706111 0 0.33540415989768779 -0.44905252560006492 0 0.3189449745883719 -0.46117016543644002 0 0.33540415989768779 -0.44905252560006492 0 0.3189449745883719 -0.46117016543644002 0 0.32126124445813709 -0.43429719032362252 0 0.3189449745883719 -0.46117016543644002 0 0.32126124445813709 -0.43429719032362252 0 0.30480654487456732 -0.44641521679941309 0 0.32126124445813709 -0.43429719032362252 0 0.3193156137706864 -0.40941365839269389 0 0.29937418247959258 -0.41817563384508599 0 0.3193156137706864 -0.40941365839269389 0 0.34573835196119679 -0.42296612215652868 0 0.33563788842162012 -0.39728816287537172 0 0.34573835196119679 -0.42296612215652868 0 0.33563788842162012 -0.39728816287537172 0 0.33540415989768779 -0.44905252560006492 0 0.32126124445813709 -0.43429719032362252 0 0.34573835196119679 -0.42296612215652868 0 0.32126124445813709 -0.43429719032362252 0 0.3193156137706864 -0.40941365839269389 0 0.34573835196119679 -0.42296612215652868 0 0.35583881550077368 -0.44864408143768569 0 0.34573835196119679 -0.42296612215652868 0 0.36905142820508552 -0.42917232846767789 0 0.35583881550077368 -0.44864408143768569 0 0.34573835196119679 -0.42296612215652868 0 0.36905142820508552 -0.42917232846767789 0 0.37241381966677689 -0.417360225696081 0 0.36195200988480669 -0.41065981681110758 0 0.36990343230398692 -0.40830781576793279 0 0.37241381966677689 -0.417360225696081 0 0.36195200988480669 -0.41065981681110758 0 0.37635446215448021 -0.40784891206015261 0 0.36990343230398692 -0.40830781576793279 0 0.37241381966677689 -0.417360225696081 0 0.37505152225636262 -0.40368306209891941 0 0.37635446215448021 -0.40784891206015261 0 0.36990343230398692 -0.40830781576793279 0 0.36990343230398692 -0.40830781576793279 0 0.36195200988480669 -0.41065981681110758 0 0.36876771314038492 -0.40452533678464098 0 0.34573835196119679 -0.42296612215652868 0 0.36195200988480669 -0.41065981681110758 0 0.35211107663302149 -0.40015425695529971 0 0.34573835196119679 -0.42296612215652868 0 0.36905142820508552 -0.42917232846767789 0 0.36195200988480669 -0.41065981681110758 0 0.34573835196119679 -0.42296612215652868 0 0.35211107663302149 -0.40015425695529971 0 0.33563788842162012 -0.39728816287537172 0 0.35211107663302149 -0.40015425695529971 0 0.35352794608594401 -0.38791341326287138 0 0.33563788842162012 -0.39728816287537172 0 0.35211107663302149 -0.40015425695529971 0 0.36816388811638329 -0.39545065246060412 0 0.35352794608594401 -0.38791341326287138 0 0.36195200988480669 -0.41065981681110758 0 0.36816388811638329 -0.39545065246060412 0 0.36876771314038492 -0.40452533678464098 0 0.36195200988480669 -0.41065981681110758 0 0.35211107663302149 -0.40015425695529971 0 0.36816388811638329 -0.39545065246060412 0 0.37505152225636262 -0.40368306209891941 0 0.36816388811638329 -0.39545065246060412 0 0.36876771314038492 -0.40452533678464098 0 0.37799680588164719 -0.40353053649882148 0 0.37505152225636262 -0.40368306209891941 0 0.36816388811638329 -0.39545065246060412 0 0.37505152225636262 -0.40368306209891941 0 0.36990343230398692 -0.40830781576793279 0 0.36876771314038492 -0.40452533678464098 0 0.38601585554704992 -0.38244526212700758 0 0.36816388811638329 -0.39545065246060412 0 0.3689120952668708 -0.37284951495870189 0 0.36816388811638329 -0.39545065246060412 0 0.35352794608594401 -0.38791341326287138 0 0.3689120952668708 -0.37284951495870189 0 0.35352794608594401 -0.38791341326287138 0 0.33563788842162012 -0.39728816287537172 0 0.34467783115022588 -0.37252705130409253 0 0.35352794608594401 -0.38791341326287138 0 0.3689120952668708 -0.37284951495870189 0 0.34467783115022588 -0.37252705130409253 0 0.33563788842162012 -0.39728816287537172 0 0.3255374248820434 -0.37161020359421471 0 0.33563788842162012 -0.39728816287537172 0 0.34467783115022588 -0.37252705130409253 0 0.3255374248820434 -0.37161020359421471 0 0.3193156137706864 -0.40941365839269389 0 0.33563788842162012 -0.39728816287537172 0 0.30534853388527528 -0.38930881101125692 0 0.33563788842162012 -0.39728816287537172 0 0.30534853388527528 -0.38930881101125692 0 0.3255374248820434 -0.37161020359421471 0 0.30534853388527528 -0.38930881101125692 0 0.3255374248820434 -0.37161020359421471 0 0.30525369772634148 -0.37164386163485291 0 0.30534853388527528 -0.38930881101125692 0 0.28783989868818821 -0.37644057584389279 0 0.30525369772634148 -0.37164386163485291 0 0.3193156137706864 -0.40941365839269389 0 0.30534853388527528 -0.38930881101125692 0 0.29937418247959258 -0.41817563384508599 0 0.30534853388527528 -0.38930881101125692 0 0.28922044672054198 -0.39637746652331562 0 0.29937418247959258 -0.41817563384508599 0 0.28922044672054198 -0.39637746652331562 0 0.27510086349567708 -0.39798721671617321 0 0.28320928432356041 -0.41012407252970262 0 0.28922044672054198 -0.39637746652331562 0 0.28783989868818821 -0.37644057584389279 0 0.27924907625512951 -0.38731579260330862 0 0.30534853388527528 -0.38930881101125692 0 0.28922044672054198 -0.39637746652331562 0 0.28783989868818821 -0.37644057584389279 0 0.30534853388527528 -0.38930881101125692 0 0.28783989868818821 -0.37644057584389279 0 0.28783989868818821 -0.37644057584389279 0 0.27447250226623809 -0.37821124143188289 0 0.27924907625512951 -0.38731579260330862 0 0.27447250226623809 -0.37821124143188289 0 0.27924907625512951 -0.38731579260330862 0 0.26961167010500181 -0.38756246250127813 0 0.27447250226623809 -0.37821124143188289 0 0.26961167010500181 -0.38756246250127813 0 0.26423397132697279 -0.37890457124200982 0 0.26961167010500181 -0.38756246250127813 0 0.26423397132697279 -0.37890457124200982 0 0.25687819372407023 -0.38903915957053298 0 0.26423397132697279 -0.37890457124200982 0 0.25687819372407023 -0.38903915957053298 0 0.24987622704845311 -0.37613765202982719 0 0.25108303853213881 -0.40002667887407228 0 0.26390234922262928 -0.39930308446362528 0 0.256136481120742 -0.41447562176841068 0 0.25687819372407023 -0.38903915957053298 0 0.25108303853213881 -0.40002667887407228 0 0.24309899287842279 -0.39271330151873202 0 0.25687819372407023 -0.38903915957053298 0 0.25108303853213881 -0.40002667887407228 0 0.26390234922262928 -0.39930308446362528 0 0.26961167010500181 -0.38756246250127813 0 0.25687819372407023 -0.38903915957053298 0 0.26390234922262928 -0.39930308446362528 0 0.26390234922262928 -0.39930308446362528 0 0.27510086349567708 -0.39798721671617321 0 0.2708804648698091 -0.41009655218672442 0 0.26961167010500181 -0.38756246250127813 0 0.26390234922262928 -0.39930308446362528 0 0.27510086349567708 -0.39798721671617321 0 0.28922044672054198 -0.39637746652331562 0 0.27924907625512951 -0.38731579260330862 0 0.27510086349567708 -0.39798721671617321 0 0.27924907625512951 -0.38731579260330862 0 0.26961167010500181 -0.38756246250127813 0 0.27510086349567708 -0.39798721671617321 0 0.27510086349567708 -0.39798721671617321 0 0.2708804648698091 -0.41009655218672442 0 0.28320928432356041 -0.41012407252970262 0 0.2708804648698091 -0.41009655218672442 0 0.256136481120742 -0.41447562176841068 0 0.27433621812851161 -0.42550461519375637 0 0.2708804648698091 -0.41009655218672442 0 0.27433621812851161 -0.42550461519375637 0 0.28320928432356041 -0.41012407252970262 0 0.26390234922262928 -0.39930308446362528 0 0.2708804648698091 -0.41009655218672442 0 0.256136481120742 -0.41447562176841068 0 0.25108303853213881 -0.40002667887407228 0 0.256136481120742 -0.41447562176841068 0 0.24629253832767661 -0.41022035877505542 0 0.256136481120742 -0.41447562176841068 0 0.25513396950241118 -0.43290986753561628 0 0.2453827316299185 -0.42192330194190181 0 0.256136481120742 -0.41447562176841068 0 0.25513396950241118 -0.43290986753561628 0 0.27433621812851161 -0.42550461519375637 0 0.25513396950241118 -0.43290986753561628 0 0.27433621812851161 -0.42550461519375637 0 0.26752346795397081 -0.44788636482661331 0 0.27433621812851161 -0.42550461519375637 0 0.29937418247959258 -0.41817563384508599 0 0.28546596250580908 -0.44246723239800262 0 0.29937418247959258 -0.41817563384508599 0 0.30480654487456732 -0.44641521679941309 0 0.28546596250580908 -0.44246723239800262 0 0.28922044672054198 -0.39637746652331562 0 0.28320928432356041 -0.41012407252970262 0 0.29937418247959258 -0.41817563384508599 0 0.27433621812851161 -0.42550461519375637 0 0.28320928432356041 -0.41012407252970262 0 0.29937418247959258 -0.41817563384508599 0 0.32126124445813709 -0.43429719032362252 0 0.29937418247959258 -0.41817563384508599 0 0.30480654487456732 -0.44641521679941309 0 0.3189449745883719 -0.46117016543644002 0 0.30480654487456732 -0.44641521679941309 0 0.28880919487484108 -0.4658549053918814 0 0.30480654487456732 -0.44641521679941309 0 0.28880919487484108 -0.4658549053918814 0 0.28546596250580908 -0.44246723239800262 0 0.27433621812851161 -0.42550461519375637 0 0.28546596250580908 -0.44246723239800262 0 0.26752346795397081 -0.44788636482661331 0 0.28880919487484108 -0.4658549053918814 0 0.28546596250580908 -0.44246723239800262 0 0.26752346795397081 -0.44788636482661331 0 0.25513396950241118 -0.43290986753561628 0 0.26752346795397081 -0.44788636482661331 0 0.24480843210435321 -0.45079661158300749 0 0.26752346795397081 -0.44788636482661331 0 0.2588368117714554 -0.46700690363883102 0 0.24480843210435321 -0.45079661158300749 0 0.28880919487484108 -0.4658549053918814 0 0.26752346795397081 -0.44788636482661331 0 0.2588368117714554 -0.46700690363883102 0 0.28880919487484108 -0.4658549053918814 0 0.2588368117714554 -0.46700690363883102 0 0.27227655507569209 -0.48076744006000099 0 0.2588368117714554 -0.46700690363883102 0 0.27227655507569209 -0.48076744006000099 0 0.25270961841775552 -0.48460016746525392 0 0.2588368117714554 -0.46700690363883102 0 0.25270961841775552 -0.48460016746525392 0 0.23949561189523169 -0.47426551941090739 0 0.25270961841775552 -0.48460016746525392 0 0.26826962257648529 -0.5 0 0.2413270925756249 -0.5 0 0.27227655507569209 -0.48076744006000099 0 0.25270961841775552 -0.48460016746525392 0 0.26826962257648529 -0.5 0 0.27227655507569209 -0.48076744006000099 0 0.26826962257648529 -0.5 0 0.29521215257734579 -0.5 0 0.28880919487484108 -0.4658549053918814 0 0.27227655507569209 -0.48076744006000099 0 0.29521215257734579 -0.5 0 0.28880919487484108 -0.4658549053918814 0 0.29521215257734579 -0.5 0 0.31005432530219129 -0.48106067464861729 0 0.3189449745883719 -0.46117016543644002 0 0.28880919487484108 -0.4658549053918814 0 0.31005432530219129 -0.48106067464861729 0 0.32215468257820618 -0.5 0 0.29521215257734579 -0.5 0 0.31005432530219129 -0.48106067464861729 0 0.33463237856908817 -0.28956894479377399 0 0.33485830675890288 -0.30442904333306592 0 0.35657459314761941 -0.2860097891906741 0 0.33463237856908817 -0.28956894479377399 0 0.32894302133540282 -0.28710755170783531 0 0.35195887039823659 -0.28200771363307098 0 0.32894302133540282 -0.28710755170783531 0 0.35195887039823659 -0.28200771363307098 0 0.32894302133540282 -0.28710755170783531 0 0.33255663915089151 -0.29722249741805129 0 0.33463237856908817 -0.28956894479377399 0 0.32894302133540282 -0.28710755170783531 0 0.33255663915089151 -0.29722249741805129 0 0.32894302133540282 -0.28710755170783531 0 0.33255663915089151 -0.29722249741805129 0 0.32301709761150521 -0.2972128627914089 0 0.33485830675890288 -0.30442904333306592 0 0.34824447571033601 -0.30253517369681238 0 0.34533870308018377 -0.31598934501886372 0 0.33485830675890288 -0.30442904333306592 0 0.33255663915089151 -0.29722249741805129 0 0.32434770264142349 -0.30499280498860082 0 0.33463237856908817 -0.28956894479377399 0 0.33485830675890288 -0.30442904333306592 0 0.33255663915089151 -0.29722249741805129 0 0.32301709761150521 -0.2972128627914089 0 0.32434770264142349 -0.30499280498860082 0 0.3171485971304504 -0.30589952111326829 0 0.32434770264142349 -0.30499280498860082 0 0.3171485971304504 -0.30589952111326829 0 0.31314202037018413 -0.32284829747545468 0 0.33485830675890288 -0.30442904333306592 0 0.32434770264142349 -0.30499280498860082 0 0.31314202037018413 -0.32284829747545468 0 0.33255663915089151 -0.29722249741805129 0 0.32301709761150521 -0.2972128627914089 0 0.32434770264142349 -0.30499280498860082 0 0.3171485971304504 -0.30589952111326829 0 0.31208952779935789 -0.2908419387292881 0 0.30833746379913463 -0.30503745501229762 0 0.32301709761150521 -0.2972128627914089 0 0.3171485971304504 -0.30589952111326829 0 0.31208952779935789 -0.2908419387292881 0 0.32894302133540282 -0.28710755170783531 0 0.31611371382327402 -0.28007222207304999 0 0.31208952779935789 -0.2908419387292881 0 0.32894302133540282 -0.28710755170783531 0 0.32301709761150521 -0.2972128627914089 0 0.31208952779935789 -0.2908419387292881 0 0.32894302133540282 -0.28710755170783531 0 0.31208952779935789 -0.2908419387292881 0 0.32894302133540282 -0.28710755170783531 0 0.32245882367699719 -0.26895751187574157 0 0.32894302133540282 -0.28710755170783531 0 0.31611371382327402 -0.28007222207304999 0 0.32245882367699719 -0.26895751187574157 0 0.31611371382327402 -0.28007222207304999 0 0.32245882367699719 -0.26895751187574157 0 0.30706455279928557 -0.27339796693147528 0 0.32245882367699719 -0.26895751187574157 0 0.30981211567343969 -0.26250129009931661 0 0.30706455279928557 -0.27339796693147528 0 0.32245882367699719 -0.26895751187574157 0 0.31597462601859122 -0.25080747204364812 0 0.32245882367699719 -0.26895751187574157 0 0.31597462601859122 -0.25080747204364812 0 0.30981211567343969 -0.26250129009931661 0 0.32245882367699719 -0.26895751187574157 0 0.31597462601859122 -0.25080747204364812 0 0.33396674820841349 -0.26640759283836002 0 0.31597462601859122 -0.25080747204364812 0 0.33396674820841349 -0.26640759283836002 0 0.33517615116993849 -0.24743488902137309 0 0.33396674820841349 -0.26640759283836002 0 0.35185333732921159 -0.25428502110151557 0 0.33517615116993849 -0.24743488902137309 0 0.31597462601859122 -0.25080747204364812 0 0.33396674820841349 -0.26640759283836002 0 0.32894302133540282 -0.28710755170783531 0 0.32245882367699719 -0.26895751187574157 0 0.33396674820841349 -0.26640759283836002 0 0.33396674820841349 -0.26640759283836002 0 0.35195887039823659 -0.28200771363307098 0 0.32894302133540282 -0.28710755170783531 0 0.33396674820841349 -0.26640759283836002 0 0.35195887039823659 -0.28200771363307098 0 0.33396674820841349 -0.26640759283836002 0 0.35159414215374007 -0.26901089914998932 0 0.35195887039823659 -0.28200771363307098 0 0.35159414215374007 -0.26901089914998932 0 0.36459381448795669 -0.2792080702757721 0 0.35195887039823659 -0.28200771363307098 0 0.36459381448795669 -0.2792080702757721 0 0.35195887039823659 -0.28200771363307098 0 0.33396674820841349 -0.26640759283836002 0 0.35159414215374007 -0.26901089914998932 0 0.35185333732921159 -0.25428502110151557 0 0.35159414215374007 -0.26901089914998932 0 0.35185333732921159 -0.25428502110151557 0 0.36435388824524378 -0.26651308148643732 0 0.37477580018058132 -0.24095111383496479 0 0.37683953433427181 -0.26882153263446662 0 0.36563983252638571 -0.25462703483095822 0 0.36075586336603621 -0.2426037127049111 0 0.35185333732921159 -0.25428502110151557 0 0.36563983252638571 -0.25462703483095822 0 0.35185333732921159 -0.25428502110151557 0 0.36563983252638571 -0.25462703483095822 0 0.36435388824524378 -0.26651308148643732 0 0.37683953433427181 -0.26882153263446662 0 0.36563983252638571 -0.25462703483095822 0 0.36435388824524378 -0.26651308148643732 0 0.36459381448795669 -0.2792080702757721 0 0.36308990924476459 -0.28048364807874221 0 0.35195887039823659 -0.28200771363307098 0 0.36459381448795669 -0.2792080702757721 0 0.36308990924476459 -0.28048364807874221 0 0.37273728942595791 -0.27740364396778311 0 0.36459381448795669 -0.2792080702757721 0 0.36308990924476459 -0.28048364807874221 0 0.35159414215374007 -0.26901089914998932 0 0.36459381448795669 -0.2792080702757721 0 0.36435388824524378 -0.26651308148643732 0 0.37683953433427181 -0.26882153263446662 0 0.36459381448795669 -0.2792080702757721 0 0.36435388824524378 -0.26651308148643732 0 0.36459381448795669 -0.2792080702757721 0 0.37273728942595791 -0.27740364396778311 0 0.37683953433427181 -0.26882153263446662 0 0.36459381448795669 -0.2792080702757721 0 0.37273728942595791 -0.27740364396778311 0 0.37683953433427181 -0.26882153263446662 0 0.36459381448795669 -0.2792080702757721 0 0.36308990924476459 -0.28048364807874221 0 0.37273728942595791 -0.27740364396778311 0 0.37795999762798671 -0.28395322059410122 0 0.37273728942595791 -0.27740364396778311 0 0.36936745264149701 -0.28627283508716472 0 0.35657459314761941 -0.2860097891906741 0 0.35620629985463748 -0.30371251724464648 0 0.37101427446782781 -0.29852975601036341 0 0.36308990924476459 -0.28048364807874221 0 0.37273728942595791 -0.27740364396778311 0 0.36936745264149701 -0.28627283508716472 0 0.37519981906117678 -0.29055939022370142 0 0.37795999762798671 -0.28395322059410122 0 0.36936745264149701 -0.28627283508716472 0 0.37519981906117678 -0.29055939022370142 0 0.36936745264149701 -0.28627283508716472 0 0.37101427446782781 -0.29852975601036341 0 0.36936745264149701 -0.28627283508716472 0 0.35657459314761941 -0.2860097891906741 0 0.37101427446782781 -0.29852975601036341 0 0.35657459314761941 -0.2860097891906741 0 0.37101427446782781 -0.29852975601036341 0 0.36308990924476459 -0.28048364807874221 0 0.36936745264149701 -0.28627283508716472 0 0.35657459314761941 -0.2860097891906741 0 0.36308990924476459 -0.28048364807874221 0 0.35657459314761941 -0.2860097891906741 0 0.36308990924476459 -0.28048364807874221 0 0.35366972758071469 -0.28349111722646431 0 0.33463237856908817 -0.28956894479377399 0 0.35366972758071469 -0.28349111722646431 0 0.33463237856908817 -0.28956894479377399 0 0.35366972758071469 -0.28349111722646431 0 0.35195887039823659 -0.28200771363307098 0 0.36308990924476459 -0.28048364807874221 0 0.35366972758071469 -0.28349111722646431 0 0.35195887039823659 -0.28200771363307098 0 0.33485830675890288 -0.30442904333306592 0 0.35657459314761941 -0.2860097891906741 0 0.36308990924476459 -0.28048364807874221 0 0.35366972758071469 -0.28349111722646431 0 0.35657459314761941 -0.2860097891906741 0 0.33463237856908817 -0.28956894479377399 0 0.35366972758071469 -0.28349111722646431 0 0.35657459314761941 -0.2860097891906741 0 0.35366972758071469 -0.28349111722646431 0 0.35657459314761941 -0.2860097891906741 0 0.35366972758071469 -0.28349111722646431 0 0.35195887039823659 -0.28200771363307098 0 0.35620629985463748 -0.30371251724464648 0 0.36380134767337091 -0.31365371592763602 0 0.34533870308018377 -0.31598934501886372 0 0.35657459314761941 -0.2860097891906741 0 0.34824447571033601 -0.30253517369681238 0 0.35620629985463748 -0.30371251724464648 0 0.33485830675890288 -0.30442904333306592 0 0.35657459314761941 -0.2860097891906741 0 0.34824447571033601 -0.30253517369681238 0 0.34824447571033601 -0.30253517369681238 0 0.35620629985463748 -0.30371251724464648 0 0.34533870308018377 -0.31598934501886372 0 0.38545395578803499 -0.31104972283005378 0 0.37101427446782781 -0.29852975601036341 0 0.36380134767337091 -0.31365371592763602 0 0.35620629985463748 -0.30371251724464648 0 0.37101427446782781 -0.29852975601036341 0 0.36380134767337091 -0.31365371592763602 0 0.38545395578803499 -0.31104972283005378 0 0.36380134767337091 -0.31365371592763602 0 0.36945761595668469 -0.32738841673247931 0 0.36380134767337091 -0.31365371592763602 0 0.36945761595668469 -0.32738841673247931 0 0.35533723689285712 -0.32525253772940937 0 0.36945761595668469 -0.32738841673247931 0 0.35618710249729552 -0.34088690244721892 0 0.35533723689285712 -0.32525253772940937 0 0.36945761595668469 -0.32738841673247931 0 0.35618710249729552 -0.34088690244721892 0 0.37368731816096312 -0.34897020548070451 0 0.35618710249729552 -0.34088690244721892 0 0.33810128782584858 -0.35072533414536311 0 0.34064131712366241 -0.33181983138849169 0 0.35618710249729552 -0.34088690244721892 0 0.35533723689285712 -0.32525253772940937 0 0.34064131712366241 -0.33181983138849169 0 0.34533870308018377 -0.31598934501886372 0 0.35533723689285712 -0.32525253772940937 0 0.34064131712366241 -0.33181983138849169 0 0.36380134767337091 -0.31365371592763602 0 0.34533870308018377 -0.31598934501886372 0 0.35533723689285712 -0.32525253772940937 0 0.3689120952668708 -0.37284951495870189 0 0.37368731816096312 -0.34897020548070451 0 0.35738528973841999 -0.35772904562383351 0 0.35618710249729552 -0.34088690244721892 0 0.37368731816096312 -0.34897020548070451 0 0.35738528973841999 -0.35772904562383351 0 0.35618710249729552 -0.34088690244721892 0 0.35738528973841999 -0.35772904562383351 0 0.33810128782584858 -0.35072533414536311 0 0.35738528973841999 -0.35772904562383351 0 0.34467783115022588 -0.37252705130409253 0 0.33810128782584858 -0.35072533414536311 0 0.3689120952668708 -0.37284951495870189 0 0.35738528973841999 -0.35772904562383351 0 0.34467783115022588 -0.37252705130409253 0 0.34467783115022588 -0.37252705130409253 0 0.33810128782584858 -0.35072533414536311 0 0.3255374248820434 -0.37161020359421471 0 0.31543696134246668 -0.34593224431305769 0 0.3255374248820434 -0.37161020359421471 0 0.30900602422585888 -0.35865430802761772 0 0.31543696134246668 -0.34593224431305769 0 0.3255374248820434 -0.37161020359421471 0 0.33810128782584858 -0.35072533414536311 0 0.31543696134246668 -0.34593224431305769 0 0.3255374248820434 -0.37161020359421471 0 0.3255374248820434 -0.37161020359421471 0 0.30525369772634148 -0.37164386163485291 0 0.30900602422585888 -0.35865430802761772 0 0.34533870308018377 -0.31598934501886372 0 0.33130220335757699 -0.32186248444176119 0 0.34064131712366241 -0.33181983138849169 0 0.33485830675890288 -0.30442904333306592 0 0.34533870308018377 -0.31598934501886372 0 0.33130220335757699 -0.32186248444176119 0 0.33810128782584858 -0.35072533414536311 0 0.34064131712366241 -0.33181983138849169 0 0.3268430880468266 -0.33457206034663262 0 0.33130220335757699 -0.32186248444176119 0 0.34064131712366241 -0.33181983138849169 0 0.3268430880468266 -0.33457206034663262 0 0.31543696134246668 -0.34593224431305769 0 0.3268430880468266 -0.33457206034663262 0 0.31314202037018413 -0.32284829747545468 0 0.33810128782584858 -0.35072533414536311 0 0.31543696134246668 -0.34593224431305769 0 0.3268430880468266 -0.33457206034663262 0 0.33130220335757699 -0.32186248444176119 0 0.3268430880468266 -0.33457206034663262 0 0.31314202037018413 -0.32284829747545468 0 0.33485830675890288 -0.30442904333306592 0 0.31314202037018413 -0.32284829747545468 0 0.3171485971304504 -0.30589952111326829 0 0.31314202037018413 -0.32284829747545468 0 0.3109911447756647 -0.31350988965823029 0 0.33485830675890288 -0.30442904333306592 0 0.33130220335757699 -0.32186248444176119 0 0.31314202037018413 -0.32284829747545468 0 0.31314202037018413 -0.32284829747545468 0 0.30533649780288991 -0.32025428503190068 0 0.3109911447756647 -0.31350988965823029 0 0.30533649780288991 -0.32025428503190068 0 0.3109911447756647 -0.31350988965823029 0 0.30833746379913463 -0.30503745501229762 0 0.31543696134246668 -0.34593224431305769 0 0.30533649780288991 -0.32025428503190068 0 0.30314188851555429 -0.3464145030398364 0 0.30533649780288991 -0.32025428503190068 0 0.29792146783109758 -0.32077626486014349 0 0.30314188851555429 -0.3464145030398364 0 0.31543696134246668 -0.34593224431305769 0 0.31314202037018413 -0.32284829747545468 0 0.30533649780288991 -0.32025428503190068 0 0.29792146783109758 -0.32077626486014349 0 0.30314188851555429 -0.3464145030398364 0 0.31543696134246668 -0.34593224431305769 0 0.30533649780288991 -0.32025428503190068 0 0.29792146783109758 -0.32077626486014349 0 0.29422135484035322 -0.33366994296298719 0 0.30314188851555429 -0.3464145030398364 0 0.29422135484035322 -0.33366994296298719 0 0.29546103181119637 -0.34185893253319311 0 0.30314188851555429 -0.3464145030398364 0 0.29422135484035322 -0.33366994296298719 0 0.29546103181119637 -0.34185893253319311 0 0.28827175492889229 -0.34275780055790278 0 0.29546103181119637 -0.34185893253319311 0 0.28827175492889229 -0.34275780055790278 0 0.29811044553331972 -0.34650788457159087 0 0.29422135484035322 -0.33366994296298719 0 0.28827175492889229 -0.34275780055790278 0 0.27955848846152698 -0.33666113426449551 0 0.29422135484035322 -0.33366994296298719 0 0.28744860979629389 -0.32474860906702402 0 0.27955848846152698 -0.33666113426449551 0 0.28744860979629389 -0.32474860906702402 0 0.29019889155513462 -0.31620785207956748 0 0.28097437988070417 -0.31138482246715898 0 0.29792146783109758 -0.32077626486014349 0 0.29019889155513462 -0.31620785207956748 0 0.29244758100571983 -0.32385066724243061 0 0.29422135484035322 -0.33366994296298719 0 0.28744860979629389 -0.32474860906702402 0 0.29244758100571983 -0.32385066724243061 0 0.29792146783109758 -0.32077626486014349 0 0.29422135484035322 -0.33366994296298719 0 0.29244758100571983 -0.32385066724243061 0 0.28744860979629389 -0.32474860906702402 0 0.29019889155513462 -0.31620785207956748 0 0.29244758100571983 -0.32385066724243061 0 0.30525369772634148 -0.37164386163485291 0 0.30031449930387721 -0.36082981960256849 0 0.30900602422585888 -0.35865430802761772 0 0.30525369772634148 -0.37164386163485291 0 0.30031449930387721 -0.36082981960256849 0 0.29483415024835152 -0.36747827247447862 0 0.30080593951138668 -0.35381036279877531 0 0.30900602422585888 -0.35865430802761772 0 0.30314188851555429 -0.3464145030398364 0 0.30080593951138668 -0.35381036279877531 0 0.29811044553331972 -0.34650788457159087 0 0.29345683997832372 -0.35664529875226292 0 0.30031449930387721 -0.36082981960256849 0 0.30080593951138668 -0.35381036279877531 0 0.30900602422585888 -0.35865430802761772 0 0.30031449930387721 -0.36082981960256849 0 0.30080593951138668 -0.35381036279877531 0 0.29345683997832372 -0.35664529875226292 0 0.31543696134246668 -0.34593224431305769 0 0.30900602422585888 -0.35865430802761772 0 0.30314188851555429 -0.3464145030398364 0 0.30080593951138668 -0.35381036279877531 0 0.30314188851555429 -0.3464145030398364 0 0.29811044553331972 -0.34650788457159087 0 0.29546103181119637 -0.34185893253319311 0 0.30314188851555429 -0.3464145030398364 0 0.29811044553331972 -0.34650788457159087 0 0.29811044553331972 -0.34650788457159087 0 0.29345683997832372 -0.35664529875226292 0 0.28122462644821988 -0.35688066365974619 0 0.28827175492889229 -0.34275780055790278 0 0.29811044553331972 -0.34650788457159087 0 0.28122462644821988 -0.35688066365974619 0 0.28827175492889229 -0.34275780055790278 0 0.28122462644821988 -0.35688066365974619 0 0.27955848846152698 -0.33666113426449551 0 0.29811044553331972 -0.34650788457159087 0 0.28122462644821988 -0.35688066365974619 0 0.29345683997832372 -0.35664529875226292 0 0.28676543400443838 -0.36101512068260139 0 0.28122462644821988 -0.35688066365974619 0 0.28676543400443838 -0.36101512068260139 0 0.28122462644821988 -0.35688066365974619 0 0.28783989868818821 -0.37644057584389279 0 0.30525369772634148 -0.37164386163485291 0 0.29483415024835152 -0.36747827247447862 0 0.28783989868818821 -0.37644057584389279 0 0.28676543400443838 -0.36101512068260139 0 0.27033126349110148 -0.36357234067652822 0 0.29357505063040601 -0.36145191270551408 0 0.28676543400443838 -0.36101512068260139 0 0.29483415024835152 -0.36747827247447862 0 0.30031449930387721 -0.36082981960256849 0 0.29357505063040601 -0.36145191270551408 0 0.29483415024835152 -0.36747827247447862 0 0.30031449930387721 -0.36082981960256849 0 0.29345683997832372 -0.35664529875226292 0 0.29357505063040601 -0.36145191270551408 0 0.29345683997832372 -0.35664529875226292 0 0.29357505063040601 -0.36145191270551408 0 0.28676543400443838 -0.36101512068260139 0 0.28783989868818821 -0.37644057584389279 0 0.28676543400443838 -0.36101512068260139 0 0.29483415024835152 -0.36747827247447862 0 0.28783989868818821 -0.37644057584389279 0 0.27033126349110148 -0.36357234067652822 0 0.28783989868818821 -0.37644057584389279 0 0.27447250226623809 -0.37821124143188289 0 0.27033126349110148 -0.36357234067652822 0 0.28676543400443838 -0.36101512068260139 0 0.27033126349110148 -0.36357234067652822 0 0.28122462644821988 -0.35688066365974619 0 0.27447250226623809 -0.37821124143188289 0 0.26423397132697279 -0.37890457124200982 0 0.27033126349110148 -0.36357234067652822 0 0.27033126349110148 -0.36357234067652822 0 0.28122462644821988 -0.35688066365974619 0 0.28122462644821988 -0.35688066365974619 0 0.26082083375001269 -0.34165569813656432 0 0.27033126349110148 -0.36357234067652822 0 0.28122462644821988 -0.35688066365974619 0 0.26082083375001269 -0.34165569813656432 0 0.28122462644821988 -0.35688066365974619 0 0.27955848846152698 -0.33666113426449551 0 0.26082083375001269 -0.34165569813656432 0 0.27033126349110148 -0.36357234067652822 0 0.25099839141978419 -0.34936335514031408 0 0.27033126349110148 -0.36357234067652822 0 0.25099839141978419 -0.34936335514031408 0 0.26082083375001269 -0.34165569813656432 0 0.27033126349110148 -0.36357234067652822 0 0.25099839141978419 -0.34936335514031408 0 0.24534349961555019 -0.36253701182870851 0 0.26423397132697279 -0.37890457124200982 0 0.27033126349110148 -0.36357234067652822 0 0.24987622704845311 -0.37613765202982719 0 0.27033126349110148 -0.36357234067652822 0 0.24534349961555019 -0.36253701182870851 0 0.24987622704845311 -0.37613765202982719 0 0.27033126349110148 -0.36357234067652822 0 0.24987622704845311 -0.37613765202982719 0 0.28744860979629389 -0.32474860906702402 0 0.26598899428458778 -0.32103793389256657 0 0.27955848846152698 -0.33666113426449551 0 0.28744860979629389 -0.32474860906702402 0 0.26598899428458778 -0.32103793389256657 0 0.28097437988070417 -0.31138482246715898 0 0.26598899428458778 -0.32103793389256657 0 0.27955848846152698 -0.33666113426449551 0 0.26082083375001269 -0.34165569813656432 0 0.26082083375001269 -0.34165569813656432 0 0.2404170410518052 -0.32643073261338312 0 0.26598899428458778 -0.32103793389256657 0 0.26082083375001269 -0.34165569813656432 0 0.2404170410518052 -0.32643073261338312 0 0.25099839141978419 -0.34936335514031408 0 0.26082083375001269 -0.34165569813656432 0 0.2404170410518052 -0.32643073261338312 0 0.26598899428458778 -0.32103793389256657 0 0.24423538898563429 -0.30587701823941071 0 0.2404170410518052 -0.32643073261338312 0 0.26846821806613752 -0.30050752245993012 0 0.24423538898563429 -0.30587701823941071 0 0.25301376652256202 -0.2892367573709661 0 0.26846821806613752 -0.30050752245993012 0 0.24423538898563429 -0.30587701823941071 0 0.26598899428458778 -0.32103793389256657 0 0.26846821806613752 -0.30050752245993012 0 0.24423538898563429 -0.30587701823941071 0 0.25301376652256202 -0.2892367573709661 0 0.26500420865911251 -0.28331687632378699 0 0.26846821806613752 -0.30050752245993012 0 0.25301376652256202 -0.2892367573709661 0 0.26500420865911251 -0.28331687632378699 0 0.2507153324002197 -0.27704953531328702 0 0.26500420865911251 -0.28331687632378699 0 0.27805302037335089 -0.28584974436810762 0 0.26846821806613752 -0.30050752245993012 0 0.27805302037335089 -0.28584974436810762 0 0.26846821806613752 -0.30050752245993012 0 0.29270104714664102 -0.29513802668045069 0 0.26500420865911251 -0.28331687632378699 0 0.27805302037335089 -0.28584974436810762 0 0.27342558025451552 -0.27498979272208851 0 0.26598899428458778 -0.32103793389256657 0 0.26846821806613752 -0.30050752245993012 0 0.28097437988070417 -0.31138482246715898 0 0.26846821806613752 -0.30050752245993012 0 0.28097437988070417 -0.31138482246715898 0 0.29270104714664102 -0.29513802668045069 0 0.26846821806613752 -0.30050752245993012 0 0.29270104714664102 -0.29513802668045069 0 0.29792146783109758 -0.32077626486014349 0 0.29270104714664102 -0.29513802668045069 0 0.29019889155513462 -0.31620785207956748 0 0.28097437988070417 -0.31138482246715898 0 0.29270104714664102 -0.29513802668045069 0 0.29792146783109758 -0.32077626486014349 0 0.29019889155513462 -0.31620785207956748 0 0.29270104714664102 -0.29513802668045069 0 0.29792146783109758 -0.32077626486014349 0 0.29270104714664102 -0.29513802668045069 0 0.29523603426331357 -0.29457632575074338 0 0.27805302037335089 -0.28584974436810762 0 0.29026987947112831 -0.28319821192468808 0 0.29270104714664102 -0.29513802668045069 0 0.27805302037335089 -0.28584974436810762 0 0.29026987947112831 -0.28319821192468808 0 0.28863308206368682 -0.27515966401439529 0 0.29026987947112831 -0.28319821192468808 0 0.29523603426331357 -0.29457632575074338 0 0.29026987947112831 -0.28319821192468808 0 0.29523603426331357 -0.29457632575074338 0 0.30320790951940702 -0.28313078900162059 0 0.29026987947112831 -0.28319821192468808 0 0.29270104714664102 -0.29513802668045069 0 0.29523603426331357 -0.29457632575074338 0 0.29026987947112831 -0.28319821192468808 0 0.29270104714664102 -0.29513802668045069 0 0.29270104714664102 -0.29513802668045069 0 0.29523603426331357 -0.29457632575074338 0 0.29523603426331357 -0.29457632575074338 0 0.31208952779935789 -0.2908419387292881 0 0.29523603426331357 -0.29457632575074338 0 0.30320790951940702 -0.28313078900162059 0 0.31208952779935789 -0.2908419387292881 0 0.29523603426331357 -0.29457632575074338 0 0.31208952779935789 -0.2908419387292881 0 0.30833746379913463 -0.30503745501229762 0 0.31611371382327402 -0.28007222207304999 0 0.30320790951940702 -0.28313078900162059 0 0.31208952779935789 -0.2908419387292881 0 0.30533649780288991 -0.32025428503190068 0 0.29523603426331357 -0.29457632575074338 0 0.30833746379913463 -0.30503745501229762 0 0.30533649780288991 -0.32025428503190068 0 0.29792146783109758 -0.32077626486014349 0 0.29523603426331357 -0.29457632575074338 0 0.30533649780288991 -0.32025428503190068 0 0.29523603426331357 -0.29457632575074338 0 0.3171485971304504 -0.30589952111326829 0 0.3109911447756647 -0.31350988965823029 0 0.30833746379913463 -0.30503745501229762 0 0.29812220868357159 -0.26533402464574418 0 0.30111904597271899 -0.2536098058489899 0 0.30981211567343969 -0.26250129009931661 0 0.31597462601859122 -0.25080747204364812 0 0.30111904597271899 -0.2536098058489899 0 0.30981211567343969 -0.26250129009931661 0 0.29812220868357159 -0.26533402464574418 0 0.30981211567343969 -0.26250129009931661 0 0.30706455279928557 -0.27339796693147528 0 0.31611371382327402 -0.28007222207304999 0 0.30320790951940702 -0.28313078900162059 0 0.30706455279928557 -0.27339796693147528 0 0.29026987947112831 -0.28319821192468808 0 0.30320790951940702 -0.28313078900162059 0 0.29755036247591721 -0.27602563541609298 0 0.30320790951940702 -0.28313078900162059 0 0.30706455279928557 -0.27339796693147528 0 0.29755036247591721 -0.27602563541609298 0 0.29812220868357159 -0.26533402464574418 0 0.30706455279928557 -0.27339796693147528 0 0.29755036247591721 -0.27602563541609298 0 0.29812220868357159 -0.26533402464574418 0 0.29755036247591721 -0.27602563541609298 0 0.28863308206368682 -0.27515966401439529 0 0.29026987947112831 -0.28319821192468808 0 0.28863308206368682 -0.27515966401439529 0 0.29026987947112831 -0.28319821192468808 0 0.29755036247591721 -0.27602563541609298 0 0.28863308206368682 -0.27515966401439529 0 0.28863308206368682 -0.27515966401439529 0 0.28456511698073272 -0.25518130134833977 0 0.29812220868357159 -0.26533402464574418 0 0.28863308206368682 -0.27515966401439529 0 0.28456511698073272 -0.25518130134833977 0 0.29812220868357159 -0.26533402464574418 0 0.30111904597271899 -0.2536098058489899 0 0.28456511698073272 -0.25518130134833977 0 0.28863308206368682 -0.27515966401439529 0 0.28456511698073272 -0.25518130134833977 0 0.27223885194073971 -0.26265851400849172 0 0.28456511698073272 -0.25518130134833977 0 0.27223885194073971 -0.26265851400849172 0 0.26629969424128969 -0.25192769388052821 0 0.27223885194073971 -0.26265851400849172 0 0.26629969424128969 -0.25192769388052821 0 0.2629172406837702 -0.26740365320709081 0 0.26500420865911251 -0.28331687632378699 0 0.27342558025451552 -0.27498979272208851 0 0.2629172406837702 -0.26740365320709081 0 0.28863308206368682 -0.27515966401439529 0 0.27223885194073971 -0.26265851400849172 0 0.27342558025451552 -0.27498979272208851 0 0.27805302037335089 -0.28584974436810762 0 0.28863308206368682 -0.27515966401439529 0 0.27342558025451552 -0.27498979272208851 0 0.27223885194073971 -0.26265851400849172 0 0.27342558025451552 -0.27498979272208851 0 0.2629172406837702 -0.26740365320709081 0 0.26500420865911251 -0.28331687632378699 0 0.2629172406837702 -0.26740365320709081 0 0.2507153324002197 -0.27704953531328702 0 0.2629172406837702 -0.26740365320709081 0 0.2507153324002197 -0.27704953531328702 0 0.2466218950091964 -0.26012473444713258 0 0.25037283077400019 -0.2416092145933311 0 0.26629969424128969 -0.25192769388052821 0 0.2466218950091964 -0.26012473444713258 0 0.26629969424128969 -0.25192769388052821 0 0.2629172406837702 -0.26740365320709081 0 0.2466218950091964 -0.26012473444713258 0 0.25037283077400019 -0.2416092145933311 0 0.2466218950091964 -0.26012473444713258 0 0.2339549802858914 -0.24933471903745599 0 0.2466218950091964 -0.26012473444713258 0 0.22717476572977791 -0.26325637954660608 0 0.2339549802858914 -0.24933471903745599 0 0.2466218950091964 -0.26012473444713258 0 0.23628574795648369 -0.27498419313581679 0 0.22717476572977791 -0.26325637954660608 0 0.2507153324002197 -0.27704953531328702 0 0.2466218950091964 -0.26012473444713258 0 0.23628574795648369 -0.27498419313581679 0 0.2507153324002197 -0.27704953531328702 0 0.23628574795648369 -0.27498419313581679 0 0.24044913557019401 -0.28723099739492908 0 0.2247339410531527 -0.27667652802353632 0 0.21554844428562811 -0.26491471108287651 0 0.21653111649902579 -0.28712771180040292 0 0.23628574795648369 -0.27498419313581679 0 0.2247339410531527 -0.27667652802353632 0 0.22717476572977791 -0.26325637954660608 0 0.2247339410531527 -0.27667652802353632 0 0.22717476572977791 -0.26325637954660608 0 0.21554844428562811 -0.26491471108287651 0 0.22717476572977791 -0.26325637954660608 0 0.22331750647786899 -0.25281133177650322 0 0.2339549802858914 -0.24933471903745599 0 0.22717476572977791 -0.26325637954660608 0 0.22331750647786899 -0.25281133177650322 0 0.21554844428562811 -0.26491471108287651 0 0.2084475354763706 -0.25511513831035743 0 0.21554844428562811 -0.26491471108287651 0 0.1982966667633215 -0.26354120971092698 0 0.21554844428562811 -0.26491471108287651 0 0.21456577207223029 -0.24270171036535029 0 0.22331750647786899 -0.25281133177650322 0 0.21554844428562811 -0.26491471108287651 0 0.21456577207223029 -0.24270171036535029 0 0.2084475354763706 -0.25511513831035743 0 0.21554844428562811 -0.26491471108287651 0 0.21336353465090491 -0.24693864317134839 0 0.21554844428562811 -0.26491471108287651 0 0.21336353465090491 -0.24693864317134839 0 0.21456577207223029 -0.24270171036535029 0 0.2084475354763706 -0.25511513831035743 0 0.1982966667633215 -0.26354120971092698 0 0.2080714594183444 -0.2424179483002232 0 0.1982966667633215 -0.26354120971092698 0 0.2080714594183444 -0.2424179483002232 0 0.21554844428562811 -0.26491471108287651 0 0.21653111649902579 -0.28712771180040292 0 0.21554844428562811 -0.26491471108287651 0 0.20859607852913339 -0.28093905456482821 0 0.21653111649902579 -0.28712771180040292 0 0.21554844428562811 -0.26491471108287651 0 0.20859607852913339 -0.28093905456482821 0 0.2011380539128553 -0.27767933622792518 0 0.21554844428562811 -0.26491471108287651 0 0.2011380539128553 -0.27767933622792518 0 0.1982966667633215 -0.26354120971092698 0 0.1982966667633215 -0.26354120971092698 0 0.18852187410829821 -0.28466447112163068 0 0.1982966667633215 -0.26354120971092698 0 0.18852187410829821 -0.28466447112163068 0 0.1845366839674035 -0.26640487959885623 0 0.2011380539128553 -0.27767933622792518 0 0.1982966667633215 -0.26354120971092698 0 0.18852187410829821 -0.28466447112163068 0 0.1982966667633215 -0.26354120971092698 0 0.2080714594183444 -0.2424179483002232 0 0.19254414318066221 -0.24961624770678509 0 0.1982966667633215 -0.26354120971092698 0 0.18706352147094041 -0.25756661524031438 0 0.1845366839674035 -0.26640487959885623 0 0.1982966667633215 -0.26354120971092698 0 0.18706352147094041 -0.25756661524031438 0 0.19254414318066221 -0.24961624770678509 0 0.18706352147094041 -0.25756661524031438 0 0.19254414318066221 -0.24961624770678509 0 0.18399505531774341 -0.24981832115951039 0 0.20249447748908611 -0.29813355613580778 0 0.1976485991634879 -0.30796138879627621 0 0.19462594870140809 -0.30164723750547567 0 0.20249447748908611 -0.29813355613580778 0 0.19462594870140809 -0.30164723750547567 0 0.19392418081794471 -0.29575522021664652 0 0.20249447748908611 -0.29813355613580778 0 0.1976485991634879 -0.30796138879627621 0 0.20782414549410869 -0.30817847155873718 0 0.1976485991634879 -0.30796138879627621 0 0.20782414549410869 -0.30817847155873718 0 0.20282381327660201 -0.31505297042611552 0 0.1976485991634879 -0.30796138879627621 0 0.19009702279388629 -0.3064242775921906 0 0.18802618722583669 -0.31833181955932999 0 0.1976485991634879 -0.30796138879627621 0 0.19009702279388629 -0.3064242775921906 0 0.19462594870140809 -0.30164723750547567 0 0.19009702279388629 -0.3064242775921906 0 0.19462594870140809 -0.30164723750547567 0 0.1880606218677118 -0.30022154946313712 0 0.19462594870140809 -0.30164723750547567 0 0.19110113081553529 -0.29631368747161629 0 0.19392418081794471 -0.29575522021664652 0 0.1880606218677118 -0.30022154946313712 0 0.19110113081553529 -0.29631368747161629 0 0.18734834214976739 -0.29514628785519947 0 0.19462594870140809 -0.30164723750547567 0 0.1880606218677118 -0.30022154946313712 0 0.19110113081553529 -0.29631368747161629 0 0.20249447748908611 -0.29813355613580778 0 0.18747516626574931 -0.28692639975368628 0 0.20249447748908611 -0.29813355613580778 0 0.19392418081794471 -0.29575522021664652 0 0.18747516626574931 -0.28692639975368628 0 0.19110113081553529 -0.29631368747161629 0 0.19392418081794471 -0.29575522021664652 0 0.18747516626574931 -0.28692639975368628 0 0.19110113081553529 -0.29631368747161629 0 0.18747516626574931 -0.28692639975368628 0 0.18734834214976739 -0.29514628785519947 0 0.18852187410829821 -0.28466447112163068 0 0.19787122383615691 -0.29172525818392958 0 0.18852187410829821 -0.28466447112163068 0 0.19731262536099689 -0.28481999283041842 0 0.19787122383615691 -0.29172525818392958 0 0.18852187410829821 -0.28466447112163068 0 0.19787122383615691 -0.29172525818392958 0 0.18747516626574931 -0.28692639975368628 0 0.18852187410829821 -0.28466447112163068 0 0.18747516626574931 -0.28692639975368628 0 0.2011380539128553 -0.27767933622792518 0 0.18852187410829821 -0.28466447112163068 0 0.19731262536099689 -0.28481999283041842 0 0.201719349586677 -0.2852109057881882 0 0.19787122383615691 -0.29172525818392958 0 0.206049533411369 -0.28982701925762389 0 0.19731262536099689 -0.28481999283041842 0 0.201719349586677 -0.2852109057881882 0 0.19787122383615691 -0.29172525818392958 0 0.2011380539128553 -0.27767933622792518 0 0.19731262536099689 -0.28481999283041842 0 0.201719349586677 -0.2852109057881882 0 0.20249447748908611 -0.29813355613580778 0 0.19787122383615691 -0.29172525818392958 0 0.18747516626574931 -0.28692639975368628 0 0.20249447748908611 -0.29813355613580778 0 0.19787122383615691 -0.29172525818392958 0 0.206049533411369 -0.28982701925762389 0 0.20249447748908611 -0.29813355613580778 0 0.206049533411369 -0.28982701925762389 0 0.20903552332543929 -0.29406903275804652 0 0.206049533411369 -0.28982701925762389 0 0.20903552332543929 -0.29406903275804652 0 0.21653111649902579 -0.28712771180040292 0 0.20249447748908611 -0.29813355613580778 0 0.20903552332543929 -0.29406903275804652 0 0.2123558614978226 -0.29827812898856709 0 0.20859607852913339 -0.28093905456482821 0 0.206049533411369 -0.28982701925762389 0 0.21653111649902579 -0.28712771180040292 0 0.20859607852913339 -0.28093905456482821 0 0.201719349586677 -0.2852109057881882 0 0.206049533411369 -0.28982701925762389 0 0.20859607852913339 -0.28093905456482821 0 0.2011380539128553 -0.27767933622792518 0 0.201719349586677 -0.2852109057881882 0 0.20903552332543929 -0.29406903275804652 0 0.21653111649902579 -0.28712771180040292 0 0.2123558614978226 -0.29827812898856709 0 0.21653111649902579 -0.28712771180040292 0 0.2175137887124228 -0.30934071251792922 0 0.21653111649902579 -0.28712771180040292 0 0.2123558614978226 -0.29827812898856709 0 0.2175137887124228 -0.30934071251792922 0 0.20249447748908611 -0.29813355613580778 0 0.2123558614978226 -0.29827812898856709 0 0.2175137887124228 -0.30934071251792922 0 0.20249447748908611 -0.29813355613580778 0 0.2175137887124228 -0.30934071251792922 0 0.20782414549410869 -0.30817847155873718 0 0.2176214393273678 -0.31177412129290383 0 0.20282381327660201 -0.31505297042611552 0 0.20249447748908611 -0.29813355613580778 0 0.20782414549410869 -0.30817847155873718 0 0.2175137887124228 -0.30934071251792922 0 0.20782414549410869 -0.30817847155873718 0 0.2175137887124228 -0.30934071251792922 0 0.2176214393273678 -0.31177412129290383 0 0.2175137887124228 -0.30934071251792922 0 0.2176214393273678 -0.31177412129290383 0 0.2175137887124228 -0.30934071251792922 0 0.2176214393273678 -0.31177412129290383 0 0.21999804566891551 -0.31122614102315033 0 0.21999804566891551 -0.31122614102315033 0 0.24423538898563429 -0.30587701823941071 0 0.2175137887124228 -0.30934071251792922 0 0.21999804566891551 -0.31122614102315033 0 0.22812963079484819 -0.29309964455197901 0 0.21999804566891551 -0.31122614102315033 0 0.22812963079484819 -0.29309964455197901 0 0.21999804566891551 -0.31122614102315033 0 0.22812963079484819 -0.29309964455197901 0 0.24423538898563429 -0.30587701823941071 0 0.2176214393273678 -0.31177412129290383 0 0.21999804566891551 -0.31122614102315033 0 0.2175137887124228 -0.30934071251792922 0 0.21999804566891551 -0.31122614102315033 0 0.23628574795648369 -0.27498419313581679 0 0.22812963079484819 -0.29309964455197901 0 0.2247339410531527 -0.27667652802353632 0 0.21653111649902579 -0.28712771180040292 0 0.22812963079484819 -0.29309964455197901 0 0.23628574795648369 -0.27498419313581679 0 0.2247339410531527 -0.27667652802353632 0 0.22812963079484819 -0.29309964455197901 0 0.21653111649902579 -0.28712771180040292 0 0.2175137887124228 -0.30934071251792922 0 0.22812963079484819 -0.29309964455197901 0 0.23628574795648369 -0.27498419313581679 0 0.22812963079484819 -0.29309964455197901 0 0.24044913557019401 -0.28723099739492908 0 0.25301376652256202 -0.2892367573709661 0 0.24044913557019401 -0.28723099739492908 0 0.24423538898563429 -0.30587701823941071 0 0.22812963079484819 -0.29309964455197901 0 0.24044913557019401 -0.28723099739492908 0 0.24423538898563429 -0.30587701823941071 0 0.25301376652256202 -0.2892367573709661 0 0.2507153324002197 -0.27704953531328702 0 0.24044913557019401 -0.28723099739492908 0 0.21999804566891551 -0.31122614102315033 0 0.24423538898563429 -0.30587701823941071 0 0.2404170410518052 -0.32643073261338312 0 0.25099839141978419 -0.34936335514031408 0 0.2316655193484673 -0.33515436960409939 0 0.25099839141978419 -0.34936335514031408 0 0.2404170410518052 -0.32643073261338312 0 0.2316655193484673 -0.33515436960409939 0 0.2404170410518052 -0.32643073261338312 0 0.2316655193484673 -0.33515436960409939 0 0.2247705650129608 -0.32491873692320528 0 0.2316655193484673 -0.33515436960409939 0 0.22208049410379579 -0.34309390150507102 0 0.22867514261462599 -0.34782526071452929 0 0.2316655193484673 -0.33515436960409939 0 0.22208049410379579 -0.34309390150507102 0 0.220555537226792 -0.33578323097752499 0 0.22208049410379579 -0.34309390150507102 0 0.220555537226792 -0.33578323097752499 0 0.21451162402718699 -0.34512658597487872 0 0.220555537226792 -0.33578323097752499 0 0.2247705650129608 -0.32491873692320528 0 0.21820242441149371 -0.32490710899175251 0 0.2316655193484673 -0.33515436960409939 0 0.220555537226792 -0.33578323097752499 0 0.2247705650129608 -0.32491873692320528 0 0.21999804566891551 -0.31122614102315033 0 0.2404170410518052 -0.32643073261338312 0 0.2247705650129608 -0.32491873692320528 0 0.21999804566891551 -0.31122614102315033 0 0.2404170410518052 -0.32643073261338312 0 0.2247705650129608 -0.32491873692320528 0 0.21780935440599439 -0.31602188338433101 0 0.21820242441149371 -0.32490710899175251 0 0.21999804566891551 -0.31122614102315033 0 0.2247705650129608 -0.32491873692320528 0 0.21780935440599439 -0.31602188338433101 0 0.21999804566891551 -0.31122614102315033 0 0.21780935440599439 -0.31602188338433101 0 0.23679608458568241 -0.3713456781615978 0 0.24534349961555019 -0.36253701182870851 0 0.24987622704845311 -0.37613765202982719 0 0.23679608458568241 -0.3713456781615978 0 0.24534349961555019 -0.36253701182870851 0 0.23133102347449649 -0.35950822589080189 0 0.25099839141978419 -0.34936335514031408 0 0.2316655193484673 -0.33515436960409939 0 0.23760271529458479 -0.35087764463569071 0 0.24534349961555019 -0.36253701182870851 0 0.23760271529458479 -0.35087764463569071 0 0.23133102347449649 -0.35950822589080189 0 0.25099839141978419 -0.34936335514031408 0 0.24534349961555019 -0.36253701182870851 0 0.23760271529458479 -0.35087764463569071 0 0.2316655193484673 -0.33515436960409939 0 0.23760271529458479 -0.35087764463569071 0 0.22867514261462599 -0.34782526071452929 0 0.22208049410379579 -0.34309390150507102 0 0.22076837523631451 -0.35267920974236072 0 0.21451162402718699 -0.34512658597487872 0 0.22208049410379579 -0.34309390150507102 0 0.22867514261462599 -0.34782526071452929 0 0.22076837523631451 -0.35267920974236072 0 0.22076837523631451 -0.35267920974236072 0 0.22341137818785181 -0.36337688942730773 0 0.21609027172906259 -0.36087537471117581 0 0.22076837523631451 -0.35267920974236072 0 0.23133102347449649 -0.35950822589080189 0 0.22341137818785181 -0.36337688942730773 0 0.22867514261462599 -0.34782526071452929 0 0.22076837523631451 -0.35267920974236072 0 0.23133102347449649 -0.35950822589080189 0 0.23760271529458479 -0.35087764463569071 0 0.22867514261462599 -0.34782526071452929 0 0.23133102347449649 -0.35950822589080189 0 0.23133102347449649 -0.35950822589080189 0 0.22341137818785181 -0.36337688942730773 0 0.22699371624108439 -0.37103399677892651 0 0.22341137818785181 -0.36337688942730773 0 0.22699371624108439 -0.37103399677892651 0 0.21663927632257499 -0.37152038636996992 0 0.22699371624108439 -0.37103399677892651 0 0.21663927632257499 -0.37152038636996992 0 0.22189277223980711 -0.38054577212349588 0 0.23679608458568241 -0.3713456781615978 0 0.22699371624108439 -0.37103399677892651 0 0.23010576568282681 -0.37607478874810818 0 0.23679608458568241 -0.3713456781615978 0 0.23133102347449649 -0.35950822589080189 0 0.22699371624108439 -0.37103399677892651 0 0.21663927632257499 -0.37152038636996992 0 0.20683644217058031 -0.36558797855932218 0 0.20576161095015591 -0.37595213443190167 0 0.22341137818785181 -0.36337688942730773 0 0.21663927632257499 -0.37152038636996992 0 0.21609027172906259 -0.36087537471117581 0 0.21609027172906259 -0.36087537471117581 0 0.20683644217058031 -0.36558797855932218 0 0.21089823393406021 -0.35324530101306001 0 0.21663927632257499 -0.37152038636996992 0 0.21609027172906259 -0.36087537471117581 0 0.20683644217058031 -0.36558797855932218 0 0.19940837682496099 -0.35689206815154528 0 0.20777431361625601 -0.33831058893907762 0 0.21089823393406021 -0.35324530101306001 0 0.19940837682496099 -0.35689206815154528 0 0.20777431361625601 -0.33831058893907762 0 0.20683644217058031 -0.36558797855932218 0 0.21089823393406021 -0.35324530101306001 0 0.19940837682496099 -0.35689206815154528 0 0.22076837523631451 -0.35267920974236072 0 0.21609027172906259 -0.36087537471117581 0 0.21089823393406021 -0.35324530101306001 0 0.21089823393406021 -0.35324530101306001 0 0.21451162402718699 -0.34512658597487872 0 0.20777431361625601 -0.33831058893907762 0 0.22076837523631451 -0.35267920974236072 0 0.21089823393406021 -0.35324530101306001 0 0.21451162402718699 -0.34512658597487872 0 0.1971616983813648 -0.34495631128618592 0 0.19940837682496099 -0.35689206815154528 0 0.20777431361625601 -0.33831058893907762 0 0.1971616983813648 -0.34495631128618592 0 0.18787137947787569 -0.35180034780069419 0 0.18864170350563411 -0.33720407153827198 0 0.1971616983813648 -0.34495631128618592 0 0.18787137947787569 -0.35180034780069419 0 0.19940837682496099 -0.35689206815154528 0 0.20683644217058031 -0.36558797855932218 0 0.20576161095015591 -0.37595213443190167 0 0.1910424400336663 -0.37547354736401328 0 0.18787137947787569 -0.35180034780069419 0 0.19940837682496099 -0.35689206815154528 0 0.1910424400336663 -0.37547354736401328 0 0.19940837682496099 -0.35689206815154528 0 0.1910424400336663 -0.37547354736401328 0 0.20683644217058031 -0.36558797855932218 0 0.19940837682496099 -0.35689206815154528 0 0.1910424400336663 -0.37547354736401328 0 0.21780935440599439 -0.31602188338433101 0 0.20777431361625601 -0.33831058893907762 0 0.21780935440599439 -0.31602188338433101 0 0.20777431361625601 -0.33831058893907762 0 0.20282381327660201 -0.31505297042611552 0 0.21780935440599439 -0.31602188338433101 0 0.21820242441149371 -0.32490710899175251 0 0.20777431361625601 -0.33831058893907762 0 0.2176214393273678 -0.31177412129290383 0 0.20282381327660201 -0.31505297042611552 0 0.2176214393273678 -0.31177412129290383 0 0.21780935440599439 -0.31602188338433101 0 0.20282381327660201 -0.31505297042611552 0 0.2176214393273678 -0.31177412129290383 0 0.21780935440599439 -0.31602188338433101 0 0.2176214393273678 -0.31177412129290383 0 0.21999804566891551 -0.31122614102315033 0 0.21780935440599439 -0.31602188338433101 0 0.21780935440599439 -0.31602188338433101 0 0.21820242441149371 -0.32490710899175251 0 0.220555537226792 -0.33578323097752499 0 0.21820242441149371 -0.32490710899175251 0 0.20777431361625601 -0.33831058893907762 0 0.220555537226792 -0.33578323097752499 0 0.21451162402718699 -0.34512658597487872 0 0.20777431361625601 -0.33831058893907762 0 0.21451162402718699 -0.34512658597487872 0 0.20777431361625601 -0.33831058893907762 0 0.1971616983813648 -0.34495631128618592 0 0.20777431361625601 -0.33831058893907762 0 0.18864170350563411 -0.33720407153827198 0 0.20777431361625601 -0.33831058893907762 0 0.18802618722583669 -0.31833181955932999 0 0.20777431361625601 -0.33831058893907762 0 0.18864170350563411 -0.33720407153827198 0 0.18802618722583669 -0.31833181955932999 0 0.20777431361625601 -0.33831058893907762 0 0.20282381327660201 -0.31505297042611552 0 0.18802618722583669 -0.31833181955932999 0 0.20282381327660201 -0.31505297042611552 0 0.18802618722583669 -0.31833181955932999 0 0.1976485991634879 -0.30796138879627621 0 0.20282381327660201 -0.31505297042611552 0 0.18802618722583669 -0.31833181955932999 0 0.18802618722583669 -0.31833181955932999 0 0.1791507244663583 -0.32983729973660558 0 0.16791254130802971 -0.3227885891963716 0 0.18802618722583669 -0.31833181955932999 0 0.17151825735526699 -0.31325416760549368 0 0.16791254130802971 -0.3227885891963716 0 0.18802618722583669 -0.31833181955932999 0 0.16791254130802971 -0.3227885891963716 0 0.18864170350563411 -0.33720407153827198 0 0.18802618722583669 -0.31833181955932999 0 0.1791507244663583 -0.32983729973660558 0 0.17202246582593331 -0.34102471865244838 0 0.1791507244663583 -0.32983729973660558 0 0.16791254130802971 -0.3227885891963716 0 0.18787137947787569 -0.35180034780069419 0 0.18864170350563411 -0.33720407153827198 0 0.17202246582593331 -0.34102471865244838 0 0.18864170350563411 -0.33720407153827198 0 0.17202246582593331 -0.34102471865244838 0 0.1791507244663583 -0.32983729973660558 0 0.17202246582593331 -0.34102471865244838 0 0.1546435437787094 -0.34381338892778002 0 0.1557586906108582 -0.32786840018592928 0 0.17202246582593331 -0.34102471865244838 0 0.16791254130802971 -0.3227885891963716 0 0.1557586906108582 -0.32786840018592928 0 0.16791254130802971 -0.3227885891963716 0 0.1557586906108582 -0.32786840018592928 0 0.1602411687519314 -0.31190927739118429 0 0.17151825735526699 -0.31325416760549368 0 0.16791254130802971 -0.3227885891963716 0 0.1602411687519314 -0.31190927739118429 0 0.18787137947787569 -0.35180034780069419 0 0.17662324672053431 -0.35795823269279659 0 0.1910424400336663 -0.37547354736401328 0 0.17662324672053431 -0.35795823269279659 0 0.17035242753357599 -0.36877211446365682 0 0.1910424400336663 -0.37547354736401328 0 0.17035242753357599 -0.36877211446365682 0 0.1910424400336663 -0.37547354736401328 0 0.1737051017910701 -0.38004230502140057 0 0.18787137947787569 -0.35180034780069419 0 0.17202246582593331 -0.34102471865244838 0 0.17662324672053431 -0.35795823269279659 0 0.17202246582593331 -0.34102471865244838 0 0.17662324672053431 -0.35795823269279659 0 0.16265844046108829 -0.35526087104265458 0 0.17202246582593331 -0.34102471865244838 0 0.16265844046108829 -0.35526087104265458 0 0.1546435437787094 -0.34381338892778002 0 0.17662324672053431 -0.35795823269279659 0 0.16265844046108829 -0.35526087104265458 0 0.17035242753357599 -0.36877211446365682 0 0.16265844046108829 -0.35526087104265458 0 0.1569593121701936 -0.36832063090657668 0 0.17035242753357599 -0.36877211446365682 0 0.1569593121701936 -0.36832063090657668 0 0.17035242753357599 -0.36877211446365682 0 0.16307541855137739 -0.37743582412871929 0 0.14536400873927011 -0.3681220756701501 0 0.1426630499740982 -0.35652090160864008 0 0.13524945632583441 -0.37311377610700652 0 0.16265844046108829 -0.35526087104265458 0 0.1569593121701936 -0.36832063090657668 0 0.1426630499740982 -0.35652090160864008 0 0.14536400873927011 -0.3681220756701501 0 0.13524945632583441 -0.37311377610700652 0 0.14973869037300869 -0.38096853745143089 0 0.1569593121701936 -0.36832063090657668 0 0.14536400873927011 -0.3681220756701501 0 0.14973869037300869 -0.38096853745143089 0 0.1569593121701936 -0.36832063090657668 0 0.14536400873927011 -0.3681220756701501 0 0.1426630499740982 -0.35652090160864008 0 0.1546435437787094 -0.34381338892778002 0 0.1426630499740982 -0.35652090160864008 0 0.1424354920479888 -0.33775294740649747 0 0.16265844046108829 -0.35526087104265458 0 0.1546435437787094 -0.34381338892778002 0 0.1426630499740982 -0.35652090160864008 0 0.13449730155472761 -0.34743155680512378 0 0.12784456261830821 -0.36308533366748658 0 0.123981461538115 -0.35128285539313481 0 0.1426630499740982 -0.35652090160864008 0 0.13449730155472761 -0.34743155680512378 0 0.1424354920479888 -0.33775294740649747 0 0.1426630499740982 -0.35652090160864008 0 0.13449730155472761 -0.34743155680512378 0 0.12784456261830821 -0.36308533366748658 0 0.13449730155472761 -0.34743155680512378 0 0.13051916655351839 -0.33696304048325831 0 0.123981461538115 -0.35128285539313481 0 0.1426630499740982 -0.35652090160864008 0 0.12784456261830821 -0.36308533366748658 0 0.13524945632583441 -0.37311377610700652 0 0.12784456261830821 -0.36308533366748658 0 0.13524945632583441 -0.37311377610700652 0 0.12609635470998201 -0.38402791619100712 0 0.14855409589738661 -0.31441038212804873 0 0.1557586906108582 -0.32786840018592928 0 0.1602411687519314 -0.31190927739118429 0 0.1445015266660287 -0.32337949759917511 0 0.14855409589738661 -0.31441038212804873 0 0.13871327718005111 -0.31332369293528212 0 0.1445015266660287 -0.32337949759917511 0 0.14855409589738661 -0.31441038212804873 0 0.1557586906108582 -0.32786840018592928 0 0.1546435437787094 -0.34381338892778002 0 0.1557586906108582 -0.32786840018592928 0 0.1424354920479888 -0.33775294740649747 0 0.1445015266660287 -0.32337949759917511 0 0.1557586906108582 -0.32786840018592928 0 0.1424354920479888 -0.33775294740649747 0 0.1445015266660287 -0.32337949759917511 0 0.1424354920479888 -0.33775294740649747 0 0.13219802669416811 -0.32498852212276208 0 0.1424354920479888 -0.33775294740649747 0 0.13051916655351839 -0.33696304048325831 0 0.13219802669416811 -0.32498852212276208 0 0.13449730155472761 -0.34743155680512378 0 0.1424354920479888 -0.33775294740649747 0 0.13051916655351839 -0.33696304048325831 0 0.13051916655351839 -0.33696304048325831 0 0.13219802669416811 -0.32498852212276208 0 0.12260601330919629 -0.33072698382653798 0 0.1445015266660287 -0.32337949759917511 0 0.13219802669416811 -0.32498852212276208 0 0.13871327718005111 -0.31332369293528212 0 0.13219802669416811 -0.32498852212276208 0 0.1265219532001009 -0.3124330460259736 0 0.1192961391526948 -0.32261879728377291 0 0.13219802669416811 -0.32498852212276208 0 0.13871327718005111 -0.31332369293528212 0 0.1265219532001009 -0.3124330460259736 0 0.1265219532001009 -0.3124330460259736 0 0.1332586495603032 -0.30031372317270688 0 0.1198701537204314 -0.30089140532399938 0 0.1332586495603032 -0.30031372317270688 0 0.1242383748246253 -0.29131174999725179 0 0.1198701537204314 -0.30089140532399938 0 0.13871327718005111 -0.31332369293528212 0 0.1265219532001009 -0.3124330460259736 0 0.1332586495603032 -0.30031372317270688 0 0.13871327718005111 -0.31332369293528212 0 0.1332586495603032 -0.30031372317270688 0 0.147245411062319 -0.30441698656302629 0 0.14855409589738661 -0.31441038212804873 0 0.13871327718005111 -0.31332369293528212 0 0.147245411062319 -0.30441698656302629 0 0.147245411062319 -0.30441698656302629 0 0.15432967412725099 -0.29846298066074151 0 0.14327492933615671 -0.29425024746867751 0 0.1332586495603032 -0.30031372317270688 0 0.147245411062319 -0.30441698656302629 0 0.14327492933615671 -0.29425024746867751 0 0.147245411062319 -0.30441698656302629 0 0.15432967412725099 -0.29846298066074151 0 0.1602411687519314 -0.31190927739118429 0 0.14855409589738661 -0.31441038212804873 0 0.147245411062319 -0.30441698656302629 0 0.1602411687519314 -0.31190927739118429 0 0.15432967412725099 -0.29846298066074151 0 0.1517600770447052 -0.28164214899084639 0 0.14327492933615671 -0.29425024746867751 0 0.1517600770447052 -0.28164214899084639 0 0.14327492933615671 -0.29425024746867751 0 0.13646338677899769 -0.28546266283427663 0 0.1332586495603032 -0.30031372317270688 0 0.14327492933615671 -0.29425024746867751 0 0.13646338677899769 -0.28546266283427663 0 0.1332586495603032 -0.30031372317270688 0 0.13646338677899769 -0.28546266283427663 0 0.1242383748246253 -0.29131174999725179 0 0.13646338677899769 -0.28546266283427663 0 0.1233023238440631 -0.28097148456094378 0 0.1242383748246253 -0.29131174999725179 0 0.1517600770447052 -0.28164214899084639 0 0.13646338677899769 -0.28546266283427663 0 0.1311170075682456 -0.27142576198599933 0 0.1517600770447052 -0.28164214899084639 0 0.1311170075682456 -0.27142576198599933 0 0.1364827709165429 -0.26618641562940759 0 0.13646338677899769 -0.28546266283427663 0 0.1311170075682456 -0.27142576198599933 0 0.1233023238440631 -0.28097148456094378 0 0.1311170075682456 -0.27142576198599933 0 0.1364827709165429 -0.26618641562940759 0 0.1212054647883809 -0.25073068226796852 0 0.1364827709165429 -0.26618641562940759 0 0.13217397618885759 -0.25462043987800831 0 0.1212054647883809 -0.25073068226796852 0 0.1364827709165429 -0.26618641562940759 0 0.1212054647883809 -0.25073068226796852 0 0.1364827709165429 -0.26618641562940759 0 0.13217397618885759 -0.25462043987800831 0 0.14275904560399111 -0.25945725309375861 0 0.13217397618885759 -0.25462043987800831 0 0.1429630926125974 -0.2502577086919005 0 0.14275904560399111 -0.25945725309375861 0 0.1429630926125974 -0.2502577086919005 0 0.16574248336044761 -0.26746108990676593 0 0.1429630926125974 -0.2502577086919005 0 0.15128247879849499 -0.26292486595599002 0 0.16574248336044761 -0.26746108990676593 0 0.1429630926125974 -0.2502577086919005 0 0.16574248336044761 -0.26746108990676593 0 0.16001236861667459 -0.2513654190734112 0 0.1429630926125974 -0.2502577086919005 0 0.14275904560399111 -0.25945725309375861 0 0.15128247879849499 -0.26292486595599002 0 0.1364827709165429 -0.26618641562940759 0 0.14275904560399111 -0.25945725309375861 0 0.15128247879849499 -0.26292486595599002 0 0.1517600770447052 -0.28164214899084639 0 0.1364827709165429 -0.26618641562940759 0 0.15128247879849499 -0.26292486595599002 0 0.1517600770447052 -0.28164214899084639 0 0.15128247879849499 -0.26292486595599002 0 0.15776774232478771 -0.26956647822523339 0 0.1517600770447052 -0.28164214899084639 0 0.1311170075682456 -0.27142576198599933 0 0.1517600770447052 -0.28164214899084639 0 0.1364827709165429 -0.26618641562940759 0 0.1517600770447052 -0.28164214899084639 0 0.16209364730358741 -0.27452888323759039 0 0.16594555478614451 -0.28284233368471318 0 0.1517600770447052 -0.28164214899084639 0 0.16209364730358741 -0.27452888323759039 0 0.15776774232478771 -0.26956647822523339 0 0.16209364730358741 -0.27452888323759039 0 0.15776774232478771 -0.26956647822523339 0 0.16574248336044761 -0.26746108990676593 0 0.15128247879849499 -0.26292486595599002 0 0.15776774232478771 -0.26956647822523339 0 0.16574248336044761 -0.26746108990676593 0 0.16209364730358741 -0.27452888323759039 0 0.16574248336044761 -0.26746108990676593 0 0.16920230535812411 -0.27329149954452342 0 0.16209364730358741 -0.27452888323759039 0 0.16920230535812411 -0.27329149954452342 0 0.16594555478614451 -0.28284233368471318 0 0.16920230535812411 -0.27329149954452342 0 0.1710222018321049 -0.28124575318360368 0 0.16594555478614451 -0.28284233368471318 0 0.16574248336044761 -0.26746108990676593 0 0.16001236861667459 -0.2513654190734112 0 0.16988601458932601 -0.2589500224365659 0 0.16574248336044761 -0.26746108990676593 0 0.16988601458932601 -0.2589500224365659 0 0.17628584543496439 -0.26683535894776161 0 0.16001236861667459 -0.2513654190734112 0 0.16988601458932601 -0.2589500224365659 0 0.16978669848249819 -0.25098739912941831 0 0.1767458594742066 -0.25730285456071711 0 0.17619278994504239 -0.24587918172992959 0 0.18399505531774341 -0.24981832115951039 0 0.16978669848249819 -0.25098739912941831 0 0.1767458594742066 -0.25730285456071711 0 0.17619278994504239 -0.24587918172992959 0 0.16988601458932601 -0.2589500224365659 0 0.16978669848249819 -0.25098739912941831 0 0.1767458594742066 -0.25730285456071711 0 0.16988601458932601 -0.2589500224365659 0 0.1767458594742066 -0.25730285456071711 0 0.17628584543496439 -0.26683535894776161 0 0.1767458594742066 -0.25730285456071711 0 0.17628584543496439 -0.26683535894776161 0 0.1845366839674035 -0.26640487959885623 0 0.1767458594742066 -0.25730285456071711 0 0.18706352147094041 -0.25756661524031438 0 0.1845366839674035 -0.26640487959885623 0 0.1767458594742066 -0.25730285456071711 0 0.18706352147094041 -0.25756661524031438 0 0.18399505531774341 -0.24981832115951039 0 0.18852187410829821 -0.28466447112163068 0 0.17628584543496439 -0.26683535894776161 0 0.1845366839674035 -0.26640487959885623 0 0.18852187410829821 -0.28466447112163068 0 0.16574248336044761 -0.26746108990676593 0 0.18852187410829821 -0.28466447112163068 0 0.16574248336044761 -0.26746108990676593 0 0.17628584543496439 -0.26683535894776161 0 0.16920230535812411 -0.27329149954452342 0 0.18747516626574931 -0.28692639975368628 0 0.17602993407772211 -0.2832030986568283 0 0.18852187410829821 -0.28466447112163068 0 0.16574248336044761 -0.26746108990676593 0 0.16920230535812411 -0.27329149954452342 0 0.16920230535812411 -0.27329149954452342 0 0.18747516626574931 -0.28692639975368628 0 0.16920230535812411 -0.27329149954452342 0 0.1710222018321049 -0.28124575318360368 0 0.17602993407772211 -0.2832030986568283 0 0.18747516626574931 -0.28692639975368628 0 0.1806905449634813 -0.28832929748571318 0 0.17602993407772211 -0.2832030986568283 0 0.18852187410829821 -0.28466447112163068 0 0.16920230535812411 -0.27329149954452342 0 0.18747516626574931 -0.28692639975368628 0 0.18747516626574931 -0.28692639975368628 0 0.1806905449634813 -0.28832929748571318 0 0.18301660310609241 -0.29114958545392738 0 0.17291101310642881 -0.28564608084835003 0 0.17864991096044419 -0.29495009963706692 0 0.16594555478614451 -0.28284233368471318 0 0.1806905449634813 -0.28832929748571318 0 0.17602993407772211 -0.2832030986568283 0 0.17673138357400531 -0.28840876668861409 0 0.17602993407772211 -0.2832030986568283 0 0.17673138357400531 -0.28840876668861409 0 0.17291101310642881 -0.28564608084835003 0 0.1710222018321049 -0.28124575318360368 0 0.17602993407772211 -0.2832030986568283 0 0.17291101310642881 -0.28564608084835003 0 0.17673138357400531 -0.28840876668861409 0 0.17291101310642881 -0.28564608084835003 0 0.17864991096044419 -0.29495009963706692 0 0.17673138357400531 -0.28840876668861409 0 0.17909088347012619 -0.29088019083727579 0 0.17864991096044419 -0.29495009963706692 0 0.1806905449634813 -0.28832929748571318 0 0.17673138357400531 -0.28840876668861409 0 0.17909088347012619 -0.29088019083727579 0 0.17909088347012619 -0.29088019083727579 0 0.17864991096044419 -0.29495009963706692 0 0.18114425154506539 -0.29221912984395187 0 0.18747516626574931 -0.28692639975368628 0 0.18734834214976739 -0.29514628785519947 0 0.1827564496500734 -0.29712351473235832 0 0.18747516626574931 -0.28692639975368628 0 0.18301660310609241 -0.29114958545392738 0 0.1827564496500734 -0.29712351473235832 0 0.18114425154506539 -0.29221912984395187 0 0.18301660310609241 -0.29114958545392738 0 0.1827564496500734 -0.29712351473235832 0 0.17864991096044419 -0.29495009963706692 0 0.18114425154506539 -0.29221912984395187 0 0.1827564496500734 -0.29712351473235832 0 0.18747516626574931 -0.28692639975368628 0 0.1827564496500734 -0.29712351473235832 0 0.1806905449634813 -0.28832929748571318 0 0.18114425154506539 -0.29221912984395187 0 0.18301660310609241 -0.29114958545392738 0 0.1806905449634813 -0.28832929748571318 0 0.17909088347012619 -0.29088019083727579 0 0.18114425154506539 -0.29221912984395187 0 0.18802618722583669 -0.31833181955932999 0 0.18221347423979239 -0.30458962683289892 0 0.1698931321352706 -0.29998698427508858 0 0.1880606218677118 -0.30022154946313712 0 0.18734834214976739 -0.29514628785519947 0 0.1827564496500734 -0.29712351473235832 0 0.19009702279388629 -0.3064242775921906 0 0.1880606218677118 -0.30022154946313712 0 0.18221347423979239 -0.30458962683289892 0 0.18802618722583669 -0.31833181955932999 0 0.17151825735526699 -0.31325416760549368 0 0.1698931321352706 -0.29998698427508858 0 0.1880606218677118 -0.30022154946313712 0 0.18221347423979239 -0.30458962683289892 0 0.1827564496500734 -0.29712351473235832 0 0.18802618722583669 -0.31833181955932999 0 0.1698931321352706 -0.29998698427508858 0 0.17864991096044419 -0.29495009963706692 0 0.1827564496500734 -0.29712351473235832 0 0.17837824174639511 -0.29916255636935318 0 0.18221347423979239 -0.30458962683289892 0 0.1827564496500734 -0.29712351473235832 0 0.17837824174639511 -0.29916255636935318 0 0.19009702279388629 -0.3064242775921906 0 0.18802618722583669 -0.31833181955932999 0 0.18221347423979239 -0.30458962683289892 0 0.18221347423979239 -0.30458962683289892 0 0.17837824174639511 -0.29916255636935318 0 0.1698931321352706 -0.29998698427508858 0 0.17864991096044419 -0.29495009963706692 0 0.17837824174639511 -0.29916255636935318 0 0.1698931321352706 -0.29998698427508858 0 0.17151825735526699 -0.31325416760549368 0 0.1698931321352706 -0.29998698427508858 0 0.1602411687519314 -0.31190927739118429 0 0.15432967412725099 -0.29846298066074151 0 0.1698931321352706 -0.29998698427508858 0 0.1602411687519314 -0.31190927739118429 0 0.1517600770447052 -0.28164214899084639 0 0.17864991096044419 -0.29495009963706692 0 0.1698931321352706 -0.29998698427508858 0 0.1517600770447052 -0.28164214899084639 0 0.1698931321352706 -0.29998698427508858 0 0.15432967412725099 -0.29846298066074151 0 0.1517600770447052 -0.28164214899084639 0 0.1698931321352706 -0.29998698427508858 0 0.1517600770447052 -0.28164214899084639 0 0.17864991096044419 -0.29495009963706692 0 0.1517600770447052 -0.28164214899084639 0 0.17864991096044419 -0.29495009963706692 0 0.16594555478614451 -0.28284233368471318 0 0.1710222018321049 -0.28124575318360368 0 0.17291101310642881 -0.28564608084835003 0 0.16594555478614451 -0.28284233368471318 0 0.21438456257476449 -0.5 0 0.2048745361024723 -0.48472171768082351 0 0.18744203257390391 -0.5 0 0.19122796324104871 -0.48466606029959602 0 0.2048745361024723 -0.48472171768082351 0 0.18744203257390391 -0.5 0 0.19122796324104871 -0.48466606029959602 0 0.20365346230900849 -0.47086657296764728 0 0.1938641377332887 -0.4633108835168005 0 0.19122796324104871 -0.48466606029959602 0 0.20365346230900849 -0.47086657296764728 0 0.2048745361024723 -0.48472171768082351 0 0.21766866328091511 -0.47157360957620892 0 0.2048745361024723 -0.48472171768082351 0 0.22288060450936709 -0.48400008360299168 0 0.20365346230900849 -0.47086657296764728 0 0.21766866328091511 -0.47157360957620892 0 0.2048745361024723 -0.48472171768082351 0 0.21438456257476449 -0.5 0 0.2048745361024723 -0.48472171768082351 0 0.22288060450936709 -0.48400008360299168 0 0.21438456257476449 -0.5 0 0.23633351028628971 -0.48712361601618398 0 0.2413270925756249 -0.5 0 0.21438456257476449 -0.5 0 0.23633351028628971 -0.48712361601618398 0 0.22288060450936709 -0.48400008360299168 0 0.25270961841775552 -0.48460016746525392 0 0.23633351028628971 -0.48712361601618398 0 0.2413270925756249 -0.5 0 0.25270961841775552 -0.48460016746525392 0 0.23633351028628971 -0.48712361601618398 0 0.23949561189523169 -0.47426551941090739 0 0.23949561189523169 -0.47426551941090739 0 0.22288060450936709 -0.48400008360299168 0 0.22545312399173489 -0.46028769725088831 0 0.21766866328091511 -0.47157360957620892 0 0.22288060450936709 -0.48400008360299168 0 0.22545312399173489 -0.46028769725088831 0 0.23633351028628971 -0.48712361601618398 0 0.23949561189523169 -0.47426551941090739 0 0.22288060450936709 -0.48400008360299168 0 0.22288060450936709 -0.48400008360299168 0 0.22545312399173489 -0.46028769725088831 0 0.21766866328091511 -0.47157360957620892 0 0.22545312399173489 -0.46028769725088831 0 0.2186728293425339 -0.44755637628226819 0 0.2588368117714554 -0.46700690363883102 0 0.23949561189523169 -0.47426551941090739 0 0.2409729068143365 -0.46262444708906358 0 0.22545312399173489 -0.46028769725088831 0 0.2409729068143365 -0.46262444708906358 0 0.24480843210435321 -0.45079661158300749 0 0.2588368117714554 -0.46700690363883102 0 0.2409729068143365 -0.46262444708906358 0 0.24480843210435321 -0.45079661158300749 0 0.23949561189523169 -0.47426551941090739 0 0.22545312399173489 -0.46028769725088831 0 0.2409729068143365 -0.46262444708906358 0 0.24480843210435321 -0.45079661158300749 0 0.22802564347410281 -0.43657531089878487 0 0.2418992233321238 -0.43333026798624508 0 0.25513396950241118 -0.43290986753561628 0 0.24480843210435321 -0.45079661158300749 0 0.2418992233321238 -0.43333026798624508 0 0.22545312399173489 -0.46028769725088831 0 0.22802564347410281 -0.43657531089878487 0 0.2186728293425339 -0.44755637628226819 0 0.21246462128442831 -0.43168381348743168 0 0.22802564347410281 -0.43657531089878487 0 0.22545312399173489 -0.46028769725088831 0 0.2186728293425339 -0.44755637628226819 0 0.22802564347410281 -0.43657531089878487 0 0.22545312399173489 -0.46028769725088831 0 0.24480843210435321 -0.45079661158300749 0 0.22802564347410281 -0.43657531089878487 0 0.20442019459899149 -0.44533796874460208 0 0.2186728293425339 -0.44755637628226819 0 0.21246462128442831 -0.43168381348743168 0 0.21766866328091511 -0.47157360957620892 0 0.20442019459899149 -0.44533796874460208 0 0.21766866328091511 -0.47157360957620892 0 0.20442019459899149 -0.44533796874460208 0 0.2186728293425339 -0.44755637628226819 0 0.20365346230900849 -0.47086657296764728 0 0.21766866328091511 -0.47157360957620892 0 0.20442019459899149 -0.44533796874460208 0 0.20365346230900849 -0.47086657296764728 0 0.20442019459899149 -0.44533796874460208 0 0.1938641377332887 -0.4633108835168005 0 0.20442019459899149 -0.44533796874460208 0 0.18484232774876749 -0.43033534366960768 0 0.18590039067086719 -0.44115637567916172 0 0.20442019459899149 -0.44533796874460208 0 0.18923595964957429 -0.45067509688328122 0 0.18590039067086719 -0.44115637567916172 0 0.20442019459899149 -0.44533796874460208 0 0.1938641377332887 -0.4633108835168005 0 0.18923595964957429 -0.45067509688328122 0 0.20442019459899149 -0.44533796874460208 0 0.1911717259170673 -0.41910232791299562 0 0.20473537155931409 -0.42802668409371708 0 0.20442019459899149 -0.44533796874460208 0 0.1911717259170673 -0.41910232791299562 0 0.20442019459899149 -0.44533796874460208 0 0.1911717259170673 -0.41910232791299562 0 0.18484232774876749 -0.43033534366960768 0 0.1911717259170673 -0.41910232791299562 0 0.21088494443676881 -0.41598262622983972 0 0.20473537155931409 -0.42802668409371708 0 0.18851111772050869 -0.41383358608972459 0 0.208966154163157 -0.40126827473642579 0 0.1911717259170673 -0.41910232791299562 0 0.21088494443676881 -0.41598262622983972 0 0.1911717259170673 -0.41910232791299562 0 0.18851111772050869 -0.41383358608972459 0 0.21088494443676881 -0.41598262622983972 0 0.18851111772050869 -0.41383358608972459 0 0.21088494443676881 -0.41598262622983972 0 0.208966154163157 -0.40126827473642579 0 0.1911717259170673 -0.41910232791299562 0 0.18851111772050869 -0.41383358608972459 0 0.21088494443676881 -0.41598262622983972 0 0.22155668588658281 -0.40529615173032069 0 0.208966154163157 -0.40126827473642579 0 0.21088494443676881 -0.41598262622983972 0 0.20473537155931409 -0.42802668409371708 0 0.21246462128442831 -0.43168381348743168 0 0.21088494443676881 -0.41598262622983972 0 0.21246462128442831 -0.43168381348743168 0 0.21959695705502991 -0.42408781639437282 0 0.20442019459899149 -0.44533796874460208 0 0.20473537155931409 -0.42802668409371708 0 0.21246462128442831 -0.43168381348743168 0 0.21246462128442831 -0.43168381348743168 0 0.21959695705502991 -0.42408781639437282 0 0.22802564347410281 -0.43657531089878487 0 0.22802564347410281 -0.43657531089878487 0 0.23614533994983331 -0.4244462479719151 0 0.23059816295646979 -0.4128629245466815 0 0.22802564347410281 -0.43657531089878487 0 0.23059816295646979 -0.4128629245466815 0 0.21959695705502991 -0.42408781639437282 0 0.22802564347410281 -0.43657531089878487 0 0.23059816295646979 -0.4128629245466815 0 0.22802564347410281 -0.43657531089878487 0 0.2418992233321238 -0.43333026798624508 0 0.23614533994983331 -0.4244462479719151 0 0.2418992233321238 -0.43333026798624508 0 0.23614533994983331 -0.4244462479719151 0 0.2453827316299185 -0.42192330194190181 0 0.25513396950241118 -0.43290986753561628 0 0.2418992233321238 -0.43333026798624508 0 0.2453827316299185 -0.42192330194190181 0 0.256136481120742 -0.41447562176841068 0 0.2453827316299185 -0.42192330194190181 0 0.24629253832767661 -0.41022035877505542 0 0.2453827316299185 -0.42192330194190181 0 0.24629253832767661 -0.41022035877505542 0 0.2366098857920339 -0.41191154353144788 0 0.23614533994983331 -0.4244462479719151 0 0.2366098857920339 -0.41191154353144788 0 0.23059816295646979 -0.4128629245466815 0 0.23614533994983331 -0.4244462479719151 0 0.2453827316299185 -0.42192330194190181 0 0.2366098857920339 -0.41191154353144788 0 0.24629253832767661 -0.41022035877505542 0 0.2366098857920339 -0.41191154353144788 0 0.2422505545635501 -0.40276464775944387 0 0.21088494443676881 -0.41598262622983972 0 0.23059816295646979 -0.4128629245466815 0 0.2366098857920339 -0.41191154353144788 0 0.23059816295646979 -0.4128629245466815 0 0.23156745731421779 -0.4039283829592023 0 0.23059816295646979 -0.4128629245466815 0 0.22155668588658281 -0.40529615173032069 0 0.23156745731421779 -0.4039283829592023 0 0.23059816295646979 -0.4128629245466815 0 0.23156745731421779 -0.4039283829592023 0 0.21088494443676881 -0.41598262622983972 0 0.23059816295646979 -0.4128629245466815 0 0.22155668588658281 -0.40529615173032069 0 0.21088494443676881 -0.41598262622983972 0 0.21959695705502991 -0.42408781639437282 0 0.23059816295646979 -0.4128629245466815 0 0.2366098857920339 -0.41191154353144788 0 0.23059816295646979 -0.4128629245466815 0 0.22155668588658281 -0.40529615173032069 0 0.22942119060580499 -0.38870296338312649 0 0.208966154163157 -0.40126827473642579 0 0.22155668588658281 -0.40529615173032069 0 0.23156745731421779 -0.4039283829592023 0 0.22942119060580499 -0.38870296338312649 0 0.22942119060580499 -0.38870296338312649 0 0.208966154163157 -0.40126827473642579 0 0.23156745731421779 -0.4039283829592023 0 0.24309899287842279 -0.39271330151873202 0 0.2422505545635501 -0.40276464775944387 0 0.2366098857920339 -0.41191154353144788 0 0.23156745731421779 -0.4039283829592023 0 0.2422505545635501 -0.40276464775944387 0 0.23156745731421779 -0.4039283829592023 0 0.24309899287842279 -0.39271330151873202 0 0.22942119060580499 -0.38870296338312649 0 0.25108303853213881 -0.40002667887407228 0 0.24629253832767661 -0.41022035877505542 0 0.2422505545635501 -0.40276464775944387 0 0.25108303853213881 -0.40002667887407228 0 0.24309899287842279 -0.39271330151873202 0 0.2422505545635501 -0.40276464775944387 0 0.24987622704845311 -0.37613765202982719 0 0.22942119060580499 -0.38870296338312649 0 0.24309899287842279 -0.39271330151873202 0 0.24987622704845311 -0.37613765202982719 0 0.22942119060580499 -0.38870296338312649 0 0.24987622704845311 -0.37613765202982719 0 0.23474048966473349 -0.38137370792841258 0 0.22942119060580499 -0.38870296338312649 0 0.25687819372407023 -0.38903915957053298 0 0.24309899287842279 -0.39271330151873202 0 0.24987622704845311 -0.37613765202982719 0 0.23679608458568241 -0.3713456781615978 0 0.24987622704845311 -0.37613765202982719 0 0.23474048966473349 -0.38137370792841258 0 0.23474048966473349 -0.38137370792841258 0 0.23010576568282681 -0.37607478874810818 0 0.22189277223980711 -0.38054577212349588 0 0.23474048966473349 -0.38137370792841258 0 0.22189277223980711 -0.38054577212349588 0 0.20961824525516401 -0.3936281247522696 0 0.23474048966473349 -0.38137370792841258 0 0.22942119060580499 -0.38870296338312649 0 0.20961824525516401 -0.3936281247522696 0 0.23679608458568241 -0.3713456781615978 0 0.23474048966473349 -0.38137370792841258 0 0.23010576568282681 -0.37607478874810818 0 0.23474048966473349 -0.38137370792841258 0 0.20961824525516401 -0.3936281247522696 0 0.22699371624108439 -0.37103399677892651 0 0.23010576568282681 -0.37607478874810818 0 0.22189277223980711 -0.38054577212349588 0 0.21663927632257499 -0.37152038636996992 0 0.22189277223980711 -0.38054577212349588 0 0.21119602619295649 -0.38157571206759561 0 0.21663927632257499 -0.37152038636996992 0 0.21119602619295649 -0.38157571206759561 0 0.20576161095015591 -0.37595213443190167 0 0.21119602619295649 -0.38157571206759561 0 0.20576161095015591 -0.37595213443190167 0 0.20229958674085519 -0.38616776423662919 0 0.21119602619295649 -0.38157571206759561 0 0.20961824525516401 -0.3936281247522696 0 0.20229958674085519 -0.38616776423662919 0 0.22189277223980711 -0.38054577212349588 0 0.21119602619295649 -0.38157571206759561 0 0.20961824525516401 -0.3936281247522696 0 0.22942119060580499 -0.38870296338312649 0 0.208966154163157 -0.40126827473642579 0 0.20961824525516401 -0.3936281247522696 0 0.20961824525516401 -0.3936281247522696 0 0.18449600084559339 -0.40588254157612419 0 0.20961824525516401 -0.3936281247522696 0 0.19262774622386039 -0.39991289132556063 0 0.20229958674085519 -0.38616776423662919 0 0.18851111772050869 -0.41383358608972459 0 0.20961824525516401 -0.3936281247522696 0 0.18449600084559339 -0.40588254157612419 0 0.19262774622386039 -0.39991289132556063 0 0.193172237845981 -0.38760648281860499 0 0.20229958674085519 -0.38616776423662919 0 0.20961824525516401 -0.3936281247522696 0 0.19262774622386039 -0.39991289132556063 0 0.18449600084559339 -0.40588254157612419 0 0.18851111772050869 -0.41383358608972459 0 0.208966154163157 -0.40126827473642579 0 0.20961824525516401 -0.3936281247522696 0 0.19262774622386039 -0.39991289132556063 0 0.18963514604776821 -0.39361523539988952 0 0.193172237845981 -0.38760648281860499 0 0.19262774622386039 -0.39991289132556063 0 0.18963514604776821 -0.39361523539988952 0 0.18221634088723479 -0.40136818287387582 0 0.18963514604776821 -0.39361523539988952 0 0.193172237845981 -0.38760648281860499 0 0.18267650324237161 -0.39405502657648112 0 0.193172237845981 -0.38760648281860499 0 0.1910424400336663 -0.37547354736401328 0 0.18267650324237161 -0.39405502657648112 0 0.20576161095015591 -0.37595213443190167 0 0.1910424400336663 -0.37547354736401328 0 0.20229958674085519 -0.38616776423662919 0 0.193172237845981 -0.38760648281860499 0 0.1910424400336663 -0.37547354736401328 0 0.20229958674085519 -0.38616776423662919 0 0.1910424400336663 -0.37547354736401328 0 0.17822948803450961 -0.38676940160015832 0 0.1737051017910701 -0.38004230502140057 0 0.1910424400336663 -0.37547354736401328 0 0.18267650324237161 -0.39405502657648112 0 0.1910424400336663 -0.37547354736401328 0 0.17822948803450961 -0.38676940160015832 0 0.18267650324237161 -0.39405502657648112 0 0.17822948803450961 -0.38676940160015832 0 0.17910183421640119 -0.39520059623836468 0 0.1646215608890387 -0.38907553280053181 0 0.17822948803450961 -0.38676940160015832 0 0.1737051017910701 -0.38004230502140057 0 0.1646215608890387 -0.38907553280053181 0 0.17822948803450961 -0.38676940160015832 0 0.18267650324237161 -0.39405502657648112 0 0.17910183421640119 -0.39520059623836468 0 0.18221634088723479 -0.40136818287387582 0 0.17910183421640119 -0.39520059623836468 0 0.15805845094365739 -0.40474493864538458 0 0.18963514604776821 -0.39361523539988952 0 0.18267650324237161 -0.39405502657648112 0 0.18221634088723479 -0.40136818287387582 0 0.18267650324237161 -0.39405502657648112 0 0.18221634088723479 -0.40136818287387582 0 0.17910183421640119 -0.39520059623836468 0 0.18221634088723479 -0.40136818287387582 0 0.17910183421640119 -0.39520059623836468 0 0.19262774622386039 -0.39991289132556063 0 0.18221634088723479 -0.40136818287387582 0 0.19262774622386039 -0.39991289132556063 0 0.18449600084559339 -0.40588254157612419 0 0.18221634088723479 -0.40136818287387582 0 0.18449600084559339 -0.40588254157612419 0 0.18221634088723479 -0.40136818287387582 0 0.17910183421640119 -0.39520059623836468 0 0.15805845094365739 -0.40474493864538458 0 0.1646215608890387 -0.38907553280053181 0 0.18221634088723479 -0.40136818287387582 0 0.15805845094365739 -0.40474493864538458 0 0.15805845094365739 -0.40474493864538458 0 0.1646215608890387 -0.38907553280053181 0 0.14706277844018539 -0.39464292458295508 0 0.1737051017910701 -0.38004230502140057 0 0.1646215608890387 -0.38907553280053181 0 0.16307541855137739 -0.37743582412871929 0 0.17035242753357599 -0.36877211446365682 0 0.1737051017910701 -0.38004230502140057 0 0.16307541855137739 -0.37743582412871929 0 0.1569593121701936 -0.36832063090657668 0 0.16307541855137739 -0.37743582412871929 0 0.14973869037300869 -0.38096853745143089 0 0.1646215608890387 -0.38907553280053181 0 0.16307541855137739 -0.37743582412871929 0 0.14973869037300869 -0.38096853745143089 0 0.1646215608890387 -0.38907553280053181 0 0.14973869037300869 -0.38096853745143089 0 0.14706277844018539 -0.39464292458295508 0 0.14973869037300869 -0.38096853745143089 0 0.1375772795987745 -0.38493757303029391 0 0.14706277844018539 -0.39464292458295508 0 0.13524945632583441 -0.37311377610700652 0 0.14973869037300869 -0.38096853745143089 0 0.1375772795987745 -0.38493757303029391 0 0.13524945632583441 -0.37311377610700652 0 0.1375772795987745 -0.38493757303029391 0 0.12609635470998201 -0.38402791619100712 0 0.1375772795987745 -0.38493757303029391 0 0.12609635470998201 -0.38402791619100712 0 0.13569313113510631 -0.39589912548093298 0 0.12645644117523869 -0.39722706905544619 0 0.13569313113510631 -0.39589912548093298 0 0.1339005610000801 -0.40812169441689322 0 0.12645644117523869 -0.39722706905544619 0 0.1339005610000801 -0.40812169441689322 0 0.1250254850364893 -0.40936224001308058 0 0.12609635470998201 -0.38402791619100712 0 0.12645644117523869 -0.39722706905544619 0 0.13569313113510631 -0.39589912548093298 0 0.1375772795987745 -0.38493757303029391 0 0.13569313113510631 -0.39589912548093298 0 0.14706277844018539 -0.39464292458295508 0 0.13569313113510631 -0.39589912548093298 0 0.14706277844018539 -0.39464292458295508 0 0.1339005610000801 -0.40812169441689322 0 0.13569313113510631 -0.39589912548093298 0 0.1339005610000801 -0.40812169441689322 0 0.15805845094365739 -0.40474493864538458 0 0.14706277844018539 -0.39464292458295508 0 0.1339005610000801 -0.40812169441689322 0 0.15805845094365739 -0.40474493864538458 0 0.1339005610000801 -0.40812169441689322 0 0.15805845094365739 -0.40474493864538458 0 0.15398562739609989 -0.414436145328195 0 0.14500783119440661 -0.41410657591589572 0 0.15805845094365739 -0.40474493864538458 0 0.14500783119440661 -0.41410657591589572 0 0.1339005610000801 -0.40812169441689322 0 0.15398562739609989 -0.414436145328195 0 0.15088002640467921 -0.42009116626417142 0 0.14500783119440661 -0.41410657591589572 0 0.15088002640467921 -0.42009116626417142 0 0.15979138776423191 -0.42406840149736191 0 0.15636365466176849 -0.41960526040447821 0 0.15398562739609989 -0.414436145328195 0 0.15088002640467921 -0.42009116626417142 0 0.15636365466176849 -0.41960526040447821 0 0.15088002640467921 -0.42009116626417142 0 0.14500783119440661 -0.41410657591589572 0 0.14354831806896931 -0.42663893719234869 0 0.14500783119440661 -0.41410657591589572 0 0.1339005610000801 -0.40812169441689322 0 0.13212255532719441 -0.42024495614079282 0 0.14500783119440661 -0.41410657591589572 0 0.13212255532719441 -0.42024495614079282 0 0.14354831806896931 -0.42663893719234869 0 0.1339005610000801 -0.40812169441689322 0 0.13212255532719441 -0.42024495614079282 0 0.13212255532719441 -0.42024495614079282 0 0.1250254850364893 -0.40936224001308058 0 0.117866085899093 -0.41583132647739651 0 0.13212255532719441 -0.42024495614079282 0 0.1250254850364893 -0.40936224001308058 0 0.1339005610000801 -0.40812169441689322 0 0.13212255532719441 -0.42024495614079282 0 0.1250254850364893 -0.40936224001308058 0 0.1339005610000801 -0.40812169441689322 0 0.1250254850364893 -0.40936224001308058 0 0.13212255532719441 -0.42024495614079282 0 0.14354831806896931 -0.42663893719234869 0 0.1460535583969573 -0.44160689079445481 0 0.13212255532719441 -0.42024495614079282 0 0.128223579302082 -0.44682997076052833 0 0.13212255532719441 -0.42024495614079282 0 0.128223579302082 -0.44682997076052833 0 0.1159996351348133 -0.43474120747525058 0 0.13212255532719441 -0.42024495614079282 0 0.1460535583969573 -0.44160689079445481 0 0.13212255532719441 -0.42024495614079282 0 0.1460535583969573 -0.44160689079445481 0 0.128223579302082 -0.44682997076052833 0 0.15088002640467921 -0.42009116626417142 0 0.14354831806896931 -0.42663893719234869 0 0.15979138776423191 -0.42406840149736191 0 0.14354831806896931 -0.42663893719234869 0 0.15979138776423191 -0.42406840149736191 0 0.14354831806896931 -0.42663893719234869 0 0.15423293294423909 -0.43386412417913311 0 0.1460535583969573 -0.44160689079445481 0 0.14354831806896931 -0.42663893719234869 0 0.15423293294423909 -0.43386412417913311 0 0.15979138776423191 -0.42406840149736191 0 0.15423293294423909 -0.43386412417913311 0 0.16088991666547389 -0.43196094602310392 0 0.16557730454712019 -0.44172028084172121 0 0.1713980071398 -0.42434598792645378 0 0.15979138776423191 -0.42406840149736191 0 0.1760344574594947 -0.42149786580237669 0 0.15423293294423909 -0.43386412417913311 0 0.16088991666547389 -0.43196094602310392 0 0.15979138776423191 -0.42406840149736191 0 0.15979138776423191 -0.42406840149736191 0 0.1760344574594947 -0.42149786580237669 0 0.16626302434537371 -0.43076979168845952 0 0.17509911994716071 -0.43336510097506958 0 0.16557730454712019 -0.44172028084172121 0 0.16088991666547389 -0.43196094602310392 0 0.16626302434537371 -0.43076979168845952 0 0.16557730454712019 -0.44172028084172121 0 0.16626302434537371 -0.43076979168845952 0 0.1713980071398 -0.42434598792645378 0 0.17509911994716071 -0.43336510097506958 0 0.16626302434537371 -0.43076979168845952 0 0.1713980071398 -0.42434598792645378 0 0.15979138776423191 -0.42406840149736191 0 0.16088991666547389 -0.43196094602310392 0 0.16626302434537371 -0.43076979168845952 0 0.15979138776423191 -0.42406840149736191 0 0.15636365466176849 -0.41960526040447821 0 0.16176651730702801 -0.41283252991975622 0 0.17042982775368151 -0.41274390099030239 0 0.18221634088723479 -0.40136818287387582 0 0.15805845094365739 -0.40474493864538458 0 0.17042982775368151 -0.41274390099030239 0 0.15979138776423191 -0.42406840149736191 0 0.15636365466176849 -0.41960526040447821 0 0.17042982775368151 -0.41274390099030239 0 0.15636365466176849 -0.41960526040447821 0 0.17042982775368151 -0.41274390099030239 0 0.15979138776423191 -0.42406840149736191 0 0.17042982775368151 -0.41274390099030239 0 0.1760344574594947 -0.42149786580237669 0 0.15398562739609989 -0.414436145328195 0 0.15636365466176849 -0.41960526040447821 0 0.16176651730702801 -0.41283252991975622 0 0.15805845094365739 -0.40474493864538458 0 0.15398562739609989 -0.414436145328195 0 0.16176651730702801 -0.41283252991975622 0 0.15805845094365739 -0.40474493864538458 0 0.16176651730702801 -0.41283252991975622 0 0.17042982775368151 -0.41274390099030239 0 0.17042982775368151 -0.41274390099030239 0 0.1760344574594947 -0.42149786580237669 0 0.17986785094481991 -0.4134894736146324 0 0.18449600084559339 -0.40588254157612419 0 0.17042982775368151 -0.41274390099030239 0 0.18449600084559339 -0.40588254157612419 0 0.18221634088723479 -0.40136818287387582 0 0.17042982775368151 -0.41274390099030239 0 0.18449600084559339 -0.40588254157612419 0 0.17042982775368151 -0.41274390099030239 0 0.17986785094481991 -0.4134894736146324 0 0.18851111772050869 -0.41383358608972459 0 0.18449600084559339 -0.40588254157612419 0 0.18851111772050869 -0.41383358608972459 0 0.18449600084559339 -0.40588254157612419 0 0.17986785094481991 -0.4134894736146324 0 0.18851111772050869 -0.41383358608972459 0 0.1760344574594947 -0.42149786580237669 0 0.1911717259170673 -0.41910232791299562 0 0.1760344574594947 -0.42149786580237669 0 0.18851111772050869 -0.41383358608972459 0 0.1760344574594947 -0.42149786580237669 0 0.17986785094481991 -0.4134894736146324 0 0.1911717259170673 -0.41910232791299562 0 0.18851111772050869 -0.41383358608972459 0 0.1760344574594947 -0.42149786580237669 0 0.1911717259170673 -0.41910232791299562 0 0.1760344574594947 -0.42149786580237669 0 0.18484232774876749 -0.43033534366960768 0 0.18484232774876749 -0.43033534366960768 0 0.17509911994716071 -0.43336510097506958 0 0.18590039067086719 -0.44115637567916172 0 0.18484232774876749 -0.43033534366960768 0 0.17509911994716071 -0.43336510097506958 0 0.17653319474121221 -0.42750765242104072 0 0.1713980071398 -0.42434598792645378 0 0.17509911994716071 -0.43336510097506958 0 0.17653319474121221 -0.42750765242104072 0 0.1760344574594947 -0.42149786580237669 0 0.18484232774876749 -0.43033534366960768 0 0.17653319474121221 -0.42750765242104072 0 0.1713980071398 -0.42434598792645378 0 0.1760344574594947 -0.42149786580237669 0 0.17653319474121221 -0.42750765242104072 0 0.1713980071398 -0.42434598792645378 0 0.1760344574594947 -0.42149786580237669 0 0.17791556380287959 -0.4455361086535346 0 0.17376504419967539 -0.46076368888843938 0 0.16557730454712019 -0.44172028084172121 0 0.17509911994716071 -0.43336510097506958 0 0.17791556380287959 -0.4455361086535346 0 0.18590039067086719 -0.44115637567916172 0 0.17509911994716071 -0.43336510097506958 0 0.17791556380287959 -0.4455361086535346 0 0.16557730454712019 -0.44172028084172121 0 0.18923595964957429 -0.45067509688328122 0 0.17791556380287959 -0.4455361086535346 0 0.18590039067086719 -0.44115637567916172 0 0.18923595964957429 -0.45067509688328122 0 0.17791556380287959 -0.4455361086535346 0 0.17376504419967539 -0.46076368888843938 0 0.1938641377332887 -0.4633108835168005 0 0.18923595964957429 -0.45067509688328122 0 0.17376504419967539 -0.46076368888843938 0 0.1938641377332887 -0.4633108835168005 0 0.17376504419967539 -0.46076368888843938 0 0.17718182015316611 -0.48165544175840053 0 0.17376504419967539 -0.46076368888843938 0 0.15550290350416551 -0.45157236434768988 0 0.1539044029471725 -0.46809795184702829 0 0.17376504419967539 -0.46076368888843938 0 0.16557730454712019 -0.44172028084172121 0 0.15550290350416551 -0.45157236434768988 0 0.15423293294423909 -0.43386412417913311 0 0.16557730454712019 -0.44172028084172121 0 0.15550290350416551 -0.45157236434768988 0 0.15423293294423909 -0.43386412417913311 0 0.15550290350416551 -0.45157236434768988 0 0.1460535583969573 -0.44160689079445481 0 0.15550290350416551 -0.45157236434768988 0 0.1460535583969573 -0.44160689079445481 0 0.14153074802588431 -0.45654190970348868 0 0.1460535583969573 -0.44160689079445481 0 0.128223579302082 -0.44682997076052833 0 0.14153074802588431 -0.45654190970348868 0 0.128223579302082 -0.44682997076052833 0 0.12432460327697011 -0.47341498538026422 0 0.128223579302082 -0.44682997076052833 0 0.14153074802588431 -0.45654190970348868 0 0.12432460327697011 -0.47341498538026422 0 0.1539044029471725 -0.46809795184702829 0 0.14153074802588431 -0.45654190970348868 0 0.12432460327697011 -0.47341498538026422 0 0.15550290350416551 -0.45157236434768988 0 0.1539044029471725 -0.46809795184702829 0 0.14153074802588431 -0.45654190970348868 0 0.1539044029471725 -0.46809795184702829 0 0.15048103374274721 -0.48484579871078243 0 0.12432460327697011 -0.47341498538026422 0 0.1404625649124509 -0.5 0 0.15048103374274721 -0.48484579871078243 0 0.12432460327697011 -0.47341498538026422 0 0.1404625649124509 -0.5 0 0.12042562725185831 -0.49999999999999989 0 0.12432460327697011 -0.47341498538026422 0 0.1404625649124509 -0.5 0 0.15048103374274721 -0.48484579871078243 0 0.16049950257304349 -0.50000000000000033 0 0.16049950257304349 -0.50000000000000033 0 0.17718182015316611 -0.48165544175840053 0 0.15048103374274721 -0.48484579871078243 0 0.16049950257304349 -0.50000000000000033 0 0.17718182015316611 -0.48165544175840053 0 0.17376504419967539 -0.46076368888843938 0 0.1539044029471725 -0.46809795184702829 0 0.17718182015316611 -0.48165544175840053 0 0.1539044029471725 -0.46809795184702829 0 0.15048103374274721 -0.48484579871078243 0 0.17718182015316611 -0.48165544175840053 0 0.1938641377332887 -0.4633108835168005 0 0.17718182015316611 -0.48165544175840053 0 0.19122796324104871 -0.48466606029959602 0 0.1938641377332887 -0.4633108835168005 0 0.17718182015316611 -0.48165544175840053 0 0.16049950257304349 -0.50000000000000033 0 0.17718182015316611 -0.48165544175840053 0 0.18744203257390391 -0.5 0 0.19122796324104871 -0.48466606029959602 0 0.17718182015316611 -0.48165544175840053 0 0.18744203257390391 -0.5 0 0.072018957471098571 -0.48629524479662273 0 0.069142552082564368 -0.5 0 0.082735946582200875 -0.4892045976485363 0 0.072018957471098571 -0.48629524479662273 0 0.079568506083734697 -0.4785915255016745 0 0.082735946582200875 -0.4892045976485363 0 0.072018957471098571 -0.48629524479662273 0 0.062670741706174135 -0.48944359682069549 0 0.064881374578912687 -0.4815757870058418 0 0.072018957471098571 -0.48629524479662273 0 0.069142552082564368 -0.5 0 0.062670741706174135 -0.48944359682069549 0 0.073180054077148754 -0.46968413697177741 0 0.079568506083734697 -0.4785915255016745 0 0.081395248040860374 -0.46160025678040811 0 0.067447632246636219 -0.45716428258124142 0 0.05849497948899289 -0.47642287528831911 0 0.061758178687080389 -0.47580514524370598 0 0.072018957471098571 -0.48629524479662273 0 0.064881374578912687 -0.4815757870058418 0 0.070673492561877091 -0.4782128222507579 0 0.064881374578912687 -0.4815757870058418 0 0.066280053791524171 -0.47680462027284459 0 0.061758178687080389 -0.47580514524370598 0 0.064881374578912687 -0.4815757870058418 0 0.066280053791524171 -0.47680462027284459 0 0.070673492561877091 -0.4782128222507579 0 0.066280053791524171 -0.47680462027284459 0 0.067807169338226503 -0.47162472659107291 0 0.061758178687080389 -0.47580514524370598 0 0.066280053791524171 -0.47680462027284459 0 0.067807169338226503 -0.47162472659107291 0 0.070673492561877091 -0.4782128222507579 0 0.067807169338226503 -0.47162472659107291 0 0.073180054077148754 -0.46968413697177741 0 0.070673492561877091 -0.4782128222507579 0 0.073180054077148754 -0.46968413697177741 0 0.070673492561877091 -0.4782128222507579 0 0.079568506083734697 -0.4785915255016745 0 0.072018957471098571 -0.48629524479662273 0 0.070673492561877091 -0.4782128222507579 0 0.079568506083734697 -0.4785915255016745 0 0.096876661376123455 -0.48080012839020431 0 0.081395248040860374 -0.46160025678040811 0 0.096876661376123455 -0.48080012839020431 0 0.095349939854524335 -0.46404107218864848 0 0.081395248040860374 -0.46160025678040811 0 0.079568506083734697 -0.4785915255016745 0 0.082735946582200875 -0.4892045976485363 0 0.096876661376123455 -0.48080012839020431 0 0.079568506083734697 -0.4785915255016745 0 0.096876661376123455 -0.48080012839020431 0 0.081395248040860374 -0.46160025678040811 0 0.090750313396975479 -0.5 0 0.082735946582200875 -0.4892045976485363 0 0.096876661376123455 -0.48080012839020431 0 0.069142552082564368 -0.5 0 0.090750313396975479 -0.5 0 0.082735946582200875 -0.4892045976485363 0 0.1123580747113867 -0.50000000000000033 0 0.1124728586670535 -0.48406595427175642 0 0.096876661376123455 -0.48080012839020431 0 0.090750313396975479 -0.5 0 0.1123580747113867 -0.50000000000000033 0 0.096876661376123455 -0.48080012839020431 0 0.1123580747113867 -0.50000000000000033 0 0.096876661376123455 -0.48080012839020431 0 0.1123580747113867 -0.50000000000000033 0 0.12042562725185831 -0.49999999999999989 0 0.1124728586670535 -0.48406595427175642 0 0.12042562725185831 -0.49999999999999989 0 0.1124728586670535 -0.48406595427175642 0 0.12432460327697011 -0.47341498538026422 0 0.12042562725185831 -0.49999999999999989 0 0.12432460327697011 -0.47341498538026422 0 0.1124728586670535 -0.48406595427175642 0 0.12432460327697011 -0.47341498538026422 0 0.1082250197838846 -0.46311527911574241 0 0.096876661376123455 -0.48080012839020431 0 0.095349939854524335 -0.46404107218864848 0 0.1082250197838846 -0.46311527911574241 0 0.1124728586670535 -0.48406595427175642 0 0.096876661376123455 -0.48080012839020431 0 0.1082250197838846 -0.46311527911574241 0 0.095349939854524335 -0.46404107218864848 0 0.1082250197838846 -0.46311527911574241 0 0.094902830217228867 -0.45064862446823939 0 0.128223579302082 -0.44682997076052833 0 0.12432460327697011 -0.47341498538026422 0 0.1082250197838846 -0.46311527911574241 0 0.128223579302082 -0.44682997076052833 0 0.1069391861142964 -0.44299064961396012 0 0.1159996351348133 -0.43474120747525058 0 0.128223579302082 -0.44682997076052833 0 0.1082250197838846 -0.46311527911574241 0 0.1069391861142964 -0.44299064961396012 0 0.1082250197838846 -0.46311527911574241 0 0.1069391861142964 -0.44299064961396012 0 0.094902830217228867 -0.45064862446823939 0 0.1069391861142964 -0.44299064961396012 0 0.091812697424993442 -0.4386357446441016 0 0.098414951810672224 -0.43233268446502993 0 0.1069391861142964 -0.44299064961396012 0 0.094902830217228867 -0.45064862446823939 0 0.091812697424993442 -0.4386357446441016 0 0.094902830217228867 -0.45064862446823939 0 0.091812697424993442 -0.4386357446441016 0 0.082434724511159588 -0.44537142502386151 0 0.094902830217228867 -0.45064862446823939 0 0.082434724511159588 -0.44537142502386151 0 0.081395248040860374 -0.46160025678040811 0 0.091812697424993442 -0.4386357446441016 0 0.082434724511159588 -0.44537142502386151 0 0.078149012167117934 -0.43357211405594609 0 0.095349939854524335 -0.46404107218864848 0 0.094902830217228867 -0.45064862446823939 0 0.081395248040860374 -0.46160025678040811 0 0.067447632246636219 -0.45716428258124142 0 0.065913834705597293 -0.44240038517061198 0 0.057068655694905858 -0.46015288389510001 0 0.067447632246636219 -0.45716428258124142 0 0.05849497948899289 -0.47642287528831911 0 0.067807169338226503 -0.47162472659107291 0 0.067447632246636219 -0.45716428258124142 0 0.061758178687080389 -0.47580514524370598 0 0.081395248040860374 -0.46160025678040811 0 0.067447632246636219 -0.45716428258124142 0 0.065913834705597293 -0.44240038517061198 0 0.073180054077148754 -0.46968413697177741 0 0.081395248040860374 -0.46160025678040811 0 0.067447632246636219 -0.45716428258124142 0 0.067807169338226503 -0.47162472659107291 0 0.073180054077148754 -0.46968413697177741 0 0.067447632246636219 -0.45716428258124142 0 0.081395248040860374 -0.46160025678040811 0 0.065913834705597293 -0.44240038517061198 0 0.082434724511159588 -0.44537142502386151 0 0.081395248040860374 -0.46160025678040811 0 0.065913834705597293 -0.44240038517061198 0 0.082434724511159588 -0.44537142502386151 0 0.065913834705597293 -0.44240038517061198 0 0.078149012167117934 -0.43357211405594609 0 0.065921365320016911 -0.4273577277455588 0 0.073982485551444349 -0.42005290588181732 0 0.078149012167117934 -0.43357211405594609 0 0.065913834705597293 -0.44240038517061198 0 0.065921365320016911 -0.4273577277455588 0 0.078149012167117934 -0.43357211405594609 0 0.073982485551444349 -0.42005290588181732 0 0.069775570718114244 -0.40426700169235308 0 0.060774245729122177 -0.41691050055794487 0 0.065921365320016911 -0.4273577277455588 0 0.073982485551444349 -0.42005290588181732 0 0.060774245729122177 -0.41691050055794487 0 0.073982485551444349 -0.42005290588181732 0 0.086447448161059384 -0.41120764722282821 0 0.069775570718114244 -0.40426700169235308 0 0.073982485551444349 -0.42005290588181732 0 0.086447448161059384 -0.41120764722282821 0 0.088692331433278357 -0.42535053834926723 0 0.086447448161059384 -0.41120764722282821 0 0.093827427438274241 -0.41775801958915132 0 0.099702730965631758 -0.41290181884877419 0 0.086447448161059384 -0.41120764722282821 0 0.088692331433278357 -0.42535053834926723 0 0.093827427438274241 -0.41775801958915132 0 0.088692331433278357 -0.42535053834926723 0 0.097645949564215143 -0.42435504664253748 0 0.093827427438274241 -0.41775801958915132 0 0.073982485551444349 -0.42005290588181732 0 0.088692331433278357 -0.42535053834926723 0 0.078149012167117934 -0.43357211405594609 0 0.091812697424993442 -0.4386357446441016 0 0.088692331433278357 -0.42535053834926723 0 0.078149012167117934 -0.43357211405594609 0 0.091812697424993442 -0.4386357446441016 0 0.088692331433278357 -0.42535053834926723 0 0.098414951810672224 -0.43233268446502993 0 0.098414951810672224 -0.43233268446502993 0 0.097645949564215143 -0.42435504664253748 0 0.1061961683754654 -0.43004895598907111 0 0.088692331433278357 -0.42535053834926723 0 0.098414951810672224 -0.43233268446502993 0 0.097645949564215143 -0.42435504664253748 0 0.1061961683754654 -0.43004895598907111 0 0.11152958735588871 -0.42539382439527612 0 0.1045809803654715 -0.42051706085107571 0 0.097645949564215143 -0.42435504664253748 0 0.1061961683754654 -0.43004895598907111 0 0.1045809803654715 -0.42051706085107571 0 0.1069391861142964 -0.44299064961396012 0 0.098414951810672224 -0.43233268446502993 0 0.1061961683754654 -0.43004895598907111 0 0.1061961683754654 -0.43004895598907111 0 0.1159996351348133 -0.43474120747525058 0 0.11152958735588871 -0.42539382439527612 0 0.13212255532719441 -0.42024495614079282 0 0.1159996351348133 -0.43474120747525058 0 0.11851153239627241 -0.42275952171654291 0 0.1069391861142964 -0.44299064961396012 0 0.1061961683754654 -0.43004895598907111 0 0.1159996351348133 -0.43474120747525058 0 0.1159996351348133 -0.43474120747525058 0 0.11152958735588871 -0.42539382439527612 0 0.11851153239627241 -0.42275952171654291 0 0.11152958735588871 -0.42539382439527612 0 0.11851153239627241 -0.42275952171654291 0 0.1123596205074209 -0.41890237594444008 0 0.1250254850364893 -0.40936224001308058 0 0.117866085899093 -0.41583132647739651 0 0.1096180349996463 -0.41151587164058129 0 0.1250254850364893 -0.40936224001308058 0 0.1096180349996463 -0.41151587164058129 0 0.13212255532719441 -0.42024495614079282 0 0.11851153239627241 -0.42275952171654291 0 0.117866085899093 -0.41583132647739651 0 0.117866085899093 -0.41583132647739651 0 0.1123596205074209 -0.41890237594444008 0 0.1096180349996463 -0.41151587164058129 0 0.11851153239627241 -0.42275952171654291 0 0.117866085899093 -0.41583132647739651 0 0.1123596205074209 -0.41890237594444008 0 0.11152958735588871 -0.42539382439527612 0 0.1123596205074209 -0.41890237594444008 0 0.1045809803654715 -0.42051706085107571 0 0.1123596205074209 -0.41890237594444008 0 0.1096180349996463 -0.41151587164058129 0 0.1065506547415149 -0.41613106226330793 0 0.1096180349996463 -0.41151587164058129 0 0.1065506547415149 -0.41613106226330793 0 0.099702730965631758 -0.41290181884877419 0 0.1096180349996463 -0.41151587164058129 0 0.099702730965631758 -0.41290181884877419 0 0.1096180349996463 -0.41151587164058129 0 0.099702730965631758 -0.41290181884877419 0 0.1041447551606165 -0.40305668800175581 0 0.1123596205074209 -0.41890237594444008 0 0.1065506547415149 -0.41613106226330793 0 0.1045809803654715 -0.42051706085107571 0 0.1065506547415149 -0.41613106226330793 0 0.1045809803654715 -0.42051706085107571 0 0.099702730965631758 -0.41290181884877419 0 0.1045809803654715 -0.42051706085107571 0 0.093827427438274241 -0.41775801958915132 0 0.099702730965631758 -0.41290181884877419 0 0.097645949564215143 -0.42435504664253748 0 0.1045809803654715 -0.42051706085107571 0 0.093827427438274241 -0.41775801958915132 0 0.086447448161059384 -0.41120764722282821 0 0.099702730965631758 -0.41290181884877419 0 0.095691580682652475 -0.39908469234235189 0 0.095691580682652475 -0.39908469234235189 0 0.1041447551606165 -0.40305668800175581 0 0.1115666739945345 -0.38872436917531578 0 0.099702730965631758 -0.41290181884877419 0 0.095691580682652475 -0.39908469234235189 0 0.1041447551606165 -0.40305668800175581 0 0.1096180349996463 -0.41151587164058129 0 0.1041447551606165 -0.40305668800175581 0 0.1115666739945345 -0.38872436917531578 0 0.1250254850364893 -0.40936224001308058 0 0.1115666739945345 -0.38872436917531578 0 0.1096180349996463 -0.41151587164058129 0 0.1115666739945345 -0.38872436917531578 0 0.1250254850364893 -0.40936224001308058 0 0.1096180349996463 -0.41151587164058129 0 0.1115666739945345 -0.38872436917531578 0 0.12645644117523869 -0.39722706905544619 0 0.1250254850364893 -0.40936224001308058 0 0.1115666739945345 -0.38872436917531578 0 0.12609635470998201 -0.38402791619100712 0 0.1115666739945345 -0.38872436917531578 0 0.113745377556003 -0.36324200547299851 0 0.1115666739945345 -0.38872436917531578 0 0.113745377556003 -0.36324200547299851 0 0.12609635470998201 -0.38402791619100712 0 0.12645644117523869 -0.39722706905544619 0 0.1115666739945345 -0.38872436917531578 0 0.1115666739945345 -0.38872436917531578 0 0.096372132326470572 -0.36542491223168638 0 0.1115666739945345 -0.38872436917531578 0 0.089853218628298884 -0.38394717958202601 0 0.096372132326470572 -0.36542491223168638 0 0.095691580682652475 -0.39908469234235189 0 0.1115666739945345 -0.38872436917531578 0 0.089853218628298884 -0.38394717958202601 0 0.089853218628298884 -0.38394717958202601 0 0.082924844884061683 -0.39714926844771359 0 0.072939106935086151 -0.38728773006234168 0 0.089853218628298884 -0.38394717958202601 0 0.072939106935086151 -0.38728773006234168 0 0.07582030708563034 -0.37256671738353597 0 0.095691580682652475 -0.39908469234235189 0 0.089853218628298884 -0.38394717958202601 0 0.082924844884061683 -0.39714926844771359 0 0.086447448161059384 -0.41120764722282821 0 0.082924844884061683 -0.39714926844771359 0 0.069775570718114244 -0.40426700169235308 0 0.086447448161059384 -0.41120764722282821 0 0.095691580682652475 -0.39908469234235189 0 0.082924844884061683 -0.39714926844771359 0 0.069775570718114244 -0.40426700169235308 0 0.072939106935086151 -0.38728773006234168 0 0.058313699768321348 -0.39007371912844929 0 0.082924844884061683 -0.39714926844771359 0 0.069775570718114244 -0.40426700169235308 0 0.072939106935086151 -0.38728773006234168 0 0.072939106935086151 -0.38728773006234168 0 0.05933500968155693 -0.37671477575793533 0 0.058313699768321348 -0.39007371912844929 0 0.072939106935086151 -0.38728773006234168 0 0.05933500968155693 -0.37671477575793533 0 0.07582030708563034 -0.37256671738353597 0 0.05933500968155693 -0.37671477575793533 0 0.043300396670470892 -0.38581293046691678 0 0.039079294002052851 -0.37065651216905859 0 0.05933500968155693 -0.37671477575793533 0 0.058313699768321348 -0.39007371912844929 0 0.043300396670470892 -0.38581293046691678 0 0.058313699768321348 -0.39007371912844929 0 0.0466875803122518 -0.39705513158652528 0 0.054373060569327003 -0.40663711634463268 0 0.069775570718114244 -0.40426700169235308 0 0.058313699768321348 -0.39007371912844929 0 0.054373060569327003 -0.40663711634463268 0 0.058313699768321348 -0.39007371912844929 0 0.054373060569327003 -0.40663711634463268 0 0.0466875803122518 -0.39705513158652528 0 0.042121557959679479 -0.40689397827368962 0 0.054373060569327003 -0.40663711634463268 0 0.058313699768321348 -0.39007371912844929 0 0.0466875803122518 -0.39705513158652528 0 0.043300396670470892 -0.38581293046691678 0 0.0466875803122518 -0.39705513158652528 0 0.032645317368698572 -0.39721328630736241 0 0.043300396670470892 -0.38581293046691678 0 0.0466875803122518 -0.39705513158652528 0 0.032645317368698572 -0.39721328630736241 0 0.042121557959679479 -0.40689397827368962 0 0.032645317368698572 -0.39721328630736241 0 0.043300396670470892 -0.38581293046691678 0 0.025542853711361019 -0.38384675294920401 0 0.043300396670470892 -0.38581293046691678 0 0.025542853711361019 -0.38384675294920401 0 0.039079294002052851 -0.37065651216905859 0 0.025542853711361019 -0.38384675294920401 0 0.009690974369139977 -0.39295199195252922 0 0.016784443680880379 -0.36713146693108112 0 -0.0064694903547723136 -0.38059021958606692 0 0.009690974369139977 -0.39295199195252922 0 0.016784443680880379 -0.36713146693108112 0 0.032645317368698572 -0.39721328630736241 0 0.009690974369139977 -0.39295199195252922 0 0.030062121183744069 -0.41560348860952728 0 0.032645317368698572 -0.39721328630736241 0 0.025542853711361019 -0.38384675294920401 0 0.009690974369139977 -0.39295199195252922 0 0.009690974369139977 -0.39295199195252922 0 0.030062121183744069 -0.41560348860952728 0 0.01224976062295041 -0.42183763890738629 0 -0.0080625817845775948 -0.40608726553411861 0 0.009690974369139977 -0.39295199195252922 0 0.01224976062295041 -0.42183763890738629 0 0.009690974369139977 -0.39295199195252922 0 0.01224976062295041 -0.42183763890738629 0 0.01224976062295041 -0.42183763890738629 0 0.01480854687676085 -0.45072328586224342 0 0.030062121183744069 -0.41560348860952728 0 0.01224976062295041 -0.42183763890738629 0 0.028535899264767479 -0.43733174884408438 0 0.01224976062295041 -0.42183763890738629 0 0.028535899264767479 -0.43733174884408438 0 0.01480854687676085 -0.45072328586224342 0 0.030062121183744069 -0.41560348860952728 0 0.028535899264767479 -0.43733174884408438 0 0.039909128579099777 -0.42893709763038412 0 0.039909128579099777 -0.42893709763038412 0 0.050432421370333713 -0.42320051356081623 0 0.04400553312424714 -0.45021417746364167 0 0.039909128579099777 -0.42893709763038412 0 0.046509667952406512 -0.41833555967385072 0 0.050432421370333713 -0.42320051356081623 0 0.032645317368698572 -0.39721328630736241 0 0.030062121183744069 -0.41560348860952728 0 0.042121557959679479 -0.40689397827368962 0 0.030062121183744069 -0.41560348860952728 0 0.039909128579099777 -0.42893709763038412 0 0.046509667952406512 -0.41833555967385072 0 0.030062121183744069 -0.41560348860952728 0 0.042121557959679479 -0.40689397827368962 0 0.046509667952406512 -0.41833555967385072 0 0.054373060569327003 -0.40663711634463268 0 0.050432421370333713 -0.42320051356081623 0 0.046509667952406512 -0.41833555967385072 0 0.054373060569327003 -0.40663711634463268 0 0.050432421370333713 -0.42320051356081623 0 0.054373060569327003 -0.40663711634463268 0 0.060774245729122177 -0.41691050055794487 0 0.050432421370333713 -0.42320051356081623 0 0.046509667952406512 -0.41833555967385072 0 0.050432421370333713 -0.42320051356081623 0 0.042121557959679479 -0.40689397827368962 0 0.046509667952406512 -0.41833555967385072 0 0.054373060569327003 -0.40663711634463268 0 0.069775570718114244 -0.40426700169235308 0 0.054373060569327003 -0.40663711634463268 0 0.060774245729122177 -0.41691050055794487 0 0.050432421370333713 -0.42320051356081623 0 0.04400553312424714 -0.45021417746364167 0 0.065913834705597293 -0.44240038517061198 0 0.050432421370333713 -0.42320051356081623 0 0.065913834705597293 -0.44240038517061198 0 0.065921365320016911 -0.4273577277455588 0 0.050432421370333713 -0.42320051356081623 0 0.065921365320016911 -0.4273577277455588 0 0.060774245729122177 -0.41691050055794487 0 0.050432421370333713 -0.42320051356081623 0 0.065913834705597293 -0.44240038517061198 0 0.050432421370333713 -0.42320051356081623 0 0.04400553312424714 -0.45021417746364167 0 0.065913834705597293 -0.44240038517061198 0 0.057068655694905858 -0.46015288389510001 0 0.04400553312424714 -0.45021417746364167 0 0.057068655694905858 -0.46015288389510001 0 0.048043393468649283 -0.46676160836513853 0 0.04400553312424714 -0.45021417746364167 0 0.067447632246636219 -0.45716428258124142 0 0.057068655694905858 -0.46015288389510001 0 0.05849497948899289 -0.47642287528831911 0 0.057068655694905858 -0.46015288389510001 0 0.048043393468649283 -0.46676160836513853 0 0.052635520687858477 -0.47072247146996382 0 0.04400553312424714 -0.45021417746364167 0 0.037578644878161642 -0.47722784136646751 0 0.048043393468649283 -0.46676160836513853 0 0.04400553312424714 -0.45021417746364167 0 0.037578644878161642 -0.47722784136646751 0 0.04400553312424714 -0.45021417746364167 0 0.030366658319331299 -0.45781827645911538 0 0.037578644878161642 -0.47722784136646751 0 0.028535899264767479 -0.43733174884408438 0 0.039909128579099777 -0.42893709763038412 0 0.04400553312424714 -0.45021417746364167 0 0.028535899264767479 -0.43733174884408438 0 0.04400553312424714 -0.45021417746364167 0 0.030366658319331299 -0.45781827645911538 0 0.028535899264767479 -0.43733174884408438 0 0.01480854687676085 -0.45072328586224342 0 0.030366658319331299 -0.45781827645911538 0 -0.008216644178786571 -0.4466179140804285 0 0.01224976062295041 -0.42183763890738629 0 0.01480854687676085 -0.45072328586224342 0 0.01480854687676085 -0.45072328586224342 0 0.017367333130571299 -0.47960893281710049 0 0.0084119176919832291 -0.471974008478943 0 -0.0021957942935651631 -0.46571035637089769 0 0.01480854687676085 -0.45072328586224342 0 0.0084119176919832291 -0.471974008478943 0 -0.008216644178786571 -0.4466179140804285 0 -0.0021957942935651631 -0.46571035637089769 0 0.01480854687676085 -0.45072328586224342 0 0.01480854687676085 -0.45072328586224342 0 0.017367333130571299 -0.47960893281710049 0 0.01480854687676085 -0.45072328586224342 0 0.030366658319331299 -0.45781827645911538 0 0.0269046674527194 -0.47359432875914009 0 0.01480854687676085 -0.45072328586224342 0 0.0269046674527194 -0.47359432875914009 0 0.017367333130571299 -0.47960893281710049 0 0.017367333130571299 -0.47960893281710049 0 0.012735562036971701 -0.48508522326900949 0 0.035615270762982369 -0.48075404927866472 0 0.012735562036971701 -0.48508522326900949 0 0.035615270762982369 -0.48075404927866472 0 0.0269046674527194 -0.47359432875914009 0 0.017367333130571299 -0.47960893281710049 0 0.035615270762982369 -0.48075404927866472 0 0.017367333130571299 -0.47960893281710049 0 0.0084119176919832291 -0.471974008478943 0 0.012735562036971701 -0.48508522326900949 0 -0.00065605929082254884 -0.47874224407546379 0 0.0084119176919832291 -0.471974008478943 0 0.012735562036971701 -0.48508522326900949 0 -0.0021957942935651631 -0.46571035637089769 0 -0.00065605929082254884 -0.47874224407546379 0 0.0084119176919832291 -0.471974008478943 0 -0.010144146689038991 -0.48941639725935437 0 -0.00065605929082254884 -0.47874224407546379 0 0.012735562036971701 -0.48508522326900949 0 -0.010144146689038991 -0.48941639725935437 0 0.012735562036971701 -0.48508522326900949 0 -0.011489863113854141 -0.5 0 0.012735562036971701 -0.48508522326900949 0 0.01802246382714956 -0.5 0 0.01802246382714956 -0.5 0 0.025329369399590369 -0.48901546815995378 0 0.047534790768153173 -0.50000000000000044 0 0.012735562036971701 -0.48508522326900949 0 0.025329369399590369 -0.48901546815995378 0 0.035615270762982369 -0.48075404927866472 0 0.012735562036971701 -0.48508522326900949 0 0.01802246382714956 -0.5 0 0.025329369399590369 -0.48901546815995378 0 0.025329369399590369 -0.48901546815995378 0 0.035615270762982369 -0.48075404927866472 0 0.047534790768153173 -0.50000000000000044 0 0.030366658319331299 -0.45781827645911538 0 0.0269046674527194 -0.47359432875914009 0 0.037578644878161642 -0.47722784136646751 0 0.0269046674527194 -0.47359432875914009 0 0.037578644878161642 -0.47722784136646751 0 0.035615270762982369 -0.48075404927866472 0 0.048043393468649283 -0.46676160836513853 0 0.037578644878161642 -0.47722784136646751 0 0.046296380844488463 -0.47463440362945558 0 0.035615270762982369 -0.48075404927866472 0 0.046296380844488463 -0.47463440362945558 0 0.049693011087844949 -0.4756354888466594 0 0.037578644878161642 -0.47722784136646751 0 0.035615270762982369 -0.48075404927866472 0 0.046296380844488463 -0.47463440362945558 0 0.057068655694905858 -0.46015288389510001 0 0.052635520687858477 -0.47072247146996382 0 0.05849497948899289 -0.47642287528831911 0 0.035615270762982369 -0.48075404927866472 0 0.049693011087844949 -0.4756354888466594 0 0.05849497948899289 -0.47642287528831911 0 0.035615270762982369 -0.48075404927866472 0 0.05849497948899289 -0.47642287528831911 0 0.048043393468649283 -0.46676160836513853 0 0.046296380844488463 -0.47463440362945558 0 0.052635520687858477 -0.47072247146996382 0 0.049693011087844949 -0.4756354888466594 0 0.052635520687858477 -0.47072247146996382 0 0.05849497948899289 -0.47642287528831911 0 0.046296380844488463 -0.47463440362945558 0 0.049693011087844949 -0.4756354888466594 0 0.052635520687858477 -0.47072247146996382 0 0.05849497948899289 -0.47642287528831911 0 0.061758178687080389 -0.47580514524370598 0 0.062670741706174135 -0.48944359682069549 0 0.064881374578912687 -0.4815757870058418 0 0.05849497948899289 -0.47642287528831911 0 0.064881374578912687 -0.4815757870058418 0 0.05849497948899289 -0.47642287528831911 0 0.061758178687080389 -0.47580514524370598 0 0.069142552082564368 -0.5 0 0.062670741706174135 -0.48944359682069549 0 0.047534790768153173 -0.50000000000000044 0 0.05849497948899289 -0.47642287528831911 0 0.047534790768153173 -0.50000000000000044 0 0.035615270762982369 -0.48075404927866472 0 0.05849497948899289 -0.47642287528831911 0 0.047534790768153173 -0.50000000000000044 0 0.062670741706174135 -0.48944359682069549 0 0.05849497948899289 -0.47642287528831911 0 0.047534790768153173 -0.50000000000000044 0 0.089727975817252392 -0.29646224842349211 0 0.069967983226982527 -0.30495776272600778 0 0.075483032258224086 -0.28815868119130272 0 0.089727975817252392 -0.29646224842349211 0 0.088503230311337153 -0.27716835087377989 0 0.101883582619993 -0.28460947857741209 0 0.089727975817252392 -0.29646224842349211 0 0.075483032258224086 -0.28815868119130272 0 0.088503230311337153 -0.27716835087377989 0 0.089727975817252392 -0.29646224842349211 0 0.086214248119208581 -0.31193359067875348 0 0.069967983226982527 -0.30495776272600778 0 0.089727975817252392 -0.29646224842349211 0 0.086214248119208581 -0.31193359067875348 0 0.10049372866807189 -0.31082656242210721 0 0.069967983226982527 -0.30495776272600778 0 0.075483032258224086 -0.28815868119130272 0 0.059449054433483903 -0.28956707473318272 0 0.075483032258224086 -0.28815868119130272 0 0.0646939085167762 -0.2722383315448984 0 0.059449054433483903 -0.28956707473318272 0 0.0646939085167762 -0.2722383315448984 0 0.077350866508299074 -0.27549126298099152 0 0.080723294946858856 -0.26439968831398508 0 0.075483032258224086 -0.28815868119130272 0 0.0646939085167762 -0.2722383315448984 0 0.077350866508299074 -0.27549126298099152 0 0.0646939085167762 -0.2722383315448984 0 0.070005134957367529 -0.25889031236374099 0 0.080723294946858856 -0.26439968831398508 0 0.070005134957367529 -0.25889031236374099 0 0.061490933840310687 -0.25382890142296882 0 0.070069103552599196 -0.24823964670048029 0 0.0646939085167762 -0.2722383315448984 0 0.070005134957367529 -0.25889031236374099 0 0.060614126731859473 -0.2624009925450973 0 0.070005134957367529 -0.25889031236374099 0 0.061490933840310687 -0.25382890142296882 0 0.060614126731859473 -0.2624009925450973 0 0.070005134957367529 -0.25889031236374099 0 0.080071368274292315 -0.25145738896057979 0 0.080723294946858856 -0.26439968831398508 0 0.070005134957367529 -0.25889031236374099 0 0.080071368274292315 -0.25145738896057979 0 0.070069103552599196 -0.24823964670048029 0 0.080071368274292315 -0.25145738896057979 0 0.080723294946858856 -0.26439968831398508 0 0.090706365013478091 -0.25245448435890872 0 0.080723294946858856 -0.26439968831398508 0 0.090706365013478091 -0.25245448435890872 0 0.095060577752172304 -0.26241188567384149 0 0.075483032258224086 -0.28815868119130272 0 0.077350866508299074 -0.27549126298099152 0 0.088503230311337153 -0.27716835087377989 0 0.077350866508299074 -0.27549126298099152 0 0.080723294946858856 -0.26439968831398508 0 0.088503230311337153 -0.27716835087377989 0 0.080723294946858856 -0.26439968831398508 0 0.088503230311337153 -0.27716835087377989 0 0.095060577752172304 -0.26241188567384149 0 0.088503230311337153 -0.27716835087377989 0 0.1016952336099234 -0.27235330725820578 0 0.101883582619993 -0.28460947857741209 0 0.088503230311337153 -0.27716835087377989 0 0.1016952336099234 -0.27235330725820578 0 0.095060577752172304 -0.26241188567384149 0 0.1016952336099234 -0.27235330725820578 0 0.1104739380917857 -0.2612093749811526 0 0.1125548392743288 -0.27636744618484282 0 0.1016952336099234 -0.27235330725820578 0 0.1125548392743288 -0.27636744618484282 0 0.101883582619993 -0.28460947857741209 0 0.090706365013478091 -0.25245448435890872 0 0.099550463170151926 -0.25262580003909579 0 0.095060577752172304 -0.26241188567384149 0 0.1016952336099234 -0.27235330725820578 0 0.095060577752172304 -0.26241188567384149 0 0.1104739380917857 -0.2612093749811526 0 0.099550463170151926 -0.25262580003909579 0 0.095060577752172304 -0.26241188567384149 0 0.1104739380917857 -0.2612093749811526 0 0.099550463170151926 -0.25262580003909579 0 0.1104739380917857 -0.2612093749811526 0 0.1078238037173969 -0.24832262031645649 0 0.1311170075682456 -0.27142576198599933 0 0.1104739380917857 -0.2612093749811526 0 0.1212054647883809 -0.25073068226796852 0 0.1104739380917857 -0.2612093749811526 0 0.1212054647883809 -0.25073068226796852 0 0.1078238037173969 -0.24832262031645649 0 0.1311170075682456 -0.27142576198599933 0 0.1104739380917857 -0.2612093749811526 0 0.1311170075682456 -0.27142576198599933 0 0.1104739380917857 -0.2612093749811526 0 0.1193620271946058 -0.27249351692823448 0 0.1104739380917857 -0.2612093749811526 0 0.1125548392743288 -0.27636744618484282 0 0.1193620271946058 -0.27249351692823448 0 0.1125548392743288 -0.27636744618484282 0 0.1193620271946058 -0.27249351692823448 0 0.1233023238440631 -0.28097148456094378 0 0.1311170075682456 -0.27142576198599933 0 0.1193620271946058 -0.27249351692823448 0 0.1233023238440631 -0.28097148456094378 0 0.1233023238440631 -0.28097148456094378 0 0.1242383748246253 -0.29131174999725179 0 0.1141297936923768 -0.28878453930630188 0 0.1242383748246253 -0.29131174999725179 0 0.1141297936923768 -0.28878453930630188 0 0.1198701537204314 -0.30089140532399938 0 0.1141297936923768 -0.28878453930630188 0 0.10622170970645189 -0.29895353846799488 0 0.1198701537204314 -0.30089140532399938 0 0.1125548392743288 -0.27636744618484282 0 0.1233023238440631 -0.28097148456094378 0 0.1141297936923768 -0.28878453930630188 0 0.1125548392743288 -0.27636744618484282 0 0.1141297936923768 -0.28878453930630188 0 0.101883582619993 -0.28460947857741209 0 0.089727975817252392 -0.29646224842349211 0 0.101883582619993 -0.28460947857741209 0 0.10622170970645189 -0.29895353846799488 0 0.1141297936923768 -0.28878453930630188 0 0.101883582619993 -0.28460947857741209 0 0.10622170970645189 -0.29895353846799488 0 0.089727975817252392 -0.29646224842349211 0 0.10049372866807189 -0.31082656242210721 0 0.10622170970645189 -0.29895353846799488 0 0.10049372866807189 -0.31082656242210721 0 0.10622170970645189 -0.29895353846799488 0 0.1134387524627216 -0.31086840579325631 0 0.10622170970645189 -0.29895353846799488 0 0.1134387524627216 -0.31086840579325631 0 0.1198701537204314 -0.30089140532399938 0 0.1265219532001009 -0.3124330460259736 0 0.1134387524627216 -0.31086840579325631 0 0.1198701537204314 -0.30089140532399938 0 0.1265219532001009 -0.3124330460259736 0 0.1134387524627216 -0.31086840579325631 0 0.1192961391526948 -0.32261879728377291 0 0.1134387524627216 -0.31086840579325631 0 0.1192961391526948 -0.32261879728377291 0 0.1082288303285789 -0.31948708523568958 0 0.1192961391526948 -0.32261879728377291 0 0.1093748658769356 -0.32997486192450581 0 0.1082288303285789 -0.31948708523568958 0 0.1192961391526948 -0.32261879728377291 0 0.1168506625355451 -0.3296807312869221 0 0.1093748658769356 -0.32997486192450581 0 0.1192961391526948 -0.32261879728377291 0 0.12260601330919629 -0.33072698382653798 0 0.1168506625355451 -0.3296807312869221 0 0.13219802669416811 -0.32498852212276208 0 0.1192961391526948 -0.32261879728377291 0 0.12260601330919629 -0.33072698382653798 0 0.13051916655351839 -0.33696304048325831 0 0.12260601330919629 -0.33072698382653798 0 0.1159240811174677 -0.33775964177068091 0 0.12260601330919629 -0.33072698382653798 0 0.1159240811174677 -0.33775964177068091 0 0.1161256318033537 -0.33540228211287182 0 0.12260601330919629 -0.33072698382653798 0 0.1168506625355451 -0.3296807312869221 0 0.1161256318033537 -0.33540228211287182 0 0.13051916655351839 -0.33696304048325831 0 0.1159240811174677 -0.33775964177068091 0 0.13051916655351839 -0.33696304048325831 0 0.1159240811174677 -0.33775964177068091 0 0.123981461538115 -0.35128285539313481 0 0.1159240811174677 -0.33775964177068091 0 0.1161256318033537 -0.33540228211287182 0 0.1168506625355451 -0.3296807312869221 0 0.1161256318033537 -0.33540228211287182 0 0.1093748658769356 -0.32997486192450581 0 0.1159240811174677 -0.33775964177068091 0 0.1161256318033537 -0.33540228211287182 0 0.1093748658769356 -0.32997486192450581 0 0.1159240811174677 -0.33775964177068091 0 0.092335912071574502 -0.33904708650077298 0 0.1159240811174677 -0.33775964177068091 0 0.1093748658769356 -0.32997486192450581 0 0.092335912071574502 -0.33904708650077298 0 0.1093748658769356 -0.32997486192450581 0 0.096347407600029022 -0.32440529872184809 0 0.092335912071574502 -0.33904708650077298 0 0.1159240811174677 -0.33775964177068091 0 0.10211321446004019 -0.35101158716873732 0 0.092335912071574502 -0.33904708650077298 0 0.086214248119208581 -0.31193359067875348 0 0.10049372866807189 -0.31082656242210721 0 0.096347407600029022 -0.32440529872184809 0 0.10049372866807189 -0.31082656242210721 0 0.1134387524627216 -0.31086840579325631 0 0.1082288303285789 -0.31948708523568958 0 0.10049372866807189 -0.31082656242210721 0 0.096347407600029022 -0.32440529872184809 0 0.1082288303285789 -0.31948708523568958 0 0.1093748658769356 -0.32997486192450581 0 0.096347407600029022 -0.32440529872184809 0 0.1082288303285789 -0.31948708523568958 0 0.12784456261830821 -0.36308533366748658 0 0.12609635470998201 -0.38402791619100712 0 0.113745377556003 -0.36324200547299851 0 0.1159240811174677 -0.33775964177068091 0 0.113745377556003 -0.36324200547299851 0 0.123981461538115 -0.35128285539313481 0 0.1159240811174677 -0.33775964177068091 0 0.113745377556003 -0.36324200547299851 0 0.1159240811174677 -0.33775964177068091 0 0.113745377556003 -0.36324200547299851 0 0.10211321446004019 -0.35101158716873732 0 0.12784456261830821 -0.36308533366748658 0 0.113745377556003 -0.36324200547299851 0 0.123981461538115 -0.35128285539313481 0 0.1115666739945345 -0.38872436917531578 0 0.113745377556003 -0.36324200547299851 0 0.096372132326470572 -0.36542491223168638 0 0.113745377556003 -0.36324200547299851 0 0.10211321446004019 -0.35101158716873732 0 0.096372132326470572 -0.36542491223168638 0 0.089853218628298884 -0.38394717958202601 0 0.096372132326470572 -0.36542491223168638 0 0.07582030708563034 -0.37256671738353597 0 0.096372132326470572 -0.36542491223168638 0 0.082110249222110576 -0.35466523699539548 0 0.07582030708563034 -0.37256671738353597 0 0.10211321446004019 -0.35101158716873732 0 0.096372132326470572 -0.36542491223168638 0 0.082110249222110576 -0.35466523699539548 0 0.082110249222110576 -0.35466523699539548 0 0.092335912071574502 -0.33904708650077298 0 0.068747743025681235 -0.34033453123086538 0 0.10211321446004019 -0.35101158716873732 0 0.082110249222110576 -0.35466523699539548 0 0.092335912071574502 -0.33904708650077298 0 0.082110249222110576 -0.35466523699539548 0 0.068747743025681235 -0.34033453123086538 0 0.057272186363266697 -0.35960658745677498 0 0.082110249222110576 -0.35466523699539548 0 0.07582030708563034 -0.37256671738353597 0 0.057272186363266697 -0.35960658745677498 0 0.05933500968155693 -0.37671477575793533 0 0.07582030708563034 -0.37256671738353597 0 0.057272186363266697 -0.35960658745677498 0 0.086214248119208581 -0.31193359067875348 0 0.096347407600029022 -0.32440529872184809 0 0.078030795921920637 -0.32434601069550512 0 0.092335912071574502 -0.33904708650077298 0 0.068747743025681235 -0.34033453123086538 0 0.078030795921920637 -0.32434601069550512 0 0.092335912071574502 -0.33904708650077298 0 0.068747743025681235 -0.34033453123086538 0 0.096347407600029022 -0.32440529872184809 0 0.092335912071574502 -0.33904708650077298 0 0.078030795921920637 -0.32434601069550512 0 0.068747743025681235 -0.34033453123086538 0 0.078030795921920637 -0.32434601069550512 0 0.053863538987460123 -0.3232816795844588 0 0.069967983226982527 -0.30495776272600778 0 0.078030795921920637 -0.32434601069550512 0 0.053863538987460123 -0.3232816795844588 0 0.086214248119208581 -0.31193359067875348 0 0.069967983226982527 -0.30495776272600778 0 0.078030795921920637 -0.32434601069550512 0 0.068747743025681235 -0.34033453123086538 0 0.045159573979787898 -0.34162197596095778 0 0.068747743025681235 -0.34033453123086538 0 0.053863538987460123 -0.3232816795844588 0 0.045159573979787898 -0.34162197596095778 0 0.053863538987460123 -0.3232816795844588 0 0.034832013842728909 -0.33032259781876938 0 0.045159573979787898 -0.34162197596095778 0 0.034832013842728909 -0.33032259781876938 0 0.045159573979787898 -0.34162197596095778 0 0.02157140493389462 -0.34290942069105018 0 0.045159573979787898 -0.34162197596095778 0 0.02157140493389462 -0.34290942069105018 0 0.053863538987460123 -0.3232816795844588 0 0.034832013842728909 -0.33032259781876938 0 0.03621734991660093 -0.31670946998547028 0 0.053863538987460123 -0.3232816795844588 0 0.03621734991660093 -0.31670946998547028 0 0.048768037075517537 -0.30442990221103089 0 0.05933500968155693 -0.37671477575793533 0 0.057272186363266697 -0.35960658745677498 0 0.039079294002052851 -0.37065651216905859 0 0.068747743025681235 -0.34033453123086538 0 0.045159573979787898 -0.34162197596095778 0 0.057272186363266697 -0.35960658745677498 0 0.045159573979787898 -0.34162197596095778 0 0.034512899630155462 -0.3545258348651717 0 0.02157140493389462 -0.34290942069105018 0 0.045159573979787898 -0.34162197596095778 0 0.057272186363266697 -0.35960658745677498 0 0.034512899630155462 -0.3545258348651717 0 0.057272186363266697 -0.35960658745677498 0 0.034512899630155462 -0.3545258348651717 0 0.039079294002052851 -0.37065651216905859 0 0.025542853711361019 -0.38384675294920401 0 0.039079294002052851 -0.37065651216905859 0 0.016784443680880379 -0.36713146693108112 0 0.034512899630155462 -0.3545258348651717 0 0.039079294002052851 -0.37065651216905859 0 0.016784443680880379 -0.36713146693108112 0 0.034512899630155462 -0.3545258348651717 0 0.016784443680880379 -0.36713146693108112 0 0.02157140493389462 -0.34290942069105018 0 -0.0043130761299947744 -0.35643483176966217 0 0.016784443680880379 -0.36713146693108112 0 0.02157140493389462 -0.34290942069105018 0 -0.0038616663111063101 -0.33241552487502413 0 -0.0043130761299947744 -0.35643483176966217 0 0.02157140493389462 -0.34290942069105018 0 -0.0043130761299947744 -0.35643483176966217 0 -0.0064694903547723136 -0.38059021958606692 0 0.016784443680880379 -0.36713146693108112 0 0.03621734991660093 -0.31670946998547028 0 0.020048637459846991 -0.32439583124448262 0 0.029165048793799431 -0.30349547286963757 0 0.034832013842728909 -0.33032259781876938 0 0.03621734991660093 -0.31670946998547028 0 0.020048637459846991 -0.32439583124448262 0 0.020048637459846991 -0.32439583124448262 0 0.0094652366165251054 -0.31053241408104548 0 0.029165048793799431 -0.30349547286963757 0 0.034832013842728909 -0.33032259781876938 0 0.020048637459846991 -0.32439583124448262 0 0.02157140493389462 -0.34290942069105018 0 -0.0038616663111063101 -0.33241552487502413 0 0.020048637459846991 -0.32439583124448262 0 0.02157140493389462 -0.34290942069105018 0 -0.0038616663111063101 -0.33241552487502413 0 0.020048637459846991 -0.32439583124448262 0 0.0094652366165251054 -0.31053241408104548 0 -0.01007927323019326 -0.3103345258507364 0 0.0094652366165251054 -0.31053241408104548 0 0.0017563221397047381 -0.2997067901486577 0 0.0094652366165251054 -0.31053241408104548 0 0.0017563221397047381 -0.2997067901486577 0 0.017453688627786131 -0.29322190620108468 0 0.0017563221397047381 -0.2997067901486577 0 0.0066437179820165657 -0.2861171845936395 0 0.017453688627786131 -0.29322190620108468 0 -0.0080748459131490501 -0.2914060437848453 0 0.0017563221397047381 -0.2997067901486577 0 0.0066437179820165657 -0.2861171845936395 0 0.0066437179820165657 -0.2861171845936395 0 0.017453688627786131 -0.29322190620108468 0 0.01908241754038794 -0.28073467218482329 0 0.017453688627786131 -0.29322190620108468 0 0.029398966714908509 -0.28692964748338379 0 0.029165048793799431 -0.30349547286963757 0 0.017453688627786131 -0.29322190620108468 0 0.029398966714908509 -0.28692964748338379 0 0.01908241754038794 -0.28073467218482329 0 0.0094652366165251054 -0.31053241408104548 0 0.017453688627786131 -0.29322190620108468 0 0.029165048793799431 -0.30349547286963757 0 0.03621734991660093 -0.31670946998547028 0 0.029165048793799431 -0.30349547286963757 0 0.048768037075517537 -0.30442990221103089 0 0.029165048793799431 -0.30349547286963757 0 0.043029943860180789 -0.28970337243015992 0 0.048768037075517537 -0.30442990221103089 0 0.029398966714908509 -0.28692964748338379 0 0.029165048793799431 -0.30349547286963757 0 0.043029943860180789 -0.28970337243015992 0 0.029398966714908509 -0.28692964748338379 0 0.043029943860180789 -0.28970337243015992 0 0.038396769586432553 -0.27977596087564799 0 0.043029943860180789 -0.28970337243015992 0 0.051749435803858171 -0.27840569125857739 0 0.038396769586432553 -0.27977596087564799 0 0.043029943860180789 -0.28970337243015992 0 0.059449054433483903 -0.28956707473318272 0 0.051749435803858171 -0.27840569125857739 0 0.043029943860180789 -0.28970337243015992 0 0.059449054433483903 -0.28956707473318272 0 0.048768037075517537 -0.30442990221103089 0 0.069967983226982527 -0.30495776272600778 0 0.059449054433483903 -0.28956707473318272 0 0.048768037075517537 -0.30442990221103089 0 0.069967983226982527 -0.30495776272600778 0 0.053863538987460123 -0.3232816795844588 0 0.048768037075517537 -0.30442990221103089 0 0.053380735395516472 -0.25867595766617779 0 0.04428054005230446 -0.26275141268032309 0 0.045372505498807933 -0.25408090721008542 0 0.053380735395516472 -0.25867595766617779 0 0.053158010572478251 -0.26777612517812432 0 0.04428054005230446 -0.26275141268032309 0 0.053380735395516472 -0.25867595766617779 0 0.045372505498807933 -0.25408090721008542 0 0.05268811686830014 -0.24901610311096159 0 0.053380735395516472 -0.25867595766617779 0 0.061490933840310687 -0.25382890142296882 0 0.05268811686830014 -0.24901610311096159 0 0.053380735395516472 -0.25867595766617779 0 0.060614126731859473 -0.2624009925450973 0 0.053158010572478251 -0.26777612517812432 0 0.053380735395516472 -0.25867595766617779 0 0.061490933840310687 -0.25382890142296882 0 0.060614126731859473 -0.2624009925450973 0 0.0646939085167762 -0.2722383315448984 0 0.060614126731859473 -0.2624009925450973 0 0.053158010572478251 -0.26777612517812432 0 0.0646939085167762 -0.2722383315448984 0 0.059449054433483903 -0.28956707473318272 0 0.051749435803858171 -0.27840569125857739 0 0.0646939085167762 -0.2722383315448984 0 0.051749435803858171 -0.27840569125857739 0 0.053158010572478251 -0.26777612517812432 0 0.053158010572478251 -0.26777612517812432 0 0.044229316934554799 -0.27218436537367241 0 0.04428054005230446 -0.26275141268032309 0 0.051749435803858171 -0.27840569125857739 0 0.053158010572478251 -0.26777612517812432 0 0.044229316934554799 -0.27218436537367241 0 0.044229316934554799 -0.27218436537367241 0 0.031885251388666561 -0.26470215361104171 0 0.04428054005230446 -0.26275141268032309 0 0.051749435803858171 -0.27840569125857739 0 0.044229316934554799 -0.27218436537367241 0 0.038396769586432553 -0.27977596087564799 0 0.044229316934554799 -0.27218436537367241 0 0.038396769586432553 -0.27977596087564799 0 0.029696712261103771 -0.27487286106778819 0 0.029398966714908509 -0.28692964748338379 0 0.038396769586432553 -0.27977596087564799 0 0.029696712261103771 -0.27487286106778819 0 0.044229316934554799 -0.27218436537367241 0 0.031885251388666561 -0.26470215361104171 0 0.029696712261103771 -0.27487286106778819 0 0.037315510146954597 -0.25849363249326118 0 0.031885251388666561 -0.26470215361104171 0 0.04428054005230446 -0.26275141268032309 0 0.037315510146954597 -0.25849363249326118 0 0.031885251388666561 -0.26470215361104171 0 0.03069464768829987 -0.25176037071845259 0 0.037315510146954597 -0.25849363249326118 0 0.04428054005230446 -0.26275141268032309 0 0.045372505498807933 -0.25408090721008542 0 0.045372505498807933 -0.25408090721008542 0 0.03069464768829987 -0.25176037071845259 0 0.042588116356466379 -0.2448823624008481 0 0.037315510146954597 -0.25849363249326118 0 0.045372505498807933 -0.25408090721008542 0 0.03069464768829987 -0.25176037071845259 0 0.031885251388666561 -0.26470215361104171 0 0.021199614426200629 -0.26114166245967918 0 0.019908913466960752 -0.27058631964059482 0 0.031885251388666561 -0.26470215361104171 0 0.03069464768829987 -0.25176037071845259 0 0.021199614426200629 -0.26114166245967918 0 0.03069464768829987 -0.25176037071845259 0 0.021199614426200629 -0.26114166245967918 0 0.016145176335298529 -0.25210595968411048 0 0.029398966714908509 -0.28692964748338379 0 0.029696712261103771 -0.27487286106778819 0 0.01908241754038794 -0.28073467218482329 0 0.031885251388666561 -0.26470215361104171 0 0.029696712261103771 -0.27487286106778819 0 0.019908913466960752 -0.27058631964059482 0 0.019908913466960752 -0.27058631964059482 0 0.01908241754038794 -0.28073467218482329 0 0.01128192931255503 -0.27464126756021451 0 0.029696712261103771 -0.27487286106778819 0 0.019908913466960752 -0.27058631964059482 0 0.01908241754038794 -0.28073467218482329 0 -0.01145854626600548 -0.26602311564559261 0 0.01128192931255503 -0.27464126756021451 0 0.0057158633005241696 -0.26337829885565528 0 0.0066437179820165657 -0.2861171845936395 0 0.01908241754038794 -0.28073467218482329 0 0.01128192931255503 -0.27464126756021451 0 0.019908913466960752 -0.27058631964059482 0 0.01128192931255503 -0.27464126756021451 0 0.0057158633005241696 -0.26337829885565528 0 -0.002848760243290064 -0.27761611820401882 0 0.0066437179820165657 -0.2861171845936395 0 0.01128192931255503 -0.27464126756021451 0 0.016145176335298529 -0.25210595968411048 0 0.0057158633005241696 -0.26337829885565528 0 0.0054759062840018038 -0.25064707341720888 0 0.021199614426200629 -0.26114166245967918 0 0.019908913466960752 -0.27058631964059482 0 0.0057158633005241696 -0.26337829885565528 0 0.021199614426200629 -0.26114166245967918 0 0.016145176335298529 -0.25210595968411048 0 0.0057158633005241696 -0.26337829885565528 0 -0.0009620894167222515 -0.25496392916579452 0 0.0057158633005241696 -0.26337829885565528 0 0.0054759062840018038 -0.25064707341720888 0 -0.0009620894167222515 -0.25496392916579452 0 -0.0029313858115674811 -0.24854412401401971 0 0.0054759062840018038 -0.25064707341720888 0 0.0054759062840018038 -0.25064707341720888 0 0.0026199421412959989 -0.2430643023623929 0 0.011589873569895199 -0.24127835128668559 0 -0.0029313858115674811 -0.24854412401401971 0 0.0054759062840018038 -0.25064707341720888 0 0.0026199421412959989 -0.2430643023623929 0 0.016145176335298529 -0.25210595968411048 0 0.0054759062840018038 -0.25064707341720888 0 0.011589873569895199 -0.24127835128668559 0 0.011589873569895199 -0.24127835128668559 0 0.010668172172219499 -0.2272828987723072 0 0.020574075722817331 -0.2351284197632682 0 0.0026199421412959989 -0.2430643023623929 0 0.011589873569895199 -0.24127835128668559 0 0.0017465435191736189 -0.23378549097037141 0 -0.00080535468136348092 -0.21995366459000901 0 0.010668172172219499 -0.2272828987723072 0 0.01016515501406726 -0.20926501301563591 0 -0.00080535468136348092 -0.21995366459000901 0 0.0017465435191736189 -0.23378549097037141 0 0.010668172172219499 -0.2272828987723072 0 0.010668172172219499 -0.2272828987723072 0 0.02170661161633574 -0.22145314359659171 0 0.01016515501406726 -0.20926501301563591 0 0.011589873569895199 -0.24127835128668559 0 0.0017465435191736189 -0.23378549097037141 0 0.010668172172219499 -0.2272828987723072 0 0.010668172172219499 -0.2272828987723072 0 0.02170661161633574 -0.22145314359659171 0 0.020574075722817331 -0.2351284197632682 0 0.02170661161633574 -0.22145314359659171 0 0.02866695829179056 -0.22960637228307629 0 0.036392787169896093 -0.22322562645731159 0 0.02170661161633574 -0.22145314359659171 0 0.02866695829179056 -0.22960637228307629 0 0.020574075722817331 -0.2351284197632682 0 0.02866695829179056 -0.22960637228307629 0 0.020574075722817331 -0.2351284197632682 0 0.032071787069821417 -0.24054619649286721 0 0.022195152742869501 -0.2444300013669817 0 0.020574075722817331 -0.2351284197632682 0 0.032071787069821417 -0.24054619649286721 0 0.03069464768829987 -0.25176037071845259 0 0.022195152742869501 -0.2444300013669817 0 0.032071787069821417 -0.24054619649286721 0 0.03069464768829987 -0.25176037071845259 0 0.016145176335298529 -0.25210595968411048 0 0.022195152742869501 -0.2444300013669817 0 0.016145176335298529 -0.25210595968411048 0 0.011589873569895199 -0.24127835128668559 0 0.022195152742869501 -0.2444300013669817 0 0.011589873569895199 -0.24127835128668559 0 0.022195152742869501 -0.2444300013669817 0 0.020574075722817331 -0.2351284197632682 0 -0.003739977245034012 -0.19168309442994089 0 0.010514116253606281 -0.1925853606064957 0 0.01016515501406726 -0.20926501301563591 0 0.010514116253606281 -0.1925853606064957 0 0.01016515501406726 -0.20926501301563591 0 0.018596641755985681 -0.20049862993462389 0 0.02170661161633574 -0.22145314359659171 0 0.01016515501406726 -0.20926501301563591 0 0.028304225500431591 -0.20785134554231141 0 0.01016515501406726 -0.20926501301563591 0 0.028304225500431591 -0.20785134554231141 0 0.018596641755985681 -0.20049862993462389 0 0.02170661161633574 -0.22145314359659171 0 0.028304225500431591 -0.20785134554231141 0 0.036392787169896093 -0.22322562645731159 0 0.028304225500431591 -0.20785134554231141 0 0.018596641755985681 -0.20049862993462389 0 0.02540307025583758 -0.19229280057405279 0 0.010514116253606281 -0.1925853606064957 0 0.018596641755985681 -0.20049862993462389 0 0.02540307025583758 -0.19229280057405279 0 0.010514116253606281 -0.1925853606064957 0 0.02540307025583758 -0.19229280057405279 0 0.015764016274472759 -0.1812646672695073 0 0.02540307025583758 -0.19229280057405279 0 0.041440672425083092 -0.19607701236864419 0 0.030421272951226121 -0.1778391783376792 0 0.028304225500431591 -0.20785134554231141 0 0.02540307025583758 -0.19229280057405279 0 0.041440672425083092 -0.19607701236864419 0 0.041440672425083092 -0.19607701236864419 0 0.042310424588804782 -0.2140630995529598 0 0.055497750511994078 -0.2086068857692274 0 0.028304225500431591 -0.20785134554231141 0 0.041440672425083092 -0.19607701236864419 0 0.042310424588804782 -0.2140630995529598 0 0.028304225500431591 -0.20785134554231141 0 0.042310424588804782 -0.2140630995529598 0 0.036392787169896093 -0.22322562645731159 0 0.042310424588804782 -0.2140630995529598 0 0.055497750511994078 -0.2086068857692274 0 0.052955454276687589 -0.2198291654371925 0 0.062338921595789062 -0.21792006704763969 0 0.055497750511994078 -0.2086068857692274 0 0.052955454276687589 -0.2198291654371925 0 0.062338921595789062 -0.21792006704763969 0 0.055497750511994078 -0.2086068857692274 0 0.067863046951983474 -0.20503048868511209 0 0.055497750511994078 -0.2086068857692274 0 0.056257937900538298 -0.19577788601322099 0 0.067863046951983474 -0.20503048868511209 0 0.041440672425083092 -0.19607701236864419 0 0.056257937900538298 -0.19577788601322099 0 0.051449240160577621 -0.1762857105508405 0 0.041440672425083092 -0.19607701236864419 0 0.055497750511994078 -0.2086068857692274 0 0.056257937900538298 -0.19577788601322099 0 0.040491861427302538 -0.2355872617630255 0 0.042588116356466379 -0.2448823624008481 0 0.052307832003780613 -0.23884346229351339 0 0.040491861427302538 -0.2355872617630255 0 0.045866106706223042 -0.22907627795895011 0 0.052307832003780613 -0.23884346229351339 0 0.03069464768829987 -0.25176037071845259 0 0.042588116356466379 -0.2448823624008481 0 0.032071787069821417 -0.24054619649286721 0 0.040491861427302538 -0.2355872617630255 0 0.042588116356466379 -0.2448823624008481 0 0.032071787069821417 -0.24054619649286721 0 0.02866695829179056 -0.22960637228307629 0 0.040491861427302538 -0.2355872617630255 0 0.032071787069821417 -0.24054619649286721 0 0.02866695829179056 -0.22960637228307629 0 0.040491861427302538 -0.2355872617630255 0 0.036392787169896093 -0.22322562645731159 0 0.042310424588804782 -0.2140630995529598 0 0.036392787169896093 -0.22322562645731159 0 0.045866106706223042 -0.22907627795895011 0 0.040491861427302538 -0.2355872617630255 0 0.036392787169896093 -0.22322562645731159 0 0.045866106706223042 -0.22907627795895011 0 0.045866106706223042 -0.22907627795895011 0 0.058764067980626958 -0.22947949685718549 0 0.052307832003780613 -0.23884346229351339 0 0.045866106706223042 -0.22907627795895011 0 0.052955454276687589 -0.2198291654371925 0 0.058764067980626958 -0.22947949685718549 0 0.042310424588804782 -0.2140630995529598 0 0.045866106706223042 -0.22907627795895011 0 0.052955454276687589 -0.2198291654371925 0 0.062338921595789062 -0.21792006704763969 0 0.058764067980626958 -0.22947949685718549 0 0.065719467571416057 -0.22489822263154319 0 0.062338921595789062 -0.21792006704763969 0 0.052955454276687589 -0.2198291654371925 0 0.058764067980626958 -0.22947949685718549 0 0.058764067980626958 -0.22947949685718549 0 0.062159259289524899 -0.2368834247622158 0 0.052307832003780613 -0.23884346229351339 0 0.062159259289524899 -0.2368834247622158 0 0.052307832003780613 -0.23884346229351339 0 0.061229972926465738 -0.2445427902389527 0 0.045372505498807933 -0.25408090721008542 0 0.042588116356466379 -0.2448823624008481 0 0.05268811686830014 -0.24901610311096159 0 0.042588116356466379 -0.2448823624008481 0 0.052307832003780613 -0.23884346229351339 0 0.05268811686830014 -0.24901610311096159 0 0.061490933840310687 -0.25382890142296882 0 0.05268811686830014 -0.24901610311096159 0 0.061229972926465738 -0.2445427902389527 0 0.052307832003780613 -0.23884346229351339 0 0.05268811686830014 -0.24901610311096159 0 0.061229972926465738 -0.2445427902389527 0 0.061490933840310687 -0.25382890142296882 0 0.061229972926465738 -0.2445427902389527 0 0.070069103552599196 -0.24823964670048029 0 0.061229972926465738 -0.2445427902389527 0 0.070069103552599196 -0.24823964670048029 0 0.069856411684105391 -0.23913895996007839 0 0.062159259289524899 -0.2368834247622158 0 0.061229972926465738 -0.2445427902389527 0 0.069856411684105391 -0.23913895996007839 0 0.062159259289524899 -0.2368834247622158 0 0.069856411684105391 -0.23913895996007839 0 0.067142239376285745 -0.23139328163069281 0 0.069856411684105391 -0.23913895996007839 0 0.077788170153509889 -0.24196191377257101 0 0.076767606518392539 -0.23187249677345001 0 0.080071368274292315 -0.25145738896057979 0 0.070069103552599196 -0.24823964670048029 0 0.077788170153509889 -0.24196191377257101 0 0.070069103552599196 -0.24823964670048029 0 0.069856411684105391 -0.23913895996007839 0 0.077788170153509889 -0.24196191377257101 0 0.080071368274292315 -0.25145738896057979 0 0.090706365013478091 -0.25245448435890872 0 0.085906732882507178 -0.24385162082211831 0 0.080071368274292315 -0.25145738896057979 0 0.077788170153509889 -0.24196191377257101 0 0.085906732882507178 -0.24385162082211831 0 0.077788170153509889 -0.24196191377257101 0 0.085906732882507178 -0.24385162082211831 0 0.083256636250354649 -0.23616880796388259 0 0.077788170153509889 -0.24196191377257101 0 0.083256636250354649 -0.23616880796388259 0 0.076767606518392539 -0.23187249677345001 0 0.085906732882507178 -0.24385162082211831 0 0.089657973372422345 -0.23730775202069579 0 0.094006026236525903 -0.2441335510050745 0 0.085906732882507178 -0.24385162082211831 0 0.083256636250354649 -0.23616880796388259 0 0.089657973372422345 -0.23730775202069579 0 0.083256636250354649 -0.23616880796388259 0 0.089657973372422345 -0.23730775202069579 0 0.089763789457938253 -0.2306791647953326 0 0.089657973372422345 -0.23730775202069579 0 0.089763789457938253 -0.2306791647953326 0 0.096012267649498176 -0.23702186761809721 0 0.089657973372422345 -0.23730775202069579 0 0.094006026236525903 -0.2441335510050745 0 0.096012267649498176 -0.23702186761809721 0 0.090706365013478091 -0.25245448435890872 0 0.085906732882507178 -0.24385162082211831 0 0.094006026236525903 -0.2441335510050745 0 0.086446736705125371 -0.22420087797706609 0 0.091303359373345411 -0.22339335178318359 0 0.089763789457938253 -0.2306791647953326 0 0.086446736705125371 -0.22420087797706609 0 0.091303359373345411 -0.22339335178318359 0 0.086853981468707001 -0.2185547472363609 0 0.091303359373345411 -0.22339335178318359 0 0.086853981468707001 -0.2185547472363609 0 0.09077468002378962 -0.21857675351640271 0 0.091303359373345411 -0.22339335178318359 0 0.09077468002378962 -0.21857675351640271 0 0.094530837428433365 -0.22086489816084981 0 0.091303359373345411 -0.22339335178318359 0 0.089763789457938253 -0.2306791647953326 0 0.098670227838192195 -0.22970514568366851 0 0.086446736705125371 -0.22420087797706609 0 0.089763789457938253 -0.2306791647953326 0 0.083020570332336119 -0.22791650227557511 0 0.083256636250354649 -0.23616880796388259 0 0.083020570332336119 -0.22791650227557511 0 0.076767606518392539 -0.23187249677345001 0 0.083256636250354649 -0.23616880796388259 0 0.089763789457938253 -0.2306791647953326 0 0.083020570332336119 -0.22791650227557511 0 0.083020570332336119 -0.22791650227557511 0 0.077930889523722374 -0.22519622511208121 0 0.076767606518392539 -0.23187249677345001 0 0.083020570332336119 -0.22791650227557511 0 0.081291982893300085 -0.22046062379487821 0 0.077930889523722374 -0.22519622511208121 0 0.086446736705125371 -0.22420087797706609 0 0.083020570332336119 -0.22791650227557511 0 0.081291982893300085 -0.22046062379487821 0 0.086446736705125371 -0.22420087797706609 0 0.081291982893300085 -0.22046062379487821 0 0.086853981468707001 -0.2185547472363609 0 0.081291982893300085 -0.22046062379487821 0 0.077930889523722374 -0.22519622511208121 0 0.073706539318973169 -0.21796036257100029 0 0.072234091795087663 -0.22574485878751241 0 0.065719467571416057 -0.22489822263154319 0 0.073706539318973169 -0.21796036257100029 0 0.077930889523722374 -0.22519622511208121 0 0.072234091795087663 -0.22574485878751241 0 0.073706539318973169 -0.21796036257100029 0 0.069856411684105391 -0.23913895996007839 0 0.076767606518392539 -0.23187249677345001 0 0.067142239376285745 -0.23139328163069281 0 0.072234091795087663 -0.22574485878751241 0 0.076767606518392539 -0.23187249677345001 0 0.067142239376285745 -0.23139328163069281 0 0.077930889523722374 -0.22519622511208121 0 0.072234091795087663 -0.22574485878751241 0 0.076767606518392539 -0.23187249677345001 0 0.058764067980626958 -0.22947949685718549 0 0.062159259289524899 -0.2368834247622158 0 0.067142239376285745 -0.23139328163069281 0 0.058764067980626958 -0.22947949685718549 0 0.067142239376285745 -0.23139328163069281 0 0.065719467571416057 -0.22489822263154319 0 0.072234091795087663 -0.22574485878751241 0 0.067142239376285745 -0.23139328163069281 0 0.065719467571416057 -0.22489822263154319 0 0.062338921595789062 -0.21792006704763969 0 0.065719467571416057 -0.22489822263154319 0 0.073706539318973169 -0.21796036257100029 0 0.062338921595789062 -0.21792006704763969 0 0.067863046951983474 -0.20503048868511209 0 0.073706539318973169 -0.21796036257100029 0 0.067863046951983474 -0.20503048868511209 0 0.073706539318973169 -0.21796036257100029 0 0.079094442607528917 -0.20913243433380641 0 0.067863046951983474 -0.20503048868511209 0 0.081482512553192915 -0.1953056794767786 0 0.079094442607528917 -0.20913243433380641 0 0.056257937900538298 -0.19577788601322099 0 0.067863046951983474 -0.20503048868511209 0 0.066040058368007956 -0.18964665730407451 0 0.067863046951983474 -0.20503048868511209 0 0.066040058368007956 -0.18964665730407451 0 0.081482512553192915 -0.1953056794767786 0 0.081482512553192915 -0.1953056794767786 0 0.095454742848087734 -0.19451486061966669 0 0.093505174579280592 -0.1731787749771625 0 0.081482512553192915 -0.1953056794767786 0 0.08833530696517819 -0.21036332105093219 0 0.095454742848087734 -0.19451486061966669 0 0.08833530696517819 -0.21036332105093219 0 0.097404311116896569 -0.21585094626217091 0 0.095454742848087734 -0.19451486061966669 0 0.081291982893300085 -0.22046062379487821 0 0.073706539318973169 -0.21796036257100029 0 0.082946926161669862 -0.2149195339015407 0 0.082946926161669862 -0.2149195339015407 0 0.079094442607528917 -0.20913243433380641 0 0.08833530696517819 -0.21036332105093219 0 0.073706539318973169 -0.21796036257100029 0 0.082946926161669862 -0.2149195339015407 0 0.079094442607528917 -0.20913243433380641 0 0.081291982893300085 -0.22046062379487821 0 0.082946926161669862 -0.2149195339015407 0 0.086853981468707001 -0.2185547472363609 0 0.081482512553192915 -0.1953056794767786 0 0.079094442607528917 -0.20913243433380641 0 0.08833530696517819 -0.21036332105093219 0 0.082946926161669862 -0.2149195339015407 0 0.08833530696517819 -0.21036332105093219 0 0.086853981468707001 -0.2185547472363609 0 0.08833530696517819 -0.21036332105093219 0 0.086853981468707001 -0.2185547472363609 0 0.09077468002378962 -0.21857675351640271 0 0.08833530696517819 -0.21036332105093219 0 0.09077468002378962 -0.21857675351640271 0 0.092213447725184278 -0.21529843562297729 0 0.08833530696517819 -0.21036332105093219 0 0.092213447725184278 -0.21529843562297729 0 0.097404311116896569 -0.21585094626217091 0 0.09077468002378962 -0.21857675351640271 0 0.094501608789943028 -0.21679829355882299 0 0.094530837428433365 -0.22086489816084981 0 0.09077468002378962 -0.21857675351640271 0 0.092213447725184278 -0.21529843562297729 0 0.094501608789943028 -0.21679829355882299 0 0.094501608789943028 -0.21679829355882299 0 0.097404311116896569 -0.21585094626217091 0 0.094530837428433365 -0.22086489816084981 0 0.092213447725184278 -0.21529843562297729 0 0.094501608789943028 -0.21679829355882299 0 0.097404311116896569 -0.21585094626217091 0 0.097404311116896569 -0.21585094626217091 0 0.095454742848087734 -0.19451486061966669 0 0.097404311116896569 -0.21585094626217091 0 0.1059898830346106 -0.20430933332548051 0 0.095454742848087734 -0.19451486061966669 0 0.097404311116896569 -0.21585094626217091 0 0.1089347031997706 -0.21297733173581901 0 0.1146171121197104 -0.21980430615730401 0 0.097404311116896569 -0.21585094626217091 0 0.1059898830346106 -0.20430933332548051 0 0.1089347031997706 -0.21297733173581901 0 0.095454742848087734 -0.19451486061966669 0 0.1128143282819509 -0.19216489626002589 0 0.10772522460311169 -0.17968171223372481 0 0.1059898830346106 -0.20430933332548051 0 0.095454742848087734 -0.19451486061966669 0 0.1128143282819509 -0.19216489626002589 0 0.1128143282819509 -0.19216489626002589 0 0.1237689835273371 -0.19605207676116951 0 0.1178461100078927 -0.20838697738218431 0 0.1059898830346106 -0.20430933332548051 0 0.1128143282819509 -0.19216489626002589 0 0.1178461100078927 -0.20838697738218431 0 0.1128143282819509 -0.19216489626002589 0 0.1237689835273371 -0.19605207676116951 0 0.1232013989280239 -0.1819146573535104 0 0.1089347031997706 -0.21297733173581901 0 0.1178461100078927 -0.20838697738218431 0 0.1146171121197104 -0.21980430615730401 0 0.1059898830346106 -0.20430933332548051 0 0.1089347031997706 -0.21297733173581901 0 0.1178461100078927 -0.20838697738218431 0 0.1178461100078927 -0.20838697738218431 0 0.1146171121197104 -0.21980430615730401 0 0.12895394136930069 -0.22163642029703709 0 0.1146171121197104 -0.21980430615730401 0 0.12018370186474731 -0.23305432747703519 0 0.12895394136930069 -0.22163642029703709 0 0.097404311116896569 -0.21585094626217091 0 0.1146171121197104 -0.21980430615730401 0 0.12018370186474731 -0.23305432747703519 0 0.1212054647883809 -0.25073068226796852 0 0.12018370186474731 -0.23305432747703519 0 0.1059281586602189 -0.23527494890652931 0 0.13217397618885759 -0.25462043987800831 0 0.1212054647883809 -0.25073068226796852 0 0.12018370186474731 -0.23305432747703519 0 0.1212054647883809 -0.25073068226796852 0 0.1059281586602189 -0.23527494890652931 0 0.1078238037173969 -0.24832262031645649 0 0.1212054647883809 -0.25073068226796852 0 0.1059281586602189 -0.23527494890652931 0 0.099550463170151926 -0.25262580003909579 0 0.1078238037173969 -0.24832262031645649 0 0.10103467245524091 -0.24298905409433241 0 0.1059281586602189 -0.23527494890652931 0 0.1078238037173969 -0.24832262031645649 0 0.10103467245524091 -0.24298905409433241 0 0.099550463170151926 -0.25262580003909579 0 0.10103467245524091 -0.24298905409433241 0 0.094006026236525903 -0.2441335510050745 0 0.090706365013478091 -0.25245448435890872 0 0.099550463170151926 -0.25262580003909579 0 0.094006026236525903 -0.2441335510050745 0 0.1059281586602189 -0.23527494890652931 0 0.10103467245524091 -0.24298905409433241 0 0.096012267649498176 -0.23702186761809721 0 0.10103467245524091 -0.24298905409433241 0 0.094006026236525903 -0.2441335510050745 0 0.096012267649498176 -0.23702186761809721 0 0.1059281586602189 -0.23527494890652931 0 0.096012267649498176 -0.23702186761809721 0 0.098670227838192195 -0.22970514568366851 0 0.089763789457938253 -0.2306791647953326 0 0.096012267649498176 -0.23702186761809721 0 0.098670227838192195 -0.22970514568366851 0 0.097404311116896569 -0.21585094626217091 0 0.12018370186474731 -0.23305432747703519 0 0.097404311116896569 -0.21585094626217091 0 0.12018370186474731 -0.23305432747703519 0 0.1059281586602189 -0.23527494890652931 0 0.097404311116896569 -0.21585094626217091 0 0.1059281586602189 -0.23527494890652931 0 0.098670227838192195 -0.22970514568366851 0 0.091303359373345411 -0.22339335178318359 0 0.098670227838192195 -0.22970514568366851 0 0.094530837428433365 -0.22086489816084981 0 0.097404311116896569 -0.21585094626217091 0 0.098670227838192195 -0.22970514568366851 0 0.094530837428433365 -0.22086489816084981 0 0.097404311116896569 -0.21585094626217091 0 0.098670227838192195 -0.22970514568366851 0 0.1071373084330472 -0.14482826815459701 0 0.1035248479174861 -0.15311019857333261 0 0.098760878024456711 -0.14050656481393209 0 0.1071373084330472 -0.14482826815459701 0 0.1035248479174861 -0.15311019857333261 0 0.1121477659277255 -0.1503271840913511 0 0.1035248479174861 -0.15311019857333261 0 0.098760878024456711 -0.14050656481393209 0 0.091560400862706559 -0.15189516094014111 0 0.098760878024456711 -0.14050656481393209 0 0.099399694252258627 -0.1328638184600745 0 0.089615627146132512 -0.13061154690311971 0 0.099399694252258627 -0.1328638184600745 0 0.099525338641528904 -0.12611341339503321 0 0.089615627146132512 -0.13061154690311971 0 0.099525338641528904 -0.12611341339503321 0 0.1096969331969164 -0.13422374872821319 0 0.1121708616464093 -0.1216807098986791 0 0.099399694252258627 -0.1328638184600745 0 0.099525338641528904 -0.12611341339503321 0 0.1096969331969164 -0.13422374872821319 0 0.098760878024456711 -0.14050656481393209 0 0.099399694252258627 -0.1328638184600745 0 0.1096969331969164 -0.13422374872821319 0 0.1071373084330472 -0.14482826815459701 0 0.098760878024456711 -0.14050656481393209 0 0.1096969331969164 -0.13422374872821319 0 0.1096969331969164 -0.13422374872821319 0 0.1155243526086871 -0.14484298486410191 0 0.12532898621889721 -0.13663811256420449 0 0.1096969331969164 -0.13422374872821319 0 0.11997683785091839 -0.1276371159963853 0 0.12532898621889721 -0.13663811256420449 0 0.1096969331969164 -0.13422374872821319 0 0.11997683785091839 -0.1276371159963853 0 0.1121708616464093 -0.1216807098986791 0 0.1217036921304827 -0.1482443959076799 0 0.1155243526086871 -0.14484298486410191 0 0.12532898621889721 -0.13663811256420449 0 0.1217036921304827 -0.1482443959076799 0 0.1155243526086871 -0.14484298486410191 0 0.1179114041550178 -0.15136128022523329 0 0.1071373084330472 -0.14482826815459701 0 0.1155243526086871 -0.14484298486410191 0 0.1121477659277255 -0.1503271840913511 0 0.1071373084330472 -0.14482826815459701 0 0.1096969331969164 -0.13422374872821319 0 0.1155243526086871 -0.14484298486410191 0 0.1035248479174861 -0.15311019857333261 0 0.1121477659277255 -0.1503271840913511 0 0.1169082366172023 -0.15609331882735419 0 0.1155243526086871 -0.14484298486410191 0 0.1121477659277255 -0.1503271840913511 0 0.1179114041550178 -0.15136128022523329 0 0.1121477659277255 -0.1503271840913511 0 0.1169082366172023 -0.15609331882735419 0 0.1179114041550178 -0.15136128022523329 0 0.1169082366172023 -0.15609331882735419 0 0.1179114041550178 -0.15136128022523329 0 0.12324902196630889 -0.15465793599018671 0 0.1217036921304827 -0.1482443959076799 0 0.1179114041550178 -0.15136128022523329 0 0.12324902196630889 -0.15465793599018671 0 0.1217036921304827 -0.1482443959076799 0 0.12324902196630889 -0.15465793599018671 0 0.12831016946945831 -0.1492440347933528 0 0.1035248479174861 -0.15311019857333261 0 0.12443417021765769 -0.1709717485187108 0 0.1227471198665283 -0.15880086614903269 0 0.12098675462827781 -0.16200852072179159 0 0.1290045142054978 -0.1612372837293575 0 0.1035248479174861 -0.15311019857333261 0 0.12443417021765769 -0.1709717485187108 0 0.12083528946942131 -0.1711597280255607 0 0.1035248479174861 -0.15311019857333261 0 0.12098675462827781 -0.16200852072179159 0 0.12443417021765769 -0.1709717485187108 0 0.1035248479174861 -0.15311019857333261 0 0.1169082366172023 -0.15609331882735419 0 0.12098675462827781 -0.16200852072179159 0 0.1169082366172023 -0.15609331882735419 0 0.1227471198665283 -0.15880086614903269 0 0.12098675462827781 -0.16200852072179159 0 0.1169082366172023 -0.15609331882735419 0 0.12324902196630889 -0.15465793599018671 0 0.1227471198665283 -0.15880086614903269 0 0.12098675462827781 -0.16200852072179159 0 0.12443417021765769 -0.1709717485187108 0 0.12715697753007521 -0.16591248018761531 0 0.1128143282819509 -0.19216489626002589 0 0.1232013989280239 -0.1819146573535104 0 0.1157139550245927 -0.18029465614444529 0 0.12083528946942131 -0.1711597280255607 0 0.1232013989280239 -0.1819146573535104 0 0.1157139550245927 -0.18029465614444529 0 0.12443417021765769 -0.1709717485187108 0 0.12083528946942131 -0.1711597280255607 0 0.1232013989280239 -0.1819146573535104 0 0.12083528946942131 -0.1711597280255607 0 0.1157139550245927 -0.18029465614444529 0 0.10772522460311169 -0.17968171223372481 0 0.1128143282819509 -0.19216489626002589 0 0.1157139550245927 -0.18029465614444529 0 0.10772522460311169 -0.17968171223372481 0 0.095454742848087734 -0.19451486061966669 0 0.10772522460311169 -0.17968171223372481 0 0.093505174579280592 -0.1731787749771625 0 0.12083528946942131 -0.1711597280255607 0 0.093505174579280592 -0.1731787749771625 0 0.095454742848087734 -0.19451486061966669 0 0.093505174579280592 -0.1731787749771625 0 0.12083528946942131 -0.1711597280255607 0 0.10772522460311169 -0.17968171223372481 0 0.093505174579280592 -0.1731787749771625 0 0.1035248479174861 -0.15311019857333261 0 0.093505174579280592 -0.1731787749771625 0 0.091560400862706559 -0.15189516094014111 0 0.1035248479174861 -0.15311019857333261 0 0.12083528946942131 -0.1711597280255607 0 0.093505174579280592 -0.1731787749771625 0 0.078133883947979807 -0.15717501910519549 0 0.093505174579280592 -0.1731787749771625 0 0.091560400862706559 -0.15189516094014111 0 0.078133883947979807 -0.15717501910519549 0 0.093505174579280592 -0.1731787749771625 0 0.072477207369929117 -0.17473224276400179 0 0.093505174579280592 -0.1731787749771625 0 0.091560400862706559 -0.15189516094014111 0 0.081482512553192915 -0.1953056794767786 0 0.093505174579280592 -0.1731787749771625 0 0.072477207369929117 -0.17473224276400179 0 0.093505174579280592 -0.1731787749771625 0 0.072477207369929117 -0.17473224276400179 0 0.066040058368007956 -0.18964665730407451 0 0.072477207369929117 -0.17473224276400179 0 0.051449240160577621 -0.1762857105508405 0 0.066040058368007956 -0.18964665730407451 0 0.081482512553192915 -0.1953056794767786 0 0.072477207369929117 -0.17473224276400179 0 0.078133883947979807 -0.15717501910519549 0 0.072477207369929117 -0.17473224276400179 0 0.063878974636528515 -0.16401540189567099 0 0.072477207369929117 -0.17473224276400179 0 0.063878974636528515 -0.16401540189567099 0 0.051449240160577621 -0.1762857105508405 0 0.078133883947979807 -0.15717501910519549 0 0.063878974636528515 -0.16401540189567099 0 0.06522271263887458 -0.15305574504012881 0 0.06522271263887458 -0.15305574504012881 0 0.069316279952888193 -0.14186668388360371 0 0.075278834721760557 -0.14616760919767161 0 0.06522271263887458 -0.15305574504012881 0 0.069316279952888193 -0.14186668388360371 0 0.05757515479497001 -0.1486962131740798 0 0.069316279952888193 -0.14186668388360371 0 0.075278834721760557 -0.14616760919767161 0 0.079765110473415279 -0.13788087003968491 0 0.078133883947979807 -0.15717501910519549 0 0.06522271263887458 -0.15305574504012881 0 0.075278834721760557 -0.14616760919767161 0 0.098760878024456711 -0.14050656481393209 0 0.091560400862706559 -0.15189516094014111 0 0.089615627146132512 -0.13061154690311971 0 0.078133883947979807 -0.15717501910519549 0 0.083611330147541921 -0.14459745320402559 0 0.091560400862706559 -0.15189516094014111 0 0.091560400862706559 -0.15189516094014111 0 0.089615627146132512 -0.13061154690311971 0 0.078133883947979807 -0.15717501910519549 0 0.075278834721760557 -0.14616760919767161 0 0.083611330147541921 -0.14459745320402559 0 0.083611330147541921 -0.14459745320402559 0 0.091560400862706559 -0.15189516094014111 0 0.089615627146132512 -0.13061154690311971 0 0.075278834721760557 -0.14616760919767161 0 0.083611330147541921 -0.14459745320402559 0 0.079765110473415279 -0.13788087003968491 0 0.099525338641528904 -0.12611341339503321 0 0.089615627146132512 -0.13061154690311971 0 0.081894058627025895 -0.12584863130967919 0 0.083611330147541921 -0.14459745320402559 0 0.089615627146132512 -0.13061154690311971 0 0.079765110473415279 -0.13788087003968491 0 0.089615627146132512 -0.13061154690311971 0 0.079765110473415279 -0.13788087003968491 0 0.081894058627025895 -0.12584863130967919 0 0.081894058627025895 -0.12584863130967919 0 0.065576399090336079 -0.13067912082877309 0 0.057907204523981459 -0.13951585418161591 0 0.081894058627025895 -0.12584863130967919 0 0.057907204523981459 -0.13951585418161591 0 0.069316279952888193 -0.14186668388360371 0 0.081894058627025895 -0.12584863130967919 0 0.057907204523981459 -0.13951585418161591 0 0.081894058627025895 -0.12584863130967919 0 0.068207364780656948 -0.12563827965844471 0 0.065576399090336079 -0.13067912082877309 0 0.069316279952888193 -0.14186668388360371 0 0.079765110473415279 -0.13788087003968491 0 0.081894058627025895 -0.12584863130967919 0 0.068207364780656948 -0.12563827965844471 0 0.065576399090336079 -0.13067912082877309 0 0.054296968429680029 -0.13171371816535249 0 0.054296968429680029 -0.13171371816535249 0 0.057907204523981459 -0.13951585418161591 0 0.034849001543539322 -0.1503583031021323 0 0.054296968429680029 -0.13171371816535249 0 0.045553716665441668 -0.12681104972785159 0 0.052448498866582129 -0.1166826243517366 0 0.065576399090336079 -0.13067912082877309 0 0.054296968429680029 -0.13171371816535249 0 0.057907204523981459 -0.13951585418161591 0 0.069316279952888193 -0.14186668388360371 0 0.057907204523981459 -0.13951585418161591 0 0.05757515479497001 -0.1486962131740798 0 0.06522271263887458 -0.15305574504012881 0 0.05757515479497001 -0.1486962131740798 0 0.052111829065281459 -0.15882829201818821 0 0.046808539919221563 -0.15014413002933799 0 0.052111829065281459 -0.15882829201818821 0 0.043031393960321331 -0.1571354857308308 0 0.05757515479497001 -0.1486962131740798 0 0.046808539919221563 -0.15014413002933799 0 0.052111829065281459 -0.15882829201818821 0 0.057907204523981459 -0.13951585418161591 0 0.05757515479497001 -0.1486962131740798 0 0.046808539919221563 -0.15014413002933799 0 0.057907204523981459 -0.13951585418161591 0 0.046808539919221563 -0.15014413002933799 0 0.033920350420936912 -0.1531830770535528 0 0.057907204523981459 -0.13951585418161591 0 0.034849001543539322 -0.1503583031021323 0 0.033920350420936912 -0.1531830770535528 0 0.054296968429680029 -0.13171371816535249 0 0.034849001543539322 -0.1503583031021323 0 0.038558521200612962 -0.14006542407622449 0 0.054296968429680029 -0.13171371816535249 0 0.034849001543539322 -0.1503583031021323 0 0.057907204523981459 -0.13951585418161591 0 0.033920350420936912 -0.1531830770535528 0 0.046808539919221563 -0.15014413002933799 0 0.040219483271594643 -0.15466785876887121 0 0.033920350420936912 -0.1531830770535528 0 0.046808539919221563 -0.15014413002933799 0 0.040219483271594643 -0.15466785876887121 0 0.043031393960321331 -0.1571354857308308 0 0.040219483271594643 -0.15466785876887121 0 0.033920350420936912 -0.1531830770535528 0 0.037117648785898759 -0.15820874226176301 0 0.034849001543539322 -0.1503583031021323 0 0.031672068294339203 -0.14528428076340441 0 0.030051573782975471 -0.15027594372919439 0 0.034849001543539322 -0.1503583031021323 0 0.033920350420936912 -0.1531830770535528 0 0.030051573782975471 -0.15027594372919439 0 0.034849001543539322 -0.1503583031021323 0 0.031672068294339203 -0.14528428076340441 0 0.038558521200612962 -0.14006542407622449 0 0.031672068294339203 -0.14528428076340441 0 0.038558521200612962 -0.14006542407622449 0 0.030566093298411881 -0.13865773310914861 0 0.054296968429680029 -0.13171371816535249 0 0.038558521200612962 -0.14006542407622449 0 0.040644455285911409 -0.1338393175667463 0 0.038558521200612962 -0.14006542407622449 0 0.040644455285911409 -0.1338393175667463 0 0.030566093298411881 -0.13865773310914861 0 0.034824944079593127 -0.12500853882757099 0 0.040644455285911409 -0.1338393175667463 0 0.030566093298411881 -0.13865773310914861 0 0.034824944079593127 -0.12500853882757099 0 0.045553716665441668 -0.12681104972785159 0 0.040644455285911409 -0.1338393175667463 0 0.054296968429680029 -0.13171371816535249 0 0.045553716665441668 -0.12681104972785159 0 0.040644455285911409 -0.1338393175667463 0 0.072477207369929117 -0.17473224276400179 0 0.051449240160577621 -0.1762857105508405 0 0.056257937900538298 -0.19577788601322099 0 0.066040058368007956 -0.18964665730407451 0 0.051449240160577621 -0.1762857105508405 0 0.063878974636528515 -0.16401540189567099 0 0.051449240160577621 -0.1762857105508405 0 0.052111829065281459 -0.15882829201818821 0 0.051449240160577621 -0.1762857105508405 0 0.052111829065281459 -0.15882829201818821 0 0.040502396519655252 -0.1663673850483231 0 0.063878974636528515 -0.16401540189567099 0 0.06522271263887458 -0.15305574504012881 0 0.052111829065281459 -0.15882829201818821 0 0.043031393960321331 -0.1571354857308308 0 0.037117648785898759 -0.15820874226176301 0 0.040502396519655252 -0.1663673850483231 0 0.052111829065281459 -0.15882829201818821 0 0.043031393960321331 -0.1571354857308308 0 0.040502396519655252 -0.1663673850483231 0 0.040219483271594643 -0.15466785876887121 0 0.043031393960321331 -0.1571354857308308 0 0.037117648785898759 -0.15820874226176301 0 0.033920350420936912 -0.1531830770535528 0 0.033509818979212957 -0.15868168045615499 0 0.027465449436243041 -0.1628752445715565 0 0.037117648785898759 -0.15820874226176301 0 0.034071859908748191 -0.1623715567021686 0 0.040502396519655252 -0.1663673850483231 0 0.033920350420936912 -0.1531830770535528 0 0.037117648785898759 -0.15820874226176301 0 0.033509818979212957 -0.15868168045615499 0 0.037117648785898759 -0.15820874226176301 0 0.033509818979212957 -0.15868168045615499 0 0.034071859908748191 -0.1623715567021686 0 0.033509818979212957 -0.15868168045615499 0 0.034071859908748191 -0.1623715567021686 0 0.027465449436243041 -0.1628752445715565 0 0.031586668938662611 -0.1691709391612749 0 0.040502396519655252 -0.1663673850483231 0 0.030421272951226121 -0.1778391783376792 0 0.034071859908748191 -0.1623715567021686 0 0.031586668938662611 -0.1691709391612749 0 0.040502396519655252 -0.1663673850483231 0 0.051449240160577621 -0.1762857105508405 0 0.040502396519655252 -0.1663673850483231 0 0.030421272951226121 -0.1778391783376792 0 0.041440672425083092 -0.19607701236864419 0 0.051449240160577621 -0.1762857105508405 0 0.030421272951226121 -0.1778391783376792 0 0.051449240160577621 -0.1762857105508405 0 0.030421272951226121 -0.1778391783376792 0 0.02540307025583758 -0.19229280057405279 0 0.015764016274472759 -0.1812646672695073 0 0.030421272951226121 -0.1778391783376792 0 0.031586668938662611 -0.1691709391612749 0 0.030421272951226121 -0.1778391783376792 0 0.021575687727073561 -0.1734893605992324 0 0.015764016274472759 -0.1812646672695073 0 0.021575687727073561 -0.1734893605992324 0 0.012676990919703311 -0.16924925594887871 0 0.015764016274472759 -0.1812646672695073 0 0.030421272951226121 -0.1778391783376792 0 0.021575687727073561 -0.1734893605992324 0 0.033920350420936912 -0.1531830770535528 0 0.009933496317892726 -0.16685029992549011 0 0.02294500892830088 -0.1542832107784407 0 0.033920350420936912 -0.1531830770535528 0 0.027465449436243041 -0.1628752445715565 0 0.009933496317892726 -0.16685029992549011 0 0.019596439448784399 -0.16744493330375371 0 0.027465449436243041 -0.1628752445715565 0 0.009933496317892726 -0.16685029992549011 0 0.033920350420936912 -0.1531830770535528 0 0.009933496317892726 -0.16685029992549011 0 0.021575687727073561 -0.1734893605992324 0 0.019596439448784399 -0.16744493330375371 0 0.012676990919703311 -0.16924925594887871 0 0.021575687727073561 -0.1734893605992324 0 0.019596439448784399 -0.16744493330375371 0 0.025540403417393751 -0.1677775419388785 0 0.031586668938662611 -0.1691709391612749 0 0.021575687727073561 -0.1734893605992324 0 0.025540403417393751 -0.1677775419388785 0 0.019596439448784399 -0.16744493330375371 0 0.025540403417393751 -0.1677775419388785 0 0.027465449436243041 -0.1628752445715565 0 0.034071859908748191 -0.1623715567021686 0 0.031586668938662611 -0.1691709391612749 0 0.027465449436243041 -0.1628752445715565 0 0.031586668938662611 -0.1691709391612749 0 0.025540403417393751 -0.1677775419388785 0 0.027465449436243041 -0.1628752445715565 0 0.009933496317892726 -0.16685029992549011 0 0.01648447247354291 -0.15404273338364399 0 0.02294500892830088 -0.1542832107784407 0 0.009933496317892726 -0.16685029992549011 0 0.01648447247354291 -0.15404273338364399 0 0.0068311679390763679 -0.1533437069849535 0 0.019596439448784399 -0.16744493330375371 0 0.009933496317892726 -0.16685029992549011 0 0.012676990919703311 -0.16924925594887871 0 0.009933496317892726 -0.16685029992549011 0 0.012676990919703311 -0.16924925594887871 0 0.0034571977838801569 -0.17702496179755631 0 0.009933496317892726 -0.16685029992549011 0 0.012676990919703311 -0.16924925594887871 0 -0.0085976242789068957 -0.177408956520272 0 0.009933496317892726 -0.16685029992549011 0 -0.0085976242789068957 -0.177408956520272 0 0.009933496317892726 -0.16685029992549011 0 0.0034571977838801569 -0.17702496179755631 0 0.015764016274472759 -0.1812646672695073 0 0.012676990919703311 -0.16924925594887871 0 0.0034571977838801569 -0.17702496179755631 0 -0.003739977245034012 -0.19168309442994089 0 0.010514116253606281 -0.1925853606064957 0 0.0034571977838801569 -0.17702496179755631 0 0.010514116253606281 -0.1925853606064957 0 0.015764016274472759 -0.1812646672695073 0 0.0034571977838801569 -0.17702496179755631 0 0.02166725362828328 -0.1398342401410575 0 0.019282665512654749 -0.1297026577714144 0 0.01241268948209219 -0.14437852502616319 0 0.034824944079593127 -0.12500853882757099 0 0.019282665512654749 -0.1297026577714144 0 0.030566093298411881 -0.13865773310914861 0 0.02166725362828328 -0.1398342401410575 0 0.019282665512654749 -0.1297026577714144 0 0.030566093298411881 -0.13865773310914861 0 0.031672068294339203 -0.14528428076340441 0 0.030566093298411881 -0.13865773310914861 0 0.024335151646156381 -0.14706399980032239 0 0.02166725362828328 -0.1398342401410575 0 0.030566093298411881 -0.13865773310914861 0 0.024335151646156381 -0.14706399980032239 0 0.031672068294339203 -0.14528428076340441 0 0.024335151646156381 -0.14706399980032239 0 0.030051573782975471 -0.15027594372919439 0 0.033920350420936912 -0.1531830770535528 0 0.030051573782975471 -0.15027594372919439 0 0.02294500892830088 -0.1542832107784407 0 0.024335151646156381 -0.14706399980032239 0 0.030051573782975471 -0.15027594372919439 0 0.02294500892830088 -0.1542832107784407 0 0.024335151646156381 -0.14706399980032239 0 0.01648447247354291 -0.15404273338364399 0 0.01241268948209219 -0.14437852502616319 0 0.024335151646156381 -0.14706399980032239 0 0.01648447247354291 -0.15404273338364399 0 0.02294500892830088 -0.1542832107784407 0 0.02166725362828328 -0.1398342401410575 0 0.024335151646156381 -0.14706399980032239 0 0.01241268948209219 -0.14437852502616319 0 -0.011505986517222349 -0.14810326960451681 0 0.01241268948209219 -0.14437852502616319 0 0.0068311679390763679 -0.1533437069849535 0 -0.011505986517222349 -0.14810326960451681 0 0.009933496317892726 -0.16685029992549011 0 0.0068311679390763679 -0.1533437069849535 0 -0.011505986517222349 -0.14810326960451681 0 0.01241268948209219 -0.14437852502616319 0 0.0027021066240326768 -0.1317064378292063 0 0.01648447247354291 -0.15404273338364399 0 0.01241268948209219 -0.14437852502616319 0 0.0068311679390763679 -0.1533437069849535 0 0.019282665512654749 -0.1297026577714144 0 0.01241268948209219 -0.14437852502616319 0 0.0027021066240326768 -0.1317064378292063 0 0.019282665512654749 -0.1297026577714144 0 0.0027021066240326768 -0.1317064378292063 0 0.005085065621477718 -0.1151057880332567 0 0.019282665512654749 -0.1297026577714144 0 0.005085065621477718 -0.1151057880332567 0 0.024129304522527751 -0.1089818526354679 0 0.034824944079593127 -0.12500853882757099 0 0.019282665512654749 -0.1297026577714144 0 0.024129304522527751 -0.1089818526354679 0 0.024129304522527751 -0.1089818526354679 0 0.01380815825635252 -0.094132232187142617 0 0.031293966725895003 -0.08518965294817829 0 -0.00044729776891663488 -0.1011528385718463 0 0.005085065621477718 -0.1151057880332567 0 0.01380815825635252 -0.094132232187142617 0 0.005085065621477718 -0.1151057880332567 0 0.024129304522527751 -0.1089818526354679 0 0.01380815825635252 -0.094132232187142617 0 0.01380815825635252 -0.094132232187142617 0 0.0042106568376920582 -0.081118225430045127 0 0.020039989671696231 -0.071989185162356889 0 -0.00044729776891663488 -0.1011528385718463 0 0.01380815825635252 -0.094132232187142617 0 0.0042106568376920582 -0.081118225430045127 0 0.0042106568376920582 -0.081118225430045127 0 0.0052181775422467033 -0.064346337314722044 0 0.020039989671696231 -0.071989185162356889 0 -0.0043762627118289626 -0.071729097412358583 0 0.0042106568376920582 -0.081118225430045127 0 0.0052181775422467033 -0.064346337314722044 0 0.0052181775422467033 -0.064346337314722044 0 0.020039989671696231 -0.071989185162356889 0 0.0052181775422467033 -0.064346337314722044 0 0.020039989671696231 -0.071989185162356889 0 0.017880224012190679 -0.058506375123621113 0 0.020039989671696231 -0.071989185162356889 0 0.017880224012190679 -0.058506375123621113 0 0.035073137211611732 -0.060365082031122411 0 0.020039989671696231 -0.071989185162356889 0 0.031293966725895003 -0.08518965294817829 0 0.035073137211611732 -0.060365082031122411 0 0.01380815825635252 -0.094132232187142617 0 0.020039989671696231 -0.071989185162356889 0 0.031293966725895003 -0.08518965294817829 0 0.031293966725895003 -0.08518965294817829 0 0.050629459546369923 -0.074776417317023003 0 0.042727201812981508 -0.099892478072297022 0 0.050629459546369923 -0.074776417317023003 0 0.042727201812981508 -0.099892478072297022 0 0.031293966725895003 -0.08518965294817829 0 0.050629459546369923 -0.074776417317023003 0 0.035073137211611732 -0.060365082031122411 0 0.050629459546369923 -0.074776417317023003 0 0.058531717279758283 -0.049660356561749108 0 0.072219385832792832 -0.066659644627356851 0 0.050629459546369923 -0.074776417317023003 0 0.042727201812981508 -0.099892478072297022 0 0.069701838591585213 -0.089386546866783212 0 0.059655618646742382 -0.10475769562984739 0 0.052448498866582129 -0.1166826243517366 0 0.042727201812981508 -0.099892478072297022 0 0.059655618646742382 -0.10475769562984739 0 0.042727201812981508 -0.099892478072297022 0 0.069701838591585213 -0.089386546866783212 0 0.054296968429680029 -0.13171371816535249 0 0.052448498866582129 -0.1166826243517366 0 0.073744935315820714 -0.1130691332285727 0 0.059655618646742382 -0.10475769562984739 0 0.052448498866582129 -0.1166826243517366 0 0.073744935315820714 -0.1130691332285727 0 0.034824944079593127 -0.12500853882757099 0 0.045553716665441668 -0.12681104972785159 0 0.052448498866582129 -0.1166826243517366 0 0.034824944079593127 -0.12500853882757099 0 0.052448498866582129 -0.1166826243517366 0 0.042727201812981508 -0.099892478072297022 0 0.034824944079593127 -0.12500853882757099 0 0.024129304522527751 -0.1089818526354679 0 0.042727201812981508 -0.099892478072297022 0 0.034824944079593127 -0.12500853882757099 0 0.042727201812981508 -0.099892478072297022 0 0.024129304522527751 -0.1089818526354679 0 0.031293966725895003 -0.08518965294817829 0 0.042727201812981508 -0.099892478072297022 0 0.034885408484197772 0.0062912350017927032 0 0.01265631079038235 -0.01012693536007268 0 0.042517259973231587 -0.011683923625132649 0 -0.00118246574067416 -0.01324232368796026 0 0.0012074066645448821 -0.00065723147797176382 0 0.01265631079038235 -0.01012693536007268 0 0.01265631079038235 -0.01012693536007268 0 0.02406773205363014 -0.026959444655171291 0 0.0015263381015913891 -0.033415212413580753 0 0.01265631079038235 -0.01012693536007268 0 0.0015263381015913891 -0.033415212413580753 0 -0.00118246574067416 -0.01324232368796026 0 0.01265631079038235 -0.01012693536007268 0 0.0015263381015913891 -0.033415212413580753 0 0.01265631079038235 -0.01012693536007268 0 0.02406773205363014 -0.026959444655171291 0 0.042517259973231587 -0.011683923625132649 0 0.02406773205363014 -0.026959444655171291 0 0.021771409900077709 -0.044354063799483319 0 0.04186734150286768 -0.035217088077587062 0 0.02406773205363014 -0.026959444655171291 0 0.021771409900077709 -0.044354063799483319 0 0.0015263381015913891 -0.033415212413580753 0 0.021771409900077709 -0.044354063799483319 0 0.0015263381015913891 -0.033415212413580753 0 0.007298405735321048 -0.051477207310420908 0 -0.0096036345872028556 -0.056703489467087059 0 0.0052181775422467033 -0.064346337314722044 0 0.007298405735321048 -0.051477207310420908 0 0.0052181775422467033 -0.064346337314722044 0 0.007298405735321048 -0.051477207310420908 0 0.017880224012190679 -0.058506375123621113 0 0.021771409900077709 -0.044354063799483319 0 0.017880224012190679 -0.058506375123621113 0 0.035073137211611732 -0.060365082031122411 0 0.021771409900077709 -0.044354063799483319 0 0.007298405735321048 -0.051477207310420908 0 0.017880224012190679 -0.058506375123621113 0 0.035073137211611732 -0.060365082031122411 0 0.058531717279758283 -0.049660356561749108 0 0.04186734150286768 -0.035217088077587062 0 0.050629459546369923 -0.074776417317023003 0 0.058531717279758283 -0.049660356561749108 0 0.050629459546369923 -0.074776417317023003 0 0.035073137211611732 -0.060365082031122411 0 0.058531717279758283 -0.049660356561749108 0 0.058531717279758283 -0.049660356561749108 0 0.066433975013146629 -0.02454429580647528 0 0.058531717279758283 -0.049660356561749108 0 0.04186734150286768 -0.035217088077587062 0 0.066433975013146629 -0.02454429580647528 0 0.021771409900077709 -0.044354063799483319 0 0.035073137211611732 -0.060365082031122411 0 0.04186734150286768 -0.035217088077587062 0 0.02406773205363014 -0.026959444655171291 0 0.04186734150286768 -0.035217088077587062 0 0.042517259973231587 -0.011683923625132649 0 0.04186734150286768 -0.035217088077587062 0 0.042517259973231587 -0.011683923625132649 0 0.066433975013146629 -0.02454429580647528 0 0.052968053050369737 0.0090809173488315582 0 0.042517259973231587 -0.011683923625132649 0 0.067492943165135169 -0.0019794682467893379 0 0.042517259973231587 -0.011683923625132649 0 0.067492943165135169 -0.0019794682467893379 0 0.066433975013146629 -0.02454429580647528 0 0.087040675587819916 -0.0096101539263870796 0 0.066433975013146629 -0.02454429580647528 0 0.098032226742104309 -0.02831505409649597 0 0.083930998993742512 0.0059737405228527038 0 0.087040675587819916 -0.0096101539263870796 0 0.067492943165135169 -0.0019794682467893379 0 0.083930998993742512 0.0059737405228527038 0 0.098495163759696414 0.0029673617968291321 0 0.087040675587819916 -0.0096101539263870796 0 0.087040675587819916 -0.0096101539263870796 0 0.067492943165135169 -0.0019794682467893379 0 0.066433975013146629 -0.02454429580647528 0 0.066433975013146629 -0.02454429580647528 0 0.080663194565618018 -0.042742664855397232 0 0.098032226742104309 -0.02831505409649597 0 0.080663194565618018 -0.042742664855397232 0 0.099119978598511321 -0.045144617550746849 0 0.098032226742104309 -0.02831505409649597 0 0.058531717279758283 -0.049660356561749108 0 0.066433975013146629 -0.02454429580647528 0 0.080663194565618018 -0.042742664855397232 0 0.058531717279758283 -0.049660356561749108 0 0.080663194565618018 -0.042742664855397232 0 0.072219385832792832 -0.066659644627356851 0 0.080663194565618018 -0.042742664855397232 0 0.091985945990252393 -0.059557823171565508 0 0.072219385832792832 -0.066659644627356851 0 0.080663194565618018 -0.042742664855397232 0 0.091985945990252393 -0.059557823171565508 0 0.099119978598511321 -0.045144617550746849 0 0.091985945990252393 -0.059557823171565508 0 0.109385226414503 -0.056941989317685793 0 0.099119978598511321 -0.045144617550746849 0 0.109385226414503 -0.056941989317685793 0 0.1174221699598199 -0.069046986946925279 0 0.12664898879935529 -0.055605769639440771 0 0.109385226414503 -0.056941989317685793 0 0.1155332992800789 -0.038165556312589707 0 0.12664898879935529 -0.055605769639440771 0 0.1155332992800789 -0.038165556312589707 0 0.12954193793015309 -0.041748568408345607 0 0.12664898879935529 -0.055605769639440771 0 0.1155332992800789 -0.038165556312589707 0 0.1294320674019063 -0.023146095115484211 0 0.12954193793015309 -0.041748568408345607 0 0.109385226414503 -0.056941989317685793 0 0.1155332992800789 -0.038165556312589707 0 0.099119978598511321 -0.045144617550746849 0 0.1155332992800789 -0.038165556312589707 0 0.099119978598511321 -0.045144617550746849 0 0.098032226742104309 -0.02831505409649597 0 0.1155332992800789 -0.038165556312589707 0 0.098032226742104309 -0.02831505409649597 0 0.1112777463759113 -0.012222875866518469 0 0.087040675587819916 -0.0096101539263870796 0 0.098032226742104309 -0.02831505409649597 0 0.1112777463759113 -0.012222875866518469 0 0.1155332992800789 -0.038165556312589707 0 0.1112777463759113 -0.012222875866518469 0 0.1294320674019063 -0.023146095115484211 0 0.1158546052028349 0.0064685721448778594 0 0.13464870039648349 0.00080453217212592717 0 0.1112777463759113 -0.012222875866518469 0 0.098495163759696414 0.0029673617968291321 0 0.087040675587819916 -0.0096101539263870796 0 0.1112777463759113 -0.012222875866518469 0 0.1158546052028349 0.0064685721448778594 0 0.098495163759696414 0.0029673617968291321 0 0.1112777463759113 -0.012222875866518469 0 0.093192902201961414 -0.094424548291792879 0 0.088899626305776192 -0.1113374325741409 0 0.073744935315820714 -0.1130691332285727 0 0.093192902201961414 -0.094424548291792879 0 0.073744935315820714 -0.1130691332285727 0 0.069701838591585213 -0.089386546866783212 0 0.093192902201961414 -0.094424548291792879 0 0.073744935315820714 -0.1130691332285727 0 0.081894058627025895 -0.12584863130967919 0 0.088899626305776192 -0.1113374325741409 0 0.09397493983509804 -0.11322330148444169 0 0.081894058627025895 -0.12584863130967919 0 0.079920122843727764 -0.11786127252462281 0 0.075141871126288284 -0.1211898929860986 0 0.081894058627025895 -0.12584863130967919 0 0.088899626305776192 -0.1113374325741409 0 0.079920122843727764 -0.11786127252462281 0 0.088899626305776192 -0.1113374325741409 0 0.079920122843727764 -0.11786127252462281 0 0.073744935315820714 -0.1130691332285727 0 0.068207364780656948 -0.12563827965844471 0 0.054296968429680029 -0.13171371816535249 0 0.073744935315820714 -0.1130691332285727 0 0.054296968429680029 -0.13171371816535249 0 0.073744935315820714 -0.1130691332285727 0 0.068207364780656948 -0.12563827965844471 0 0.073744935315820714 -0.1130691332285727 0 0.075141871126288284 -0.1211898929860986 0 0.079920122843727764 -0.11786127252462281 0 0.073744935315820714 -0.1130691332285727 0 0.075141871126288284 -0.1211898929860986 0 0.081894058627025895 -0.12584863130967919 0 0.068207364780656948 -0.12563827965844471 0 0.075141871126288284 -0.1211898929860986 0 0.059655618646742382 -0.10475769562984739 0 0.073744935315820714 -0.1130691332285727 0 0.069701838591585213 -0.089386546866783212 0 0.050629459546369923 -0.074776417317023003 0 0.069701838591585213 -0.089386546866783212 0 0.072219385832792832 -0.066659644627356851 0 0.069701838591585213 -0.089386546866783212 0 0.072219385832792832 -0.066659644627356851 0 0.089711563165187497 -0.078251462936863553 0 0.091985945990252393 -0.059557823171565508 0 0.072219385832792832 -0.066659644627356851 0 0.089711563165187497 -0.078251462936863553 0 0.093192902201961414 -0.094424548291792879 0 0.069701838591585213 -0.089386546866783212 0 0.089711563165187497 -0.078251462936863553 0 0.093192902201961414 -0.094424548291792879 0 0.089711563165187497 -0.078251462936863553 0 0.1048667032735431 -0.089595599910983495 0 0.089711563165187497 -0.078251462936863553 0 0.1048667032735431 -0.089595599910983495 0 0.1056935618466131 -0.072691272791708894 0 0.1048667032735431 -0.089595599910983495 0 0.1056935618466131 -0.072691272791708894 0 0.11564058922802831 -0.08068930143821873 0 0.091985945990252393 -0.059557823171565508 0 0.089711563165187497 -0.078251462936863553 0 0.1056935618466131 -0.072691272791708894 0 0.091985945990252393 -0.059557823171565508 0 0.109385226414503 -0.056941989317685793 0 0.1056935618466131 -0.072691272791708894 0 0.1174221699598199 -0.069046986946925279 0 0.12840026197867099 -0.078951386265116219 0 0.12664898879935529 -0.055605769639440771 0 0.109385226414503 -0.056941989317685793 0 0.1056935618466131 -0.072691272791708894 0 0.1174221699598199 -0.069046986946925279 0 0.1056935618466131 -0.072691272791708894 0 0.1174221699598199 -0.069046986946925279 0 0.11564058922802831 -0.08068930143821873 0 0.1174221699598199 -0.069046986946925279 0 0.11564058922802831 -0.08068930143821873 0 0.12840026197867099 -0.078951386265116219 0 0.1048667032735431 -0.089595599910983495 0 0.11564058922802831 -0.08068930143821873 0 0.1191358060176364 -0.092450830711447801 0 0.1191358060176364 -0.092450830711447801 0 0.12840026197867099 -0.078951386265116219 0 0.11564058922802831 -0.08068930143821873 0 0.1191358060176364 -0.092450830711447801 0 0.12840026197867099 -0.078951386265116219 0 0.1058809127300703 -0.11218140843774239 0 0.12023297736745781 -0.1110263554770618 0 0.12986776683311119 -0.098514185565799078 0 0.1058809127300703 -0.11218140843774239 0 0.12986776683311119 -0.098514185565799078 0 0.1048667032735431 -0.089595599910983495 0 0.1191358060176364 -0.092450830711447801 0 0.10987135005660249 -0.1059502751577799 0 0.10987135005660249 -0.1059502751577799 0 0.1058809127300703 -0.11218140843774239 0 0.12986776683311119 -0.098514185565799078 0 0.1191358060176364 -0.092450830711447801 0 0.10987135005660249 -0.1059502751577799 0 0.12986776683311119 -0.098514185565799078 0 0.1191358060176364 -0.092450830711447801 0 0.10987135005660249 -0.1059502751577799 0 0.093192902201961414 -0.094424548291792879 0 0.088899626305776192 -0.1113374325741409 0 0.099225161677519755 -0.1035257336162041 0 0.1048667032735431 -0.089595599910983495 0 0.10987135005660249 -0.1059502751577799 0 0.099225161677519755 -0.1035257336162041 0 0.10987135005660249 -0.1059502751577799 0 0.099225161677519755 -0.1035257336162041 0 0.1058809127300703 -0.11218140843774239 0 0.088899626305776192 -0.1113374325741409 0 0.099225161677519755 -0.1035257336162041 0 0.09397493983509804 -0.11322330148444169 0 0.093192902201961414 -0.094424548291792879 0 0.1048667032735431 -0.089595599910983495 0 0.099225161677519755 -0.1035257336162041 0 0.081894058627025895 -0.12584863130967919 0 0.1058809127300703 -0.11218140843774239 0 0.099525338641528904 -0.12611341339503321 0 0.081894058627025895 -0.12584863130967919 0 0.1058809127300703 -0.11218140843774239 0 0.081894058627025895 -0.12584863130967919 0 0.09397493983509804 -0.11322330148444169 0 0.1058809127300703 -0.11218140843774239 0 0.099225161677519755 -0.1035257336162041 0 0.09397493983509804 -0.11322330148444169 0 0.1058809127300703 -0.11218140843774239 0 0.099525338641528904 -0.12611341339503321 0 0.1058809127300703 -0.11218140843774239 0 0.1121708616464093 -0.1216807098986791 0 0.1058809127300703 -0.11218140843774239 0 0.1121708616464093 -0.1216807098986791 0 0.12023297736745781 -0.1110263554770618 0 0.11997683785091839 -0.1276371159963853 0 0.121067612134044 -0.1214532534018402 0 0.13188977167139071 -0.12546883223523481 0 0.12023297736745781 -0.1110263554770618 0 0.121067612134044 -0.1214532534018402 0 0.13188977167139071 -0.12546883223523481 0 0.11997683785091839 -0.1276371159963853 0 0.1121708616464093 -0.1216807098986791 0 0.121067612134044 -0.1214532534018402 0 0.1121708616464093 -0.1216807098986791 0 0.12023297736745781 -0.1110263554770618 0 0.121067612134044 -0.1214532534018402 0 0.12023297736745781 -0.1110263554770618 0 0.12986776683311119 -0.098514185565799078 0 0.13188977167139071 -0.12546883223523481 0 0.12986776683311119 -0.098514185565799078 0 0.13188977167139071 -0.12546883223523481 0 0.14925441928633251 -0.10969288085116551 0 0.13995942417209239 -0.1034127274713456 0 0.13188977167139071 -0.12546883223523481 0 0.14724036225017881 -0.1245170930860646 0 0.14925441928633251 -0.10969288085116551 0 0.13188977167139071 -0.12546883223523481 0 0.14925441928633251 -0.10969288085116551 0 0.15485465026004211 -0.11932571079310079 0 0.15999890680388329 -0.1096406796162286 0 0.14724036225017881 -0.1245170930860646 0 0.15485465026004211 -0.11932571079310079 0 0.15557261582888751 -0.13003178131142151 0 0.14724036225017881 -0.1245170930860646 0 0.14925441928633251 -0.10969288085116551 0 0.15485465026004211 -0.11932571079310079 0 0.14925441928633251 -0.10969288085116551 0 0.14348993397904131 -0.092765062884646393 0 0.1620153957752187 -0.097165399419701551 0 0.14348993397904131 -0.092765062884646393 0 0.1620153957752187 -0.097165399419701551 0 0.14925441928633251 -0.10969288085116551 0 0.13995942417209239 -0.1034127274713456 0 0.14348993397904131 -0.092765062884646393 0 0.13995942417209239 -0.1034127274713456 0 0.12986776683311119 -0.098514185565799078 0 0.13188977167139071 -0.12546883223523481 0 0.13995942417209239 -0.1034127274713456 0 0.12986776683311119 -0.098514185565799078 0 0.14348993397904131 -0.092765062884646393 0 0.12986776683311119 -0.098514185565799078 0 0.12840026197867099 -0.078951386265116219 0 0.1428482005174804 -0.076716741777837147 0 0.1191358060176364 -0.092450830711447801 0 0.12986776683311119 -0.098514185565799078 0 0.12840026197867099 -0.078951386265116219 0 0.12986776683311119 -0.098514185565799078 0 0.12840026197867099 -0.078951386265116219 0 0.12840026197867099 -0.078951386265116219 0 0.12664898879935529 -0.055605769639440771 0 0.12840026197867099 -0.078951386265116219 0 0.12664898879935529 -0.055605769639440771 0 0.14464694777039611 -0.055277979731059648 0 0.12840026197867099 -0.078951386265116219 0 0.1428482005174804 -0.076716741777837147 0 0.14464694777039611 -0.055277979731059648 0 0.12840026197867099 -0.078951386265116219 0 0.14464694777039611 -0.055277979731059648 0 0.1428482005174804 -0.076716741777837147 0 0.15680899227989839 -0.06637062400294011 0 0.14464694777039611 -0.055277979731059648 0 0.1428482005174804 -0.076716741777837147 0 0.15451703372532541 -0.084469533324270707 0 0.15680899227989839 -0.06637062400294011 0 0.12986776683311119 -0.098514185565799078 0 0.15451703372532541 -0.084469533324270707 0 0.12986776683311119 -0.098514185565799078 0 0.14348993397904131 -0.092765062884646393 0 0.15451703372532541 -0.084469533324270707 0 0.14348993397904131 -0.092765062884646393 0 0.15451703372532541 -0.084469533324270707 0 0.1620153957752187 -0.097165399419701551 0 0.12986776683311119 -0.098514185565799078 0 0.1428482005174804 -0.076716741777837147 0 0.15451703372532541 -0.084469533324270707 0 0.15451703372532541 -0.084469533324270707 0 0.1674193516126988 -0.088794767656503876 0 0.1620153957752187 -0.097165399419701551 0 0.15451703372532541 -0.084469533324270707 0 0.1674193516126988 -0.088794767656503876 0 0.16389165652408541 -0.076485311925560115 0 0.1674193516126988 -0.088794767656503876 0 0.16389165652408541 -0.076485311925560115 0 0.17613181446746839 -0.084287857658230353 0 0.15451703372532541 -0.084469533324270707 0 0.15680899227989839 -0.06637062400294011 0 0.16389165652408541 -0.076485311925560115 0 0.16389165652408541 -0.076485311925560115 0 0.1717227713635387 -0.067009979361705274 0 0.17613181446746839 -0.084287857658230353 0 0.15680899227989839 -0.06637062400294011 0 0.16389165652408541 -0.076485311925560115 0 0.1717227713635387 -0.067009979361705274 0 0.15680899227989839 -0.06637062400294011 0 0.1717227713635387 -0.067009979361705274 0 0.1652446184022294 -0.054500080927008407 0 0.1717227713635387 -0.067009979361705274 0 0.17613181446746839 -0.084287857658230353 0 0.1717227713635387 -0.067009979361705274 0 0.18346211879182289 -0.064955309332027283 0 0.18137547142311691 -0.085525622921553163 0 0.18346211879182289 -0.064955309332027283 0 0.18137547142311691 -0.085525622921553163 0 0.1952329782378138 -0.068464889048657496 0 0.1717227713635387 -0.067009979361705274 0 0.18137547142311691 -0.085525622921553163 0 0.1717227713635387 -0.067009979361705274 0 0.18346211879182289 -0.064955309332027283 0 0.1746283364613696 -0.057560297553190053 0 0.18137547142311691 -0.085525622921553163 0 0.17613181446746839 -0.084287857658230353 0 0.18054085757139629 -0.1015657359547559 0 0.17613181446746839 -0.084287857658230353 0 0.18054085757139629 -0.1015657359547559 0 0.1674193516126988 -0.088794767656503876 0 0.17613181446746839 -0.084287857658230353 0 0.18054085757139629 -0.1015657359547559 0 0.1717227713635387 -0.067009979361705274 0 0.18137547142311691 -0.085525622921553163 0 0.17613181446746839 -0.084287857658230353 0 0.18137547142311691 -0.085525622921553163 0 0.19100769245097829 -0.1040519139747048 0 0.18137547142311691 -0.085525622921553163 0 0.18054085757139629 -0.1015657359547559 0 0.19100769245097829 -0.1040519139747048 0 0.18054085757139629 -0.1015657359547559 0 0.1749190978293893 -0.1165979942053425 0 0.16884250162088479 -0.1080310140379921 0 0.18054085757139629 -0.1015657359547559 0 0.19100769245097829 -0.1040519139747048 0 0.18054085757139629 -0.1015657359547559 0 0.1862357176231304 -0.1238823921021804 0 0.1749190978293893 -0.1165979942053425 0 0.18054085757139629 -0.1015657359547559 0 0.1862357176231304 -0.1238823921021804 0 0.19100769245097829 -0.1040519139747048 0 0.18054085757139629 -0.1015657359547559 0 0.1862357176231304 -0.1238823921021804 0 0.1862357176231304 -0.1238823921021804 0 0.1749190978293893 -0.1165979942053425 0 0.17324983187337631 -0.13165498831909611 0 0.1749190978293893 -0.1165979942053425 0 0.16471491079178111 -0.1205264202314431 0 0.16884250162088479 -0.1080310140379921 0 0.16471491079178111 -0.1205264202314431 0 0.15999890680388329 -0.1096406796162286 0 0.16884250162088479 -0.1080310140379921 0 0.1749190978293893 -0.1165979942053425 0 0.16471491079178111 -0.1205264202314431 0 0.17324983187337631 -0.13165498831909611 0 0.15485465026004211 -0.11932571079310079 0 0.16471491079178111 -0.1205264202314431 0 0.15557261582888751 -0.13003178131142151 0 0.15485465026004211 -0.11932571079310079 0 0.16471491079178111 -0.1205264202314431 0 0.15999890680388329 -0.1096406796162286 0 0.18054085757139629 -0.1015657359547559 0 0.1620153957752187 -0.097165399419701551 0 0.1674193516126988 -0.088794767656503876 0 0.18054085757139629 -0.1015657359547559 0 0.1620153957752187 -0.097165399419701551 0 0.14925441928633251 -0.10969288085116551 0 0.15999890680388329 -0.1096406796162286 0 0.1620153957752187 -0.097165399419701551 0 0.15999890680388329 -0.1096406796162286 0 0.1620153957752187 -0.097165399419701551 0 0.16884250162088479 -0.1080310140379921 0 0.18054085757139629 -0.1015657359547559 0 0.1620153957752187 -0.097165399419701551 0 0.16884250162088479 -0.1080310140379921 0 0.13464870039648349 0.00080453217212592717 0 0.15480995508657039 -0.001084596553268768 0 0.14892696920713289 -0.018041582065753459 0 0.13464870039648349 0.00080453217212592717 0 0.1294320674019063 -0.023146095115484211 0 0.14892696920713289 -0.018041582065753459 0 0.13464870039648349 0.00080453217212592717 0 0.1112777463759113 -0.012222875866518469 0 0.1294320674019063 -0.023146095115484211 0 0.1294320674019063 -0.023146095115484211 0 0.14892696920713289 -0.018041582065753459 0 0.14270131340979469 -0.036531096068384838 0 0.14892696920713289 -0.018041582065753459 0 0.14270131340979469 -0.036531096068384838 0 0.16089363356212191 -0.031604573197003549 0 0.14270131340979469 -0.036531096068384838 0 0.14464694777039611 -0.055277979731059648 0 0.16089363356212191 -0.031604573197003549 0 0.14464694777039611 -0.055277979731059648 0 0.15561449558007559 -0.051164132387281437 0 0.16089363356212191 -0.031604573197003549 0 0.14464694777039611 -0.055277979731059648 0 0.16089363356212191 -0.031604573197003549 0 0.14270131340979469 -0.036531096068384838 0 0.12954193793015309 -0.041748568408345607 0 0.14464694777039611 -0.055277979731059648 0 0.1294320674019063 -0.023146095115484211 0 0.14270131340979469 -0.036531096068384838 0 0.12954193793015309 -0.041748568408345607 0 0.12954193793015309 -0.041748568408345607 0 0.12664898879935529 -0.055605769639440771 0 0.14464694777039611 -0.055277979731059648 0 0.15680899227989839 -0.06637062400294011 0 0.14464694777039611 -0.055277979731059648 0 0.15561449558007559 -0.051164132387281437 0 0.15680899227989839 -0.06637062400294011 0 0.15561449558007559 -0.051164132387281437 0 0.1652446184022294 -0.054500080927008407 0 0.15561449558007559 -0.051164132387281437 0 0.1652446184022294 -0.054500080927008407 0 0.1617942405007988 -0.043199732881276223 0 0.1652446184022294 -0.054500080927008407 0 0.1746283364613696 -0.057560297553190053 0 0.1617942405007988 -0.043199732881276223 0 0.1717227713635387 -0.067009979361705274 0 0.1652446184022294 -0.054500080927008407 0 0.1717227713635387 -0.067009979361705274 0 0.1652446184022294 -0.054500080927008407 0 0.1746283364613696 -0.057560297553190053 0 0.1746283364613696 -0.057560297553190053 0 0.1828119860636557 -0.050363577362968731 0 0.1617942405007988 -0.043199732881276223 0 0.18346211879182289 -0.064955309332027283 0 0.1746283364613696 -0.057560297553190053 0 0.1828119860636557 -0.050363577362968731 0 0.18346211879182289 -0.064955309332027283 0 0.1828119860636557 -0.050363577362968731 0 0.19188844298534441 -0.056659859735039647 0 0.1617942405007988 -0.043199732881276223 0 0.18853740735089011 -0.033706188378118708 0 0.1828119860636557 -0.050363577362968731 0 0.1617942405007988 -0.043199732881276223 0 0.18853740735089011 -0.033706188378118708 0 0.15561449558007559 -0.051164132387281437 0 0.16089363356212191 -0.031604573197003549 0 0.1617942405007988 -0.043199732881276223 0 0.16089363356212191 -0.031604573197003549 0 0.1617942405007988 -0.043199732881276223 0 0.18853740735089011 -0.033706188378118708 0 0.16089363356212191 -0.031604573197003549 0 0.17714031935384769 -0.0079311666629475405 0 0.14892696920713289 -0.018041582065753459 0 0.16089363356212191 -0.031604573197003549 0 0.17714031935384769 -0.0079311666629475405 0 0.16089363356212191 -0.031604573197003549 0 0.17714031935384769 -0.0079311666629475405 0 0.18853740735089011 -0.033706188378118708 0 0.1657030786406338 0.0084270166623369204 0 0.15480995508657039 -0.001084596553268768 0 0.17714031935384769 -0.0079311666629475405 0 0.15480995508657039 -0.001084596553268768 0 0.14892696920713289 -0.018041582065753459 0 0.17714031935384769 -0.0079311666629475405 0 0.21351355446813719 -0.0021103410187178909 0 0.2110126965438916 -0.012672932103663791 0 0.2228246624943325 -0.0092295053444410857 0 0.2110126965438916 -0.012672932103663791 0 0.21911622703360889 -0.015650702578479541 0 0.2228246624943325 -0.0092295053444410857 0 0.21351355446813719 -0.0021103410187178909 0 0.2110126965438916 -0.012672932103663791 0 0.19836939172364151 -0.01016904411482358 0 0.1998105265397013 0.00335350757378736 0 0.21351355446813719 -0.0021103410187178909 0 0.19836939172364151 -0.01016904411482358 0 0.1998105265397013 0.00335350757378736 0 0.17714031935384769 -0.0079311666629475405 0 0.19836939172364151 -0.01016904411482358 0 0.17714031935384769 -0.0079311666629475405 0 0.19836939172364151 -0.01016904411482358 0 0.18853740735089011 -0.033706188378118708 0 0.2110126965438916 -0.012672932103663791 0 0.19836939172364151 -0.01016904411482358 0 0.18853740735089011 -0.033706188378118708 0 0.21528057420098159 -0.024212643874961401 0 0.18853740735089011 -0.033706188378118708 0 0.2110126965438916 -0.012672932103663791 0 0.21528057420098159 -0.024212643874961401 0 0.18853740735089011 -0.033706188378118708 0 0.21528057420098159 -0.024212643874961401 0 0.20886364623554921 -0.031523512657201581 0 0.18853740735089011 -0.033706188378118708 0 0.2110126965438916 -0.012672932103663791 0 0.21528057420098159 -0.024212643874961401 0 0.21911622703360889 -0.015650702578479541 0 0.21528057420098159 -0.024212643874961401 0 0.2158000993154765 -0.027276596113623111 0 0.21360323626451261 -0.02858374534336202 0 0.21528057420098159 -0.024212643874961401 0 0.2158000993154765 -0.027276596113623111 0 0.21995729679401421 -0.029331280632926501 0 0.2158000993154765 -0.027276596113623111 0 0.21503400689837671 -0.030930810510401429 0 0.21995729679401421 -0.029331280632926501 0 0.2158000993154765 -0.027276596113623111 0 0.21503400689837671 -0.030930810510401429 0 0.21360323626451261 -0.02858374534336202 0 0.21528057420098159 -0.024212643874961401 0 0.21360323626451261 -0.02858374534336202 0 0.20886364623554921 -0.031523512657201581 0 0.21503400689837671 -0.030930810510401429 0 0.21360323626451261 -0.02858374534336202 0 0.20886364623554921 -0.031523512657201581 0 0.2128060919330283 -0.035124071741943173 0 0.2180191377477218 -0.035203133534298187 0 0.2167024847658664 -0.043974661413588162 0 0.21503400689837671 -0.030930810510401429 0 0.2128060919330283 -0.035124071741943173 0 0.20886364623554921 -0.031523512657201581 0 0.21503400689837671 -0.030930810510401429 0 0.2128060919330283 -0.035124071741943173 0 0.2180191377477218 -0.035203133534298187 0 0.21503400689837671 -0.030930810510401429 0 0.2180191377477218 -0.035203133534298187 0 0.21995729679401421 -0.029331280632926501 0 0.2167024847658664 -0.043974661413588162 0 0.20890374551960481 -0.040729144831228678 0 0.20897987019450001 -0.050060865146210963 0 0.2128060919330283 -0.035124071741943173 0 0.2167024847658664 -0.043974661413588162 0 0.20890374551960481 -0.040729144831228678 0 0.20890374551960481 -0.040729144831228678 0 0.19655169947710091 -0.043788383486002072 0 0.20897987019450001 -0.050060865146210963 0 0.2128060919330283 -0.035124071741943173 0 0.20890374551960481 -0.040729144831228678 0 0.20886364623554921 -0.031523512657201581 0 0.20890374551960481 -0.040729144831228678 0 0.20886364623554921 -0.031523512657201581 0 0.19655169947710091 -0.043788383486002072 0 0.1828119860636557 -0.050363577362968731 0 0.18853740735089011 -0.033706188378118708 0 0.19655169947710091 -0.043788383486002072 0 0.20886364623554921 -0.031523512657201581 0 0.18853740735089011 -0.033706188378118708 0 0.19655169947710091 -0.043788383486002072 0 0.19655169947710091 -0.043788383486002072 0 0.20138343235632811 -0.055727139445542639 0 0.20897987019450001 -0.050060865146210963 0 0.19655169947710091 -0.043788383486002072 0 0.19188844298534441 -0.056659859735039647 0 0.20138343235632811 -0.055727139445542639 0 0.1828119860636557 -0.050363577362968731 0 0.19655169947710091 -0.043788383486002072 0 0.19188844298534441 -0.056659859735039647 0 0.19188844298534441 -0.056659859735039647 0 0.20138343235632811 -0.055727139445542639 0 0.1952329782378138 -0.068464889048657496 0 0.20138343235632811 -0.055727139445542639 0 0.22670270369963491 -0.067064047377793826 0 0.20138343235632811 -0.055727139445542639 0 0.21577564808412511 -0.056666161138016313 0 0.22670270369963491 -0.067064047377793826 0 0.20138343235632811 -0.055727139445542639 0 0.20897987019450001 -0.050060865146210963 0 0.21577564808412511 -0.056666161138016313 0 0.2167024847658664 -0.043974661413588162 0 0.20897987019450001 -0.050060865146210963 0 0.21577564808412511 -0.056666161138016313 0 0.21577564808412511 -0.056666161138016313 0 0.23694359709532001 -0.061394592404840097 0 0.22670270369963491 -0.067064047377793826 0 0.21577564808412511 -0.056666161138016313 0 0.22648325856373289 -0.049317463857355977 0 0.23694359709532001 -0.061394592404840097 0 0.21577564808412511 -0.056666161138016313 0 0.23694359709532001 -0.061394592404840097 0 0.2167024847658664 -0.043974661413588162 0 0.21577564808412511 -0.056666161138016313 0 0.22648325856373289 -0.049317463857355977 0 0.22648325856373289 -0.049317463857355977 0 0.23694359709532001 -0.061394592404840097 0 0.23716366819637241 -0.046229271507985323 0 0.25811154610651499 -0.066123023671663908 0 0.23694359709532001 -0.061394592404840097 0 0.24870160087168189 -0.052882304334001928 0 0.23694359709532001 -0.061394592404840097 0 0.24870160087168189 -0.052882304334001928 0 0.23716366819637241 -0.046229271507985323 0 0.24870160087168189 -0.052882304334001928 0 0.23716366819637241 -0.046229271507985323 0 0.24731406762381819 -0.035960341631652723 0 0.23716366819637241 -0.046229271507985323 0 0.24731406762381819 -0.035960341631652723 0 0.23342582712955959 -0.033308149953783547 0 0.23342582712955959 -0.033308149953783547 0 0.2258308946769807 -0.038322632822349968 0 0.22548915127375299 -0.027513718828695861 0 0.22648325856373289 -0.049317463857355977 0 0.23716366819637241 -0.046229271507985323 0 0.2258308946769807 -0.038322632822349968 0 0.23716366819637241 -0.046229271507985323 0 0.23342582712955959 -0.033308149953783547 0 0.2258308946769807 -0.038322632822349968 0 0.2180191377477218 -0.035203133534298187 0 0.2167024847658664 -0.043974661413588162 0 0.2258308946769807 -0.038322632822349968 0 0.2167024847658664 -0.043974661413588162 0 0.22648325856373289 -0.049317463857355977 0 0.2258308946769807 -0.038322632822349968 0 0.2180191377477218 -0.035203133534298187 0 0.2258308946769807 -0.038322632822349968 0 0.21995729679401421 -0.029331280632926501 0 0.2258308946769807 -0.038322632822349968 0 0.22548915127375299 -0.027513718828695861 0 0.21995729679401421 -0.029331280632926501 0 0.21528057420098159 -0.024212643874961401 0 0.2313313538768734 -0.018514784978234038 0 0.22829619310998309 -0.01520182636873813 0 0.21528057420098159 -0.024212643874961401 0 0.2313313538768734 -0.018514784978234038 0 0.21528057420098159 -0.024212643874961401 0 0.22548915127375299 -0.027513718828695861 0 0.2313313538768734 -0.018514784978234038 0 0.21528057420098159 -0.024212643874961401 0 0.22548915127375299 -0.027513718828695861 0 0.21995729679401421 -0.029331280632926501 0 0.21528057420098159 -0.024212643874961401 0 0.22829619310998309 -0.01520182636873813 0 0.21528057420098159 -0.024212643874961401 0 0.21911622703360889 -0.015650702578479541 0 0.22829619310998309 -0.01520182636873813 0 0.2313313538768734 -0.018514784978234038 0 0.22829619310998309 -0.01520182636873813 0 0.23342582712955959 -0.033308149953783547 0 0.22548915127375299 -0.027513718828695861 0 0.2313313538768734 -0.018514784978234038 0 0.25508119948702751 -0.010083838205662381 0 0.2313313538768734 -0.018514784978234038 0 0.2482857443068576 -0.021714794414400052 0 0.24731406762381819 -0.035960341631652723 0 0.2313313538768734 -0.018514784978234038 0 0.2482857443068576 -0.021714794414400052 0 0.24731406762381819 -0.035960341631652723 0 0.23342582712955959 -0.033308149953783547 0 0.2313313538768734 -0.018514784978234038 0 0.24731406762381819 -0.035960341631652723 0 0.2313313538768734 -0.018514784978234038 0 0.25508119948702751 -0.010083838205662381 0 0.2313313538768734 -0.018514784978234038 0 0.24138147174972829 -0.0061427828714447699 0 0.25508119948702751 -0.010083838205662381 0 0.2313313538768734 -0.018514784978234038 0 0.24138147174972829 -0.0061427828714447699 0 0.22829619310998309 -0.01520182636873813 0 0.25446675038947358 0.0029162606258486688 0 0.2541426920980116 -0.0036136263454906951 0 0.24138147174972829 -0.0061427828714447699 0 0.25446675038947358 0.0029162606258486688 0 0.24138147174972829 -0.0061427828714447699 0 0.22999165343287109 0.0038227322559807589 0 0.24138147174972829 -0.0061427828714447699 0 0.23189167676904729 -0.0064153040848911828 0 0.22999165343287109 0.0038227322559807589 0 0.23189167676904729 -0.0064153040848911828 0 0.2228246624943325 -0.0092295053444410857 0 0.22999165343287109 0.0038227322559807589 0 0.21351355446813719 -0.0021103410187178909 0 0.2228246624943325 -0.0092295053444410857 0 0.23189167676904729 -0.0064153040848911828 0 0.22829619310998309 -0.01520182636873813 0 0.2228246624943325 -0.0092295053444410857 0 0.2313313538768734 -0.018514784978234038 0 0.24138147174972829 -0.0061427828714447699 0 0.22829619310998309 -0.01520182636873813 0 0.24138147174972829 -0.0061427828714447699 0 0.23189167676904729 -0.0064153040848911828 0 0.22829619310998309 -0.01520182636873813 0 0.21911622703360889 -0.015650702578479541 0 0.22829619310998309 -0.01520182636873813 0 0.2228246624943325 -0.0092295053444410857 0 0.22829619310998309 -0.01520182636873813 0 0.2228246624943325 -0.0092295053444410857 0 0.2084634723971549 -0.097930235578601213 0 0.21737999015654699 -0.1103161024944793 0 0.2275791846540145 -0.10054182369239011 0 0.21737999015654699 -0.1103161024944793 0 0.19100769245097829 -0.1040519139747048 0 0.2084634723971549 -0.097930235578601213 0 0.21140608144591419 -0.084503356370523836 0 0.2275791846540145 -0.10054182369239011 0 0.2084634723971549 -0.097930235578601213 0 0.21737999015654699 -0.1103161024944793 0 0.19100769245097829 -0.1040519139747048 0 0.21737999015654699 -0.1103161024944793 0 0.21277072480774051 -0.1248863227998855 0 0.20025029595199689 -0.1218288277367077 0 0.21737999015654699 -0.1103161024944793 0 0.21277072480774051 -0.1248863227998855 0 0.2239597136694004 -0.1277946194696456 0 0.1862357176231304 -0.1238823921021804 0 0.20025029595199689 -0.1218288277367077 0 0.19100769245097829 -0.1040519139747048 0 0.21737999015654699 -0.1103161024944793 0 0.20025029595199689 -0.1218288277367077 0 0.19100769245097829 -0.1040519139747048 0 0.20025029595199689 -0.1218288277367077 0 0.19100769245097829 -0.1040519139747048 0 0.2084634723971549 -0.097930235578601213 0 0.19100769245097829 -0.1040519139747048 0 0.19624682445825681 -0.08914472739044943 0 0.18137547142311691 -0.085525622921553163 0 0.19100769245097829 -0.1040519139747048 0 0.19624682445825681 -0.08914472739044943 0 0.19624682445825681 -0.08914472739044943 0 0.1952329782378138 -0.068464889048657496 0 0.21140608144591419 -0.084503356370523836 0 0.18137547142311691 -0.085525622921553163 0 0.19624682445825681 -0.08914472739044943 0 0.1952329782378138 -0.068464889048657496 0 0.20138343235632811 -0.055727139445542639 0 0.1952329782378138 -0.068464889048657496 0 0.21149591893834541 -0.070957707586151192 0 0.18346211879182289 -0.064955309332027283 0 0.19188844298534441 -0.056659859735039647 0 0.1952329782378138 -0.068464889048657496 0 0.1952329782378138 -0.068464889048657496 0 0.21140608144591419 -0.084503356370523836 0 0.20138343235632811 -0.055727139445542639 0 0.21149591893834541 -0.070957707586151192 0 0.22670270369963491 -0.067064047377793826 0 0.1952329782378138 -0.068464889048657496 0 0.21149591893834541 -0.070957707586151192 0 0.21140608144591419 -0.084503356370523836 0 0.2084634723971549 -0.097930235578601213 0 0.19624682445825681 -0.08914472739044943 0 0.21140608144591419 -0.084503356370523836 0 0.21149591893834541 -0.070957707586151192 0 0.21140608144591419 -0.084503356370523836 0 0.2227543989520358 -0.079029105688238177 0 0.21140608144591419 -0.084503356370523836 0 0.2275791846540145 -0.10054182369239011 0 0.2227543989520358 -0.079029105688238177 0 0.23449163343577681 -0.083610487294907485 0 0.2275791846540145 -0.10054182369239011 0 0.21140608144591419 -0.084503356370523836 0 0.2227543989520358 -0.079029105688238177 0 0.2275791846540145 -0.10054182369239011 0 0.2227543989520358 -0.079029105688238177 0 0.22670270369963491 -0.067064047377793826 0 0.23449163343577681 -0.083610487294907485 0 0.21149591893834541 -0.070957707586151192 0 0.2227543989520358 -0.079029105688238177 0 0.22670270369963491 -0.067064047377793826 0 0.25202197504294188 -0.078400955310045109 0 0.25811154610651499 -0.066123023671663908 0 0.23694359709532001 -0.061394592404840097 0 0.25202197504294188 -0.078400955310045109 0 0.22670270369963491 -0.067064047377793826 0 0.25202197504294188 -0.078400955310045109 0 0.22670270369963491 -0.067064047377793826 0 0.23449163343577681 -0.083610487294907485 0 0.25202197504294188 -0.078400955310045109 0 0.23694359709532001 -0.061394592404840097 0 0.22670270369963491 -0.067064047377793826 0 0.25811154610651499 -0.066123023671663908 0 0.23694359709532001 -0.061394592404840097 0 0.25202197504294188 -0.078400955310045109 0 0.23449163343577681 -0.083610487294907485 0 0.24624903761231479 -0.086847438891893419 0 0.23449163343577681 -0.083610487294907485 0 0.24292322406264641 -0.096552741650977186 0 0.2275791846540145 -0.10054182369239011 0 0.23449163343577681 -0.083610487294907485 0 0.24624903761231479 -0.086847438891893419 0 0.24292322406264641 -0.096552741650977186 0 0.25304747237378489 -0.090741332181114118 0 0.24624903761231479 -0.086847438891893419 0 0.24292322406264641 -0.096552741650977186 0 0.2275791846540145 -0.10054182369239011 0 0.24375228786211539 -0.116580291014256 0 0.24292322406264641 -0.096552741650977186 0 0.2275791846540145 -0.10054182369239011 0 0.24375228786211539 -0.116580291014256 0 0.25771864553297669 -0.099620140202181948 0 0.24292322406264641 -0.096552741650977186 0 0.24375228786211539 -0.116580291014256 0 0.21737999015654699 -0.1103161024944793 0 0.2275791846540145 -0.10054182369239011 0 0.24375228786211539 -0.116580291014256 0 0.21737999015654699 -0.1103161024944793 0 0.24375228786211539 -0.116580291014256 0 0.2239597136694004 -0.1277946194696456 0 0.21737999015654699 -0.1103161024944793 0 0.24375228786211539 -0.116580291014256 0 0.24375228786211539 -0.116580291014256 0 0.235054631712311 -0.13955626642273861 0 0.24955680073527009 -0.143898101237383 0 0.235054631712311 -0.13955626642273861 0 0.24955680073527009 -0.143898101237383 0 0.23627457688356679 -0.15840319400941011 0 0.25449645062408999 -0.16331052089379791 0 0.24955680073527009 -0.143898101237383 0 0.23627457688356679 -0.15840319400941011 0 0.235054631712311 -0.13955626642273861 0 0.22199130801810529 -0.1478171468904442 0 0.23627457688356679 -0.15840319400941011 0 0.24375228786211539 -0.116580291014256 0 0.235054631712311 -0.13955626642273861 0 0.2239597136694004 -0.1277946194696456 0 0.235054631712311 -0.13955626642273861 0 0.22199130801810529 -0.1478171468904442 0 0.2239597136694004 -0.1277946194696456 0 0.20025029595199689 -0.1218288277367077 0 0.20949289945301761 -0.1396057414987095 0 0.22199130801810529 -0.1478171468904442 0 0.2239597136694004 -0.1277946194696456 0 0.20949289945301761 -0.1396057414987095 0 0.21277072480774051 -0.1248863227998855 0 0.20025029595199689 -0.1218288277367077 0 0.20949289945301761 -0.1396057414987095 0 0.21277072480774051 -0.1248863227998855 0 0.2239597136694004 -0.1277946194696456 0 0.20949289945301761 -0.1396057414987095 0 0.22199130801810529 -0.1478171468904442 0 0.20949289945301761 -0.1396057414987095 0 0.2069794531536403 -0.1537888919124783 0 0.20949289945301761 -0.1396057414987095 0 0.2069794531536403 -0.1537888919124783 0 0.1919305776748628 -0.1461990482496055 0 0.2069794531536403 -0.1537888919124783 0 0.1919305776748628 -0.1461990482496055 0 0.19225769977326759 -0.16432491474026781 0 0.1862357176231304 -0.1238823921021804 0 0.1919305776748628 -0.1461990482496055 0 0.19714487019074359 -0.1333469628700395 0 0.20025029595199689 -0.1218288277367077 0 0.20949289945301761 -0.1396057414987095 0 0.19714487019074359 -0.1333469628700395 0 0.20949289945301761 -0.1396057414987095 0 0.1919305776748628 -0.1461990482496055 0 0.19714487019074359 -0.1333469628700395 0 0.1862357176231304 -0.1238823921021804 0 0.1919305776748628 -0.1461990482496055 0 0.1862357176231304 -0.1238823921021804 0 0.20025029595199689 -0.1218288277367077 0 0.19714487019074359 -0.1333469628700395 0 0.19629081049063871 -0.1815365299480412 0 0.19225769977326759 -0.16432491474026781 0 0.17982600751226671 -0.1762593337595659 0 0.19629081049063871 -0.1815365299480412 0 0.19225769977326759 -0.16432491474026781 0 0.22018657323669569 -0.16775416802968299 0 0.2069794531536403 -0.1537888919124783 0 0.19225769977326759 -0.16432491474026781 0 0.22018657323669569 -0.16775416802968299 0 0.22199130801810529 -0.1478171468904442 0 0.2069794531536403 -0.1537888919124783 0 0.22018657323669569 -0.16775416802968299 0 0.19629081049063871 -0.1815365299480412 0 0.22018657323669569 -0.16775416802968299 0 0.21237941264848451 -0.18810475376770611 0 0.22018657323669569 -0.16775416802968299 0 0.23934418379307471 -0.18436482883247621 0 0.22018657323669569 -0.16775416802968299 0 0.23934418379307471 -0.18436482883247621 0 0.21237941264848451 -0.18810475376770611 0 0.22018657323669569 -0.16775416802968299 0 0.23627457688356679 -0.15840319400941011 0 0.23934418379307471 -0.18436482883247621 0 0.22199130801810529 -0.1478171468904442 0 0.22018657323669569 -0.16775416802968299 0 0.23627457688356679 -0.15840319400941011 0 0.25449645062408999 -0.16331052089379791 0 0.23627457688356679 -0.15840319400941011 0 0.23934418379307471 -0.18436482883247621 0 0.25850179434945381 -0.20097548963526929 0 0.23934418379307471 -0.18436482883247621 0 0.25850179434945381 -0.20097548963526929 0 0.23934418379307471 -0.18436482883247621 0 0.23907695871134879 -0.21289681242661959 0 0.23907695871134879 -0.21289681242661959 0 0.22308479462261119 -0.20217133576560289 0 0.21722062693650279 -0.2226466586169516 0 0.23934418379307471 -0.18436482883247621 0 0.22308479462261119 -0.20217133576560289 0 0.21237941264848451 -0.18810475376770611 0 0.23934418379307471 -0.18436482883247621 0 0.23907695871134879 -0.21289681242661959 0 0.22308479462261119 -0.20217133576560289 0 0.25037283077400019 -0.2416092145933311 0 0.23239962387573149 -0.2337287944253621 0 0.2339549802858914 -0.24933471903745599 0 0.25658827463044448 -0.2222138965281123 0 0.23907695871134879 -0.21289681242661959 0 0.2446094219978813 -0.2276121794933563 0 0.25037283077400019 -0.2416092145933311 0 0.2446094219978813 -0.2276121794933563 0 0.23239962387573149 -0.2337287944253621 0 0.23907695871134879 -0.21289681242661959 0 0.2446094219978813 -0.2276121794933563 0 0.23239962387573149 -0.2337287944253621 0 0.23907695871134879 -0.21289681242661959 0 0.23239962387573149 -0.2337287944253621 0 0.21722062693650279 -0.2226466586169516 0 0.23239962387573149 -0.2337287944253621 0 0.2194561222393229 -0.23682627783696539 0 0.21722062693650279 -0.2226466586169516 0 0.23239962387573149 -0.2337287944253621 0 0.22502312889380549 -0.2426362774769398 0 0.2339549802858914 -0.24933471903745599 0 0.2194561222393229 -0.23682627783696539 0 0.22502312889380549 -0.2426362774769398 0 0.21456577207223029 -0.24270171036535029 0 0.23239962387573149 -0.2337287944253621 0 0.2194561222393229 -0.23682627783696539 0 0.22502312889380549 -0.2426362774769398 0 0.22331750647786899 -0.25281133177650322 0 0.22502312889380549 -0.2426362774769398 0 0.21456577207223029 -0.24270171036535029 0 0.22331750647786899 -0.25281133177650322 0 0.22502312889380549 -0.2426362774769398 0 0.2339549802858914 -0.24933471903745599 0 0.2084475354763706 -0.25511513831035743 0 0.2080714594183444 -0.2424179483002232 0 0.21336353465090491 -0.24693864317134839 0 0.2080714594183444 -0.2424179483002232 0 0.21336353465090491 -0.24693864317134839 0 0.2080714594183444 -0.2424179483002232 0 0.21336353465090491 -0.24693864317134839 0 0.21456577207223029 -0.24270171036535029 0 0.2194561222393229 -0.23682627783696539 0 0.2080714594183444 -0.2424179483002232 0 0.21456577207223029 -0.24270171036535029 0 0.21722062693650279 -0.2226466586169516 0 0.20244123733496699 -0.2260211367091485 0 0.19848523837712481 -0.2136299623964425 0 0.2080714594183444 -0.2424179483002232 0 0.21722062693650279 -0.2226466586169516 0 0.2194561222393229 -0.23682627783696539 0 0.2080714594183444 -0.2424179483002232 0 0.21722062693650279 -0.2226466586169516 0 0.2080714594183444 -0.2424179483002232 0 0.21722062693650279 -0.2226466586169516 0 0.20244123733496699 -0.2260211367091485 0 0.2080714594183444 -0.2424179483002232 0 0.18716213711817259 -0.22455639835484539 0 0.2080714594183444 -0.2424179483002232 0 0.20244123733496699 -0.2260211367091485 0 0.18716213711817259 -0.22455639835484539 0 0.20244123733496699 -0.2260211367091485 0 0.19848523837712481 -0.2136299623964425 0 0.18716213711817259 -0.22455639835484539 0 0.2080714594183444 -0.2424179483002232 0 0.19254414318066221 -0.24961624770678509 0 0.1866817818972302 -0.23981118877977231 0 0.2080714594183444 -0.2424179483002232 0 0.1866817818972302 -0.23981118877977231 0 0.18716213711817259 -0.22455639835484539 0 0.19254414318066221 -0.24961624770678509 0 0.18399505531774341 -0.24981832115951039 0 0.1866817818972302 -0.23981118877977231 0 0.21237941264848451 -0.18810475376770611 0 0.20793523744788639 -0.20366419955677639 0 0.19447652973028121 -0.19759128756789451 0 0.22308479462261119 -0.20217133576560289 0 0.21237941264848451 -0.18810475376770611 0 0.20793523744788639 -0.20366419955677639 0 0.22308479462261119 -0.20217133576560289 0 0.21722062693650279 -0.2226466586169516 0 0.20793523744788639 -0.20366419955677639 0 0.21722062693650279 -0.2226466586169516 0 0.20793523744788639 -0.20366419955677639 0 0.19848523837712481 -0.2136299623964425 0 0.19848523837712481 -0.2136299623964425 0 0.19447652973028121 -0.19759128756789451 0 0.1831457957419608 -0.2071674304332729 0 0.20793523744788639 -0.20366419955677639 0 0.19848523837712481 -0.2136299623964425 0 0.19447652973028121 -0.19759128756789451 0 0.19848523837712481 -0.2136299623964425 0 0.1831457957419608 -0.2071674304332729 0 0.18716213711817259 -0.22455639835484539 0 0.19629081049063871 -0.1815365299480412 0 0.19447652973028121 -0.19759128756789451 0 0.1840061663436266 -0.1900566622106199 0 0.19629081049063871 -0.1815365299480412 0 0.21237941264848451 -0.18810475376770611 0 0.19447652973028121 -0.19759128756789451 0 0.19447652973028121 -0.19759128756789451 0 0.1840061663436266 -0.1900566622106199 0 0.1831457957419608 -0.2071674304332729 0 0.1840061663436266 -0.1900566622106199 0 0.1831457957419608 -0.2071674304332729 0 0.16486725365112659 -0.18785963188663279 0 0.1831457957419608 -0.2071674304332729 0 0.16486725365112659 -0.18785963188663279 0 0.1831457957419608 -0.2071674304332729 0 0.16625281481800089 -0.2066948484094672 0 0.18716213711817259 -0.22455639835484539 0 0.16625281481800089 -0.2066948484094672 0 0.18716213711817259 -0.22455639835484539 0 0.16625281481800089 -0.2066948484094672 0 0.18716213711817259 -0.22455639835484539 0 0.16937657335138201 -0.22198425569814831 0 0.16625281481800089 -0.2066948484094672 0 0.15661990237239229 -0.21733625041789439 0 0.14909823278687431 -0.20687378182447139 0 0.16625281481800089 -0.2066948484094672 0 0.15661990237239229 -0.21733625041789439 0 0.16937657335138201 -0.22198425569814831 0 0.1831457957419608 -0.2071674304332729 0 0.16625281481800089 -0.2066948484094672 0 0.16486725365112659 -0.18785963188663279 0 0.16625281481800089 -0.2066948484094672 0 0.16486725365112659 -0.18785963188663279 0 0.14534349251782941 -0.188833298464089 0 0.17619278994504239 -0.24587918172992959 0 0.18399505531774341 -0.24981832115951039 0 0.1866817818972302 -0.23981118877977231 0 0.17619278994504239 -0.24587918172992959 0 0.17450151464944069 -0.23276490516368609 0 0.16609645978724119 -0.24143951784646769 0 0.17619278994504239 -0.24587918172992959 0 0.1866817818972302 -0.23981118877977231 0 0.17450151464944069 -0.23276490516368609 0 0.17450151464944069 -0.23276490516368609 0 0.18716213711817259 -0.22455639835484539 0 0.16937657335138201 -0.22198425569814831 0 0.1866817818972302 -0.23981118877977231 0 0.17450151464944069 -0.23276490516368609 0 0.18716213711817259 -0.22455639835484539 0 0.15661990237239229 -0.21733625041789439 0 0.1623464977989032 -0.22856887614484861 0 0.15090654410468329 -0.22688320449844629 0 0.15661990237239229 -0.21733625041789439 0 0.16937657335138201 -0.22198425569814831 0 0.1623464977989032 -0.22856887614484861 0 0.17450151464944069 -0.23276490516368609 0 0.1623464977989032 -0.22856887614484861 0 0.16609645978724119 -0.24143951784646769 0 0.17450151464944069 -0.23276490516368609 0 0.16937657335138201 -0.22198425569814831 0 0.1623464977989032 -0.22856887614484861 0 0.1623464977989032 -0.22856887614484861 0 0.16609645978724119 -0.24143951784646769 0 0.1528270009437688 -0.23836283418195289 0 0.16001236861667459 -0.2513654190734112 0 0.16609645978724119 -0.24143951784646769 0 0.1528270009437688 -0.23836283418195289 0 0.16978669848249819 -0.25098739912941831 0 0.17619278994504239 -0.24587918172992959 0 0.16609645978724119 -0.24143951784646769 0 0.16001236861667459 -0.2513654190734112 0 0.16978669848249819 -0.25098739912941831 0 0.16609645978724119 -0.24143951784646769 0 0.1429630926125974 -0.2502577086919005 0 0.16001236861667459 -0.2513654190734112 0 0.1528270009437688 -0.23836283418195289 0 0.1429630926125974 -0.2502577086919005 0 0.1528270009437688 -0.23836283418195289 0 0.13988621804673579 -0.23152362256679451 0 0.1528270009437688 -0.23836283418195289 0 0.15090654410468329 -0.22688320449844629 0 0.13988621804673579 -0.23152362256679451 0 0.1623464977989032 -0.22856887614484861 0 0.1528270009437688 -0.23836283418195289 0 0.15090654410468329 -0.22688320449844629 0 0.15661990237239229 -0.21733625041789439 0 0.15090654410468329 -0.22688320449844629 0 0.1428531013616163 -0.21862443918074129 0 0.15090654410468329 -0.22688320449844629 0 0.13988621804673579 -0.23152362256679451 0 0.1428531013616163 -0.21862443918074129 0 0.12018370186474731 -0.23305432747703519 0 0.12895394136930069 -0.22163642029703709 0 0.13988621804673579 -0.23152362256679451 0 0.12895394136930069 -0.22163642029703709 0 0.13988621804673579 -0.23152362256679451 0 0.1428531013616163 -0.21862443918074129 0 0.1429630926125974 -0.2502577086919005 0 0.12018370186474731 -0.23305432747703519 0 0.1429630926125974 -0.2502577086919005 0 0.12018370186474731 -0.23305432747703519 0 0.13988621804673579 -0.23152362256679451 0 0.13217397618885759 -0.25462043987800831 0 0.1429630926125974 -0.2502577086919005 0 0.12018370186474731 -0.23305432747703519 0 0.16625281481800089 -0.2066948484094672 0 0.14534349251782941 -0.188833298464089 0 0.16625281481800089 -0.2066948484094672 0 0.14534349251782941 -0.188833298464089 0 0.14909823278687431 -0.20687378182447139 0 0.14534349251782941 -0.188833298464089 0 0.14909823278687431 -0.20687378182447139 0 0.1346280568372662 -0.20359450925845249 0 0.15661990237239229 -0.21733625041789439 0 0.14909823278687431 -0.20687378182447139 0 0.1428531013616163 -0.21862443918074129 0 0.14909823278687431 -0.20687378182447139 0 0.1428531013616163 -0.21862443918074129 0 0.1346280568372662 -0.20359450925845249 0 0.1178461100078927 -0.20838697738218431 0 0.12895394136930069 -0.22163642029703709 0 0.1346280568372662 -0.20359450925845249 0 0.12895394136930069 -0.22163642029703709 0 0.1428531013616163 -0.21862443918074129 0 0.1346280568372662 -0.20359450925845249 0 0.14534349251782941 -0.188833298464089 0 0.1346280568372662 -0.20359450925845249 0 0.13128332926409281 -0.18787359724935929 0 0.1237689835273371 -0.19605207676116951 0 0.1178461100078927 -0.20838697738218431 0 0.1346280568372662 -0.20359450925845249 0 0.1237689835273371 -0.19605207676116951 0 0.1346280568372662 -0.20359450925845249 0 0.13128332926409281 -0.18787359724935929 0 0.1237689835273371 -0.19605207676116951 0 0.1232013989280239 -0.1819146573535104 0 0.13128332926409281 -0.18787359724935929 0 0.12443417021765769 -0.1709717485187108 0 0.14534349251782941 -0.188833298464089 0 0.12443417021765769 -0.1709717485187108 0 0.1232013989280239 -0.1819146573535104 0 0.13128332926409281 -0.18787359724935929 0 0.12443417021765769 -0.1709717485187108 0 0.14534349251782941 -0.188833298464089 0 0.13128332926409281 -0.18787359724935929 0 0.12443417021765769 -0.1709717485187108 0 0.14534349251782941 -0.188833298464089 0 0.13540865390058859 -0.1688207667960602 0 0.14534349251782941 -0.188833298464089 0 0.14658871156029241 -0.16855183333999291 0 0.13540865390058859 -0.1688207667960602 0 0.16486725365112659 -0.18785963188663279 0 0.14658871156029241 -0.16855183333999291 0 0.16486725365112659 -0.18785963188663279 0 0.14534349251782941 -0.188833298464089 0 0.14658871156029241 -0.16855183333999291 0 0.14658871156029241 -0.16855183333999291 0 0.13391177650968769 -0.15242347890466901 0 0.14971917460686079 -0.1530450482394467 0 0.14658871156029241 -0.16855183333999291 0 0.14971917460686079 -0.1530450482394467 0 0.16192904395431579 -0.15800089119817939 0 0.14658871156029241 -0.16855183333999291 0 0.13391177650968769 -0.15242347890466901 0 0.12831016946945831 -0.1492440347933528 0 0.14658871156029241 -0.16855183333999291 0 0.12831016946945831 -0.1492440347933528 0 0.14658871156029241 -0.16855183333999291 0 0.13540865390058859 -0.1688207667960602 0 0.1290045142054978 -0.1612372837293575 0 0.14658871156029241 -0.16855183333999291 0 0.1290045142054978 -0.1612372837293575 0 0.12831016946945831 -0.1492440347933528 0 0.13540865390058859 -0.1688207667960602 0 0.12715697753007521 -0.16591248018761531 0 0.1290045142054978 -0.1612372837293575 0 0.12443417021765769 -0.1709717485187108 0 0.13540865390058859 -0.1688207667960602 0 0.12715697753007521 -0.16591248018761531 0 0.12098675462827781 -0.16200852072179159 0 0.12715697753007521 -0.16591248018761531 0 0.1290045142054978 -0.1612372837293575 0 0.12324902196630889 -0.15465793599018671 0 0.1227471198665283 -0.15880086614903269 0 0.1290045142054978 -0.1612372837293575 0 0.13391177650968769 -0.15242347890466901 0 0.12831016946945831 -0.1492440347933528 0 0.12532898621889721 -0.13663811256420449 0 0.12324902196630889 -0.15465793599018671 0 0.1290045142054978 -0.1612372837293575 0 0.12831016946945831 -0.1492440347933528 0 0.1217036921304827 -0.1482443959076799 0 0.12831016946945831 -0.1492440347933528 0 0.12532898621889721 -0.13663811256420449 0 0.13391177650968769 -0.15242347890466901 0 0.13188977167139071 -0.12546883223523481 0 0.13391177650968769 -0.15242347890466901 0 0.13188977167139071 -0.12546883223523481 0 0.1446303542042412 -0.1380662602394005 0 0.13391177650968769 -0.15242347890466901 0 0.13188977167139071 -0.12546883223523481 0 0.12532898621889721 -0.13663811256420449 0 0.11997683785091839 -0.1276371159963853 0 0.13188977167139071 -0.12546883223523481 0 0.12532898621889721 -0.13663811256420449 0 0.1446303542042412 -0.1380662602394005 0 0.15557261582888751 -0.13003178131142151 0 0.1621281360659286 -0.14191921566573409 0 0.14724036225017881 -0.1245170930860646 0 0.13188977167139071 -0.12546883223523481 0 0.1446303542042412 -0.1380662602394005 0 0.14724036225017881 -0.1245170930860646 0 0.1446303542042412 -0.1380662602394005 0 0.15557261582888751 -0.13003178131142151 0 0.13391177650968769 -0.15242347890466901 0 0.1446303542042412 -0.1380662602394005 0 0.14971917460686079 -0.1530450482394467 0 0.1446303542042412 -0.1380662602394005 0 0.14971917460686079 -0.1530450482394467 0 0.1621281360659286 -0.14191921566573409 0 0.1621281360659286 -0.14191921566573409 0 0.17324983187337631 -0.13165498831909611 0 0.17651024624945799 -0.1485415537171802 0 0.14971917460686079 -0.1530450482394467 0 0.1621281360659286 -0.14191921566573409 0 0.16192904395431579 -0.15800089119817939 0 0.1621281360659286 -0.14191921566573409 0 0.17651024624945799 -0.1485415537171802 0 0.16192904395431579 -0.15800089119817939 0 0.16471491079178111 -0.1205264202314431 0 0.15557261582888751 -0.13003178131142151 0 0.1639163736399934 -0.1310331013819237 0 0.15557261582888751 -0.13003178131142151 0 0.1621281360659286 -0.14191921566573409 0 0.1639163736399934 -0.1310331013819237 0 0.1621281360659286 -0.14191921566573409 0 0.1639163736399934 -0.1310331013819237 0 0.17324983187337631 -0.13165498831909611 0 0.16471491079178111 -0.1205264202314431 0 0.1639163736399934 -0.1310331013819237 0 0.17324983187337631 -0.13165498831909611 0 0.1862357176231304 -0.1238823921021804 0 0.1919305776748628 -0.1461990482496055 0 0.17324983187337631 -0.13165498831909611 0 0.1919305776748628 -0.1461990482496055 0 0.17324983187337631 -0.13165498831909611 0 0.17651024624945799 -0.1485415537171802 0 0.1919305776748628 -0.1461990482496055 0 0.19225769977326759 -0.16432491474026781 0 0.17651024624945799 -0.1485415537171802 0 0.19225769977326759 -0.16432491474026781 0 0.17526083145963689 -0.16308053239281189 0 0.17982600751226671 -0.1762593337595659 0 0.19225769977326759 -0.16432491474026781 0 0.17651024624945799 -0.1485415537171802 0 0.17526083145963689 -0.16308053239281189 0 0.17526083145963689 -0.16308053239281189 0 0.17982600751226671 -0.1762593337595659 0 0.16627328335530381 -0.17069773137902189 0 0.1840061663436266 -0.1900566622106199 0 0.16486725365112659 -0.18785963188663279 0 0.17982600751226671 -0.1762593337595659 0 0.19629081049063871 -0.1815365299480412 0 0.1840061663436266 -0.1900566622106199 0 0.17982600751226671 -0.1762593337595659 0 0.16486725365112659 -0.18785963188663279 0 0.14658871156029241 -0.16855183333999291 0 0.16627328335530381 -0.17069773137902189 0 0.16486725365112659 -0.18785963188663279 0 0.17982600751226671 -0.1762593337595659 0 0.16627328335530381 -0.17069773137902189 0 0.14658871156029241 -0.16855183333999291 0 0.16192904395431579 -0.15800089119817939 0 0.16627328335530381 -0.17069773137902189 0 0.17526083145963689 -0.16308053239281189 0 0.16192904395431579 -0.15800089119817939 0 0.16627328335530381 -0.17069773137902189 0 0.17651024624945799 -0.1485415537171802 0 0.17526083145963689 -0.16308053239281189 0 0.16192904395431579 -0.15800089119817939 0 
</DataArray>
</Points>
<Cells>
<DataArray type="UInt32" Name="connectivity" format="ascii">
0 1 2 3 4 5 6 7 8 9 10 11 12 13 14 15 16 17 18 19 20 21 22 23 24 25 26 27 28 29 30 31 32 33 34 35 36 37 38 39 40 41 42 43 44 45 46 47 48 49 50 51 52 53 54 55 56 57 58 59 60 61 62 63 64 65 66 67 68 69 70 71 72 73 74 75 76 77 78 79 80 81 82 83 84 85 86 87 88 89 90 91 92 93 94 95 96 97 98 99 100 101 102 103 104 105 106 107 108 109 110 111 112 113 114 115 116 117 118 119 120 121 122 123 124 125 126 127 128 129 130 131 132 133 134 135 136 137 138 139 140 141 142 143 144 145 146 147 148 149 150 151 152 153 154 155 156 157 158 159 160 161 162 163 164 165 166 167 168 169 170 171 172 173 174 175 176 177 178 179 180 181 182 183 184 185 186 187 188 189 190 191 192 193 194 195 196 197 198 199 200 201 202 203 204 205 206 207 208 209 210 211 212 213 214 215 216 217 218 219 220 221 222 223 224 225 226 227 228 229 230 231 232 233 234 235 236 237 238 239 240 241 242 243 244 245 246 247 248 249 250 251 252 253 254 255 256 257 258 259 260 261 262 263 264 265 266 267 268 269 270 271 272 273 274 275 276 277 278 279 280 281 282 283 284 285 286 287 288 289 290 291 292 293 294 295 296 297 298 299 300 301 302 303 304 305 306 307 308 309 310 311 312 313 314 315 316 317 318 319 320 321 322 323 324 325 326 327 328 329 330 331 332 333 334 335 336 337 338 339 340 341 342 343 344 345 346 347 348 349 350 351 352 353 354 355 356 357 358 359 360 361 362 363 364 365 366 367 368 369 370 371 372 373 374 375 376 377 378 379 380 381 382 383 384 385 386 387 388 389 390 391 392 393 394 395 396 397 398 399 400 401 402 403 404 405 406 407 408 409 410 411 412 413 414 415 416 417 418 419 420 421 422 423 424 425 426 427 428 429 430 431 432 433 434 435 436 437 438 439 440 441 442 443 444 445 446 447 448 449 450 451 452 453 454 455 456 457 458 459 460 461 462 463 464 465 466 467 468 469 470 471 472 473 474 475 476 477 478 479 480 481 482 483 484 485 486 487 488 489 490 491 492 493 494 495 496 497 498 499 500 501 502 503 504 505 506 507 508 509 510 511 512 513 514 515 516 517 518 519 520 521 522 523 524 525 526 527 528 529 530 531 532 533 534 535 536 537 538 539 540 541 542 543 544 545 546 547 548 549 550 551 552 553 554 555 556 557 558 559 560 561 562 563 564 565 566 567 568 569 570 571 572 573 574 575 576 577 578 579 580 581 582 583 584 585 586 587 588 589 590 591 592 593 594 595 596 597 598 599 600 601 602 603 604 605 606 607 608 609 610 611 612 613 614 615 616 617 618 619 620 621 622 623 624 625 626 627 628 629 630 631 632 633 634 635 636 637 638 639 640 641 642 643 644 645 646 647 648 649 650 651 652 653 654 655 656 657 658 659 660 661 662 663 664 665 666 667 668 669 670 671 672 673 674 675 676 677 678 679 680 681 682 683 684 685 686 687 688 689 690 691 692 693 694 695 696 697 698 699 700 701 702 703 704 705 706 707 708 709 710 711 712 713 714 715 716 717 718 719 720 721 722 723 724 725 726 727 728 729 730 731 732 733 734 735 736 737 738 739 740 741 742 743 744 745 746 747 748 749 750 751 752 753 754 755 756 757 758 759 760 761 762 763 764 765 766 767 768 769 770 771 772 773 774 775 776 777 778 779 780 781 782 783 784 785 786 787 788 789 790 791 792 793 794 795 796 797 798 799 800 801 802 803 804 805 806 807 808 809 810 811 812 813 814 815 816 817 818 819 820 821 822 823 824 825 826 827 828 829 830 831 832 833 834 835 836 837 838 839 840 841 842 843 844 845 846 847 848 849 850 851 852 853 854 855 856 857 858 859 860 861 862 863 864 865 866 867 868 869 870 871 872 873 874 875 876 877 878 879 880 881 882 883 884 885 886 887 888 889 890 891 892 893 894 895 896 897 898 899 900 901 902 903 904 905 906 907 908 909 910 911 912 913 914 915 916 917 918 919 920 921 922 923 924 925 926 927 928 929 930 931 932 933 934 935 936 937 938 939 940 941 942 943 944 945 946 947 948 949 950 951 952 953 954 955 956 957 958 959 960 961 962 963 964 965 966 967 968 969 970 971 972 973 974 975 976 977 978 979 980 981 982 983 984 985 986 987 988 989 990 991 992 993 994 995 996 997 998 999 1000 1001 1002 1003 1004 1005 1006 1007 1008 1009 1010 1011 1012 1013 1014 1015 1016 1017 1018 1019 1020 1021 1022 1023 1024 1025 1026 1027 1028 1029 1030 1031 1032 1033 1034 1035 1036 1037 1038 1039 1040 1041 1042 1043 1044 1045 1046 1047 1048 1049 1050 1051 1052 1053 1054 1055 1056 1057 1058 1059 1060 1061 1062 1063 1064 1065 1066 1067 1068 1069 1070 1071 1072 1073 1074 1075 1076 1077 1078 1079 1080 1081 1082 1083 1084 1085 1086 1087 1088 1089 1090 1091 1092 1093 1094 1095 1096 1097 1098 1099 1100 1101 1102 1103 1104 1105 1106 1107 1108 1109 1110 1111 1112 1113 1114 1115 1116 1117 1118 1119 1120 1121 1122 1123 1124 1125 1126 1127 1128 1129 1130 1131 1132 1133 1134 1135 1136 1137 1138 1139 1140 1141 1142 1143 1144 1145 1146 1147 1148 1149 1150 1151 1152 1153 1154 1155 1156 1157 1158 1159 1160 1161 1162 1163 1164 1165 1166 1167 1168 1169 1170 1171 1172 1173 1174 1175 1176 1177 1178 1179 1180 1181 1182 1183 1184 1185 1186 1187 1188 1189 1190 1191 1192 1193 1194 1195 1196 1197 1198 1199 1200 1201 1202 1203 1204 1205 1206 1207 1208 1209 1210 1211 1212 1213 1214 1215 1216 1217 1218 1219 1220 1221 1222 1223 1224 1225 1226 1227 1228 1229 1230 1231 1232 1233 1234 1235 1236 1237 1238 1239 1240 1241 1242 1243 1244 1245 1246 1247 1248 1249 1250 1251 1252 1253 1254 1255 1256 1257 1258 1259 1260 1261 1262 1263 1264 1265 1266 1267 1268 1269 1270 1271 1272 1273 1274 1275 1276 1277 1278 1279 1280 1281 1282 1283 1284 1285 1286 1287 1288 1289 1290 1291 1292 1293 1294 1295 1296 1297 1298 1299 1300 1301 1302 1303 1304 1305 1306 1307 1308 1309 1310 1311 1312 1313 1314 1315 1316 1317 1318 1319 1320 1321 1322 1323 1324 1325 1326 1327 1328 1329 1330 1331 1332 1333 1334 1335 1336 1337 1338 1339 1340 1341 1342 1343 1344 1345 1346 1347 1348 1349 1350 1351 1352 1353 1354 1355 1356 1357 1358 1359 1360 1361 1362 1363 1364 1365 1366 1367 1368 1369 1370 1371 1372 1373 1374 1375 1376 1377 1378 1379 1380 1381 1382 1383 1384 1385 1386 1387 1388 1389 1390 1391 1392 1393 1394 1395 1396 1397 1398 1399 1400 1401 1402 1403 1404 1405 1406 1407 1408 1409 1410 1411 1412 1413 1414 1415 1416 1417 1418 1419 1420 1421 1422 1423 1424 1425 1426 1427 1428 1429 1430 1431 1432 1433 1434 1435 1436 1437 1438 1439 1440 1441 1442 1443 1444 1445 1446 1447 1448 1449 1450 1451 1452 1453 1454 1455 1456 1457 1458 1459 1460 1461 1462 1463 1464 1465 1466 1467 1468 1469 1470 1471 1472 1473 1474 1475 1476 1477 1478 1479 1480 1481 1482 1483 1484 1485 1486 1487 1488 1489 1490 1491 1492 1493 1494 1495 1496 1497 1498 1499 1500 1501 1502 1503 1504 1505 1506 1507 1508 1509 1510 1511 1512 1513 1514 1515 1516 1517 1518 1519 1520 1521 1522 1523 1524 1525 1526 1527 1528 1529 1530 1531 1532 1533 1534 1535 1536 1537 1538 1539 1540 1541 1542 1543 1544 1545 1546 1547 1548 1549 1550 1551 1552 1553 1554 1555 1556 1557 1558 1559 1560 1561 1562 1563 1564 1565 1566 1567 1568 1569 1570 1571 1572 1573 1574 1575 1576 1577 1578 1579 1580 1581 1582 1583 1584 1585 1586 1587 1588 1589 1590 1591 1592 1593 1594 1595 1596 1597 1598 1599 1600 1601 1602 1603 1604 1605 1606 1607 1608 1609 1610 1611 1612 1613 1614 1615 1616 1617 1618 1619 1620 1621 1622 1623 1624 1625 1626 1627 1628 1629 1630 1631 1632 1633 1634 1635 1636 1637 1638 1639 1640 1641 1642 1643 1644 1645 1646 1647 1648 1649 1650 1651 1652 1653 1654 1655 1656 1657 1658 1659 1660 1661 1662 1663 1664 1665 1666 1667 1668 1669 1670 1671 1672 1673 1674 1675 1676 1677 1678 1679 1680 1681 1682 1683 1684 1685 1686 1687 1688 1689 1690 1691 1692 1693 1694 1695 1696 1697 1698 1699 1700 1701 1702 1703 1704 1705 1706 1707 1708 1709 1710 1711 1712 1713 1714 1715 1716 1717 1718 1719 1720 1721 1722 1723 1724 1725 1726 1727 1728 1729 1730 1731 1732 1733 1734 1735 1736 1737 1738 1739 1740 1741 1742 1743 1744 1745 1746 1747 1748 1749 1750 1751 1752 1753 1754 1755 1756 1757 1758 1759 1760 1761 1762 1763 1764 1765 1766 1767 1768 1769 1770 1771 1772 1773 1774 1775 1776 1777 1778 1779 1780 1781 1782 1783 1784 1785 1786 1787 1788 1789 1790 1791 1792 1793 1794 1795 1796 1797 1798 1799 1800 1801 1802 1803 1804 1805 1806 1807 1808 1809 1810 1811 1812 1813 1814 1815 1816 1817 1818 1819 1820 1821 1822 1823 1824 1825 1826 1827 1828 1829 1830 1831 1832 1833 1834 1835 1836 1837 1838 1839 1840 1841 1842 1843 1844 1845 1846 1847 1848 1849 1850 1851 1852 1853 1854 1855 1856 1857 1858 1859 1860 1861 1862 1863 1864 1865 1866 1867 1868 1869 1870 1871 1872 1873 1874 1875 1876 1877 1878 1879 1880 1881 1882 1883 1884 1885 1886 1887 1888 1889 1890 1891 1892 1893 1894 1895 1896 1897 1898 1899 1900 1901 1902 1903 1904 1905 1906 1907 1908 1909 1910 1911 1912 1913 1914 1915 1916 1917 1918 1919 1920 1921 1922 1923 1924 1925 1926 1927 1928 1929 1930 1931 1932 1933 1934 1935 1936 1937 1938 1939 1940 1941 1942 1943 1944 1945 1946 1947 1948 1949 1950 1951 1952 1953 1954 1955 1956 1957 1958 1959 1960 1961 1962 1963 1964 1965 1966 1967 1968 1969 1970 1971 1972 1973 1974 1975 1976 1977 1978 1979 1980 1981 1982 1983 1984 1985 1986 1987 1988 1989 1990 1991 1992 1993 1994 1995 1996 1997 1998 1999 2000 2001 2002 2003 2004 2005 2006 2007 2008 2009 2010 2011 2012 2013 2014 2015 2016 2017 2018 2019 2020 2021 2022 2023 2024 2025 2026 2027 2028 2029 2030 2031 2032 2033 2034 2035 2036 2037 2038 2039 2040 2041 2042 2043 2044 2045 2046 2047 2048 2049 2050 2051 2052 2053 2054 2055 2056 2057 2058 2059 2060 2061 2062 2063 2064 2065 2066 2067 2068 2069 2070 2071 2072 2073 2074 2075 2076 2077 2078 2079 2080 2081 2082 2083 2084 2085 2086 2087 2088 2089 2090 2091 2092 2093 2094 2095 2096 2097 2098 2099 2100 2101 2102 2103 2104 2105 2106 2107 2108 2109 2110 2111 2112 2113 2114 2115 2116 2117 2118 2119 2120 2121 2122 2123 2124 2125 2126 2127 2128 2129 2130 2131 2132 2133 2134 2135 2136 2137 2138 2139 2140 2141 2142 2143 2144 2145 2146 2147 2148 2149 2150 2151 2152 2153 2154 2155 2156 2157 2158 2159 2160 2161 2162 2163 2164 2165 2166 2167 2168 2169 2170 2171 2172 2173 2174 2175 2176 2177 2178 2179 2180 2181 2182 2183 2184 2185 2186 2187 2188 2189 2190 2191 2192 2193 2194 2195 2196 2197 2198 2199 2200 2201 2202 2203 2204 2205 2206 2207 2208 2209 2210 2211 2212 2213 2214 2215 2216 2217 2218 2219 2220 2221 2222 2223 2224 2225 2226 2227 2228 2229 2230 2231 2232 2233 2234 2235 2236 2237 2238 2239 2240 2241 2242 2243 2244 2245 2246 2247 2248 2249 2250 2251 2252 2253 2254 2255 2256 2257 2258 2259 2260 2261 2262 2263 2264 2265 2266 2267 2268 2269 2270 2271 2272 2273 2274 2275 2276 2277 2278 2279 2280 2281 2282 2283 2284 2285 2286 2287 2288 2289 2290 2291 2292 2293 2294 2295 2296 2297 2298 2299 2300 2301 2302 2303 2304 2305 2306 2307 2308 2309 2310 2311 2312 2313 2314 2315 2316 2317 2318 2319 2320 2321 2322 2323 2324 2325 2326 2327 2328 2329 2330 2331 2332 2333 2334 2335 2336 2337 2338 2339 2340 2341 2342 2343 2344 2345 2346 2347 2348 2349 2350 2351 2352 2353 2354 2355 2356 2357 2358 2359 2360 2361 2362 2363 2364 2365 2366 2367 2368 2369 2370 2371 2372 2373 2374 2375 2376 2377 2378 2379 2380 2381 2382 2383 2384 2385 2386 2387 2388 2389 2390 2391 2392 2393 2394 2395 2396 2397 2398 2399 2400 2401 2402 2403 2404 2405 2406 2407 2408 2409 2410 2411 2412 2413 2414 2415 2416 2417 2418 2419 2420 2421 2422 2423 2424 2425 2426 2427 2428 2429 2430 2431 2432 2433 2434 2435 2436 2437 2438 2439 2440 2441 2442 2443 2444 2445 2446 2447 2448 2449 2450 2451 2452 2453 2454 2455 2456 2457 2458 2459 2460 2461 2462 2463 2464 2465 2466 2467 2468 2469 2470 2471 2472 2473 2474 2475 2476 2477 2478 2479 2480 2481 2482 2483 2484 2485 2486 2487 2488 2489 2490 2491 2492 2493 2494 2495 2496 2497 2498 2499 2500 2501 2502 2503 2504 2505 2506 2507 2508 2509 2510 2511 2512 2513 2514 2515 2516 2517 2518 2519 2520 2521 2522 2523 2524 2525 2526 2527 2528 2529 2530 2531 2532 2533 2534 2535 2536 2537 2538 2539 2540 2541 2542 2543 2544 2545 2546 2547 2548 2549 2550 2551 2552 2553 2554 2555 2556 2557 2558 2559 2560 2561 2562 2563 2564 2565 2566 2567 2568 2569 2570 2571 2572 2573 2574 2575 2576 2577 2578 2579 2580 2581 2582 2583 2584 2585 2586 2587 2588 2589 2590 2591 2592 2593 2594 2595 2596 2597 2598 2599 2600 2601 2602 2603 2604 2605 2606 2607 2608 2609 2610 2611 2612 2613 2614 2615 2616 2617 2618 2619 2620 2621 2622 2623 2624 2625 2626 2627 2628 2629 2630 2631 2632 2633 2634 2635 2636 2637 2638 2639 2640 2641 2642 2643 2644 2645 2646 2647 2648 2649 2650 2651 2652 2653 2654 2655 2656 2657 2658 2659 2660 2661 2662 2663 2664 2665 2666 2667 2668 2669 2670 2671 2672 2673 2674 2675 2676 2677 2678 2679 2680 2681 2682 2683 2684 2685 2686 2687 2688 2689 2690 2691 2692 2693 2694 2695 2696 2697 2698 2699 2700 2701 2702 2703 2704 2705 2706 2707 2708 2709 2710 2711 2712 2713 2714 2715 2716 2717 2718 2719 2720 2721 2722 2723 2724 2725 2726 2727 2728 2729 2730 2731 2732 2733 2734 2735 2736 2737 2738 2739 2740 2741 2742 2743 2744 2745 2746 2747 2748 2749 2750 2751 2752 2753 2754 2755 2756 2757 2758 2759 2760 2761 2762 2763 2764 2765 2766 2767 2768 2769 2770 2771 2772 2773 2774 2775 2776 2777 2778 2779 2780 2781 2782 2783 2784 2785 2786 2787 2788 2789 2790 2791 2792 2793 2794 2795 2796 2797 2798 2799 2800 2801 2802 2803 2804 2805 2806 2807 2808 2809 2810 2811 2812 2813 2814 2815 2816 2817 2818 2819 2820 2821 2822 2823 2824 2825 2826 2827 2828 2829 2830 2831 2832 2833 2834 2835 2836 2837 2838 2839 2840 2841 2842 2843 2844 2845 2846 2847 2848 2849 2850 2851 2852 2853 2854 2855 2856 2857 2858 2859 2860 2861 2862 2863 2864 2865 2866 2867 2868 2869 2870 2871 2872 2873 2874 2875 2876 2877 2878 2879 2880 2881 2882 2883 2884 2885 2886 2887 2888 2889 2890 2891 2892 2893 2894 2895 2896 2897 2898 2899 2900 2901 2902 2903 2904 2905 2906 2907 2908 2909 2910 2911 2912 2913 2914 2915 2916 2917 2918 2919 2920 2921 2922 2923 2924 2925 2926 2927 2928 2929 2930 2931 2932 2933 2934 2935 2936 2937 2938 2939 2940 2941 2942 2943 2944 2945 2946 2947 2948 2949 2950 2951 2952 2953 2954 2955 2956 2957 2958 2959 2960 2961 2962 2963 2964 2965 2966 2967 2968 2969 2970 2971 2972 2973 2974 2975 2976 2977 2978 2979 2980 2981 2982 2983 2984 2985 2986 2987 2988 2989 2990 2991 2992 2993 2994 2995 2996 2997 2998 2999 3000 3001 3002 3003 3004 3005 3006 3007 3008 3009 3010 3011 3012 3013 3014 3015 3016 3017 3018 3019 3020 3021 3022 3023 3024 3025 3026 3027 3028 3029 3030 3031 3032 3033 3034 3035 3036 3037 3038 3039 3040 3041 3042 3043 3044 3045 3046 3047 3048 3049 3050 3051 3052 3053 3054 3055 3056 3057 3058 3059 3060 3061 3062 3063 3064 3065 3066 3067 3068 3069 3070 3071 3072 3073 3074 3075 3076 3077 3078 3079 3080 3081 3082 3083 3084 3085 3086 3087 3088 3089 3090 3091 3092 3093 3094 3095 3096 3097 3098 3099 3100 3101 3102 3103 3104 3105 3106 3107 3108 3109 3110 3111 3112 3113 3114 3115 3116 3117 3118 3119 3120 3121 3122 3123 3124 3125 3126 3127 3128 3129 3130 3131 3132 3133 3134 3135 3136 3137 3138 3139 3140 3141 3142 3143 3144 3145 3146 3147 3148 3149 3150 3151 3152 3153 3154 3155 3156 3157 3158 3159 3160 3161 3162 3163 3164 3165 3166 3167 3168 3169 3170 3171 3172 3173 3174 3175 3176 3177 3178 3179 3180 3181 3182 3183 3184 3185 3186 3187 3188 3189 3190 3191 3192 3193 3194 3195 3196 3197 3198 3199 3200 3201 3202 3203 3204 3205 3206 3207 3208 3209 3210 3211 3212 3213 3214 3215 3216 3217 3218 3219 3220 3221 3222 3223 3224 3225 3226 3227 3228 3229 3230 3231 3232 3233 3234 3235 3236 3237 3238 3239 3240 3241 3242 3243 3244 3245 3246 3247 3248 3249 3250 3251 3252 3253 3254 3255 3256 3257 3258 3259 3260 3261 3262 3263 3264 3265 3266 3267 3268 3269 3270 3271 3272 3273 3274 3275 3276 3277 3278 3279 3280 3281 3282 3283 3284 3285 3286 3287 3288 3289 3290 3291 3292 3293 3294 3295 3296 3297 3298 3299 3300 3301 3302 3303 3304 3305 3306 3307 3308 3309 3310 3311 3312 3313 3314 3315 3316 3317 3318 3319 3320 3321 3322 3323 3324 3325 3326 3327 3328 3329 3330 3331 3332 3333 3334 3335 3336 3337 3338 3339 3340 3341 3342 3343 3344 3345 3346 3347 3348 3349 3350 3351 3352 3353 3354 3355 3356 3357 3358 3359 3360 3361 3362 3363 3364 3365 3366 3367 3368 3369 3370 3371 3372 3373 3374 3375 3376 3377 3378 3379 3380 3381 3382 3383 3384 3385 3386 3387 3388 3389 3390 3391 3392 3393 3394 3395 3396 3397 3398 3399 3400 3401 3402 3403 3404 3405 3406 3407 3408 3409 3410 3411 3412 3413 3414 3415 3416 3417 3418 3419 3420 3421 3422 3423 3424 3425 3426 3427 3428 3429 3430 3431 3432 3433 3434 3435 3436 3437 3438 3439 3440 3441 3442 3443 3444 3445 3446 3447 3448 3449 3450 3451 3452 3453 3454 3455 3456 3457 3458 3459 3460 3461 3462 3463 3464 3465 3466 3467 3468 3469 3470 3471 3472 3473 3474 3475 3476 3477 3478 3479 3480 3481 3482 3483 3484 3485 3486 3487 3488 3489 3490 3491 3492 3493 3494 3495 3496 3497 3498 3499 3500 3501 3502 3503 3504 3505 3506 3507 3508 3509 3510 3511 3512 3513 3514 3515 3516 3517 3518 3519 3520 3521 3522 3523 3524 3525 3526 3527 3528 3529 3530 3531 3532 3533 3534 3535 3536 3537 3538 3539 3540 3541 3542 3543 3544 3545 3546 3547 3548 3549 3550 3551 3552 3553 3554 3555 3556 3557 3558 3559 3560 3561 3562 3563 3564 3565 3566 3567 3568 3569 3570 3571 3572 3573 3574 3575 3576 3577 3578 3579 3580 3581 3582 3583 3584 3585 3586 3587 3588 3589 3590 3591 3592 3593 3594 3595 3596 3597 3598 3599 3600 3601 3602 3603 3604 3605 3606 3607 3608 3609 3610 3611 3612 3613 3614 3615 3616 3617 3618 3619 3620 3621 3622 3623 3624 3625 3626 3627 3628 3629 3630 3631 3632 3633 3634 3635 3636 3637 3638 3639 3640 3641 3642 3643 3644 3645 3646 3647 3648 3649 3650 3651 3652 3653 3654 3655 3656 3657 3658 3659 3660 3661 3662 3663 3664 3665 3666 3667 3668 3669 3670 3671 3672 3673 3674 3675 3676 3677 3678 3679 3680 3681 3682 3683 3684 3685 3686 3687 3688 3689 3690 3691 3692 3693 3694 3695 3696 3697 3698 3699 3700 3701 3702 3703 3704 3705 3706 3707 3708 3709 3710 3711 3712 3713 3714 3715 3716 3717 3718 3719 3720 3721 3722 3723 3724 3725 3726 3727 3728 3729 3730 3731 3732 3733 3734 3735 3736 3737 3738 3739 3740 3741 3742 3743 3744 3745 3746 3747 3748 3749 3750 3751 3752 3753 3754 3755 3756 3757 3758 3759 3760 3761 3762 3763 3764 3765 3766 3767 3768 3769 3770 3771 3772 3773 3774 3775 3776 3777 3778 3779 3780 3781 3782 3783 3784 3785 3786 3787 3788 3789 3790 3791 3792 3793 3794 3795 3796 3797 3798 3799 3800 3801 3802 3803 3804 3805 3806 3807 3808 3809 3810 3811 3812 3813 3814 3815 3816 3817 3818 3819 3820 3821 3822 3823 3824 3825 3826 3827 3828 3829 3830 3831 3832 3833 3834 3835 3836 3837 3838 3839 3840 3841 3842 3843 3844 3845 3846 3847 3848 3849 3850 3851 3852 3853 3854 3855 3856 3857 3858 3859 3860 3861 3862 3863 3864 3865 3866 3867 3868 3869 3870 3871 3872 3873 3874 3875 3876 3877 3878 3879 3880 3881 3882 3883 3884 3885 3886 3887 3888 3889 3890 3891 3892 3893 3894 3895 3896 3897 3898 3899 3900 3901 3902 3903 3904 3905 3906 3907 3908 3909 3910 3911 3912 3913 3914 3915 3916 3917 3918 3919 3920 3921 3922 3923 3924 3925 3926 3927 3928 3929 3930 3931 3932 3933 3934 3935 3936 3937 3938 3939 3940 3941 3942 3943 3944 3945 3946 3947 3948 3949 3950 3951 3952 3953 3954 3955 3956 3957 3958 3959 3960 3961 3962 3963 3964 3965 3966 3967 3968 3969 3970 3971 3972 3973 3974 3975 3976 3977 3978 3979 3980 3981 3982 3983 3984 3985 3986 3987 3988 3989 3990 3991 3992 3993 3994 3995 3996 3997 3998 3999 4000 4001 4002 4003 4004 4005 4006 4007 4008 4009 4010 4011 4012 4013 4014 4015 4016 4017 4018 4019 4020 4021 4022 4023 4024 4025 4026 4027 4028 4029 4030 4031 4032 4033 4034 4035 4036 4037 4038 4039 4040 4041 4042 4043 4044 4045 4046 4047 4048 4049 4050 4051 4052 4053 4054 4055 4056 4057 4058 4059 4060 4061 4062 4063 4064 4065 4066 4067 4068 4069 4070 4071 4072 4073 4074 4075 4076 4077 4078 4079 4080 4081 4082 4083 4084 4085 4086 4087 4088 4089 4090 4091 4092 4093 4094 4095 4096 4097 4098 4099 4100 4101 4102 4103 4104 4105 4106 4107 4108 4109 4110 4111 4112 4113 4114 4115 4116 4117 4118 4119 4120 4121 4122 4123 4124 4125 4126 4127 4128 4129 4130 4131 4132 4133 4134 4135 4136 4137 4138 4139 4140 4141 4142 4143 4144 4145 4146 4147 4148 4149 4150 4151 4152 4153 4154 4155 4156 4157 4158 4159 4160 4161 4162 4163 4164 4165 4166 4167 4168 4169 4170 4171 4172 4173 4174 4175 4176 4177 4178 4179 4180 4181 4182 4183 4184 4185 4186 4187 4188 4189 4190 4191 4192 4193 4194 4195 4196 4197 4198 4199 4200 4201 4202 4203 4204 4205 4206 4207 4208 4209 4210 4211 4212 4213 4214 4215 4216 4217 4218 4219 4220 4221 4222 4223 4224 4225 4226 4227 4228 4229 4230 4231 4232 4233 4234 4235 4236 4237 4238 4239 4240 4241 4242 4243 4244 4245 4246 4247 4248 4249 4250 4251 4252 4253 4254 4255 4256 4257 4258 4259 4260 4261 4262 4263 4264 4265 4266 4267 4268 4269 4270 4271 4272 4273 4274 4275 4276 4277 4278 4279 4280 4281 4282 4283 4284 4285 4286 4287 4288 4289 4290 4291 4292 4293 4294 4295 4296 4297 4298 4299 4300 4301 4302 4303 4304 4305 4306 4307 4308 4309 4310 4311 4312 4313 4314 4315 4316 4317 4318 4319 4320 4321 4322 4323 4324 4325 4326 4327 4328 4329 4330 4331 4332 4333 4334 4335 4336 4337 4338 4339 4340 4341 4342 4343 4344 4345 4346 4347 4348 4349 4350 4351 4352 4353 4354 4355 4356 4357 4358 4359 4360 4361 4362 4363 4364 4365 4366 4367 4368 4369 4370 4371 4372 4373 4374 4375 4376 4377 4378 4379 4380 4381 4382 4383 4384 4385 4386 4387 4388 4389 4390 4391 4392 4393 4394 4395 4396 4397 4398 4399 4400 4401 4402 4403 4404 4405 4406 4407 4408 4409 4410 4411 4412 4413 4414 4415 4416 4417 4418 4419 4420 4421 4422 4423 4424 4425 4426 4427 4428 4429 4430 4431 4432 4433 4434 4435 4436 4437 4438 4439 4440 4441 4442 4443 4444 4445 4446 4447 4448 4449 4450 4451 4452 4453 4454 4455 4456 4457 4458 4459 4460 4461 4462 4463 4464 4465 4466 4467 4468 4469 4470 4471 4472 4473 4474 4475 4476 4477 4478 4479 4480 4481 4482 4483 4484 4485 4486 4487 4488 4489 4490 4491 4492 4493 4494 4495 4496 4497 4498 4499 4500 4501 4502 4503 4504 4505 4506 4507 4508 4509 4510 4511 4512 4513 4514 4515 4516 4517 4518 4519 4520 4521 4522 4523 4524 4525 4526 4527 4528 4529 4530 4531 4532 4533 4534 4535 4536 4537 4538 4539 4540 4541 4542 4543 4544 4545 4546 4547 4548 4549 4550 4551 4552 4553 4554 4555 4556 4557 4558 4559 4560 4561 4562 4563 4564 4565 4566 4567 4568 4569 4570 4571 4572 4573 4574 4575 4576 4577 4578 4579 4580 4581 4582 4583 4584 4585 4586 4587 4588 4589 4590 4591 4592 4593 4594 4595 4596 4597 4598 4599 4600 4601 4602 4603 4604 4605 4606 4607 4608 4609 4610 4611 4612 4613 4614 4615 4616 4617 4618 4619 4620 4621 4622 4623 4624 4625 4626 4627 4628 4629 4630 4631 4632 4633 4634 4635 4636 4637 4638 4639 4640 4641 4642 4643 4644 4645 4646 4647 4648 4649 4650 4651 4652 4653 4654 4655 4656 4657 4658 4659 4660 4661 4662 4663 4664 4665 4666 4667 4668 4669 4670 4671 4672 4673 4674 4675 4676 4677 4678 4679 4680 4681 4682 4683 4684 4685 4686 4687 4688 4689 4690 4691 4692 4693 4694 4695 4696 4697 4698 4699 4700 4701 4702 4703 4704 4705 4706 4707 4708 4709 4710 4711 4712 4713 4714 4715 4716 4717 4718 4719 4720 4721 4722 4723 4724 4725 4726 4727 4728 4729 4730 4731 4732 4733 4734 4735 4736 4737 4738 4739 4740 4741 4742 4743 4744 4745 4746 4747 4748 4749 4750 4751 4752 4753 4754 4755 4756 4757 4758 4759 4760 4761 4762 4763 4764 4765 4766 4767 4768 4769 4770 4771 4772 4773 4774 4775 4776 4777 4778 4779 4780 4781 4782 4783 4784 4785 4786 4787 4788 4789 4790 4791 4792 4793 4794 4795 4796 4797 4798 4799 4800 4801 4802 4803 4804 4805 4806 4807 4808 4809 4810 4811 4812 4813 4814 4815 4816 4817 4818 4819 4820 4821 4822 4823 4824 4825 4826 4827 4828 4829 4830 4831 4832 4833 4834 4835 4836 4837 4838 4839 4840 4841 4842 4843 4844 4845 4846 4847 4848 4849 4850 4851 4852 4853 4854 4855 4856 4857 4858 4859 4860 4861 4862 4863 4864 4865 4866 4867 4868 4869 4870 4871 4872 4873 4874 4875 4876 4877 4878 4879 4880 4881 4882 4883 4884 4885 4886 4887 4888 4889 4890 4891 4892 4893 4894 4895 4896 4897 4898 4899 4900 4901 4902 4903 4904 4905 4906 4907 4908 4909 4910 4911 4912 4913 4914 4915 4916 4917 4918 4919 4920 4921 4922 4923 4924 4925 4926 4927 4928 4929 4930 4931 4932 4933 4934 4935 4936 4937 4938 4939 4940 4941 4942 4943 4944 4945 4946 4947 4948 4949 4950 4951 4952 4953 4954 4955 4956 4957 4958 4959 4960 4961 4962 4963 4964 4965 4966 4967 4968 4969 4970 4971 4972 4973 4974 4975 4976 4977 4978 4979 4980 4981 4982 4983 4984 4985 4986 4987 4988 4989 4990 4991 4992 4993 4994 4995 4996 4997 4998 4999 5000 5001 5002 5003 5004 5005 5006 5007 5008 5009 5010 5011 5012 5013 5014 5015 5016 5017 5018 5019 5020 5021 5022 5023 5024 5025 5026 5027 5028 5029 5030 5031 5032 5033 5034 5035 5036 5037 5038 5039 5040 5041 5042 5043 5044 5045 5046 5047 5048 5049 5050 5051 5052 5053 5054 5055 5056 5057 5058 5059 5060 5061 5062 5063 5064 5065 5066 5067 5068 5069 5070 5071 5072 5073 5074 5075 5076 5077 5078 5079 5080 5081 5082 5083 5084 5085 5086 5087 5088 5089 5090 5091 5092 5093 5094 5095 5096 5097 5098 5099 5100 5101 5102 5103 5104 5105 5106 5107 5108 5109 5110 5111 5112 5113 5114 5115 5116 5117 5118 5119 5120 5121 5122 5123 5124 5125 5126 5127 5128 5129 5130 5131 5132 5133 5134 5135 5136 5137 5138 5139 5140 5141 5142 5143 5144 5145 5146 5147 5148 5149 5150 5151 5152 5153 5154 5155 5156 5157 5158 5159 5160 5161 5162 5163 5164 5165 5166 5167 5168 5169 5170 5171 5172 5173 5174 5175 5176 5177 5178 5179 5180 5181 5182 5183 5184 5185 5186 5187 5188 5189 5190 5191 5192 5193 5194 5195 5196 5197 5198 5199 5200 5201 5202 5203 5204 5205 5206 5207 5208 5209 5210 5211 5212 5213 5214 5215 5216 5217 5218 5219 5220 5221 5222 5223 5224 5225 5226 5227 5228 5229 5230 5231 5232 5233 5234 5235 5236 5237 5238 5239 5240 5241 5242 5243 5244 5245 5246 5247 5248 5249 5250 5251 5252 5253 5254 5255 5256 5257 5258 5259 5260 5261 5262 5263 5264 5265 5266 5267 5268 5269 5270 5271 5272 5273 5274 5275 5276 5277 5278 5279 5280 5281 5282 5283 5284 5285 5286 5287 5288 5289 5290 5291 5292 5293 5294 5295 5296 5297 5298 5299 5300 5301 5302 5303 5304 5305 5306 5307 5308 5309 5310 5311 5312 5313 5314 5315 5316 5317 5318 5319 5320 5321 5322 5323 5324 5325 5326 5327 5328 5329 5330 5331 5332 5333 5334 5335 5336 5337 5338 5339 5340 5341 5342 5343 5344 5345 5346 5347 5348 5349 5350 5351 5352 5353 5354 5355 5356 5357 5358 5359 5360 5361 5362 5363 5364 5365 5366 5367 5368 5369 5370 5371 5372 5373 5374 5375 5376 5377 5378 5379 5380 5381 5382 5383 5384 5385 5386 5387 5388 5389 5390 5391 5392 5393 5394 5395 5396 5397 5398 5399 5400 5401 5402 5403 5404 5405 5406 5407 5408 5409 5410 5411 5412 5413 5414 5415 5416 5417 5418 5419 5420 5421 5422 5423 5424 5425 5426 5427 5428 5429 5430 5431 5432 5433 5434 5435 5436 5437 5438 5439 5440 5441 5442 5443 5444 5445 5446 5447 5448 5449 5450 5451 5452 5453 5454 5455 5456 5457 5458 5459 5460 5461 5462 5463 5464 5465 5466 5467 5468 5469 5470 5471 5472 5473 5474 5475 5476 5477 5478 5479 5480 5481 5482 5483 5484 5485 5486 5487 5488 5489 5490 5491 5492 5493 5494 5495 5496 5497 5498 5499 5500 5501 5502 5503 5504 5505 5506 5507 5508 5509 5510 5511 5512 5513 5514 5515 5516 5517 5518 5519 5520 5521 5522 5523 5524 5525 5526 5527 5528 5529 5530 5531 5532 5533 5534 5535 5536 5537 5538 5539 5540 5541 5542 5543 5544 5545 5546 5547 5548 5549 5550 5551 5552 5553 5554 5555 5556 5557 5558 5559 5560 5561 5562 5563 5564 5565 5566 5567 5568 5569 5570 5571 5572 5573 5574 5575 5576 5577 5578 5579 5580 5581 5582 5583 5584 5585 5586 5587 5588 5589 5590 5591 5592 5593 5594 5595 5596 5597 5598 5599 5600 5601 5602 5603 5604 5605 5606 5607 5608 5609 5610 5611 5612 5613 5614 5615 5616 5617 5618 5619 5620 5621 5622 5623 5624 5625 5626 5627 5628 5629 5630 5631 5632 5633 5634 5635 5636 5637 5638 5639 5640 5641 5642 5643 5644 5645 5646 5647 5648 5649 5650 5651 5652 5653 5654 5655 5656 5657 5658 5659 5660 5661 5662 5663 5664 5665 5666 5667 5668 5669 5670 5671 5672 5673 5674 5675 5676 5677 5678 5679 5680 5681 5682 5683 5684 5685 5686 5687 5688 5689 5690 5691 5692 5693 5694 5695 5696 5697 5698 5699 5700 5701 5702 5703 5704 5705 5706 5707 5708 5709 5710 5711 5712 5713 5714 5715 5716 5717 5718 5719 5720 5721 5722 5723 5724 5725 5726 5727 5728 5729 5730 5731 5732 5733 5734 5735 5736 5737 5738 5739 5740 5741 5742 5743 5744 5745 5746 5747 5748 5749 5750 5751 5752 5753 5754 5755 5756 5757 5758 5759 5760 5761 5762 5763 5764 5765 5766 5767 5768 5769 5770 5771 5772 5773 5774 5775 5776 5777 5778 5779 5780 5781 5782 5783 5784 5785 5786 5787 5788 5789 5790 5791 5792 5793 5794 5795 5796 5797 5798 5799 5800 5801 5802 5803 5804 5805 5806 5807 5808 5809 5810 5811 5812 5813 5814 5815 5816 5817 5818 5819 5820 5821 5822 5823 5824 5825 5826 5827 5828 5829 5830 5831 5832 5833 5834 5835 5836 5837 5838 5839 5840 5841 5842 5843 5844 5845 5846 5847 5848 5849 5850 5851 5852 5853 5854 5855 5856 5857 5858 5859 5860 5861 5862 5863 5864 5865 5866 5867 5868 5869 5870 5871 5872 5873 5874 5875 5876 5877 5878 5879 5880 5881 5882 5883 5884 5885 5886 5887 5888 5889 5890 5891 5892 5893 5894 5895 5896 5897 5898 5899 5900 5901 5902 5903 5904 5905 5906 5907 5908 5909 5910 5911 5912 5913 5914 5915 5916 5917 5918 5919 5920 5921 5922 5923 5924 5925 5926 5927 5928 5929 5930 5931 5932 5933 5934 5935 5936 5937 5938 5939 5940 5941 5942 5943 5944 5945 5946 5947 5948 5949 5950 5951 5952 5953 5954 5955 5956 5957 5958 5959 5960 5961 5962 5963 5964 5965 5966 5967 5968 5969 5970 5971 5972 5973 5974 5975 5976 5977 5978 5979 5980 5981 5982 5983 5984 5985 5986 5987 5988 5989 5990 5991 5992 5993 5994 5995 5996 5997 5998 5999 6000 6001 6002 6003 6004 6005 6006 6007 6008 6009 6010 6011 6012 6013 6014 6015 6016 6017 6018 6019 6020 6021 6022 6023 6024 6025 6026 6027 6028 6029 6030 6031 6032 6033 6034 6035 6036 6037 6038 6039 6040 6041 6042 6043 6044 6045 6046 6047 6048 6049 6050 6051 6052 6053 6054 6055 6056 6057 6058 6059 6060 6061 6062 6063 6064 6065 6066 6067 6068 6069 6070 6071 6072 6073 6074 6075 6076 6077 6078 6079 6080 6081 6082 6083 6084 6085 6086 6087 6088 6089 6090 6091 6092 6093 6094 6095 6096 6097 6098 6099 6100 6101 6102 6103 6104 6105 6106 6107 6108 6109 6110 6111 6112 6113 6114 6115 6116 6117 6118 6119 6120 6121 6122 6123 6124 6125 6126 6127 6128 6129 6130 6131 6132 6133 6134 6135 6136 6137 6138 6139 6140 6141 6142 6143 6144 6145 6146 6147 6148 6149 6150 6151 6152 6153 6154 6155 6156 6157 6158 6159 6160 6161 6162 6163 6164 6165 6166 6167 6168 6169 6170 6171 6172 6173 6174 6175 6176 6177 6178 6179 6180 6181 6182 6183 6184 6185 6186 6187 6188 6189 6190 6191 6192 6193 6194 6195 6196 6197 6198 6199 6200 6201 6202 6203 6204 6205 6206 6207 6208 6209 6210 6211 6212 6213 6214 6215 6216 6217 6218 6219 6220 6221 6222 6223 6224 6225 6226 6227 6228 6229 6230 6231 6232 6233 6234 6235 6236 6237 6238 6239 6240 6241 6242 6243 6244 6245 6246 6247 6248 6249 6250 6251 6252 6253 6254 6255 6256 6257 6258 6259 6260 6261 6262 6263 6264 6265 6266 6267 6268 6269 6270 6271 6272 6273 6274 6275 6276 6277 6278 6279 6280 6281 6282 6283 6284 6285 6286 6287 6288 6289 6290 6291 6292 6293 6294 6295 6296 6297 6298 6299 6300 6301 6302 6303 6304 6305 6306 6307 6308 6309 6310 6311 6312 6313 6314 6315 6316 6317 6318 6319 6320 6321 6322 6323 6324 6325 6326 6327 6328 6329 6330 6331 6332 6333 6334 6335 6336 6337 6338 6339 6340 6341 6342 6343 6344 6345 6346 6347 6348 6349 6350 6351 6352 6353 6354 6355 6356 6357 6358 6359 6360 6361 6362 6363 6364 6365 6366 6367 6368 6369 6370 6371 6372 6373 6374 6375 6376 6377 6378 6379 6380 6381 6382 6383 6384 6385 6386 6387 6388 6389 6390 6391 6392 6393 6394 6395 6396 6397 6398 6399 6400 6401 6402 6403 6404 6405 6406 6407 6408 6409 6410 6411 6412 6413 6414 6415 6416 6417 6418 6419 6420 6421 6422 6423 6424 6425 6426 6427 6428 6429 6430 6431 6432 6433 6434 6435 6436 6437 6438 6439 6440 6441 6442 6443 6444 6445 6446 6447 6448 6449 6450 6451 6452 6453 6454 6455 6456 6457 6458 6459 6460 6461 6462 6463 6464 6465 6466 6467 6468 6469 6470 6471 6472 6473 6474 6475 6476 6477 6478 6479 6480 6481 6482 6483 6484 6485 6486 6487 6488 6489 6490 6491 6492 6493 6494 6495 6496 6497 6498 6499 6500 6501 6502 6503 6504 6505 6506 6507 6508 6509 6510 6511 6512 6513 6514 6515 6516 6517 6518 6519 6520 6521 6522 6523 6524 6525 6526 6527 6528 6529 6530 6531 6532 6533 6534 6535 6536 6537 6538 6539 6540 6541 6542 6543 6544 6545 6546 6547 6548 6549 6550 6551 6552 6553 6554 6555 6556 6557 6558 6559 6560 6561 6562 6563 6564 6565 6566 6567 6568 6569 6570 6571 6572 6573 6574 6575 6576 6577 6578 6579 6580 6581 6582 6583 6584 6585 6586 6587 6588 6589 6590 6591 6592 6593 6594 6595 6596 6597 6598 6599 6600 6601 6602 6603 6604 6605 6606 6607 6608 6609 6610 6611 6612 6613 6614 6615 6616 6617 6618 6619 6620 6621 6622 6623 6624 6625 6626 6627 6628 6629 6630 6631 6632 6633 6634 6635 6636 6637 6638 6639 6640 6641 6642 6643 6644 6645 6646 6647 6648 6649 6650 6651 6652 6653 6654 6655 6656 6657 6658 6659 6660 6661 6662 6663 6664 6665 6666 6667 6668 6669 6670 6671 6672 6673 6674 6675 6676 6677 6678 6679 6680 6681 6682 6683 6684 6685 6686 6687 6688 6689 6690 6691 6692 6693 6694 6695 6696 6697 6698 6699 6700 6701 6702 6703 6704 6705 6706 6707 6708 6709 6710 6711 6712 6713 6714 6715 6716 6717 6718 6719 6720 6721 6722 6723 6724 6725 6726 6727 6728 6729 6730 6731 6732 6733 6734 6735 6736 6737 6738 6739 6740 6741 6742 6743 6744 6745 6746 6747 6748 6749 6750 6751 6752 6753 6754 6755 6756 6757 6758 6759 6760 6761 6762 6763 6764 6765 6766 6767 6768 6769 6770 6771 6772 6773 6774 6775 6776 6777 6778 6779 6780 6781 6782 6783 6784 6785 6786 6787 6788 6789 6790 6791 6792 6793 6794 6795 6796 6797 6798 6799 6800 6801 6802 6803 6804 6805 6806 6807 6808 6809 6810 6811 6812 6813 6814 6815 6816 6817 6818 6819 6820 6821 6822 6823 6824 6825 6826 6827 6828 6829 6830 6831 6832 6833 6834 6835 6836 6837 6838 6839 6840 6841 6842 6843 6844 6845 6846 6847 6848 6849 6850 6851 6852 6853 6854 6855 6856 6857 6858 6859 6860 6861 6862 6863 6864 6865 6866 6867 6868 6869 6870 6871 6872 6873 6874 6875 6876 6877 6878 6879 6880 6881 6882 6883 6884 6885 6886 6887 6888 6889 6890 6891 6892 6893 6894 6895 6896 6897 6898 6899 6900 6901 6902 6903 6904 6905 6906 6907 6908 6909 6910 6911 6912 6913 6914 6915 6916 6917 6918 6919 6920 6921 6922 6923 6924 6925 6926 6927 6928 6929 6930 6931 6932 6933 6934 6935 6936 6937 6938 6939 6940 6941 6942 6943 6944 6945 6946 6947 6948 6949 6950 6951 6952 6953 6954 6955 6956 6957 6958 6959 6960 6961 6962 6963 6964 6965 6966 6967 6968 6969 6970 6971 6972 6973 6974 6975 6976 6977 6978 6979 6980 6981 6982 6983 6984 6985 6986 6987 6988 6989 6990 6991 6992 6993 6994 6995 6996 6997 6998 6999 7000 7001 7002 7003 7004 7005 7006 7007 7008 7009 7010 7011 7012 7013 7014 7015 7016 7017 7018 7019 7020 7021 7022 7023 7024 7025 7026 7027 7028 7029 7030 7031 7032 7033 7034 7035 7036 7037 7038 7039 7040 7041 7042 7043 7044 7045 7046 7047 7048 7049 7050 7051 7052 7053 7054 7055 7056 7057 7058 7059 7060 7061 7062 7063 7064 7065 7066 7067 7068 7069 7070 7071 7072 7073 7074 7075 7076 7077 7078 7079 7080 7081 7082 7083 7084 7085 7086 7087 7088 7089 7090 7091 7092 7093 7094 7095 7096 7097 7098 7099 7100 7101 7102 7103 7104 7105 7106 7107 7108 7109 7110 7111 7112 7113 7114 7115 7116 7117 7118 7119 7120 7121 7122 7123 7124 7125 7126 7127 7128 7129 7130 7131 7132 7133 7134 7135 7136 7137 7138 7139 7140 7141 7142 7143 7144 7145 7146 7147 7148 7149 7150 7151 7152 7153 7154 7155 7156 7157 7158 7159 7160 7161 7162 7163 7164 7165 7166 7167 7168 7169 7170 7171 7172 7173 7174 7175 7176 7177 7178 7179 7180 7181 7182 7183 7184 7185 7186 7187 7188 7189 7190 7191 7192 7193 7194 7195 7196 7197 7198 7199 7200 7201 7202 7203 7204 7205 7206 7207 7208 7209 7210 7211 7212 7213 7214 7215 7216 7217 7218 7219 7220 7221 7222 7223 7224 7225 7226 7227 7228 7229 7230 7231 7232 7233 7234 7235 7236 7237 7238 7239 7240 7241 7242 7243 7244 7245 7246 7247 7248 7249 7250 7251 7252 7253 7254 7255 7256 7257 7258 7259 7260 7261 7262 7263 7264 7265 7266 7267 7268 7269 7270 7271 7272 7273 7274 7275 7276 7277 7278 7279 7280 7281 7282 7283 7284 7285 7286 7287 7288 7289 7290 7291 7292 7293 7294 7295 7296 7297 7298 7299 7300 7301 7302 7303 7304 7305 7306 7307 7308 7309 7310 7311 7312 7313 7314 7315 7316 7317 7318 7319 7320 7321 7322 7323 7324 7325 7326 7327 7328 7329 7330 7331 7332 7333 7334 7335 7336 7337 7338 7339 7340 7341 7342 7343 7344 7345 7346 7347 7348 7349 7350 7351 7352 7353 7354 7355 7356 7357 7358 7359 7360 7361 7362 7363 7364 7365 7366 7367 7368 7369 7370 7371 7372 7373 7374 7375 7376 7377 7378 7379 7380 7381 7382 7383 7384 7385 7386 7387 7388 7389 7390 7391 7392 7393 7394 7395 7396 7397 7398 7399 7400 7401 7402 7403 7404 7405 7406 7407 7408 7409 7410 7411 7412 7413 7414 7415 7416 7417 7418 7419 7420 7421 7422 7423 7424 7425 7426 7427 7428 7429 7430 7431 7432 7433 7434 7435 7436 7437 7438 7439 7440 7441 7442 7443 7444 7445 7446 7447 7448 7449 7450 7451 7452 7453 7454 7455 7456 7457 7458 7459 7460 7461 7462 7463 7464 7465 7466 7467 7468 7469 7470 7471 7472 7473 7474 7475 7476 7477 7478 7479 7480 7481 7482 7483 7484 7485 7486 7487 7488 7489 7490 7491 7492 7493 7494 7495 7496 7497 7498 7499 7500 7501 7502 7503 7504 7505 7506 7507 7508 7509 7510 7511 7512 7513 7514 7515 7516 7517 7518 7519 7520 7521 7522 7523 7524 7525 7526 7527 7528 7529 7530 7531 7532 7533 7534 7535 7536 7537 7538 7539 7540 7541 7542 7543 7544 7545 7546 7547 7548 7549 7550 7551 7552 7553 7554 7555 7556 7557 7558 7559 7560 7561 7562 7563 7564 7565 7566 7567 7568 7569 7570 7571 7572 7573 7574 7575 7576 7577 7578 7579 7580 7581 7582 7583 7584 7585 7586 7587 7588 7589 7590 7591 7592 7593 7594 7595 7596 7597 7598 7599 7600 7601 7602 7603 7604 7605 7606 7607 7608 7609 7610 7611 7612 7613 7614 7615 7616 7617 7618 7619 7620 7621 7622 7623 7624 7625 7626 7627 7628 7629 7630 7631 7632 7633 7634 7635 7636 7637 7638 7639 7640 7641 7642 7643 7644 7645 7646 7647 7648 7649 7650 7651 7652 7653 7654 7655 7656 7657 7658 7659 7660 7661 7662 7663 7664 7665 7666 7667 7668 7669 7670 7671 7672 7673 7674 7675 7676 7677 7678 7679 7680 7681 7682 7683 7684 7685 7686 7687 7688 7689 7690 7691 7692 7693 7694 7695 7696 7697 7698 7699 7700 7701 7702 7703 7704 7705 7706 7707 7708 7709 7710 7711 7712 7713 7714 7715 7716 7717 7718 7719 7720 7721 7722 7723 7724 7725 7726 7727 7728 7729 7730 7731 7732 7733 7734 7735 7736 7737 7738 7739 7740 7741 7742 7743 7744 7745 7746 7747 7748 7749 7750 7751 7752 7753 7754 7755 7756 7757 7758 7759 7760 7761 7762 7763 7764 7765 7766 7767 7768 7769 7770 7771 7772 7773 7774 7775 7776 7777 7778 7779 7780 7781 7782 7783 7784 7785 7786 7787 7788 7789 7790 7791 7792 7793 7794 7795 7796 7797 7798 7799 7800 7801 7802 7803 7804 7805 7806 7807 7808 7809 7810 7811 7812 7813 7814 7815 7816 7817 7818 7819 7820 7821 7822 7823 7824 7825 7826 7827 7828 7829 7830 7831 7832 7833 7834 7835 7836 7837 7838 7839 7840 7841 7842 7843 7844 7845 7846 7847 7848 7849 7850 7851 7852 7853 7854 7855 7856 7857 7858 7859 7860 7861 7862 7863 7864 7865 7866 7867 7868 7869 7870 7871 7872 7873 7874 7875 7876 7877 7878 7879 7880 7881 7882 7883 7884 7885 7886 7887 7888 7889 7890 7891 7892 7893 7894 7895 7896 7897 7898 7899 7900 7901 7902 7903 7904 7905 7906 7907 7908 7909 7910 7911 7912 7913 7914 7915 7916 7917 7918 7919 7920 7921 7922 7923 7924 7925 7926 7927 7928 7929 7930 7931 7932 7933 7934 7935 7936 7937 7938 7939 7940 7941 7942 7943 7944 7945 7946 7947 7948 7949 7950 7951 7952 7953 7954 7955 7956 7957 7958 7959 7960 7961 7962 7963 7964 7965 7966 7967 7968 7969 7970 7971 7972 7973 7974 7975 7976 7977 7978 7979 7980 7981 7982 7983 7984 7985 7986 7987 7988 7989 7990 7991 7992 7993 7994 7995 7996 7997 7998 7999 8000 8001 8002 8003 8004 8005 8006 8007 8008 8009 8010 8011 8012 8013 8014 8015 8016 8017 8018 8019 8020 8021 8022 8023 8024 8025 8026 8027 8028 8029 8030 8031 8032 8033 8034 8035 8036 8037 8038 8039 8040 8041 8042 8043 8044 8045 8046 8047 8048 8049 8050 8051 8052 8053 8054 8055 8056 8057 8058 8059 8060 8061 8062 8063 8064 8065 8066 8067 8068 8069 8070 8071 8072 8073 8074 8075 8076 8077 8078 8079 8080 8081 8082 8083 8084 8085 8086 8087 8088 8089 8090 8091 8092 8093 8094 8095 8096 8097 8098 8099 8100 8101 8102 8103 8104 8105 8106 8107 8108 8109 8110 8111 8112 8113 8114 8115 8116 8117 8118 8119 8120 8121 8122 8123 8124 8125 8126 8127 8128 8129 8130 8131 8132 8133 8134 8135 8136 8137 8138 8139 8140 8141 8142 8143 8144 8145 8146 8147 8148 8149 8150 8151 8152 8153 8154 8155 8156 8157 8158 8159 8160 8161 8162 8163 8164 8165 8166 8167 8168 8169 8170 8171 8172 8173 8174 8175 8176 8177 8178 8179 8180 8181 8182 8183 8184 8185 8186 8187 8188 8189 8190 8191 8192 8193 8194 8195 8196 8197 8198 8199 8200 8201 8202 8203 8204 8205 8206 8207 8208 8209 8210 8211 8212 8213 8214 8215 8216 8217 8218 8219 8220 8221 8222 8223 8224 8225 8226 8227 8228 8229 8230 8231 8232 8233 8234 8235 8236 8237 8238 8239 8240 8241 8242 8243 8244 8245 8246 8247 8248 8249 8250 8251 8252 8253 8254 8255 8256 8257 8258 8259 8260 8261 8262 8263 8264 8265 8266 8267 8268 8269 8270 8271 8272 8273 8274 8275 8276 8277 8278 8279 8280 8281 8282 8283 8284 8285 8286 8287 8288 8289 8290 8291 8292 8293 8294 8295 8296 8297 8298 8299 8300 8301 8302 8303 8304 8305 8306 8307 8308 8309 8310 8311 8312 8313 8314 8315 8316 8317 8318 8319 8320 8321 8322 8323 8324 8325 8326 8327 8328 8329 8330 8331 8332 8333 8334 8335 8336 8337 8338 8339 8340 8341 8342 8343 8344 8345 8346 8347 8348 8349 8350 8351 8352 8353 8354 8355 8356 8357 8358 8359 8360 8361 8362 8363 8364 8365 8366 8367 8368 8369 8370 8371 8372 8373 8374 8375 8376 8377 8378 8379 8380 8381 8382 8383 8384 8385 8386 8387 8388 8389 8390 8391 8392 8393 8394 8395 8396 8397 8398 8399 8400 8401 8402 8403 8404 8405 8406 8407 8408 8409 8410 8411 8412 8413 8414 8415 8416 8417 8418 8419 8420 8421 8422 8423 8424 8425 8426 8427 8428 8429 8430 8431 8432 8433 8434 8435 8436 8437 8438 8439 8440 8441 8442 8443 8444 8445 8446 8447 8448 8449 8450 8451 8452 8453 8454 8455 8456 8457 8458 8459 8460 8461 8462 8463 8464 8465 8466 8467 8468 8469 8470 8471 8472 8473 8474 8475 8476 8477 8478 8479 8480 8481 8482 8483 8484 8485 8486 8487 8488 8489 8490 8491 8492 8493 8494 8495 8496 8497 8498 8499 8500 8501 8502 8503 8504 8505 8506 8507 8508 8509 8510 8511 8512 8513 8514 8515 8516 8517 8518 8519 8520 8521 8522 8523 8524 8525 8526 8527 8528 8529 8530 8531 8532 8533 8534 8535 8536 8537 8538 8539 8540 8541 8542 8543 8544 8545 8546 8547 8548 8549 8550 8551 8552 8553 8554 8555 8556 8557 8558 8559 8560 8561 8562 8563 8564 8565 8566 8567 8568 8569 8570 8571 8572 8573 8574 8575 8576 8577 8578 8579 8580 8581 8582 8583 8584 8585 8586 8587 8588 8589 8590 8591 8592 8593 8594 8595 8596 8597 8598 8599 8600 8601 8602 8603 8604 8605 8606 8607 8608 8609 8610 8611 8612 8613 8614 8615 8616 8617 8618 8619 8620 8621 8622 8623 8624 8625 8626 8627 8628 8629 8630 8631 8632 8633 8634 8635 8636 8637 8638 8639 8640 8641 8642 8643 8644 8645 8646 8647 8648 8649 8650 8651 8652 8653 8654 8655 8656 8657 8658 8659 8660 8661 8662 8663 8664 8665 8666 8667 8668 8669 8670 8671 8672 8673 8674 8675 8676 8677 8678 8679 8680 8681 8682 8683 8684 8685 8686 8687 8688 8689 8690 8691 8692 8693 8694 8695 8696 8697 8698 8699 8700 8701 8702 8703 8704 8705 8706 8707 8708 8709 8710 8711 8712 8713 8714 8715 8716 8717 8718 8719 8720 8721 8722 8723 8724 8725 8726 8727 8728 8729 8730 8731 8732 8733 8734 8735 8736 8737 8738 8739 8740 8741 8742 8743 8744 8745 8746 8747 8748 8749 8750 8751 8752 8753 8754 8755 8756 8757 8758 8759 8760 8761 8762 8763 8764 8765 8766 8767 8768 8769 8770 8771 8772 8773 8774 8775 8776 8777 8778 8779 8780 8781 8782 8783 8784 8785 8786 8787 8788 8789 8790 8791 8792 8793 8794 8795 8796 8797 8798 8799 8800 8801 8802 8803 8804 8805 8806 8807 8808 8809 8810 8811 8812 8813 8814 8815 8816 8817 8818 8819 8820 8821 8822 8823 8824 8825 8826 8827 8828 8829 8830 8831 8832 8833 8834 8835 8836 8837 8838 8839 8840 8841 8842 8843 8844 8845 8846 8847 8848 8849 8850 8851 8852 8853 8854 8855 8856 8857 8858 8859 8860 8861 8862 8863 8864 8865 8866 8867 8868 8869 8870 8871 8872 8873 8874 8875 8876 8877 8878 8879 8880 8881 8882 8883 8884 8885 8886 8887 8888 8889 8890 8891 8892 8893 8894 8895 8896 8897 8898 8899 8900 8901 8902 8903 8904 8905 8906 8907 8908 8909 8910 8911 8912 8913 8914 8915 8916 8917 8918 8919 8920 8921 8922 8923 8924 8925 8926 8927 8928 8929 8930 8931 8932 8933 8934 8935 8936 8937 8938 8939 8940 8941 8942 8943 8944 8945 8946 8947 8948 8949 8950 8951 8952 8953 8954 8955 8956 8957 8958 8959 8960 8961 8962 8963 8964 8965 8966 8967 8968 8969 8970 8971 8972 8973 8974 8975 8976 8977 8978 8979 8980 8981 8982 8983 8984 8985 8986 8987 8988 8989 8990 8991 8992 8993 8994 8995 8996 8997 8998 8999 9000 9001 9002 9003 9004 9005 9006 9007 9008 9009 9010 9011 9012 9013 9014 9015 9016 9017 9018 9019 9020 9021 9022 9023 9024 9025 9026 9027 9028 9029 9030 9031 9032 9033 9034 9035 9036 9037 9038 9039 9040 9041 9042 9043 9044 9045 9046 9047 9048 9049 9050 9051 9052 9053 9054 9055 9056 9057 9058 9059 9060 9061 9062 9063 9064 9065 9066 9067 9068 9069 9070 9071 9072 9073 9074 9075 9076 9077 9078 9079 9080 9081 9082 9083 9084 9085 9086 9087 9088 9089 9090 9091 9092 9093 9094 9095 9096 9097 9098 9099 9100 9101 9102 9103 9104 9105 9106 9107 9108 9109 9110 9111 9112 9113 9114 9115 9116 9117 9118 9119 9120 9121 9122 9123 9124 9125 9126 9127 9128 9129 9130 9131 9132 9133 9134 9135 9136 9137 9138 9139 9140 9141 9142 9143 9144 9145 9146 9147 9148 9149 9150 9151 9152 9153 9154 9155 9156 9157 9158 9159 9160 9161 9162 9163 9164 9165 9166 9167 9168 9169 9170 9171 9172 9173 9174 9175 9176 9177 9178 9179 9180 9181 9182 9183 9184 9185 9186 9187 9188 9189 9190 9191 9192 9193 9194 9195 9196 9197 9198 9199 9200 9201 9202 9203 9204 9205 9206 9207 9208 9209 9210 9211 9212 9213 9214 9215 9216 9217 9218 9219 9220 9221 9222 9223 9224 9225 9226 9227 9228 9229 9230 9231 9232 9233 9234 9235 9236 9237 9238 9239 9240 9241 9242 9243 9244 9245 9246 9247 9248 9249 9250 9251 9252 9253 9254 9255 9256 9257 9258 9259 9260 9261 9262 9263 9264 9265 9266 9267 9268 9269 9270 9271 9272 9273 9274 9275 9276 9277 9278 9279 9280 9281 9282 9283 9284 9285 9286 9287 9288 9289 9290 9291 9292 9293 9294 9295 9296 9297 9298 9299 9300 9301 9302 9303 9304 9305 9306 9307 9308 9309 9310 9311 9312 9313 9314 9315 9316 9317 9318 9319 9320 9321 9322 9323 9324 9325 9326 9327 9328 9329 9330 9331 9332 9333 9334 9335 9336 9337 9338 9339 9340 9341 9342 9343 9344 9345 9346 9347 9348 9349 9350 9351 9352 9353 9354 9355 9356 9357 9358 9359 9360 9361 9362 9363 9364 9365 9366 9367 9368 9369 9370 9371 9372 9373 9374 9375 9376 9377 9378 9379 9380 9381 9382 9383 9384 9385 9386 9387 9388 9389 9390 9391 9392 9393 9394 9395 9396 9397 9398 9399 9400 9401 9402 9403 9404 9405 9406 9407 9408 9409 9410 9411 9412 9413 9414 9415 9416 9417 9418 9419 9420 9421 9422 9423 9424 9425 9426 9427 9428 9429 9430 9431 9432 9433 9434 9435 9436 9437 9438 9439 9440 9441 9442 9443 9444 9445 9446 9447 9448 9449 9450 9451 9452 9453 9454 9455 9456 9457 9458 9459 9460 9461 9462 9463 9464 9465 9466 9467 9468 9469 9470 9471 9472 9473 9474 9475 9476 9477 9478 9479 9480 9481 9482 9483 9484 9485 9486 9487 9488 9489 9490 9491 9492 9493 9494 9495 9496 9497 9498 9499 9500 9501 9502 9503 9504 9505 9506 9507 9508 9509 9510 9511 9512 9513 9514 9515 9516 9517 9518 9519 9520 9521 9522 9523 9524 9525 9526 9527 9528 9529 9530 9531 9532 9533 9534 9535 9536 9537 9538 9539 9540 9541 9542 9543 9544 9545 9546 9547 9548 9549 9550 9551 9552 9553 9554 9555 9556 9557 9558 9559 9560 9561 9562 9563 9564 9565 9566 9567 9568 9569 9570 9571 9572 9573 9574 9575 9576 9577 9578 9579 9580 9581 9582 9583 9584 9585 9586 9587 9588 9589 9590 9591 9592 9593 9594 9595 9596 9597 9598 9599 9600 9601 9602 9603 9604 9605 9606 9607 9608 9609 9610 9611 9612 9613 9614 9615 9616 9617 9618 9619 9620 9621 9622 9623 9624 9625 9626 9627 9628 9629 9630 9631 9632 9633 9634 9635 9636 9637 9638 9639 9640 9641 9642 9643 9644 9645 9646 9647 9648 9649 9650 9651 9652 9653 9654 9655 9656 9657 9658 9659 9660 9661 9662 9663 9664 9665 9666 9667 9668 9669 9670 9671 9672 9673 9674 9675 9676 9677 9678 9679 9680 9681 9682 9683 9684 9685 9686 9687 9688 9689 9690 9691 9692 9693 9694 9695 9696 9697 9698 9699 9700 9701 9702 9703 9704 9705 9706 9707 9708 9709 9710 9711 9712 9713 9714 9715 9716 9717 9718 9719 9720 9721 9722 9723 9724 9725 9726 9727 9728 9729 9730 9731 9732 9733 9734 9735 9736 9737 9738 9739 9740 9741 9742 9743 9744 9745 9746 9747 9748 9749 9750 9751 9752 9753 9754 9755 9756 9757 9758 9759 9760 9761 9762 9763 9764 9765 9766 9767 9768 9769 9770 9771 9772 9773 9774 9775 9776 9777 9778 9779 9780 9781 9782 9783 9784 9785 9786 9787 9788 9789 9790 9791 9792 9793 9794 9795 9796 9797 9798 9799 9800 9801 9802 9803 9804 9805 9806 9807 9808 9809 9810 9811 9812 9813 9814 9815 9816 9817 9818 9819 9820 9821 9822 9823 9824 9825 9826 9827 9828 9829 9830 9831 9832 9833 9834 9835 9836 9837 9838 9839 9840 9841 9842 9843 9844 9845 9846 9847 9848 9849 9850 9851 9852 9853 9854 9855 9856 9857 9858 9859 9860 9861 9862 9863 9864 9865 9866 9867 9868 9869 9870 9871 9872 9873 9874 9875 9876 9877 9878 9879 9880 9881 9882 9883 9884 9885 9886 9887 9888 9889 9890 9891 9892 9893 9894 9895 9896 9897 9898 9899 9900 9901 9902 9903 9904 9905 9906 9907 9908 9909 9910 9911 9912 9913 9914 9915 9916 9917 9918 9919 9920 9921 9922 9923 9924 9925 9926 9927 9928 9929 9930 9931 9932 9933 9934 9935 9936 9937 9938 9939 9940 9941 9942 9943 9944 9945 9946 9947 9948 9949 9950 9951 9952 9953 9954 9955 9956 9957 9958 9959 9960 9961 9962 9963 9964 9965 9966 9967 9968 9969 9970 9971 9972 9973 9974 9975 9976 9977 9978 9979 9980 9981 9982 9983 9984 9985 9986 9987 9988 9989 9990 9991 9992 9993 9994 9995 9996 9997 9998 9999 10000 10001 10002 10003 10004 10005 10006 10007 10008 10009 10010 10011 10012 10013 10014 10015 10016 10017 10018 10019 10020 10021 10022 10023 10024 10025 10026 10027 10028 10029 10030 10031 10032 10033 10034 10035 10036 10037 10038 10039 10040 10041 10042 10043 10044 10045 10046 10047 10048 10049 10050 10051 10052 10053 10054 10055 10056 10057 10058 10059 10060 10061 10062 10063 10064 10065 10066 10067 10068 10069 10070 10071 10072 10073 10074 10075 10076 10077 10078 10079 10080 10081 10082 10083 10084 10085 10086 10087 10088 10089 10090 10091 10092 10093 10094 10095 10096 10097 10098 10099 10100 10101 10102 10103 10104 10105 10106 10107 10108 10109 10110 10111 10112 10113 10114 10115 10116 10117 10118 10119 10120 10121 10122 10123 10124 10125 10126 10127 10128 10129 10130 10131 10132 10133 10134 10135 10136 10137 10138 10139 10140 10141 10142 10143 10144 10145 10146 10147 10148 10149 10150 10151 10152 10153 10154 10155 10156 10157 10158 10159 10160 10161 10162 10163 10164 10165 10166 10167 10168 10169 10170 10171 10172 10173 10174 10175 10176 10177 10178 10179 10180 10181 10182 10183 10184 10185 10186 10187 10188 10189 10190 10191 10192 10193 10194 10195 10196 10197 10198 10199 10200 10201 10202 10203 10204 10205 10206 10207 10208 10209 10210 10211 10212 10213 10214 10215 10216 10217 10218 10219 10220 10221 10222 10223 10224 10225 10226 10227 10228 10229 10230 10231 10232 10233 10234 10235 10236 10237 10238 10239 10240 10241 10242 10243 10244 10245 10246 10247 10248 10249 10250 10251 10252 10253 10254 10255 10256 10257 10258 10259 10260 10261 10262 10263 10264 10265 10266 10267 10268 10269 10270 10271 10272 10273 10274 10275 10276 10277 10278 10279 10280 10281 10282 10283 10284 10285 10286 10287 10288 10289 10290 10291 10292 10293 10294 10295 10296 10297 10298 10299 10300 10301 10302 10303 10304 10305 10306 10307 10308 10309 10310 10311 10312 10313 10314 10315 10316 10317 10318 10319 10320 10321 10322 10323 10324 10325 10326 10327 10328 10329 10330 10331 10332 10333 10334 10335 10336 10337 10338 10339 10340 10341 10342 10343 10344 10345 10346 10347 10348 10349 10350 10351 10352 10353 10354 10355 10356 10357 10358 10359 10360 10361 10362 10363 10364 10365 10366 10367 10368 10369 10370 10371 10372 10373 10374 10375 10376 10377 10378 10379 10380 10381 10382 10383 10384 10385 10386 10387 10388 10389 10390 10391 10392 10393 10394 10395 10396 10397 10398 10399 10400 10401 10402 10403 10404 10405 10406 10407 10408 10409 10410 10411 10412 10413 10414 10415 10416 10417 10418 10419 10420 10421 10422 10423 10424 10425 10426 10427 10428 10429 10430 10431 10432 10433 10434 10435 10436 10437 10438 10439 10440 10441 10442 10443 10444 10445 10446 10447 10448 10449 10450 10451 10452 10453 10454 10455 10456 10457 10458 10459 10460 10461 10462 10463 10464 10465 10466 10467 10468 10469 10470 10471 10472 10473 10474 10475 10476 10477 10478 10479 10480 10481 10482 10483 10484 10485 10486 10487 10488 10489 10490 10491 10492 10493 10494 10495 10496 10497 10498 10499 10500 10501 10502 10503 10504 10505 10506 10507 10508 10509 10510 10511 10512 10513 10514 10515 10516 10517 10518 10519 10520 10521 10522 10523 10524 10525 10526 10527 10528 10529 10530 10531 10532 10533 10534 10535 10536 10537 10538 10539 10540 10541 10542 10543 10544 10545 10546 10547 10548 10549 10550 10551 10552 10553 10554 10555 10556 10557 10558 10559 10560 10561 10562 10563 10564 10565 10566 10567 10568 10569 10570 10571 10572 10573 10574 10575 10576 10577 10578 10579 10580 10581 10582 10583 10584 10585 10586 10587 10588 10589 10590 10591 10592 10593 10594 10595 10596 10597 10598 10599 10600 10601 10602 10603 10604 10605 10606 10607 10608 10609 10610 10611 10612 10613 10614 10615 10616 10617 10618 10619 10620 10621 10622 10623 10624 10625 10626 10627 10628 10629 10630 10631 10632 10633 10634 10635 10636 10637 10638 10639 10640 10641 10642 10643 10644 10645 10646 10647 10648 10649 10650 10651 10652 10653 10654 10655 10656 10657 10658 10659 10660 10661 10662 10663 10664 10665 10666 10667 10668 10669 10670 10671 10672 10673 10674 10675 10676 10677 10678 10679 10680 10681 10682 10683 10684 10685 10686 10687 10688 10689 10690 10691 10692 10693 10694 10695 10696 10697 10698 10699 10700 10701 10702 10703 10704 10705 10706 10707 10708 10709 10710 10711 10712 10713 10714 10715 10716 10717 10718 10719 10720 10721 10722 10723 10724 10725 10726 10727 10728 10729 10730 10731 10732 10733 10734 10735 10736 10737 10738 10739 10740 10741 10742 10743 10744 10745 10746 10747 10748 10749 10750 10751 10752 10753 10754 10755 10756 10757 10758 10759 10760 10761 10762 10763 10764 10765 10766 10767 10768 10769 10770 10771 10772 10773 10774 10775 10776 10777 10778 10779 10780 10781 10782 10783 10784 10785 10786 10787 10788 10789 10790 10791 10792 10793 10794 10795 10796 10797 10798 10799 10800 10801 10802 10803 10804 10805 10806 10807 10808 10809 10810 10811 10812 10813 10814 10815 10816 10817 10818 10819 10820 10821 10822 10823 10824 10825 10826 10827 10828 10829 10830 10831 10832 10833 10834 10835 10836 10837 10838 10839 10840 10841 10842 10843 10844 10845 10846 10847 10848 10849 10850 10851 10852 10853 10854 10855 10856 10857 10858 10859 10860 10861 10862 10863 10864 10865 10866 10867 10868 10869 10870 10871 10872 10873 10874 10875 10876 10877 10878 10879 10880 10881 10882 10883 10884 10885 10886 10887 10888 10889 10890 10891 10892 10893 10894 10895 10896 10897 10898 10899 10900 10901 10902 10903 10904 10905 10906 10907 10908 10909 10910 10911 10912 10913 10914 10915 10916 10917 10918 10919 10920 10921 10922 10923 10924 10925 10926 10927 10928 10929 10930 10931 10932 10933 10934 10935 10936 10937 10938 10939 10940 10941 10942 10943 10944 10945 10946 10947 10948 10949 10950 10951 10952 10953 10954 10955 10956 10957 10958 10959 10960 10961 10962 10963 10964 10965 10966 10967 10968 10969 10970 10971 10972 10973 10974 10975 10976 10977 10978 10979 10980 10981 10982 10983 10984 10985 10986 10987 10988 10989 10990 10991 10992 10993 10994 10995 10996 10997 10998 10999 11000 11001 11002 11003 11004 11005 11006 11007 11008 11009 11010 11011 11012 11013 11014 11015 11016 11017 11018 11019 11020 11021 11022 11023 11024 11025 11026 11027 11028 11029 11030 11031 11032 11033 11034 11035 11036 11037 11038 11039 11040 11041 11042 11043 11044 11045 11046 11047 11048 11049 11050 11051 11052 11053 11054 11055 11056 11057 11058 11059 11060 11061 11062 11063 11064 11065 11066 11067 11068 11069 11070 11071 11072 11073 11074 11075 11076 11077 11078 11079 11080 11081 11082 11083 11084 11085 11086 11087 11088 11089 11090 11091 11092 11093 11094 11095 11096 11097 11098 11099 11100 11101 11102 11103 11104 11105 11106 11107 11108 11109 11110 11111 11112 11113 11114 11115 11116 11117 11118 11119 11120 11121 11122 11123 11124 11125 11126 11127 11128 11129 11130 11131 11132 11133 11134 11135 11136 11137 11138 11139 11140 11141 11142 11143 11144 11145 11146 11147 11148 11149 11150 11151 11152 11153 11154 11155 11156 11157 11158 11159 11160 11161 11162 11163 11164 11165 11166 11167 11168 11169 11170 11171 11172 11173 11174 11175 11176 11177 11178 11179 11180 11181 11182 11183 11184 11185 11186 11187 11188 11189 11190 11191 11192 11193 11194 11195 11196 11197 11198 11199 11200 11201 11202 11203 11204 11205 11206 11207 11208 11209 11210 11211 11212 11213 11214 11215 11216 11217 11218 11219 11220 11221 11222 11223 11224 11225 11226 11227 11228 11229 11230 11231 11232 11233 11234 11235 11236 11237 11238 11239 11240 11241 11242 11243 11244 11245 11246 11247 11248 11249 11250 11251 11252 11253 11254 11255 11256 11257 11258 11259 11260 11261 11262 11263 11264 11265 11266 11267 11268 11269 11270 11271 11272 11273 11274 11275 11276 11277 11278 11279 11280 11281 11282 11283 11284 11285 11286 11287 11288 11289 11290 11291 11292 11293 11294 11295 11296 11297 11298 11299 11300 11301 11302 11303 11304 11305 11306 11307 11308 11309 11310 11311 11312 11313 11314 11315 11316 11317 11318 11319 11320 11321 11322 11323 11324 11325 11326 11327 11328 11329 11330 11331 11332 11333 11334 11335 11336 11337 11338 11339 11340 11341 11342 11343 11344 11345 11346 11347 11348 11349 11350 11351 11352 11353 11354 11355 11356 11357 11358 11359 11360 11361 11362 11363 11364 11365 11366 11367 11368 11369 11370 11371 11372 11373 11374 11375 11376 11377 11378 11379 11380 11381 11382 11383 11384 11385 11386 11387 11388 11389 11390 11391 11392 11393 11394 11395 11396 11397 11398 11399 11400 11401 11402 11403 11404 11405 11406 11407 11408 11409 11410 11411 11412 11413 11414 11415 11416 11417 11418 11419 11420 11421 11422 11423 11424 11425 11426 11427 11428 11429 11430 11431 11432 11433 11434 11435 11436 11437 11438 11439 11440 11441 11442 11443 11444 11445 11446 11447 11448 11449 11450 11451 11452 11453 11454 11455 11456 11457 11458 11459 11460 11461 11462 11463 11464 11465 11466 11467 11468 11469 11470 11471 11472 11473 11474 11475 11476 11477 11478 11479 11480 11481 11482 11483 11484 11485 11486 11487 11488 11489 11490 11491 11492 11493 11494 11495 11496 11497 11498 11499 11500 11501 11502 11503 11504 11505 11506 11507 11508 11509 11510 11511 11512 11513 11514 11515 11516 11517 11518 11519 11520 11521 11522 11523 11524 11525 11526 11527 11528 11529 11530 11531 11532 11533 11534 11535 11536 11537 11538 11539 11540 11541 11542 11543 11544 11545 11546 11547 11548 11549 11550 11551 11552 11553 11554 11555 11556 11557 11558 11559 11560 11561 11562 11563 11564 11565 11566 11567 11568 11569 11570 11571 11572 11573 11574 11575 11576 11577 11578 11579 11580 11581 11582 11583 11584 11585 11586 11587 11588 11589 11590 11591 11592 11593 11594 11595 11596 11597 11598 11599 11600 11601 11602 11603 11604 11605 11606 11607 11608 11609 11610 11611 11612 11613 11614 11615 11616 11617 11618 11619 11620 11621 11622 11623 11624 11625 11626 11627 11628 11629 11630 11631 11632 11633 11634 11635 11636 11637 11638 11639 11640 11641 11642 11643 11644 11645 11646 11647 11648 11649 11650 11651 11652 11653 11654 11655 11656 11657 11658 11659 11660 11661 11662 11663 11664 11665 11666 11667 11668 11669 11670 11671 11672 11673 11674 11675 11676 11677 11678 11679 11680 11681 11682 11683 11684 11685 11686 11687 11688 11689 11690 11691 11692 11693 11694 11695 11696 11697 11698 11699 11700 11701 11702 11703 11704 11705 11706 11707 11708 11709 11710 11711 11712 11713 11714 11715 11716 11717 11718 11719 11720 11721 11722 11723 11724 11725 11726 11727 11728 11729 11730 11731 11732 11733 11734 11735 11736 11737 11738 11739 11740 11741 11742 11743 11744 11745 11746 11747 11748 11749 11750 11751 11752 11753 11754 11755 11756 11757 11758 11759 11760 11761 11762 11763 11764 11765 11766 11767 11768 11769 11770 11771 11772 11773 11774 11775 11776 11777 11778 11779 11780 11781 11782 11783 11784 11785 11786 11787 11788 11789 11790 11791 11792 11793 11794 11795 11796 11797 11798 11799 11800 11801 11802 11803 11804 11805 11806 11807 11808 11809 11810 11811 11812 11813 11814 11815 11816 11817 11818 11819 11820 11821 11822 11823 11824 11825 11826 11827 11828 11829 11830 11831 11832 11833 11834 11835 11836 11837 11838 11839 11840 11841 11842 11843 11844 11845 11846 11847 11848 11849 11850 11851 11852 11853 11854 11855 11856 11857 11858 11859 11860 11861 11862 11863 11864 11865 11866 11867 11868 11869 11870 11871 11872 11873 11874 11875 11876 11877 11878 11879 11880 11881 11882 11883 11884 11885 11886 11887 11888 11889 11890 11891 11892 11893 11894 11895 11896 11897 11898 11899 11900 11901 11902 11903 11904 11905 11906 11907 11908 11909 11910 11911 11912 11913 11914 11915 11916 11917 11918 11919 11920 11921 11922 11923 11924 11925 11926 11927 11928 11929 11930 11931 11932 11933 11934 11935 11936 11937 11938 11939 11940 11941 11942 11943 11944 11945 11946 11947 11948 11949 11950 11951 11952 11953 11954 11955 11956 11957 11958 11959 11960 11961 11962 11963 11964 11965 11966 11967 11968 11969 11970 11971 11972 11973 11974 11975 11976 11977 11978 11979 11980 11981 11982 11983 11984 11985 11986 11987 11988 11989 11990 11991 11992 11993 11994 11995 11996 11997 11998 11999 12000 12001 12002 12003 12004 12005 12006 12007 12008 12009 12010 12011 12012 12013 12014 12015 12016 12017 12018 12019 12020 12021 12022 12023 12024 12025 12026 12027 12028 12029 12030 12031 12032 12033 12034 12035 12036 12037 12038 12039 12040 12041 12042 12043 12044 12045 12046 12047 12048 12049 12050 12051 12052 12053 12054 12055 12056 12057 12058 12059 12060 12061 12062 12063 12064 12065 12066 12067 12068 12069 12070 12071 12072 12073 12074 12075 12076 12077 12078 12079 12080 12081 12082 12083 12084 12085 12086 12087 12088 12089 12090 12091 12092 12093 12094 12095 12096 12097 12098 12099 12100 12101 12102 12103 12104 12105 12106 12107 12108 12109 12110 12111 12112 12113 12114 12115 12116 12117 12118 12119 12120 12121 12122 12123 12124 12125 12126 12127 12128 12129 12130 12131 12132 12133 12134 12135 12136 12137 12138 12139 12140 12141 12142 12143 12144 12145 12146 12147 12148 12149 12150 12151 12152 12153 12154 12155 12156 12157 12158 12159 12160 12161 12162 12163 12164 12165 12166 12167 12168 12169 12170 12171 12172 12173 12174 12175 12176 12177 12178 12179 12180 12181 12182 12183 12184 12185 12186 12187 12188 12189 12190 12191 12192 12193 12194 12195 12196 12197 12198 12199 12200 12201 12202 12203 12204 12205 12206 12207 12208 12209 12210 12211 12212 12213 12214 12215 12216 12217 12218 12219 12220 12221 12222 12223 12224 12225 12226 12227 12228 12229 12230 12231 12232 12233 12234 12235 12236 12237 12238 12239 12240 12241 12242 12243 12244 12245 12246 12247 12248 12249 12250 12251 12252 12253 12254 12255 12256 12257 12258 12259 12260 12261 12262 12263 12264 12265 12266 12267 12268 12269 12270 12271 12272 12273 12274 12275 12276 12277 12278 12279 12280 12281 12282 12283 12284 12285 12286 12287 12288 12289 12290 12291 12292 12293 12294 12295 12296 12297 12298 12299 12300 12301 12302 12303 12304 12305 12306 12307 12308 12309 12310 12311 12312 12313 12314 12315 12316 12317 12318 12319 12320 12321 12322 12323 12324 12325 12326 12327 12328 12329 12330 12331 12332 12333 12334 12335 12336 12337 12338 12339 12340 12341 12342 12343 12344 12345 12346 12347 12348 12349 12350 12351 12352 12353 12354 12355 12356 12357 12358 12359 12360 12361 12362 12363 12364 12365 12366 12367 12368 12369 12370 12371 12372 12373 12374 12375 12376 12377 12378 12379 12380 12381 12382 12383 12384 12385 12386 12387 12388 12389 12390 12391 12392 12393 12394 12395 12396 12397 12398 12399 12400 12401 12402 12403 12404 12405 12406 12407 12408 12409 12410 12411 12412 12413 12414 12415 12416 12417 12418 12419 12420 12421 12422 12423 12424 12425 12426 12427 12428 12429 12430 12431 12432 12433 12434 12435 12436 12437 12438 12439 12440 12441 12442 12443 12444 12445 12446 12447 12448 12449 12450 12451 12452 12453 12454 12455 12456 12457 12458 12459 12460 12461 12462 12463 12464 12465 12466 12467 12468 12469 12470 12471 12472 12473 12474 12475 12476 12477 12478 12479 12480 12481 12482 12483 12484 12485 12486 12487 12488 12489 12490 12491 12492 12493 12494 12495 12496 12497 12498 12499 12500 12501 12502 12503 12504 12505 12506 12507 12508 12509 12510 12511 12512 12513 12514 12515 12516 12517 12518 12519 12520 12521 12522 12523 12524 12525 12526 12527 12528 12529 12530 12531 12532 12533 12534 12535 12536 12537 12538 12539 12540 12541 12542 12543 12544 12545 12546 12547 12548 12549 12550 12551 12552 12553 12554 12555 12556 12557 12558 12559 12560 12561 12562 12563 12564 12565 12566 12567 12568 12569 12570 12571 12572 12573 12574 12575 12576 12577 12578 12579 12580 12581 12582 12583 12584 12585 12586 12587 12588 12589 12590 12591 12592 12593 12594 12595 12596 12597 12598 12599 12600 12601 12602 12603 12604 12605 12606 12607 12608 12609 12610 12611 12612 12613 12614 12615 12616 12617 12618 12619 12620 12621 12622 12623 12624 12625 12626 12627 12628 12629 12630 12631 12632 12633 12634 12635 12636 12637 12638 12639 12640 12641 12642 12643 12644 12645 12646 12647 12648 12649 12650 12651 12652 12653 12654 12655 12656 12657 12658 12659 12660 12661 12662 12663 12664 12665 12666 12667 12668 12669 12670 12671 12672 12673 12674 12675 12676 12677 12678 12679 12680 12681 12682 12683 12684 12685 12686 12687 12688 12689 12690 12691 12692 12693 12694 12695 12696 12697 12698 12699 12700 12701 12702 12703 12704 12705 12706 12707 12708 12709 12710 12711 12712 12713 12714 12715 12716 12717 12718 12719 12720 12721 12722 12723 12724 12725 12726 12727 12728 12729 12730 12731 12732 12733 12734 12735 12736 12737 12738 12739 12740 12741 12742 12743 12744 12745 12746 12747 12748 12749 12750 12751 12752 12753 12754 12755 12756 12757 12758 12759 12760 12761 12762 12763 12764 12765 12766 12767 12768 12769 12770 12771 12772 12773 12774 12775 12776 12777 12778 12779 12780 12781 12782 12783 12784 12785 12786 12787 12788 12789 12790 12791 12792 12793 12794 12795 12796 12797 12798 12799 12800 12801 12802 12803 12804 12805 12806 12807 12808 12809 12810 12811 12812 12813 12814 12815 12816 12817 12818 12819 12820 12821 12822 12823 12824 12825 12826 12827 12828 12829 12830 12831 12832 12833 12834 12835 12836 12837 12838 12839 12840 12841 12842 12843 12844 12845 12846 12847 12848 12849 12850 12851 12852 12853 12854 12855 12856 12857 12858 12859 12860 12861 12862 12863 12864 12865 12866 12867 12868 12869 12870 12871 12872 12873 12874 12875 12876 12877 12878 12879 12880 12881 12882 12883 12884 12885 12886 12887 12888 12889 12890 12891 12892 12893 12894 12895 12896 12897 12898 12899 12900 12901 12902 12903 12904 12905 12906 12907 12908 12909 12910 12911 12912 12913 12914 12915 12916 12917 12918 12919 12920 12921 12922 12923 12924 12925 12926 12927 12928 12929 12930 12931 12932 12933 12934 12935 12936 12937 12938 12939 12940 12941 12942 12943 12944 12945 12946 12947 12948 12949 12950 12951 12952 12953 12954 12955 12956 12957 12958 12959 12960 12961 12962 12963 12964 12965 12966 12967 12968 12969 12970 12971 12972 12973 12974 12975 12976 12977 12978 12979 12980 12981 12982 12983 12984 12985 12986 12987 12988 12989 12990 12991 12992 12993 12994 12995 12996 12997 12998 12999 13000 13001 13002 13003 13004 13005 13006 13007 13008 13009 13010 13011 13012 13013 13014 13015 13016 13017 13018 13019 13020 13021 13022 13023 13024 13025 13026 13027 13028 13029 13030 13031 13032 13033 13034 13035 13036 13037 13038 13039 13040 13041 13042 13043 13044 13045 13046 13047 13048 13049 13050 13051 13052 13053 13054 13055 13056 13057 13058 13059 13060 13061 13062 13063 13064 13065 13066 13067 13068 13069 13070 13071 13072 13073 13074 13075 13076 13077 13078 13079 13080 13081 13082 13083 13084 13085 13086 13087 13088 13089 13090 13091 13092 13093 13094 13095 13096 13097 13098 13099 13100 13101 13102 13103 13104 13105 13106 13107 13108 13109 13110 13111 13112 13113 13114 13115 13116 13117 13118 13119 13120 13121 13122 13123 13124 13125 13126 13127 13128 13129 13130 13131 13132 13133 13134 13135 13136 13137 13138 13139 13140 13141 13142 13143 13144 13145 13146 13147 13148 13149 13150 13151 13152 13153 13154 13155 13156 13157 13158 13159 13160 13161 13162 13163 13164 13165 13166 13167 13168 13169 13170 13171 13172 13173 13174 13175 13176 13177 13178 13179 13180 13181 13182 13183 13184 13185 13186 13187 13188 13189 13190 13191 13192 13193 13194 13195 13196 13197 13198 13199 13200 13201 13202 13203 13204 13205 13206 13207 13208 13209 13210 13211 13212 13213 13214 13215 13216 13217 13218 13219 13220 13221 13222 13223 13224 13225 13226 13227 13228 13229 13230 13231 13232 13233 13234 13235 13236 13237 13238 13239 13240 13241 13242 13243 13244 13245 13246 13247 13248 13249 13250 13251 13252 13253 13254 13255 13256 13257 13258 13259 13260 13261 13262 13263 13264 13265 13266 13267 13268 13269 13270 13271 13272 13273 13274 13275 13276 13277 13278 13279 13280 13281 13282 13283 13284 13285 13286 13287 13288 13289 13290 13291 13292 13293 13294 13295 13296 13297 13298 13299 13300 13301 13302 13303 13304 13305 13306 13307 13308 13309 13310 13311 13312 13313 13314 13315 13316 13317 13318 13319 13320 13321 13322 13323 13324 13325 13326 13327 13328 13329 13330 13331 13332 13333 13334 13335 13336 13337 13338 13339 13340 13341 13342 13343 13344 13345 13346 13347 13348 13349 13350 13351 13352 13353 13354 13355 13356 13357 13358 13359 13360 13361 13362 13363 13364 13365 13366 13367 13368 13369 13370 13371 13372 13373 13374 13375 13376 13377 13378 13379 13380 13381 13382 13383 13384 13385 13386 13387 13388 13389 13390 13391 13392 13393 13394 13395 13396 13397 13398 13399 13400 13401 13402 13403 13404 13405 13406 13407 13408 13409 13410 13411 13412 13413 13414 13415 13416 13417 13418 13419 13420 13421 13422 13423 13424 13425 13426 13427 13428 13429 13430 13431 13432 13433 13434 13435 13436 13437 13438 13439 13440 13441 13442 13443 13444 13445 13446 13447 13448 13449 13450 13451 13452 13453 13454 13455 13456 13457 13458 13459 13460 13461 13462 13463 13464 13465 13466 13467 13468 13469 13470 13471 13472 13473 13474 13475 13476 13477 13478 13479 13480 13481 13482 13483 13484 13485 13486 13487 13488 13489 13490 13491 13492 13493 13494 13495 13496 13497 13498 13499 13500 13501 13502 13503 13504 13505 13506 13507 13508 13509 13510 13511 13512 13513 13514 13515 13516 13517 13518 13519 13520 13521 13522 13523 13524 13525 13526 13527 13528 13529 13530 13531 13532 13533 13534 13535 13536 13537 13538 13539 13540 13541 13542 13543 13544 13545 13546 13547 13548 13549 13550 13551 13552 13553 13554 13555 13556 13557 13558 13559 13560 13561 13562 13563 13564 13565 13566 13567 13568 13569 13570 13571 13572 13573 13574 13575 13576 13577 13578 13579 13580 13581 13582 13583 13584 13585 13586 13587 13588 13589 13590 13591 13592 13593 13594 13595 13596 13597 13598 13599 13600 13601 13602 13603 13604 13605 13606 13607 13608 13609 13610 13611 13612 13613 13614 13615 13616 13617 13618 13619 13620 13621 13622 13623 13624 13625 13626 13627 13628 13629 13630 13631 13632 13633 13634 13635 13636 13637 13638 13639 13640 13641 13642 13643 13644 13645 13646 13647 13648 13649 13650 13651 13652 13653 13654 13655 13656 13657 13658 13659 13660 13661 13662 13663 13664 13665 13666 13667 13668 13669 13670 13671 13672 13673 13674 13675 13676 13677 13678 13679 13680 13681 13682 13683 13684 13685 13686 13687 13688 13689 13690 13691 13692 13693 13694 13695 13696 13697 13698 13699 13700 13701 13702 13703 13704 13705 13706 13707 13708 13709 13710 13711 13712 13713 13714 13715 13716 13717 13718 13719 13720 13721 13722 13723 13724 13725 13726 13727 13728 13729 13730 13731 13732 13733 13734 13735 13736 13737 13738 13739 13740 13741 13742 13743 13744 13745 13746 13747 13748 13749 13750 13751 13752 13753 13754 13755 13756 13757 13758 13759 13760 13761 13762 13763 13764 13765 13766 13767 13768 13769 13770 13771 13772 13773 13774 13775 13776 13777 13778 13779 13780 13781 13782 13783 13784 13785 13786 13787 13788 13789 13790 13791 13792 13793 13794 13795 13796 13797 13798 13799 13800 13801 13802 13803 13804 13805 13806 13807 13808 13809 13810 13811 13812 13813 13814 13815 13816 13817 13818 13819 13820 13821 13822 13823 13824 13825 13826 13827 13828 13829 13830 13831 13832 13833 13834 13835 13836 13837 13838 13839 13840 13841 13842 13843 13844 13845 13846 13847 13848 13849 13850 13851 13852 13853 13854 13855 13856 13857 13858 13859 13860 13861 13862 13863 13864 13865 13866 13867 13868 13869 13870 13871 13872 13873 13874 13875 13876 13877 13878 13879 13880 13881 13882 13883 13884 13885 13886 13887 13888 13889 13890 13891 13892 13893 13894 13895 13896 13897 13898 13899 13900 13901 13902 13903 13904 13905 13906 13907 13908 13909 13910 13911 13912 13913 13914 13915 13916 13917 13918 13919 13920 13921 13922 13923 13924 13925 13926 13927 13928 13929 13930 13931 13932 13933 13934 13935 13936 13937 13938 13939 13940 13941 13942 13943 13944 13945 13946 13947 13948 13949 13950 13951 13952 13953 13954 13955 13956 13957 13958 13959 13960 13961 13962 13963 13964 13965 13966 13967 13968 13969 13970 13971 13972 13973 13974 13975 13976 13977 13978 13979 13980 13981 13982 13983 13984 13985 13986 13987 13988 13989 13990 13991 13992 13993 13994 13995 13996 13997 13998 13999 14000 14001 14002 14003 14004 14005 14006 14007 14008 14009 14010 14011 14012 14013 14014 14015 14016 14017 14018 14019 14020 14021 14022 14023 14024 14025 14026 14027 14028 14029 14030 14031 14032 14033 14034 14035 14036 14037 14038 14039 14040 14041 14042 14043 14044 14045 14046 14047 14048 14049 14050 14051 14052 14053 14054 14055 14056 14057 14058 14059 14060 14061 14062 14063 14064 14065 14066 14067 14068 14069 14070 14071 14072 14073 14074 14075 14076 14077 14078 14079 14080 14081 14082 14083 14084 14085 14086 14087 14088 14089 14090 14091 14092 14093 14094 14095 14096 14097 14098 14099 14100 14101 14102 14103 14104 14105 14106 14107 14108 14109 14110 14111 14112 14113 14114 14115 14116 14117 14118 14119 14120 14121 14122 14123 14124 14125 14126 14127 14128 14129 14130 14131 14132 14133 14134 14135 14136 14137 14138 14139 14140 14141 14142 14143 14144 14145 14146 14147 14148 14149 14150 14151 14152 14153 14154 14155 14156 14157 14158 14159 14160 14161 14162 14163 14164 14165 14166 14167 14168 14169 14170 14171 14172 14173 14174 14175 14176 14177 14178 14179 14180 14181 14182 14183 14184 14185 14186 14187 14188 14189 14190 14191 14192 14193 14194 14195 14196 14197 14198 14199 14200 14201 14202 14203 14204 14205 14206 14207 14208 14209 14210 14211 14212 14213 14214 14215 14216 14217 14218 14219 14220 14221 14222 14223 14224 14225 14226 14227 14228 14229 14230 14231 14232 14233 14234 14235 14236 14237 14238 14239 14240 14241 14242 14243 14244 14245 14246 14247 14248 14249 14250 14251 14252 14253 14254 14255 14256 14257 14258 14259 14260 14261 14262 14263 14264 14265 14266 14267 14268 14269 14270 14271 14272 14273 14274 14275 14276 14277 14278 14279 14280 14281 14282 14283 14284 14285 14286 14287 14288 14289 14290 14291 14292 14293 14294 14295 14296 14297 14298 14299 14300 14301 14302 14303 14304 14305 14306 14307 14308 14309 14310 14311 14312 14313 14314 14315 14316 14317 14318 14319 14320 14321 14322 14323 14324 14325 14326 14327 14328 14329 14330 14331 14332 14333 14334 14335 14336 14337 14338 14339 14340 14341 14342 14343 14344 14345 14346 14347 14348 14349 14350 14351 14352 14353 14354 14355 14356 14357 14358 14359 14360 14361 14362 14363 14364 14365 14366 14367 14368 14369 14370 14371 14372 14373 14374 14375 14376 14377 14378 14379 14380 14381 14382 14383 14384 14385 14386 14387 14388 14389 14390 14391 14392 14393 14394 14395 14396 14397 14398 14399 14400 14401 14402 14403 14404 14405 14406 14407 14408 14409 14410 14411 14412 14413 14414 14415 14416 14417 14418 14419 14420 14421 14422 14423 14424 14425 14426 14427 14428 14429 14430 14431 14432 14433 14434 14435 14436 14437 14438 14439 14440 14441 14442 14443 14444 14445 14446 14447 14448 14449 14450 14451 14452 14453 14454 14455 14456 14457 14458 14459 14460 14461 14462 14463 14464 14465 14466 14467 14468 14469 14470 14471 14472 14473 14474 14475 14476 14477 14478 14479 14480 14481 14482 14483 14484 14485 14486 14487 14488 14489 14490 14491 14492 14493 14494 14495 14496 14497 14498 14499 14500 14501 14502 14503 14504 14505 14506 14507 14508 14509 14510 14511 14512 14513 14514 14515 14516 14517 14518 14519 14520 14521 14522 14523 14524 14525 14526 14527 14528 14529 14530 14531 14532 14533 14534 14535 14536 14537 14538 14539 14540 14541 14542 14543 14544 14545 14546 14547 14548 14549 14550 14551 14552 14553 14554 14555 14556 14557 14558 14559 14560 14561 14562 14563 14564 14565 14566 14567 14568 14569 14570 14571 14572 14573 14574 14575 14576 14577 14578 14579 14580 14581 14582 14583 14584 14585 14586 14587 14588 14589 14590 14591 14592 14593 14594 14595 14596 14597 14598 14599 14600 14601 14602 14603 14604 14605 14606 14607 14608 14609 14610 14611 14612 14613 14614 14615 14616 14617 14618 14619 14620 14621 14622 14623 14624 14625 14626 14627 14628 14629 14630 14631 14632 14633 14634 14635 14636 14637 14638 14639 14640 14641 14642 14643 14644 14645 14646 14647 14648 14649 14650 14651 14652 14653 14654 14655 14656 14657 14658 14659 14660 14661 14662 14663 14664 14665 14666 14667 14668 14669 14670 14671 14672 14673 14674 14675 14676 14677 14678 14679 14680 14681 14682 14683 14684 14685 14686 14687 14688 14689 14690 14691 14692 14693 14694 14695 14696 14697 14698 14699 14700 14701 14702 14703 14704 14705 14706 14707 14708 14709 14710 14711 14712 14713 14714 14715 14716 14717 14718 14719 14720 14721 14722 14723 14724 14725 14726 14727 14728 14729 14730 14731 14732 14733 14734 14735 14736 14737 14738 14739 14740 14741 14742 14743 14744 14745 14746 14747 14748 14749 14750 14751 14752 14753 14754 14755 14756 14757 14758 14759 14760 14761 14762 14763 14764 14765 14766 14767 14768 14769 14770 14771 14772 14773 14774 14775 14776 14777 14778 14779 14780 14781 14782 14783 14784 14785 14786 14787 14788 14789 14790 14791 14792 14793 14794 14795 14796 14797 14798 14799 14800 14801 14802 14803 14804 14805 14806 14807 14808 14809 14810 14811 14812 14813 14814 14815 14816 14817 14818 14819 14820 14821 14822 14823 14824 14825 14826 14827 14828 14829 14830 14831 14832 14833 14834 14835 14836 14837 14838 14839 14840 14841 14842 14843 14844 14845 14846 14847 14848 14849 14850 14851 14852 14853 14854 14855 14856 14857 14858 14859 14860 14861 14862 14863 14864 14865 14866 14867 14868 14869 14870 14871 14872 14873 14874 14875 14876 14877 14878 14879 14880 14881 14882 14883 14884 14885 14886 14887 14888 14889 14890 14891 14892 14893 14894 14895 14896 14897 14898 14899 14900 14901 14902 14903 14904 14905 14906 14907 14908 14909 14910 14911 14912 14913 14914 14915 14916 14917 14918 14919 14920 14921 14922 14923 14924 14925 14926 14927 14928 14929 14930 14931 14932 14933 14934 14935 14936 14937 14938 14939 14940 14941 14942 14943 14944 14945 14946 14947 14948 14949 14950 14951 14952 14953 14954 14955 14956 14957 14958 14959 14960 14961 14962 14963 14964 14965 14966 14967 14968 14969 14970 14971 14972 14973 14974 14975 14976 14977 14978 14979 14980 14981 14982 14983 14984 14985 14986 14987 14988 14989 14990 14991 14992 14993 14994 14995 14996 14997 14998 14999 15000 15001 15002 15003 15004 15005 15006 15007 15008 15009 15010 15011 15012 15013 15014 15015 15016 15017 15018 15019 15020 15021 15022 15023 15024 15025 15026 15027 15028 15029 15030 15031 15032 15033 15034 15035 15036 15037 15038 15039 15040 15041 15042 15043 15044 15045 15046 15047 15048 15049 15050 15051 15052 15053 15054 15055 15056 15057 15058 15059 15060 15061 15062 15063 15064 15065 15066 15067 15068 15069 15070 15071 15072 15073 15074 15075 15076 15077 15078 15079 15080 15081 15082 15083 15084 15085 15086 15087 15088 15089 15090 15091 15092 15093 15094 15095 15096 15097 15098 15099 15100 15101 15102 15103 15104 15105 15106 15107 15108 15109 15110 15111 15112 15113 15114 15115 15116 15117 15118 15119 15120 15121 15122 15123 15124 15125 15126 15127 15128 15129 15130 15131 15132 15133 15134 15135 15136 15137 15138 15139 15140 15141 15142 15143 15144 15145 15146 15147 15148 15149 15150 15151 15152 15153 15154 15155 15156 15157 15158 15159 15160 15161 15162 15163 15164 15165 15166 15167 15168 15169 15170 15171 15172 15173 15174 15175 15176 15177 15178 15179 15180 15181 15182 15183 15184 15185 15186 15187 15188 15189 15190 15191 15192 15193 15194 15195 15196 15197 15198 15199 15200 15201 15202 15203 15204 15205 15206 15207 15208 15209 15210 15211 15212 15213 15214 15215 15216 15217 15218 15219 15220 15221 15222 15223 15224 15225 15226 15227 15228 15229 15230 15231 15232 15233 15234 15235 15236 15237 15238 15239 15240 15241 15242 15243 15244 15245 15246 15247 15248 15249 15250 15251 15252 15253 15254 15255 15256 15257 15258 15259 15260 15261 15262 15263 15264 15265 15266 15267 15268 15269 15270 15271 15272 15273 15274 15275 15276 15277 15278 15279 15280 15281 15282 15283 15284 15285 15286 15287 15288 15289 15290 15291 15292 15293 15294 15295 15296 15297 15298 15299 15300 15301 15302 15303 15304 15305 15306 15307 15308 15309 15310 15311 15312 15313 15314 15315 15316 15317 15318 15319 15320 15321 15322 15323 15324 15325 15326 15327 15328 15329 15330 15331 15332 15333 15334 15335 15336 15337 15338 15339 15340 15341 15342 15343 15344 15345 15346 15347 15348 15349 15350 15351 15352 15353 15354 15355 15356 15357 15358 15359 15360 15361 15362 15363 15364 15365 15366 15367 15368 15369 15370 15371 15372 15373 15374 15375 15376 15377 15378 15379 15380 15381 15382 15383 15384 15385 15386 15387 15388 15389 15390 15391 15392 15393 15394 15395 15396 15397 15398 15399 15400 15401 15402 15403 15404 15405 15406 15407 15408 15409 15410 15411 15412 15413 15414 15415 15416 15417 15418 15419 15420 15421 15422 15423 15424 15425 15426 15427 15428 15429 15430 15431 15432 15433 15434 15435 15436 15437 15438 15439 15440 15441 15442 15443 15444 15445 15446 15447 15448 15449 15450 15451 15452 15453 15454 15455 15456 15457 15458 15459 15460 15461 15462 15463 15464 15465 15466 15467 15468 15469 15470 15471 15472 15473 15474 15475 15476 15477 15478 15479 15480 15481 15482 15483 15484 15485 15486 15487 15488 15489 15490 15491 15492 15493 15494 15495 15496 15497 15498 15499 15500 15501 15502 15503 15504 15505 15506 15507 15508 15509 15510 15511 15512 15513 15514 15515 15516 15517 15518 15519 15520 15521 15522 15523 15524 15525 15526 15527 15528 15529 15530 15531 15532 15533 15534 15535 15536 15537 15538 15539 15540 15541 15542 15543 15544 15545 15546 15547 15548 15549 15550 15551 15552 15553 15554 15555 15556 15557 15558 15559 15560 15561 15562 15563 15564 15565 15566 15567 15568 15569 15570 15571 15572 15573 15574 15575 15576 15577 15578 15579 15580 15581 15582 15583 15584 15585 15586 15587 15588 15589 15590 15591 15592 15593 15594 15595 15596 15597 15598 15599 15600 15601 15602 15603 15604 15605 15606 15607 15608 15609 15610 15611 15612 15613 15614 15615 15616 15617 15618 15619 15620 15621 15622 15623 15624 15625 15626 15627 15628 15629 15630 15631 15632 15633 15634 15635 15636 15637 15638 15639 15640 15641 15642 15643 15644 15645 15646 15647 15648 15649 15650 15651 15652 15653 15654 15655 15656 15657 15658 15659 15660 15661 15662 15663 15664 15665 15666 15667 15668 15669 15670 15671 15672 15673 15674 15675 15676 15677 15678 15679 15680 15681 15682 15683 15684 15685 15686 15687 15688 15689 15690 15691 15692 15693 15694 15695 15696 15697 15698 15699 15700 15701 15702 15703 15704 15705 15706 15707 15708 15709 15710 15711 15712 15713 15714 15715 15716 15717 15718 15719 15720 15721 15722 15723 15724 15725 15726 15727 15728 15729 15730 15731 15732 15733 15734 15735 15736 15737 15738 15739 15740 15741 15742 15743 15744 15745 15746 15747 15748 15749 15750 15751 15752 15753 15754 15755 15756 15757 15758 15759 15760 15761 15762 15763 15764 15765 15766 15767 15768 15769 15770 15771 15772 15773 15774 15775 15776 15777 15778 15779 15780 15781 15782 15783 15784 15785 15786 15787 15788 15789 15790 15791 15792 15793 15794 15795 15796 15797 15798 15799 15800 15801 15802 15803 15804 15805 15806 15807 15808 15809 15810 15811 15812 15813 15814 15815 15816 15817 15818 15819 15820 15821 15822 15823 15824 15825 15826 15827 15828 15829 15830 15831 15832 15833 15834 15835 15836 15837 15838 15839 15840 15841 15842 15843 15844 15845 15846 15847 15848 15849 15850 15851 15852 15853 15854 15855 15856 15857 15858 15859 15860 15861 15862 15863 15864 15865 15866 15867 15868 15869 15870 15871 15872 15873 15874 15875 15876 15877 15878 15879 15880 15881 15882 15883 15884 15885 15886 15887 15888 15889 15890 15891 15892 15893 15894 15895 15896 15897 15898 15899 15900 15901 15902 15903 15904 15905 15906 15907 15908 15909 15910 15911 15912 15913 15914 15915 15916 15917 15918 15919 15920 15921 15922 15923 15924 15925 15926 15927 15928 15929 15930 15931 15932 15933 15934 15935 15936 15937 15938 15939 15940 15941 15942 15943 15944 15945 15946 15947 15948 15949 15950 15951 15952 15953 15954 15955 15956 15957 15958 15959 15960 15961 15962 15963 15964 15965 15966 15967 15968 15969 15970 15971 15972 15973 15974 15975 15976 15977 15978 15979 15980 15981 15982 15983 15984 15985 15986 15987 15988 15989 15990 15991 15992 15993 15994 15995 15996 15997 15998 15999 16000 16001 16002 16003 16004 16005 16006 16007 16008 16009 16010 16011 16012 16013 16014 16015 16016 16017 16018 16019 16020 16021 16022 16023 16024 16025 16026 16027 16028 16029 16030 16031 16032 16033 16034 16035 16036 16037 16038 16039 16040 16041 16042 16043 16044 16045 16046 16047 16048 16049 16050 16051 16052 16053 16054 16055 16056 16057 16058 16059 16060 16061 16062 16063 16064 16065 16066 16067 16068 16069 16070 16071 16072 16073 16074 16075 16076 16077 16078 16079 16080 16081 16082 16083 16084 16085 16086 16087 16088 16089 16090 16091 16092 16093 16094 16095 16096 16097 16098 16099 16100 16101 16102 16103 16104 16105 16106 16107 16108 16109 16110 16111 16112 16113 16114 16115 16116 16117 16118 16119 16120 16121 16122 16123 16124 16125 16126 16127 16128 16129 16130 16131 16132 16133 16134 16135 16136 16137 16138 16139 16140 16141 16142 16143 16144 16145 16146 16147 16148 16149 16150 16151 16152 16153 16154 16155 16156 16157 16158 16159 16160 16161 16162 16163 16164 16165 16166 16167 16168 16169 16170 16171 16172 16173 16174 16175 16176 16177 16178 16179 16180 16181 16182 16183 16184 16185 16186 16187 16188 16189 16190 16191 16192 16193 16194 16195 16196 16197 16198 16199 16200 16201 16202 16203 16204 16205 16206 16207 16208 16209 16210 16211 16212 16213 16214 16215 16216 16217 16218 16219 16220 16221 16222 16223 16224 16225 16226 16227 16228 16229 16230 16231 16232 16233 16234 16235 16236 16237 16238 16239 16240 16241 16242 16243 16244 16245 16246 16247 16248 16249 16250 16251 16252 16253 16254 16255 16256 16257 16258 16259 16260 16261 16262 16263 16264 16265 16266 16267 16268 16269 16270 16271 16272 16273 16274 16275 16276 16277 16278 16279 16280 16281 16282 16283 16284 16285 16286 16287 16288 16289 16290 16291 16292 16293 16294 16295 16296 16297 16298 16299 16300 16301 16302 16303 16304 16305 16306 16307 16308 16309 16310 16311 16312 16313 16314 16315 16316 16317 16318 16319 16320 16321 16322 16323 16324 16325 16326 16327 16328 16329 16330 16331 16332 16333 16334 16335 16336 16337 16338 16339 16340 16341 16342 16343 16344 16345 16346 16347 16348 16349 16350 16351 16352 16353 16354 16355 16356 16357 16358 16359 16360 16361 16362 16363 16364 16365 16366 16367 16368 16369 16370 16371 16372 16373 16374 16375 16376 16377 16378 16379 16380 16381 16382 16383 16384 16385 16386 16387 16388 16389 16390 16391 16392 16393 16394 16395 16396 16397 16398 16399 16400 16401 16402 16403 16404 16405 16406 16407 16408 16409 16410 16411 16412 16413 16414 16415 16416 16417 16418 16419 16420 16421 16422 16423 16424 16425 16426 16427 16428 16429 16430 16431 16432 16433 16434 16435 16436 16437 16438 16439 16440 16441 16442 16443 16444 16445 16446 16447 16448 16449 16450 16451 16452 16453 16454 16455 16456 16457 16458 16459 16460 16461 16462 16463 16464 16465 16466 16467 16468 16469 16470 16471 16472 16473 16474 16475 16476 16477 16478 16479 16480 16481 16482 16483 16484 16485 16486 16487 16488 16489 16490 16491 16492 16493 16494 16495 16496 16497 16498 16499 16500 16501 16502 16503 16504 16505 16506 16507 16508 16509 16510 16511 16512 16513 16514 16515 16516 16517 16518 16519 16520 16521 16522 16523 16524 16525 16526 16527 16528 16529 16530 16531 16532 16533 16534 16535 16536 16537 16538 16539 16540 16541 16542 16543 16544 16545 16546 16547 16548 16549 16550 16551 16552 16553 16554 16555 16556 16557 16558 16559 16560 16561 16562 16563 16564 16565 16566 16567 16568 16569 16570 16571 16572 16573 16574 16575 16576 16577 16578 16579 16580 16581 16582 16583 16584 16585 16586 16587 16588 16589 16590 16591 16592 16593 16594 16595 16596 16597 16598 16599 16600 16601 16602 16603 16604 16605 16606 16607 16608 16609 16610 16611 16612 16613 16614 16615 16616 16617 16618 16619 16620 16621 16622 16623 16624 16625 16626 16627 16628 16629 16630 16631 16632 16633 16634 16635 16636 16637 16638 16639 16640 16641 16642 16643 16644 16645 16646 16647 16648 16649 16650 16651 16652 16653 16654 16655 16656 16657 16658 16659 16660 16661 16662 16663 16664 16665 16666 16667 16668 16669 16670 16671 16672 16673 16674 16675 16676 16677 16678 16679 16680 16681 16682 16683 16684 16685 16686 16687 16688 16689 16690 16691 16692 16693 16694 16695 16696 16697 16698 16699 16700 16701 16702 16703 16704 16705 16706 16707 16708 16709 16710 16711 16712 16713 16714 16715 16716 16717 16718 16719 16720 16721 16722 16723 16724 16725 16726 16727 16728 16729 16730 16731 16732 16733 16734 16735 16736 16737 16738 16739 16740 16741 16742 16743 16744 16745 16746 16747 16748 16749 16750 16751 16752 16753 16754 16755 16756 16757 16758 16759 16760 16761 16762 16763 16764 16765 16766 16767 16768 16769 16770 16771 16772 16773 16774 16775 16776 16777 16778 16779 16780 16781 16782 16783 16784 16785 16786 16787 16788 16789 16790 16791 16792 16793 16794 16795 16796 16797 16798 16799 16800 16801 16802 16803 16804 16805 16806 16807 16808 16809 16810 16811 16812 16813 16814 16815 16816 16817 16818 16819 16820 16821 16822 16823 16824 16825 16826 16827 16828 16829 16830 16831 16832 16833 16834 16835 16836 16837 16838 16839 16840 16841 16842 16843 16844 16845 16846 16847 16848 16849 16850 16851 16852 16853 16854 16855 16856 16857 16858 16859 16860 16861 16862 16863 16864 16865 16866 16867 16868 16869 16870 16871 16872 16873 16874 16875 16876 16877 16878 16879 16880 16881 16882 16883 16884 16885 16886 16887 16888 16889 16890 16891 16892 16893 16894 16895 16896 16897 16898 16899 16900 16901 16902 16903 16904 16905 16906 16907 16908 16909 16910 16911 16912 16913 16914 16915 16916 16917 16918 16919 16920 16921 16922 16923 16924 16925 16926 16927 16928 16929 16930 16931 16932 16933 16934 16935 16936 16937 16938 16939 16940 16941 16942 16943 16944 16945 16946 16947 16948 16949 16950 16951 16952 16953 16954 16955 16956 16957 16958 16959 16960 16961 16962 16963 16964 16965 16966 16967 16968 16969 16970 16971 16972 16973 16974 16975 16976 16977 16978 16979 16980 16981 16982 16983 16984 16985 16986 16987 16988 16989 16990 16991 16992 16993 16994 16995 16996 16997 16998 16999 17000 17001 17002 17003 17004 17005 17006 17007 17008 17009 17010 17011 17012 17013 17014 17015 17016 17017 17018 17019 17020 17021 17022 17023 17024 17025 17026 17027 17028 17029 17030 17031 17032 17033 17034 17035 17036 17037 17038 17039 17040 17041 17042 17043 17044 17045 17046 17047 17048 17049 17050 17051 17052 17053 17054 17055 17056 17057 17058 17059 17060 17061 17062 17063 17064 17065 17066 17067 17068 17069 17070 17071 17072 17073 17074 17075 17076 17077 17078 17079 17080 17081 17082 17083 17084 17085 17086 17087 17088 17089 17090 17091 17092 17093 17094 17095 17096 17097 17098 17099 17100 17101 17102 17103 17104 17105 17106 17107 17108 17109 17110 17111 17112 17113 17114 17115 17116 17117 17118 17119 17120 17121 17122 17123 17124 17125 17126 17127 17128 17129 17130 17131 17132 17133 17134 17135 17136 17137 17138 17139 17140 17141 17142 17143 17144 17145 17146 17147 17148 17149 17150 17151 17152 17153 17154 17155 17156 17157 17158 17159 17160 17161 17162 17163 17164 17165 17166 17167 17168 17169 17170 17171 17172 17173 17174 17175 17176 17177 17178 17179 17180 17181 17182 17183 17184 17185 17186 17187 17188 17189 17190 17191 17192 17193 17194 17195 17196 17197 17198 17199 17200 17201 17202 17203 17204 17205 17206 17207 17208 17209 17210 17211 17212 17213 17214 17215 17216 17217 17218 17219 17220 17221 17222 17223 17224 17225 17226 17227 17228 17229 17230 17231 17232 17233 17234 17235 17236 17237 17238 17239 17240 17241 17242 17243 17244 17245 17246 17247 17248 17249 17250 17251 17252 17253 17254 17255 17256 17257 17258 17259 17260 17261 17262 17263 17264 17265 17266 17267 17268 17269 17270 17271 17272 17273 17274 17275 17276 17277 17278 17279 17280 17281 17282 17283 17284 17285 17286 17287 17288 17289 17290 17291 17292 17293 17294 17295 17296 17297 17298 17299 17300 17301 17302 17303 17304 17305 17306 17307 17308 17309 17310 17311 17312 17313 17314 17315 17316 17317 17318 17319 17320 17321 17322 17323 17324 17325 17326 17327 17328 17329 17330 17331 17332 17333 17334 17335 17336 17337 17338 17339 17340 17341 17342 17343 17344 17345 17346 17347 17348 17349 17350 17351 17352 17353 17354 17355 17356 17357 17358 17359 17360 17361 17362 17363 17364 17365 17366 17367 17368 17369 17370 17371 17372 17373 17374 17375 17376 17377 17378 17379 17380 17381 17382 17383 17384 17385 17386 17387 17388 17389 17390 17391 17392 17393 17394 17395 17396 17397 17398 17399 17400 17401 17402 17403 17404 17405 17406 17407 17408 17409 17410 17411 17412 17413 17414 17415 17416 17417 17418 17419 17420 17421 17422 17423 17424 17425 17426 17427 17428 17429 17430 17431 17432 17433 17434 17435 17436 17437 17438 17439 17440 17441 17442 17443 17444 17445 17446 17447 17448 17449 17450 17451 17452 17453 17454 17455 17456 17457 17458 17459 17460 17461 17462 17463 17464 17465 17466 17467 17468 17469 17470 17471 17472 17473 17474 17475 17476 17477 17478 17479 17480 17481 17482 17483 17484 17485 17486 17487 17488 17489 17490 17491 17492 17493 17494 17495 17496 17497 17498 17499 17500 17501 17502 17503 17504 17505 17506 17507 17508 17509 17510 17511 17512 17513 17514 17515 17516 17517 17518 17519 17520 17521 17522 17523 17524 17525 17526 17527 17528 17529 17530 17531 17532 17533 17534 17535 17536 17537 17538 17539 17540 17541 17542 17543 17544 17545 17546 17547 17548 17549 17550 17551 17552 17553 17554 17555 17556 17557 17558 17559 17560 17561 17562 17563 17564 17565 17566 17567 17568 17569 17570 17571 17572 17573 17574 17575 17576 17577 17578 17579 17580 17581 17582 17583 17584 17585 17586 17587 17588 17589 17590 17591 17592 17593 17594 17595 17596 17597 17598 17599 17600 17601 17602 17603 17604 17605 17606 17607 17608 17609 17610 17611 17612 17613 17614 17615 17616 17617 17618 17619 17620 17621 17622 17623 17624 17625 17626 17627 17628 17629 17630 17631 17632 17633 17634 17635 17636 17637 17638 17639 17640 17641 17642 17643 17644 17645 17646 17647 17648 17649 17650 17651 17652 17653 17654 17655 17656 17657 17658 17659 17660 17661 17662 17663 17664 17665 17666 17667 17668 17669 17670 17671 17672 17673 17674 17675 17676 17677 17678 17679 17680 17681 17682 17683 17684 17685 17686 17687 17688 17689 17690 17691 17692 17693 17694 17695 17696 17697 17698 17699 17700 17701 17702 17703 17704 17705 17706 17707 17708 17709 17710 17711 17712 17713 17714 17715 17716 17717 17718 17719 17720 17721 17722 17723 17724 17725 17726 17727 17728 17729 17730 17731 17732 17733 17734 17735 17736 17737 17738 17739 17740 17741 17742 17743 17744 17745 17746 17747 17748 17749 17750 17751 17752 17753 17754 17755 17756 17757 17758 17759 17760 17761 17762 17763 17764 17765 17766 17767 17768 17769 17770 17771 17772 17773 17774 17775 17776 17777 17778 17779 17780 17781 17782 17783 17784 17785 17786 17787 17788 17789 17790 17791 17792 17793 17794 17795 17796 17797 17798 17799 17800 17801 17802 17803 17804 17805 17806 17807 17808 17809 17810 17811 17812 17813 17814 17815 17816 17817 17818 17819 17820 17821 17822 17823 17824 17825 17826 17827 17828 17829 17830 17831 17832 17833 17834 17835 17836 17837 17838 17839 17840 17841 17842 17843 17844 17845 17846 17847 17848 17849 17850 17851 17852 17853 17854 17855 17856 17857 17858 17859 17860 17861 17862 17863 17864 17865 17866 17867 17868 17869 17870 17871 17872 17873 17874 17875 17876 17877 17878 17879 17880 17881 17882 17883 17884 17885 17886 17887 17888 17889 17890 17891 17892 17893 17894 17895 17896 17897 17898 17899 17900 17901 17902 17903 17904 17905 17906 17907 17908 17909 17910 17911 17912 17913 17914 17915 17916 17917 17918 17919 17920 17921 17922 17923 17924 17925 17926 17927 17928 17929 17930 17931 17932 17933 17934 17935 17936 17937 17938 17939 17940 17941 17942 17943 17944 17945 17946 17947 17948 17949 17950 17951 17952 17953 17954 17955 17956 17957 17958 17959 17960 17961 17962 17963 17964 17965 17966 17967 17968 17969 17970 17971 17972 17973 17974 17975 17976 17977 17978 17979 17980 17981 17982 17983 17984 17985 17986 17987 17988 17989 17990 17991 17992 17993 17994 17995 17996 17997 17998 17999 18000 18001 18002 18003 18004 18005 18006 18007 18008 18009 18010 18011 18012 18013 18014 18015 18016 18017 18018 18019 18020 18021 18022 18023 18024 18025 18026 18027 18028 18029 18030 18031 18032 18033 18034 18035 18036 18037 18038 18039 18040 18041 18042 18043 18044 18045 18046 18047 18048 18049 18050 18051 18052 18053 18054 18055 18056 18057 18058 18059 18060 18061 18062 18063 18064 18065 18066 18067 18068 18069 18070 18071 18072 18073 18074 18075 18076 18077 18078 18079 18080 18081 18082 18083 18084 18085 18086 18087 18088 18089 18090 18091 18092 18093 18094 18095 18096 18097 18098 18099 18100 18101 18102 18103 18104 18105 18106 18107 18108 18109 18110 18111 18112 18113 18114 18115 18116 18117 18118 18119 18120 18121 18122 18123 18124 18125 18126 18127 18128 18129 18130 18131 18132 18133 18134 18135 18136 18137 18138 18139 18140 18141 18142 18143 18144 18145 18146 18147 18148 18149 18150 18151 18152 18153 18154 18155 18156 18157 18158 18159 18160 18161 18162 18163 18164 18165 18166 18167 18168 18169 18170 18171 18172 18173 18174 18175 18176 18177 18178 18179 18180 18181 18182 18183 18184 18185 18186 18187 18188 18189 18190 18191 18192 18193 18194 18195 18196 18197 18198 18199 18200 18201 18202 18203 18204 18205 18206 18207 18208 18209 18210 18211 18212 18213 18214 18215 18216 18217 18218 18219 18220 18221 18222 18223 18224 18225 18226 18227 18228 18229 18230 18231 18232 18233 18234 18235 18236 18237 18238 18239 18240 18241 18242 18243 18244 18245 18246 18247 18248 18249 18250 18251 18252 18253 18254 18255 18256 18257 18258 18259 18260 18261 18262 18263 18264 18265 18266 18267 18268 18269 18270 18271 18272 18273 18274 18275 18276 18277 18278 18279 18280 18281 18282 18283 18284 18285 18286 18287 18288 18289 18290 18291 18292 18293 18294 18295 18296 18297 18298 18299 18300 18301 18302 18303 18304 18305 18306 18307 18308 18309 18310 18311 18312 18313 18314 18315 18316 18317 18318 18319 18320 18321 18322 18323 18324 18325 18326 18327 18328 18329 18330 18331 18332 18333 18334 18335 18336 18337 18338 18339 18340 18341 18342 18343 18344 18345 18346 18347 18348 18349 18350 18351 18352 18353 18354 18355 18356 18357 18358 18359 18360 18361 18362 18363 18364 18365 18366 18367 18368 18369 18370 18371 18372 18373 18374 18375 18376 18377 18378 18379 18380 18381 18382 18383 18384 18385 18386 18387 18388 18389 18390 18391 18392 18393 18394 18395 18396 18397 18398 18399 18400 18401 18402 18403 18404 18405 18406 18407 18408 18409 18410 18411 18412 18413 18414 18415 18416 18417 18418 18419 18420 18421 18422 18423 18424 18425 18426 18427 18428 18429 18430 18431 18432 18433 18434 18435 18436 18437 18438 18439 18440 18441 18442 18443 18444 18445 18446 18447 18448 18449 18450 18451 18452 18453 18454 18455 18456 18457 18458 18459 18460 18461 18462 18463 18464 18465 18466 18467 18468 18469 18470 18471 18472 18473 18474 18475 18476 18477 18478 18479 18480 18481 18482 18483 18484 18485 18486 18487 18488 18489 18490 18491 18492 18493 18494 18495 18496 18497 18498 18499 18500 18501 18502 18503 18504 18505 18506 18507 18508 18509 18510 18511 18512 18513 18514 18515 18516 18517 18518 18519 18520 18521 18522 18523 18524 18525 18526 18527 18528 18529 18530 18531 18532 18533 18534 18535 18536 18537 18538 18539 18540 18541 18542 18543 18544 18545 18546 18547 18548 18549 18550 18551 18552 18553 18554 18555 18556 18557 18558 18559 18560 18561 18562 18563 18564 18565 18566 18567 18568 18569 18570 18571 18572 18573 18574 18575 18576 18577 18578 18579 18580 18581 18582 18583 18584 18585 18586 18587 18588 18589 18590 18591 18592 18593 18594 18595 18596 18597 18598 18599 18600 18601 18602 18603 18604 18605 18606 18607 18608 18609 18610 18611 18612 18613 18614 18615 18616 18617 18618 18619 18620 18621 18622 18623 18624 18625 18626 18627 18628 18629 18630 18631 18632 18633 18634 18635 18636 18637 18638 18639 18640 18641 18642 18643 18644 18645 18646 18647 18648 18649 18650 18651 18652 18653 18654 18655 18656 18657 18658 18659 18660 18661 18662 18663 18664 18665 18666 18667 18668 18669 18670 18671 18672 18673 18674 18675 18676 18677 18678 18679 18680 18681 18682 18683 18684 18685 18686 18687 18688 18689 18690 18691 18692 18693 18694 18695 18696 18697 18698 18699 18700 18701 18702 18703 18704 18705 18706 18707 18708 18709 18710 18711 18712 18713 18714 18715 18716 18717 18718 18719 18720 18721 18722 18723 18724 18725 18726 18727 18728 18729 18730 18731 18732 18733 18734 18735 18736 18737 18738 18739 18740 18741 18742 18743 18744 18745 18746 18747 18748 18749 18750 18751 18752 18753 18754 18755 18756 18757 18758 18759 18760 18761 18762 18763 18764 18765 18766 18767 18768 18769 18770 18771 18772 18773 18774 18775 18776 18777 18778 18779 18780 18781 18782 18783 18784 18785 18786 18787 18788 18789 18790 18791 18792 18793 18794 18795 18796 18797 18798 18799 18800 18801 18802 18803 18804 18805 18806 18807 18808 18809 18810 18811 18812 18813 18814 18815 18816 18817 18818 18819 18820 18821 18822 18823 18824 18825 18826 18827 18828 18829 18830 18831 18832 18833 18834 18835 18836 18837 18838 18839 18840 18841 18842 18843 18844 18845 18846 18847 18848 18849 18850 18851 18852 18853 18854 18855 18856 18857 18858 18859 18860 18861 18862 18863 18864 18865 18866 18867 18868 18869 18870 18871 18872 18873 18874 18875 18876 18877 18878 18879 18880 18881 18882 18883 18884 18885 18886 18887 18888 18889 18890 18891 18892 18893 18894 18895 18896 18897 18898 18899 18900 18901 18902 18903 18904 18905 18906 18907 18908 18909 18910 18911 18912 18913 18914 18915 18916 18917 18918 18919 18920 18921 18922 18923 18924 18925 18926 18927 18928 18929 18930 18931 18932 18933 18934 18935 18936 18937 18938 18939 18940 18941 18942 18943 18944 18945 18946 18947 18948 18949 18950 18951 18952 18953 18954 18955 18956 18957 18958 18959 18960 18961 18962 18963 18964 18965 18966 18967 18968 18969 18970 18971 18972 18973 18974 18975 18976 18977 18978 18979 18980 18981 18982 18983 18984 18985 18986 18987 18988 18989 18990 18991 18992 18993 18994 18995 18996 18997 18998 18999 19000 19001 19002 19003 19004 19005 19006 19007 19008 19009 19010 19011 19012 19013 19014 19015 19016 19017 19018 19019 19020 19021 19022 19023 19024 19025 19026 19027 19028 19029 19030 19031 19032 19033 19034 19035 19036 19037 19038 19039 19040 19041 19042 19043 19044 19045 19046 19047 19048 19049 19050 19051 19052 19053 19054 19055 19056 19057 19058 19059 19060 19061 19062 19063 19064 19065 19066 19067 19068 19069 19070 19071 19072 19073 19074 19075 19076 19077 19078 19079 19080 19081 19082 19083 19084 19085 19086 19087 19088 19089 19090 19091 19092 19093 19094 19095 19096 19097 19098 19099 19100 19101 19102 19103 19104 19105 19106 19107 19108 19109 19110 19111 19112 19113 19114 19115 19116 19117 19118 19119 19120 19121 19122 19123 19124 19125 19126 19127 19128 19129 19130 19131 19132 19133 19134 19135 19136 19137 19138 19139 19140 19141 19142 19143 19144 19145 19146 19147 19148 19149 19150 19151 19152 19153 19154 19155 19156 19157 19158 19159 19160 19161 19162 19163 19164 19165 19166 19167 19168 19169 19170 19171 19172 19173 19174 19175 19176 19177 19178 19179 19180 19181 19182 19183 19184 19185 19186 19187 19188 19189 19190 19191 19192 19193 19194 19195 19196 19197 19198 19199 19200 19201 19202 19203 19204 19205 19206 19207 19208 19209 19210 19211 19212 19213 19214 19215 19216 19217 19218 19219 19220 19221 19222 19223 19224 19225 19226 19227 19228 19229 19230 19231 19232 19233 19234 19235 19236 19237 19238 19239 19240 19241 19242 19243 19244 19245 19246 19247 19248 19249 19250 19251 19252 19253 19254 19255 19256 19257 19258 19259 19260 19261 19262 19263 19264 19265 19266 19267 19268 19269 19270 19271 19272 19273 19274 19275 19276 19277 19278 19279 19280 19281 19282 19283 19284 19285 19286 19287 19288 19289 19290 19291 19292 19293 19294 19295 19296 19297 19298 19299 19300 19301 19302 19303 19304 19305 19306 19307 19308 19309 19310 19311 19312 19313 19314 19315 19316 19317 19318 19319 19320 19321 19322 19323 19324 19325 19326 19327 19328 19329 19330 19331 19332 19333 19334 19335 19336 19337 19338 19339 19340 19341 19342 19343 19344 19345 19346 19347 19348 19349 19350 19351 19352 19353 19354 19355 19356 19357 19358 19359 19360 19361 19362 19363 19364 19365 19366 19367 19368 19369 19370 19371 19372 19373 19374 19375 19376 19377 19378 19379 19380 19381 19382 19383 19384 19385 19386 19387 19388 19389 19390 19391 19392 19393 19394 19395 19396 19397 19398 19399 19400 19401 19402 19403 19404 19405 19406 19407 19408 19409 19410 19411 19412 19413 19414 19415 19416 19417 19418 19419 19420 19421 19422 19423 19424 19425 19426 19427 19428 19429 19430 19431 19432 19433 19434 19435 19436 19437 19438 19439 19440 19441 19442 19443 19444 19445 19446 19447 19448 19449 19450 19451 19452 19453 19454 19455 19456 19457 19458 19459 19460 19461 19462 19463 19464 19465 19466 19467 19468 19469 19470 19471 19472 19473 19474 19475 19476 19477 19478 19479 19480 19481 19482 19483 19484 19485 19486 19487 19488 19489 19490 19491 19492 19493 19494 19495 19496 19497 19498 19499 19500 19501 19502 19503 19504 19505 19506 19507 19508 19509 19510 19511 19512 19513 19514 19515 19516 19517 19518 19519 19520 19521 19522 19523 19524 19525 19526 19527 19528 19529 19530 19531 19532 19533 19534 19535 19536 19537 19538 19539 19540 19541 19542 19543 19544 19545 19546 19547 19548 19549 19550 19551 19552 19553 19554 19555 19556 19557 19558 19559 19560 19561 19562 19563 19564 19565 19566 19567 19568 19569 19570 19571 19572 19573 19574 19575 19576 19577 19578 19579 19580 19581 19582 19583 19584 19585 19586 19587 19588 19589 19590 19591 19592 19593 19594 19595 19596 19597 19598 19599 19600 19601 19602 19603 19604 19605 19606 19607 19608 19609 19610 19611 19612 19613 19614 19615 19616 19617 19618 19619 19620 19621 19622 19623 19624 19625 19626 19627 19628 19629 19630 19631 19632 19633 19634 19635 19636 19637 19638 19639 19640 19641 19642 19643 19644 19645 19646 19647 19648 19649 19650 19651 19652 19653 19654 19655 19656 19657 19658 19659 19660 19661 19662 19663 19664 19665 19666 19667 19668 19669 19670 19671 19672 19673 19674 19675 19676 19677 19678 19679 19680 19681 19682 19683 19684 19685 19686 19687 19688 19689 19690 19691 19692 19693 19694 19695 19696 19697 19698 19699 19700 19701 19702 19703 19704 19705 19706 19707 19708 19709 19710 19711 19712 19713 19714 19715 19716 19717 19718 19719 19720 19721 19722 19723 19724 19725 19726 19727 19728 19729 19730 19731 19732 19733 19734 19735 19736 19737 19738 19739 19740 19741 19742 19743 19744 19745 19746 19747 19748 19749 19750 19751 19752 19753 19754 19755 19756 19757 19758 19759 19760 19761 19762 19763 19764 19765 19766 19767 19768 19769 19770 19771 19772 19773 19774 19775 19776 19777 19778 19779 19780 19781 19782 19783 19784 19785 19786 19787 19788 19789 19790 19791 19792 19793 19794 19795 19796 19797 19798 19799 19800 19801 19802 19803 19804 19805 19806 19807 19808 19809 19810 19811 19812 19813 19814 19815 19816 19817 19818 19819 19820 19821 19822 19823 19824 19825 19826 19827 19828 19829 19830 19831 19832 19833 19834 19835 19836 19837 19838 19839 19840 19841 19842 19843 19844 19845 19846 19847 19848 19849 19850 19851 19852 19853 19854 19855 19856 19857 19858 19859 19860 19861 19862 19863 19864 19865 19866 19867 19868 19869 19870 19871 19872 19873 19874 19875 19876 19877 19878 19879 19880 19881 19882 19883 19884 19885 19886 19887 19888 19889 19890 19891 19892 19893 19894 19895 19896 19897 19898 19899 19900 19901 19902 19903 19904 19905 19906 19907 19908 19909 19910 19911 19912 19913 19914 19915 19916 19917 19918 19919 19920 19921 19922 19923 19924 19925 19926 19927 19928 19929 19930 19931 19932 19933 19934 19935 19936 19937 19938 19939 19940 19941 19942 19943 19944 19945 19946 19947 19948 19949 19950 19951 19952 19953 19954 19955 19956 19957 19958 19959 19960 19961 19962 19963 19964 19965 19966 19967 19968 19969 19970 19971 19972 19973 19974 19975 19976 19977 19978 19979 19980 19981 19982 19983 19984 19985 19986 19987 19988 19989 19990 19991 19992 19993 19994 19995 19996 19997 19998 19999 20000 20001 20002 20003 20004 20005 20006 20007 20008 20009 20010 20011 20012 20013 20014 20015 20016 20017 20018 20019 20020 20021 20022 20023 20024 20025 20026 20027 20028 20029 20030 20031 20032 20033 20034 20035 20036 20037 20038 20039 20040 20041 20042 20043 20044 20045 20046 20047 20048 20049 20050 20051 20052 20053 20054 20055 20056 20057 20058 20059 20060 20061 20062 20063 20064 20065 20066 20067 20068 20069 20070 20071 20072 20073 20074 20075 20076 20077 20078 20079 20080 20081 20082 20083 20084 20085 20086 20087 20088 20089 20090 20091 20092 20093 20094 20095 20096 20097 20098 20099 20100 20101 20102 20103 20104 20105 20106 20107 20108 20109 20110 20111 20112 20113 20114 20115 20116 20117 20118 20119 20120 20121 20122 20123 20124 20125 20126 20127 20128 20129 20130 20131 20132 20133 20134 20135 20136 20137 20138 20139 20140 20141 20142 20143 20144 20145 20146 20147 20148 20149 20150 20151 20152 20153 20154 20155 20156 20157 20158 20159 20160 20161 20162 20163 20164 20165 20166 20167 20168 20169 20170 20171 20172 20173 20174 20175 20176 20177 20178 20179 20180 20181 20182 20183 20184 20185 20186 20187 20188 20189 20190 20191 20192 20193 20194 20195 20196 20197 20198 20199 20200 20201 20202 20203 20204 20205 20206 20207 20208 20209 20210 20211 20212 20213 20214 20215 20216 20217 20218 20219 20220 20221 20222 20223 20224 20225 20226 20227 20228 20229 20230 20231 20232 20233 20234 20235 20236 20237 20238 20239 20240 20241 20242 20243 20244 20245 20246 20247 20248 20249 20250 20251 20252 20253 20254 20255 20256 20257 20258 20259 20260 20261 20262 20263 20264 20265 20266 20267 20268 20269 20270 20271 20272 20273 20274 20275 20276 20277 20278 20279 20280 20281 20282 20283 20284 20285 20286 20287 20288 20289 20290 20291 20292 20293 20294 20295 20296 20297 20298 20299 20300 20301 20302 20303 20304 20305 20306 20307 20308 20309 20310 20311 20312 20313 20314 20315 20316 20317 20318 20319 20320 20321 20322 20323 20324 20325 20326 20327 20328 20329 20330 20331 20332 20333 20334 20335 20336 20337 20338 20339 20340 20341 20342 20343 20344 20345 20346 20347 20348 20349 20350 20351 20352 20353 20354 20355 20356 20357 20358 20359 20360 20361 20362 20363 20364 20365 20366 20367 20368 20369 20370 20371 20372 20373 20374 20375 20376 20377 20378 20379 20380 20381 20382 20383 20384 20385 20386 20387 20388 20389 20390 20391 20392 20393 20394 20395 20396 20397 20398 20399 20400 20401 20402 20403 20404 20405 20406 20407 20408 20409 20410 20411 20412 20413 20414 20415 20416 20417 20418 20419 20420 20421 20422 20423 20424 20425 20426 20427 20428 20429 20430 20431 20432 20433 20434 20435 20436 20437 20438 20439 20440 20441 20442 20443 20444 20445 20446 20447 20448 20449 20450 20451 20452 20453 20454 20455 20456 20457 20458 20459 20460 20461 20462 20463 20464 20465 20466 20467 20468 20469 20470 20471 20472 20473 20474 20475 20476 20477 20478 20479 20480 20481 20482 20483 20484 20485 20486 20487 20488 20489 20490 20491 20492 20493 20494 20495 20496 20497 20498 20499 20500 20501 20502 20503 20504 20505 20506 20507 20508 20509 20510 20511 20512 20513 20514 20515 20516 20517 20518 20519 20520 20521 20522 20523 20524 20525 20526 20527 20528 20529 20530 20531 20532 20533 20534 20535 20536 20537 20538 20539 20540 20541 20542 20543 20544 20545 20546 20547 20548 20549 20550 20551 20552 20553 20554 20555 20556 20557 20558 20559 20560 20561 20562 20563 20564 20565 20566 20567 20568 20569 20570 20571 20572 20573 20574 20575 20576 20577 20578 20579 20580 20581 20582 20583 20584 20585 20586 20587 20588 20589 20590 20591 20592 20593 20594 20595 20596 20597 20598 20599 20600 20601 20602 20603 20604 20605 20606 20607 20608 20609 20610 20611 20612 20613 20614 20615 20616 20617 20618 20619 20620 20621 20622 20623 20624 20625 20626 20627 20628 20629 20630 20631 20632 20633 20634 20635 20636 20637 20638 20639 20640 20641 20642 20643 20644 20645 20646 20647 20648 20649 20650 20651 20652 20653 20654 20655 20656 20657 20658 20659 20660 20661 20662 20663 20664 20665 20666 20667 20668 20669 20670 20671 20672 20673 20674 20675 20676 20677 20678 20679 20680 20681 20682 20683 20684 20685 20686 20687 20688 20689 20690 20691 20692 20693 20694 20695 20696 20697 20698 20699 20700 20701 20702 20703 20704 20705 20706 20707 20708 20709 20710 20711 20712 20713 20714 20715 20716 20717 20718 20719 20720 20721 20722 20723 20724 20725 20726 20727 20728 20729 20730 20731 20732 20733 20734 20735 20736 20737 20738 20739 20740 20741 20742 20743 20744 20745 20746 20747 20748 20749 20750 20751 20752 20753 20754 20755 20756 20757 20758 20759 20760 20761 20762 20763 20764 20765 20766 20767 20768 20769 20770 20771 20772 20773 20774 20775 20776 20777 20778 20779 20780 20781 20782 20783 20784 20785 20786 20787 20788 20789 20790 20791 20792 20793 20794 20795 20796 20797 20798 20799 20800 20801 20802 20803 20804 20805 20806 20807 20808 20809 20810 20811 20812 20813 20814 20815 20816 20817 20818 20819 20820 20821 20822 20823 20824 20825 20826 20827 20828 20829 20830 20831 20832 20833 20834 20835 20836 20837 20838 20839 20840 20841 20842 20843 20844 20845 20846 20847 20848 20849 20850 20851 20852 20853 20854 20855 20856 20857 20858 20859 20860 20861 20862 20863 20864 20865 20866 20867 20868 20869 20870 20871 20872 20873 20874 20875 20876 20877 20878 20879 20880 20881 20882 20883 20884 20885 20886 20887 20888 20889 20890 20891 20892 20893 20894 20895 20896 20897 20898 20899 20900 20901 20902 20903 20904 20905 20906 20907 20908 20909 20910 20911 20912 20913 20914 20915 20916 20917 20918 20919 20920 20921 20922 20923 20924 20925 20926 20927 20928 20929 20930 20931 20932 20933 20934 20935 20936 20937 20938 20939 20940 20941 20942 20943 20944 20945 20946 20947 20948 20949 20950 20951 20952 20953 20954 20955 20956 20957 20958 20959 20960 20961 20962 20963 20964 20965 20966 20967 20968 20969 20970 20971 20972 20973 20974 20975 20976 20977 20978 20979 20980 20981 20982 20983 20984 20985 20986 20987 20988 20989 20990 20991 20992 20993 20994 20995 20996 20997 20998 20999 21000 21001 21002 21003 21004 21005 21006 21007 21008 21009 21010 21011 21012 21013 21014 21015 21016 21017 21018 21019 21020 21021 21022 21023 21024 21025 21026 21027 21028 21029 21030 21031 21032 21033 21034 21035 21036 21037 21038 21039 21040 21041 21042 21043 21044 21045 21046 21047 21048 21049 21050 21051 21052 21053 21054 21055 21056 21057 21058 21059 21060 21061 21062 21063 21064 21065 21066 21067 21068 21069 21070 21071 21072 21073 21074 21075 21076 21077 21078 21079 21080 21081 21082 21083 21084 21085 21086 21087 21088 21089 21090 21091 21092 21093 21094 21095 21096 21097 21098 21099 21100 21101 21102 21103 21104 21105 21106 21107 21108 21109 21110 21111 21112 21113 21114 21115 21116 21117 21118 21119 21120 21121 21122 21123 21124 21125 21126 21127 21128 21129 21130 21131 21132 21133 21134 21135 21136 21137 21138 21139 21140 21141 21142 21143 21144 21145 21146 21147 21148 21149 21150 21151 21152 21153 21154 21155 21156 21157 21158 21159 21160 21161 21162 21163 21164 21165 21166 21167 21168 21169 21170 21171 21172 21173 21174 21175 21176 21177 21178 21179 21180 21181 21182 21183 21184 21185 21186 21187 21188 21189 21190 21191 21192 21193 21194 21195 21196 21197 21198 21199 21200 21201 21202 21203 21204 21205 21206 21207 21208 21209 21210 21211 21212 21213 21214 21215 21216 21217 21218 21219 21220 21221 21222 21223 21224 21225 21226 21227 21228 21229 21230 21231 21232 21233 21234 21235 21236 21237 21238 21239 21240 21241 21242 21243 21244 21245 21246 21247 21248 21249 21250 21251 21252 21253 21254 21255 21256 21257 21258 21259 21260 21261 21262 21263 21264 21265 21266 21267 21268 21269 21270 21271 21272 21273 21274 21275 21276 21277 21278 21279 21280 21281 21282 21283 21284 21285 21286 21287 21288 21289 21290 21291 21292 21293 21294 21295 21296 21297 21298 21299 21300 21301 21302 21303 21304 21305 21306 21307 21308 21309 21310 21311 21312 21313 21314 21315 21316 21317 21318 21319 21320 21321 21322 21323 21324 21325 21326 21327 21328 21329 21330 21331 21332 21333 21334 21335 21336 21337 21338 21339 21340 21341 21342 21343 21344 21345 21346 21347 21348 21349 21350 21351 21352 21353 21354 21355 21356 21357 21358 21359 21360 21361 21362 21363 21364 21365 21366 21367 21368 21369 21370 21371 21372 21373 21374 21375 21376 21377 21378 21379 21380 21381 21382 21383 21384 21385 21386 21387 21388 21389 21390 21391 21392 21393 21394 21395 21396 21397 21398 21399 21400 21401 21402 21403 21404 21405 21406 21407 21408 21409 21410 21411 21412 21413 21414 21415 21416 21417 21418 21419 21420 21421 21422 21423 21424 21425 21426 21427 21428 21429 21430 21431 21432 21433 21434 21435 21436 21437 21438 21439 21440 21441 21442 21443 21444 21445 21446 21447 21448 21449 21450 21451 21452 21453 21454 21455 21456 21457 21458 21459 21460 21461 21462 21463 21464 21465 21466 21467 21468 21469 21470 21471 21472 21473 21474 21475 21476 21477 21478 21479 21480 21481 21482 21483 21484 21485 21486 21487 21488 21489 21490 21491 21492 21493 21494 21495 21496 21497 21498 21499 21500 21501 21502 21503 21504 21505 21506 21507 21508 21509 21510 21511 21512 21513 21514 21515 21516 21517 21518 21519 21520 21521 21522 21523 21524 21525 21526 21527 21528 21529 21530 21531 21532 21533 21534 21535 21536 21537 21538 21539 21540 21541 21542 21543 21544 21545 21546 21547 21548 21549 21550 21551 21552 21553 21554 21555 21556 21557 21558 21559 21560 21561 21562 21563 21564 21565 21566 21567 21568 21569 21570 21571 21572 21573 21574 21575 21576 21577 21578 21579 21580 21581 21582 21583 21584 21585 21586 21587 21588 21589 21590 21591 21592 21593 21594 21595 21596 21597 21598 21599 21600 21601 21602 21603 21604 21605 21606 21607 21608 21609 21610 21611 21612 21613 21614 21615 21616 21617 21618 21619 21620 21621 21622 21623 21624 21625 21626 21627 21628 21629 21630 21631 21632 21633 21634 21635 21636 21637 21638 21639 21640 21641 21642 21643 21644 21645 21646 21647 21648 21649 21650 21651 21652 21653 21654 21655 21656 21657 21658 21659 21660 21661 21662 21663 21664 21665 21666 21667 21668 21669 21670 21671 21672 21673 21674 21675 21676 21677 21678 21679 21680 21681 21682 21683 21684 21685 21686 21687 21688 21689 21690 21691 21692 21693 21694 21695 21696 21697 21698 21699 21700 21701 21702 21703 21704 21705 21706 21707 21708 21709 21710 21711 21712 21713 21714 21715 21716 21717 21718 21719 21720 21721 21722 21723 21724 21725 21726 21727 21728 21729 21730 21731 21732 21733 21734 21735 21736 21737 21738 21739 21740 21741 21742 21743 21744 21745 21746 21747 21748 21749 21750 21751 21752 21753 21754 21755 21756 21757 21758 21759 21760 21761 21762 21763 21764 21765 21766 21767 21768 21769 21770 21771 21772 21773 21774 21775 21776 21777 21778 21779 21780 21781 21782 21783 21784 21785 21786 21787 21788 21789 21790 21791 21792 21793 21794 21795 21796 21797 21798 21799 21800 21801 21802 21803 21804 21805 21806 21807 21808 21809 21810 21811 21812 21813 21814 21815 21816 21817 21818 21819 21820 21821 21822 21823 21824 21825 21826 21827 21828 21829 21830 21831 21832 21833 21834 21835 21836 21837 21838 21839 21840 21841 21842 21843 21844 21845 21846 21847 21848 21849 21850 21851 21852 21853 21854 21855 21856 21857 21858 21859 21860 21861 21862 21863 21864 21865 21866 21867 21868 21869 21870 21871 21872 21873 21874 21875 21876 21877 21878 21879 21880 21881 21882 21883 21884 21885 21886 21887 21888 21889 21890 21891 21892 21893 21894 21895 21896 21897 21898 21899 21900 21901 21902 21903 21904 21905 21906 21907 21908 21909 21910 21911 21912 21913 21914 21915 21916 21917 21918 21919 21920 21921 21922 21923 21924 21925 21926 21927 21928 21929 21930 21931 21932 21933 21934 21935 21936 21937 21938 21939 21940 21941 21942 21943 21944 21945 21946 21947 21948 21949 21950 21951 21952 21953 21954 21955 21956 21957 21958 21959 21960 21961 21962 21963 21964 21965 21966 21967 21968 21969 21970 21971 21972 21973 21974 21975 21976 21977 21978 21979 21980 21981 21982 21983 21984 21985 21986 21987 21988 21989 21990 21991 21992 21993 21994 21995 21996 21997 21998 21999 22000 22001 22002 22003 22004 22005 22006 22007 22008 22009 22010 22011 22012 22013 22014 22015 22016 22017 22018 22019 22020 22021 22022 22023 22024 22025 22026 22027 22028 22029 22030 22031 22032 22033 22034 22035 22036 22037 22038 22039 22040 22041 22042 22043 22044 22045 22046 22047 22048 22049 22050 22051 22052 22053 22054 22055 22056 22057 22058 22059 22060 22061 22062 22063 22064 22065 22066 22067 22068 22069 22070 22071 22072 22073 22074 22075 22076 22077 22078 22079 22080 22081 22082 22083 22084 22085 22086 22087 22088 22089 22090 22091 22092 22093 22094 22095 22096 22097 22098 22099 22100 22101 22102 22103 22104 22105 22106 22107 22108 22109 22110 22111 22112 22113 22114 22115 22116 22117 22118 22119 22120 22121 22122 22123 22124 22125 22126 22127 22128 22129 22130 22131 22132 22133 22134 22135 22136 22137 22138 22139 22140 22141 22142 22143 22144 22145 22146 22147 22148 22149 22150 22151 22152 22153 22154 22155 22156 22157 22158 22159 22160 22161 22162 22163 22164 22165 22166 22167 22168 22169 22170 22171 22172 22173 22174 22175 22176 22177 22178 22179 22180 22181 22182 22183 22184 22185 22186 22187 22188 22189 22190 22191 22192 22193 22194 22195 22196 22197 22198 22199 22200 22201 22202 22203 22204 22205 22206 22207 22208 22209 22210 22211 22212 22213 22214 22215 22216 22217 22218 22219 22220 22221 22222 22223 22224 22225 22226 22227 22228 22229 22230 22231 22232 22233 22234 22235 22236 22237 22238 22239 22240 22241 22242 22243 22244 22245 22246 22247 22248 22249 22250 22251 22252 22253 22254 22255 22256 22257 22258 22259 22260 22261 22262 22263 22264 22265 22266 22267 22268 22269 22270 22271 22272 22273 22274 22275 22276 22277 22278 22279 22280 22281 22282 22283 22284 22285 22286 22287 22288 22289 22290 22291 22292 22293 22294 22295 22296 22297 22298 22299 22300 22301 22302 22303 22304 22305 22306 22307 22308 22309 22310 22311 22312 22313 22314 22315 22316 22317 22318 22319 22320 22321 22322 22323 22324 22325 22326 22327 22328 22329 22330 22331 22332 22333 22334 22335 22336 22337 22338 22339 22340 22341 22342 22343 22344 22345 22346 22347 22348 22349 22350 22351 22352 22353 22354 22355 22356 22357 22358 22359 22360 22361 22362 22363 22364 22365 22366 22367 22368 22369 22370 22371 22372 22373 22374 22375 22376 22377 22378 22379 22380 22381 22382 22383 22384 22385 22386 22387 22388 22389 22390 22391 22392 22393 22394 22395 22396 22397 22398 22399 22400 22401 22402 22403 22404 22405 22406 22407 22408 22409 22410 22411 22412 22413 22414 22415 22416 22417 22418 22419 22420 22421 22422 22423 22424 22425 22426 22427 22428 22429 22430 22431 22432 22433 22434 22435 22436 22437 22438 22439 22440 22441 22442 22443 22444 22445 22446 22447 22448 22449 22450 22451 22452 22453 22454 22455 22456 22457 22458 22459 22460 22461 22462 22463 22464 22465 22466 22467 22468 22469 22470 22471 22472 22473 22474 22475 22476 22477 22478 22479 22480 22481 22482 22483 22484 22485 22486 22487 22488 22489 22490 22491 22492 22493 22494 22495 22496 22497 22498 22499 22500 22501 22502 22503 22504 22505 22506 22507 22508 22509 22510 22511 22512 22513 22514 22515 22516 22517 22518 22519 22520 22521 22522 22523 22524 22525 22526 22527 22528 22529 22530 22531 22532 22533 22534 22535 22536 22537 22538 22539 22540 22541 22542 22543 22544 22545 22546 22547 22548 22549 22550 22551 22552 22553 22554 22555 22556 22557 22558 22559 22560 22561 22562 22563 22564 22565 22566 22567 22568 22569 22570 22571 22572 22573 22574 22575 22576 22577 22578 22579 22580 22581 22582 22583 22584 22585 22586 22587 22588 22589 22590 22591 22592 22593 22594 22595 22596 22597 22598 22599 22600 22601 22602 22603 22604 22605 22606 22607 22608 22609 22610 22611 22612 22613 22614 22615 22616 22617 22618 22619 22620 22621 22622 22623 22624 22625 22626 22627 22628 22629 22630 22631 22632 22633 22634 22635 22636 22637 22638 22639 22640 22641 22642 22643 22644 22645 22646 22647 22648 22649 22650 22651 22652 22653 22654 22655 22656 22657 22658 22659 22660 22661 22662 22663 22664 22665 22666 22667 22668 22669 22670 22671 22672 22673 22674 22675 22676 22677 22678 22679 22680 22681 22682 22683 22684 22685 22686 22687 22688 22689 22690 22691 22692 22693 22694 22695 22696 22697 22698 22699 22700 22701 22702 22703 22704 22705 22706 22707 22708 22709 22710 22711 22712 22713 22714 22715 22716 22717 22718 22719 22720 22721 22722 22723 22724 22725 22726 22727 22728 22729 22730 22731 22732 22733 22734 22735 22736 22737 22738 22739 22740 22741 22742 22743 22744 22745 22746 22747 22748 22749 22750 22751 22752 22753 22754 22755 22756 22757 22758 22759 22760 22761 22762 22763 22764 22765 22766 22767 22768 22769 22770 22771 22772 22773 22774 22775 22776 22777 22778 22779 22780 22781 22782 22783 22784 22785 22786 22787 22788 22789 22790 22791 22792 22793 22794 22795 22796 22797 22798 22799 22800 22801 22802 22803 22804 22805 22806 22807 22808 22809 22810 22811 22812 22813 22814 22815 22816 22817 22818 22819 22820 22821 22822 22823 22824 22825 22826 22827 22828 22829 22830 22831 22832 22833 22834 22835 22836 22837 22838 22839 22840 22841 22842 22843 22844 22845 22846 22847 22848 22849 22850 22851 22852 22853 22854 22855 22856 22857 22858 22859 22860 22861 22862 22863 22864 22865 22866 22867 22868 22869 22870 22871 22872 22873 22874 22875 22876 22877 22878 22879 22880 22881 22882 22883 22884 22885 22886 22887 22888 22889 22890 22891 22892 22893 22894 22895 22896 22897 22898 22899 22900 22901 22902 22903 22904 22905 22906 22907 22908 22909 22910 22911 22912 22913 22914 22915 22916 22917 22918 22919 22920 22921 22922 22923 22924 22925 22926 22927 22928 22929 22930 22931 22932 22933 22934 22935 22936 22937 22938 22939 22940 22941 22942 22943 22944 22945 22946 22947 22948 22949 22950 22951 22952 22953 22954 22955 22956 22957 22958 22959 22960 22961 22962 22963 22964 22965 22966 22967 22968 22969 22970 22971 22972 22973 22974 22975 22976 22977 22978 22979 22980 22981 22982 22983 22984 22985 22986 22987 22988 22989 22990 22991 22992 22993 22994 22995 22996 22997 22998 22999 23000 23001 23002 23003 23004 23005 23006 23007 23008 23009 23010 23011 23012 23013 23014 23015 23016 23017 23018 23019 23020 23021 23022 23023 23024 23025 23026 23027 23028 23029 23030 23031 23032 23033 23034 23035 23036 23037 23038 23039 23040 23041 23042 23043 23044 23045 23046 23047 23048 23049 23050 23051 23052 23053 23054 23055 23056 23057 23058 23059 23060 23061 23062 23063 23064 23065 23066 23067 23068 23069 23070 23071 23072 23073 23074 23075 23076 23077 23078 23079 23080 23081 23082 23083 23084 23085 23086 23087 23088 23089 23090 23091 23092 23093 23094 23095 23096 23097 23098 23099 23100 23101 23102 23103 23104 23105 23106 23107 23108 23109 23110 23111 23112 23113 23114 23115 23116 23117 23118 23119 23120 23121 23122 23123 23124 23125 23126 23127 23128 23129 23130 23131 23132 23133 23134 23135 23136 23137 23138 23139 23140 23141 23142 23143 23144 23145 23146 23147 23148 23149 23150 23151 23152 23153 23154 23155 23156 23157 23158 23159 23160 23161 23162 23163 23164 23165 23166 23167 23168 23169 23170 23171 23172 23173 23174 23175 23176 23177 23178 23179 23180 23181 23182 23183 23184 23185 23186 23187 23188 23189 23190 23191 23192 23193 23194 23195 23196 23197 23198 23199 23200 23201 23202 23203 23204 23205 23206 23207 23208 23209 23210 23211 23212 23213 23214 23215 23216 23217 23218 23219 23220 23221 23222 23223 23224 23225 23226 23227 23228 23229 23230 23231 23232 23233 23234 23235 23236 23237 23238 23239 23240 23241 23242 23243 23244 23245 23246 23247 23248 23249 23250 23251 23252 23253 23254 23255 23256 23257 23258 23259 23260 23261 23262 23263 23264 23265 23266 23267 23268 23269 23270 23271 23272 23273 23274 23275 23276 23277 23278 23279 23280 23281 23282 23283 23284 23285 23286 23287 23288 23289 23290 23291 23292 23293 23294 23295 23296 23297 23298 23299 23300 23301 23302 23303 23304 23305 23306 23307 23308 23309 23310 23311 23312 23313 23314 23315 23316 23317 23318 23319 23320 23321 23322 23323 23324 23325 23326 23327 23328 23329 23330 23331 23332 23333 23334 23335 23336 23337 23338 23339 23340 23341 23342 23343 23344 23345 23346 23347 23348 23349 23350 23351 23352 23353 23354 23355 23356 23357 23358 23359 23360 23361 23362 23363 23364 23365 23366 23367 23368 23369 23370 23371 23372 23373 23374 23375 23376 23377 23378 23379 23380 23381 23382 23383 23384 23385 23386 23387 23388 23389 23390 23391 23392 23393 23394 23395 23396 23397 23398 23399 23400 23401 23402 23403 23404 23405 23406 23407 23408 23409 23410 23411 23412 23413 23414 23415 23416 23417 23418 23419 23420 23421 23422 23423 23424 23425 23426 23427 23428 23429 23430 23431 23432 23433 23434 23435 23436 23437 23438 23439 23440 23441 23442 23443 23444 23445 23446 23447 23448 23449 23450 23451 23452 23453 23454 23455 23456 23457 23458 23459 23460 23461 23462 23463 23464 23465 23466 23467 23468 23469 23470 23471 23472 23473 23474 23475 23476 23477 23478 23479 23480 23481 23482 23483 23484 23485 23486 23487 23488 23489 23490 23491 23492 23493 23494 23495 23496 23497 23498 23499 23500 23501 23502 23503 23504 23505 23506 23507 23508 23509 23510 23511 23512 23513 23514 23515 23516 23517 23518 23519 23520 23521 23522 23523 23524 23525 23526 23527 23528 23529 23530 23531 23532 23533 23534 23535 23536 23537 23538 23539 23540 23541 23542 23543 23544 23545 23546 23547 23548 23549 23550 23551 23552 23553 23554 23555 23556 23557 23558 23559 23560 23561 23562 23563 23564 23565 23566 23567 23568 23569 23570 23571 23572 23573 23574 23575 23576 23577 23578 23579 23580 23581 23582 23583 23584 23585 23586 23587 23588 23589 23590 23591 23592 23593 23594 23595 23596 23597 23598 23599 23600 23601 23602 23603 23604 23605 23606 23607 23608 23609 23610 23611 23612 23613 23614 23615 23616 23617 23618 23619 23620 23621 23622 23623 23624 23625 23626 23627 23628 23629 23630 23631 23632 23633 23634 23635 23636 23637 23638 23639 23640 23641 23642 23643 23644 23645 23646 23647 23648 23649 23650 23651 23652 23653 23654 23655 23656 23657 23658 23659 23660 23661 23662 23663 23664 23665 23666 23667 23668 23669 23670 23671 23672 23673 23674 23675 23676 23677 23678 23679 23680 23681 23682 23683 23684 23685 23686 23687 23688 23689 23690 23691 23692 23693 23694 23695 23696 23697 23698 23699 23700 23701 23702 23703 23704 23705 23706 23707 23708 23709 23710 23711 23712 23713 23714 23715 23716 23717 23718 23719 23720 23721 23722 23723 23724 23725 23726 23727 23728 23729 23730 23731 23732 23733 23734 23735 23736 23737 23738 23739 23740 23741 23742 23743 23744 23745 23746 23747 23748 23749 23750 23751 23752 23753 23754 23755 23756 23757 23758 23759 23760 23761 23762 23763 23764 23765 23766 23767 23768 23769 23770 23771 23772 23773 23774 23775 23776 23777 23778 23779 23780 23781 23782 23783 23784 23785 23786 23787 23788 23789 23790 23791 23792 23793 23794 23795 23796 23797 23798 23799 23800 23801 23802 23803 23804 23805 23806 23807 23808 23809 23810 23811 23812 23813 23814 23815 23816 23817 23818 23819 23820 23821 23822 23823 23824 23825 23826 23827 23828 23829 23830 23831 23832 23833 23834 23835 23836 23837 23838 23839 23840 23841 23842 23843 23844 23845 23846 23847 23848 23849 23850 23851 23852 23853 23854 23855 23856 23857 23858 23859 23860 23861 23862 23863 23864 23865 23866 23867 23868 23869 23870 23871 23872 23873 23874 23875 23876 23877 23878 23879 23880 23881 23882 23883 23884 23885 23886 23887 23888 23889 23890 23891 23892 23893 23894 23895 23896 23897 23898 23899 23900 23901 23902 23903 23904 23905 23906 23907 23908 23909 23910 23911 23912 23913 23914 23915 23916 23917 23918 23919 23920 23921 23922 23923 23924 23925 23926 23927 23928 23929 23930 23931 23932 23933 23934 23935 23936 23937 23938 23939 23940 23941 23942 23943 23944 23945 23946 23947 23948 23949 23950 23951 23952 23953 23954 23955 23956 23957 23958 23959 23960 23961 23962 23963 23964 23965 23966 23967 23968 23969 23970 23971 23972 23973 23974 23975 23976 23977 23978 23979 23980 23981 23982 23983 23984 23985 23986 23987 23988 23989 23990 23991 23992 23993 23994 23995 23996 23997 23998 23999 24000 24001 24002 24003 24004 24005 24006 24007 24008 24009 24010 24011 24012 24013 24014 24015 24016 24017 24018 24019 24020 24021 24022 24023 24024 24025 24026 24027 24028 24029 24030 24031 24032 24033 24034 24035 24036 24037 24038 24039 24040 24041 24042 24043 24044 24045 24046 24047 24048 24049 24050 24051 24052 24053 24054 24055 24056 24057 24058 24059 24060 24061 24062 24063 24064 24065 24066 24067 24068 24069 24070 24071 24072 24073 24074 24075 24076 24077 24078 24079 24080 24081 24082 24083 24084 24085 24086 24087 24088 24089 24090 24091 24092 24093 24094 24095 24096 24097 24098 24099 24100 24101 24102 24103 24104 24105 24106 24107 24108 24109 24110 24111 24112 24113 24114 24115 24116 24117 24118 24119 24120 24121 24122 24123 24124 24125 24126 24127 24128 24129 24130 24131 24132 24133 24134 24135 24136 24137 24138 24139 24140 24141 24142 24143 24144 24145 24146 24147 24148 24149 24150 24151 24152 24153 24154 24155 24156 24157 24158 24159 24160 24161 24162 24163 24164 24165 24166 24167 24168 24169 24170 24171 24172 24173 24174 24175 24176 24177 24178 24179 24180 24181 24182 24183 24184 24185 24186 24187 24188 24189 24190 24191 24192 24193 24194 24195 24196 24197 24198 24199 24200 24201 24202 24203 24204 24205 24206 24207 24208 24209 24210 24211 24212 24213 24214 24215 24216 24217 24218 24219 24220 24221 24222 24223 24224 24225 24226 24227 24228 24229 24230 24231 24232 24233 24234 24235 24236 24237 24238 24239 24240 24241 24242 24243 24244 24245 24246 24247 24248 24249 24250 24251 24252 24253 24254 24255 24256 24257 24258 24259 24260 24261 24262 24263 24264 24265 24266 24267 24268 24269 24270 24271 24272 24273 24274 24275 24276 24277 24278 24279 24280 24281 24282 24283 24284 24285 24286 24287 24288 24289 24290 24291 24292 24293 24294 24295 24296 24297 24298 24299 24300 24301 24302 24303 24304 24305 24306 24307 24308 24309 24310 24311 24312 24313 24314 24315 24316 24317 24318 24319 24320 24321 24322 24323 24324 24325 24326 24327 24328 24329 24330 24331 24332 24333 24334 24335 24336 24337 24338 24339 24340 24341 24342 24343 24344 24345 24346 24347 24348 24349 24350 24351 24352 24353 24354 24355 24356 24357 24358 24359 24360 24361 24362 24363 24364 24365 24366 24367 24368 24369 24370 24371 24372 24373 24374 24375 24376 24377 24378 24379 24380 24381 24382 24383 24384 24385 24386 24387 24388 24389 24390 24391 24392 24393 24394 24395 24396 24397 24398 24399 24400 24401 24402 24403 24404 24405 24406 24407 24408 24409 24410 24411 24412 24413 24414 24415 24416 24417 24418 24419 24420 24421 24422 24423 24424 24425 24426 24427 24428 24429 24430 24431 24432 24433 24434 24435 24436 24437 24438 24439 24440 24441 24442 24443 24444 24445 24446 24447 24448 24449 24450 24451 24452 24453 24454 24455 24456 24457 24458 24459 24460 24461 24462 24463 24464 24465 24466 24467 24468 24469 24470 24471 24472 24473 24474 24475 24476 24477 24478 24479 24480 24481 24482 24483 24484 24485 24486 24487 24488 24489 24490 24491 24492 24493 24494 24495 24496 24497 24498 24499 24500 24501 24502 24503 24504 24505 24506 24507 24508 24509 24510 24511 24512 24513 24514 24515 24516 24517 24518 24519 24520 24521 24522 24523 24524 24525 24526 24527 24528 24529 24530 24531 24532 24533 24534 24535 24536 24537 24538 24539 24540 24541 24542 24543 24544 24545 24546 24547 24548 24549 24550 24551 24552 24553 24554 24555 24556 24557 24558 24559 24560 24561 24562 24563 24564 24565 24566 24567 24568 24569 24570 24571 24572 24573 24574 24575 24576 24577 24578 24579 24580 24581 24582 24583 24584 24585 24586 24587 24588 24589 24590 24591 24592 24593 24594 24595 24596 24597 24598 24599 24600 24601 24602 24603 24604 24605 24606 24607 24608 24609 24610 24611 24612 24613 24614 24615 24616 24617 24618 24619 24620 24621 24622 24623 24624 24625 24626 24627 24628 24629 24630 24631 24632 24633 24634 24635 24636 24637 24638 24639 24640 24641 24642 24643 24644 24645 24646 24647 24648 24649 24650 24651 24652 24653 24654 24655 24656 24657 24658 24659 24660 24661 24662 24663 24664 24665 24666 24667 24668 24669 24670 24671 24672 24673 24674 24675 24676 24677 24678 24679 24680 24681 24682 24683 24684 24685 24686 24687 24688 24689 24690 24691 24692 24693 24694 24695 24696 24697 24698 24699 24700 24701 24702 24703 24704 24705 24706 24707 24708 24709 24710 24711 24712 24713 24714 24715 24716 24717 24718 24719 24720 24721 24722 24723 24724 24725 24726 24727 24728 24729 24730 24731 24732 24733 24734 24735 24736 24737 24738 24739 24740 24741 24742 24743 24744 24745 24746 24747 24748 24749 24750 24751 24752 24753 24754 24755 24756 24757 24758 24759 24760 24761 24762 24763 24764 24765 24766 24767 24768 24769 24770 24771 24772 24773 24774 24775 24776 24777 24778 24779 24780 24781 24782 24783 24784 24785 24786 24787 24788 24789 24790 24791 24792 24793 24794 24795 24796 24797 24798 24799 24800 24801 24802 24803 24804 24805 24806 24807 24808 24809 24810 24811 24812 24813 24814 24815 24816 24817 24818 24819 24820 24821 24822 24823 24824 24825 24826 24827 24828 24829 24830 24831 24832 24833 24834 24835 24836 24837 24838 24839 24840 24841 24842 24843 24844 24845 24846 24847 24848 24849 24850 24851 24852 24853 24854 24855 24856 24857 24858 24859 24860 24861 24862 24863 24864 24865 24866 24867 24868 24869 24870 24871 24872 24873 24874 24875 24876 24877 24878 24879 24880 24881 24882 24883 24884 24885 24886 24887 24888 24889 24890 24891 24892 24893 24894 24895 24896 24897 24898 24899 24900 24901 24902 24903 24904 24905 24906 24907 24908 24909 24910 24911 24912 24913 24914 24915 24916 24917 24918 24919 24920 24921 24922 24923 24924 24925 24926 24927 24928 24929 24930 24931 24932 24933 24934 24935 24936 24937 24938 24939 24940 24941 24942 24943 24944 24945 24946 24947 24948 24949 24950 24951 24952 24953 24954 24955 24956 24957 24958 24959 24960 24961 24962 24963 24964 24965 24966 24967 24968 24969 24970 24971 24972 24973 24974 24975 24976 24977 24978 24979 24980 24981 24982 24983 24984 24985 24986 24987 24988 24989 24990 24991 24992 24993 24994 24995 24996 24997 24998 24999 25000 25001 25002 25003 25004 25005 25006 25007 25008 25009 25010 25011 25012 25013 25014 25015 25016 25017 25018 25019 25020 25021 25022 25023 25024 25025 25026 25027 25028 25029 25030 25031 25032 25033 25034 25035 25036 25037 25038 25039 25040 25041 25042 25043 25044 25045 25046 25047 25048 25049 25050 25051 25052 25053 25054 25055 25056 25057 25058 25059 25060 25061 25062 25063 25064 25065 25066 25067 25068 25069 25070 25071 25072 25073 25074 25075 25076 25077 25078 25079 25080 25081 25082 25083 25084 25085 25086 25087 25088 25089 25090 25091 25092 25093 25094 25095 25096 25097 25098 25099 25100 25101 25102 25103 25104 25105 25106 25107 25108 25109 25110 25111 25112 25113 25114 25115 25116 25117 25118 25119 25120 25121 25122 25123 25124 25125 25126 25127 25128 25129 25130 25131 25132 25133 25134 25135 25136 25137 25138 25139 25140 25141 25142 25143 25144 25145 25146 25147 25148 25149 25150 25151 25152 25153 25154 25155 25156 25157 25158 25159 25160 25161 25162 25163 25164 25165 25166 25167 25168 25169 25170 25171 25172 25173 25174 25175 25176 25177 25178 25179 25180 25181 25182 25183 25184 25185 25186 25187 25188 25189 25190 25191 25192 25193 25194 25195 25196 25197 25198 25199 25200 25201 25202 25203 25204 25205 25206 25207 25208 25209 25210 25211 25212 25213 25214 25215 25216 25217 25218 25219 25220 25221 25222 25223 25224 25225 25226 25227 25228 25229 25230 25231 25232 25233 25234 25235 25236 25237 25238 25239 25240 25241 25242 25243 25244 25245 25246 25247 25248 25249 25250 25251 25252 25253 25254 25255 25256 25257 25258 25259 25260 25261 25262 25263 25264 25265 25266 25267 25268 25269 25270 25271 25272 25273 25274 25275 25276 25277 25278 25279 25280 25281 25282 25283 25284 25285 25286 25287 25288 25289 25290 25291 25292 25293 25294 25295 25296 25297 25298 25299 25300 25301 25302 25303 25304 25305 25306 25307 25308 25309 25310 25311 25312 25313 25314 25315 25316 25317 25318 25319 25320 25321 25322 25323 25324 25325 25326 25327 25328 25329 25330 25331 25332 25333 25334 25335 25336 25337 25338 25339 25340 25341 25342 25343 25344 25345 25346 25347 25348 25349 25350 25351 25352 25353 25354 25355 25356 25357 25358 25359 25360 25361 25362 25363 25364 25365 25366 25367 25368 25369 25370 25371 25372 25373 25374 25375 25376 25377 25378 25379 25380 25381 25382 25383 25384 25385 25386 25387 25388 25389 25390 25391 25392 25393 25394 25395 25396 25397 25398 25399 25400 25401 25402 25403 25404 25405 25406 25407 25408 25409 25410 25411 25412 25413 25414 25415 25416 25417 25418 25419 25420 25421 25422 25423 25424 25425 25426 25427 25428 25429 25430 25431 25432 25433 25434 25435 25436 25437 25438 25439 25440 25441 25442 25443 25444 25445 25446 25447 25448 25449 25450 25451 25452 25453 25454 25455 25456 25457 25458 25459 25460 25461 25462 25463 25464 25465 25466 25467 25468 25469 25470 25471 25472 25473 25474 25475 25476 25477 25478 25479 25480 25481 25482 25483 25484 25485 25486 25487 25488 25489 25490 25491 25492 25493 25494 25495 25496 25497 25498 25499 25500 25501 25502 25503 25504 25505 25506 25507 25508 25509 25510 25511 25512 25513 25514 25515 25516 25517 25518 25519 25520 25521 25522 25523 25524 25525 25526 25527 25528 25529 25530 25531 25532 25533 25534 25535 25536 25537 25538 25539 25540 25541 25542 25543 25544 25545 25546 25547 25548 25549 25550 25551 25552 25553 25554 25555 25556 25557 25558 25559 25560 25561 25562 25563 25564 25565 25566 25567 25568 25569 25570 25571 25572 25573 25574 25575 25576 25577 25578 25579 25580 25581 25582 25583 25584 25585 25586 25587 25588 25589 25590 25591 25592 25593 25594 25595 25596 25597 25598 25599 25600 25601 25602 25603 25604 25605 25606 25607 25608 25609 25610 25611 25612 25613 25614 25615 25616 25617 25618 25619 25620 25621 25622 25623 25624 25625 25626 25627 25628 25629 25630 25631 25632 25633 25634 25635 25636 25637 25638 25639 25640 25641 25642 25643 25644 25645 25646 25647 25648 25649 25650 25651 25652 25653 25654 25655 25656 25657 25658 25659 25660 25661 25662 25663 25664 25665 25666 25667 25668 25669 25670 25671 25672 25673 25674 25675 25676 25677 25678 25679 25680 25681 25682 25683 25684 25685 25686 25687 25688 25689 25690 25691 25692 25693 25694 25695 25696 25697 25698 25699 25700 25701 25702 25703 25704 25705 25706 25707 25708 25709 25710 25711 25712 25713 25714 25715 25716 25717 25718 25719 25720 25721 25722 25723 25724 25725 25726 25727 25728 25729 25730 25731 25732 25733 25734 25735 25736 25737 25738 25739 25740 25741 25742 25743 25744 25745 25746 25747 25748 25749 25750 25751 25752 25753 25754 25755 25756 25757 25758 25759 25760 25761 25762 25763 25764 25765 25766 25767 25768 25769 25770 25771 25772 25773 25774 25775 25776 25777 25778 25779 25780 25781 25782 25783 25784 25785 25786 25787 25788 25789 25790 25791 25792 25793 25794 25795 25796 25797 25798 25799 25800 25801 25802 25803 25804 25805 25806 25807 25808 25809 25810 25811 25812 25813 25814 25815 25816 25817 25818 25819 25820 25821 25822 25823 25824 25825 25826 25827 25828 25829 25830 25831 25832 25833 25834 25835 25836 25837 25838 25839 25840 25841 25842 25843 25844 25845 25846 25847 25848 25849 25850 25851 25852 25853 25854 25855 25856 25857 25858 25859 25860 25861 25862 25863 25864 25865 25866 25867 25868 25869 25870 25871 25872 25873 25874 25875 25876 25877 25878 25879 25880 25881 25882 25883 25884 25885 25886 25887 25888 25889 25890 25891 25892 25893 25894 25895 25896 25897 25898 25899 25900 25901 25902 25903 25904 25905 25906 25907 25908 25909 25910 25911 25912 25913 25914 25915 25916 25917 25918 25919 25920 25921 25922 25923 25924 25925 25926 25927 25928 25929 25930 25931 25932 25933 25934 25935 25936 25937 25938 25939 25940 25941 25942 25943 25944 25945 25946 25947 25948 25949 25950 25951 25952 25953 25954 25955 25956 25957 25958 25959 25960 25961 25962 25963 25964 25965 25966 25967 25968 25969 25970 25971 25972 25973 25974 25975 25976 25977 25978 25979 25980 25981 25982 25983 25984 25985 25986 25987 25988 25989 25990 25991 25992 25993 25994 25995 25996 25997 25998 25999 26000 26001 26002 26003 26004 26005 26006 26007 26008 26009 26010 26011 26012 26013 26014 26015 26016 26017 26018 26019 26020 26021 26022 26023 26024 26025 26026 26027 26028 26029 26030 26031 26032 26033 26034 26035 26036 26037 26038 26039 26040 26041 26042 26043 26044 26045 26046 26047 26048 26049 26050 26051 26052 26053 26054 26055 26056 26057 26058 26059 26060 26061 26062 26063 26064 26065 26066 26067 26068 26069 26070 26071 26072 26073 26074 26075 26076 26077 26078 26079 26080 26081 26082 26083 26084 26085 26086 26087 26088 26089 26090 26091 26092 26093 26094 26095 26096 26097 26098 26099 26100 26101 26102 26103 26104 26105 26106 26107 26108 26109 26110 26111 26112 26113 26114 26115 26116 26117 26118 26119 26120 26121 26122 26123 26124 26125 26126 26127 26128 26129 26130 26131 26132 26133 26134 26135 26136 26137 26138 26139 26140 26141 26142 26143 26144 26145 26146 26147 26148 26149 26150 26151 26152 26153 26154 26155 26156 26157 26158 26159 26160 26161 26162 26163 26164 26165 26166 26167 26168 26169 26170 26171 26172 26173 26174 26175 26176 26177 26178 26179 26180 26181 26182 26183 26184 26185 26186 26187 26188 26189 26190 26191 26192 26193 26194 26195 26196 26197 26198 26199 26200 26201 26202 26203 26204 26205 26206 26207 26208 26209 26210 26211 26212 26213 26214 26215 26216 26217 26218 26219 26220 26221 26222 26223 26224 26225 26226 26227 26228 26229 26230 26231 26232 26233 26234 26235 26236 26237 26238 26239 26240 26241 26242 26243 26244 26245 26246 26247 26248 26249 26250 26251 26252 26253 26254 26255 26256 26257 26258 26259 26260 26261 26262 26263 26264 26265 26266 26267 26268 26269 26270 26271 26272 26273 26274 26275 26276 26277 26278 26279 26280 26281 26282 26283 26284 26285 26286 26287 26288 26289 26290 26291 26292 26293 26294 26295 26296 26297 26298 26299 26300 26301 26302 26303 26304 26305 26306 26307 26308 26309 26310 26311 26312 26313 26314 26315 26316 26317 26318 26319 26320 26321 26322 26323 26324 26325 26326 26327 26328 26329 26330 26331 26332 26333 26334 26335 26336 26337 26338 26339 26340 26341 26342 26343 26344 26345 26346 26347 26348 26349 26350 26351 26352 26353 26354 26355 26356 26357 26358 26359 26360 26361 26362 26363 26364 26365 26366 26367 26368 26369 26370 26371 26372 26373 26374 26375 26376 26377 26378 26379 26380 26381 26382 26383 26384 26385 26386 26387 26388 26389 26390 26391 26392 26393 26394 26395 26396 26397 26398 26399 26400 26401 26402 26403 26404 26405 26406 26407 26408 26409 26410 26411 26412 26413 26414 26415 26416 26417 26418 26419 26420 26421 26422 26423 26424 26425 26426 26427 26428 26429 26430 26431 26432 26433 26434 26435 26436 26437 26438 26439 26440 26441 26442 26443 26444 26445 26446 26447 26448 26449 26450 26451 26452 26453 26454 26455 26456 26457 26458 26459 26460 26461 26462 26463 26464 26465 26466 26467 26468 26469 26470 26471 26472 26473 26474 26475 26476 26477 26478 26479 26480 26481 26482 26483 26484 26485 26486 26487 26488 26489 26490 26491 26492 26493 26494 26495 26496 26497 26498 26499 26500 26501 26502 26503 26504 26505 26506 26507 26508 26509 26510 26511 26512 26513 26514 26515 26516 26517 26518 26519 26520 26521 26522 26523 26524 26525 26526 26527 26528 26529 26530 26531 26532 26533 26534 26535 26536 26537 26538 26539 26540 26541 26542 26543 26544 26545 26546 26547 26548 26549 26550 26551 26552 26553 26554 26555 26556 26557 26558 26559 26560 26561 26562 26563 26564 26565 26566 26567 26568 26569 26570 26571 26572 26573 26574 26575 26576 26577 26578 26579 26580 26581 26582 26583 26584 26585 26586 26587 26588 26589 26590 26591 26592 26593 26594 26595 26596 26597 26598 26599 26600 26601 26602 26603 26604 26605 26606 26607 26608 26609 26610 26611 26612 26613 26614 26615 26616 26617 26618 26619 26620 26621 26622 26623 26624 26625 26626 26627 26628 26629 26630 26631 26632 26633 26634 26635 26636 26637 26638 26639 26640 26641 26642 26643 26644 26645 26646 26647 26648 26649 26650 26651 26652 26653 26654 26655 26656 26657 26658 26659 26660 26661 26662 26663 26664 26665 26666 26667 26668 26669 26670 26671 26672 26673 26674 26675 26676 26677 26678 26679 26680 26681 26682 26683 26684 26685 26686 26687 26688 26689 26690 26691 26692 26693 26694 26695 26696 26697 26698 26699 26700 26701 26702 26703 26704 26705 26706 26707 26708 26709 26710 26711 26712 26713 26714 26715 26716 26717 26718 26719 26720 26721 26722 26723 26724 26725 26726 26727 26728 26729 26730 26731 26732 26733 26734 26735 26736 26737 26738 26739 26740 26741 26742 26743 26744 26745 26746 26747 26748 26749 26750 26751 26752 26753 26754 26755 26756 26757 26758 26759 26760 26761 26762 26763 26764 26765 26766 26767 26768 26769 26770 26771 26772 26773 26774 26775 26776 26777 26778 26779 26780 26781 26782 26783 26784 26785 26786 26787 26788 26789 26790 26791 26792 26793 26794 26795 26796 26797 26798 26799 26800 26801 26802 26803 26804 26805 26806 26807 26808 26809 26810 26811 26812 26813 26814 26815 26816 26817 26818 26819 26820 26821 26822 26823 26824 26825 26826 26827 26828 26829 26830 26831 26832 26833 26834 26835 26836 26837 26838 26839 26840 26841 26842 26843 26844 26845 26846 26847 26848 26849 26850 26851 26852 26853 26854 26855 26856 26857 26858 26859 26860 26861 26862 26863 26864 26865 26866 26867 26868 26869 26870 26871 26872 26873 26874 26875 26876 26877 26878 26879 26880 26881 26882 26883 26884 26885 26886 26887 26888 26889 26890 26891 26892 26893 26894 26895 26896 26897 26898 26899 26900 26901 26902 26903 26904 26905 26906 26907 26908 26909 26910 26911 26912 26913 26914 26915 26916 26917 26918 26919 26920 26921 26922 26923 26924 26925 26926 26927 26928 26929 26930 26931 26932 26933 26934 26935 26936 26937 26938 26939 26940 26941 26942 26943 26944 26945 26946 26947 26948 26949 26950 26951 26952 26953 26954 26955 26956 26957 26958 26959 26960 26961 26962 26963 26964 26965 26966 26967 26968 26969 26970 26971 26972 26973 26974 26975 26976 26977 26978 26979 26980 26981 26982 26983 26984 26985 26986 26987 26988 26989 26990 26991 26992 26993 26994 26995 26996 26997 26998 26999 27000 27001 27002 27003 27004 27005 27006 27007 27008 27009 27010 27011 27012 27013 27014 27015 27016 27017 27018 27019 27020 27021 27022 27023 27024 27025 27026 27027 27028 27029 27030 27031 27032 27033 27034 27035 27036 27037 27038 27039 27040 27041 27042 27043 27044 27045 27046 27047 27048 27049 27050 27051 27052 27053 27054 27055 27056 27057 27058 27059 27060 27061 27062 27063 27064 27065 27066 27067 27068 27069 27070 27071 27072 27073 27074 27075 27076 27077 27078 27079 27080 27081 27082 27083 27084 27085 27086 27087 27088 27089 27090 27091 27092 27093 27094 27095 27096 27097 27098 27099 27100 27101 27102 27103 27104 27105 27106 27107 27108 27109 27110 27111 27112 27113 27114 27115 27116 27117 27118 27119 27120 27121 27122 27123 27124 27125 27126 27127 27128 27129 27130 27131 27132 27133 27134 27135 27136 27137 27138 27139 27140 27141 27142 27143 27144 27145 27146 27147 27148 27149 27150 27151 27152 27153 27154 27155 27156 27157 27158 27159 27160 27161 27162 27163 27164 27165 27166 27167 27168 27169 27170 27171 27172 27173 27174 27175 27176 27177 27178 27179 27180 27181 27182 27183 27184 27185 27186 27187 27188 27189 27190 27191 27192 27193 27194 27195 27196 27197 27198 27199 27200 27201 27202 27203 27204 27205 27206 27207 27208 27209 27210 27211 27212 27213 27214 27215 27216 27217 27218 27219 27220 27221 27222 27223 27224 27225 27226 27227 27228 27229 27230 27231 27232 27233 27234 27235 27236 27237 27238 27239 27240 27241 27242 27243 27244 27245 27246 27247 27248 27249 27250 27251 27252 27253 27254 27255 27256 27257 27258 27259 27260 27261 27262 27263 27264 27265 27266 27267 27268 27269 27270 27271 27272 27273 27274 27275 27276 27277 27278 27279 27280 27281 27282 27283 27284 27285 27286 27287 27288 27289 27290 27291 27292 27293 27294 27295 27296 27297 27298 27299 27300 27301 27302 27303 27304 27305 27306 27307 27308 27309 27310 27311 27312 27313 27314 27315 27316 27317 27318 27319 27320 27321 27322 27323 27324 27325 27326 27327 27328 27329 27330 27331 27332 27333 27334 27335 27336 27337 27338 27339 27340 27341 27342 27343 27344 27345 27346 27347 27348 27349 27350 27351 27352 27353 27354 27355 27356 27357 27358 27359 27360 27361 27362 27363 27364 27365 27366 27367 27368 27369 27370 27371 27372 27373 27374 27375 27376 27377 27378 27379 27380 27381 27382 27383 27384 27385 27386 27387 27388 27389 27390 27391 27392 27393 27394 27395 27396 27397 27398 27399 27400 27401 27402 27403 27404 27405 27406 27407 27408 27409 27410 27411 27412 27413 27414 27415 27416 27417 27418 27419 27420 27421 27422 27423 27424 27425 27426 27427 27428 27429 27430 27431 27432 27433 27434 27435 27436 27437 27438 27439 27440 27441 27442 27443 27444 27445 27446 27447 27448 27449 27450 27451 27452 27453 27454 27455 27456 27457 27458 27459 27460 27461 27462 27463 27464 27465 27466 27467 27468 27469 27470 27471 27472 27473 27474 27475 27476 27477 27478 27479 27480 27481 27482 27483 27484 27485 27486 27487 27488 27489 27490 27491 27492 27493 27494 27495 27496 27497 27498 27499 27500 27501 27502 27503 27504 27505 27506 27507 27508 27509 27510 27511 27512 27513 27514 27515 27516 27517 27518 27519 27520 27521 27522 27523 27524 27525 27526 27527 27528 27529 27530 27531 27532 27533 27534 27535 27536 27537 27538 27539 27540 27541 27542 27543 27544 27545 27546 27547 27548 27549 27550 27551 27552 27553 27554 27555 27556 27557 27558 27559 27560 27561 27562 27563 27564 27565 27566 27567 27568 27569 27570 27571 27572 27573 27574 27575 27576 27577 27578 27579 27580 27581 27582 27583 27584 27585 27586 27587 27588 27589 27590 27591 27592 27593 27594 27595 27596 27597 27598 27599 27600 27601 27602 27603 27604 27605 27606 27607 27608 27609 27610 27611 27612 27613 27614 27615 27616 27617 27618 27619 27620 27621 27622 27623 27624 27625 27626 27627 27628 27629 27630 27631 27632 27633 27634 27635 27636 27637 27638 27639 27640 27641 27642 27643 27644 27645 27646 27647 27648 27649 27650 27651 27652 27653 27654 27655 27656 27657 27658 27659 27660 27661 27662 27663 27664 27665 27666 27667 27668 27669 27670 27671 27672 27673 27674 27675 27676 27677 27678 27679 27680 27681 27682 27683 27684 27685 27686 27687 27688 27689 27690 27691 27692 27693 27694 27695 27696 27697 27698 27699 27700 27701 27702 27703 27704 27705 27706 27707 27708 27709 27710 27711 27712 27713 27714 27715 27716 27717 27718 27719 27720 27721 27722 27723 27724 27725 27726 27727 27728 27729 27730 27731 27732 27733 27734 27735 27736 27737 27738 27739 27740 27741 27742 27743 27744 27745 27746 27747 27748 27749 27750 27751 27752 27753 27754 27755 27756 27757 27758 27759 27760 27761 27762 27763 27764 27765 27766 27767 27768 27769 27770 27771 27772 27773 27774 27775 27776 27777 27778 27779 27780 27781 27782 27783 27784 27785 27786 27787 27788 27789 27790 27791 27792 27793 27794 27795 27796 27797 27798 27799 27800 27801 27802 27803 27804 27805 27806 27807 27808 27809 27810 27811 27812 27813 27814 27815 27816 27817 27818 27819 27820 27821 27822 27823 27824 27825 27826 27827 27828 27829 27830 27831 27832 27833 27834 27835 27836 27837 27838 27839 27840 27841 27842 27843 27844 27845 27846 27847 27848 27849 27850 27851 27852 27853 27854 27855 27856 27857 27858 27859 27860 27861 27862 27863 27864 27865 27866 27867 27868 27869 27870 27871 27872 27873 27874 27875 27876 27877 27878 27879 27880 27881 27882 27883 27884 27885 27886 27887 27888 27889 27890 27891 27892 27893 27894 27895 27896 27897 27898 27899 27900 27901 27902 27903 27904 27905 27906 27907 27908 27909 27910 27911 27912 27913 27914 27915 27916 27917 27918 27919 27920 27921 27922 27923 27924 27925 27926 27927 27928 27929 27930 27931 27932 27933 27934 27935 27936 27937 27938 27939 27940 27941 27942 27943 27944 27945 27946 27947 27948 27949 27950 27951 27952 27953 27954 27955 27956 27957 27958 27959 27960 27961 27962 27963 27964 27965 27966 27967 27968 27969 27970 27971 27972 27973 27974 27975 27976 27977 27978 27979 27980 27981 27982 27983 27984 27985 27986 27987 27988 27989 27990 27991 27992 27993 27994 27995 27996 27997 27998 27999 28000 28001 28002 28003 28004 28005 28006 28007 28008 28009 28010 28011 28012 28013 28014 28015 28016 28017 28018 28019 28020 28021 28022 28023 28024 28025 28026 28027 28028 28029 28030 28031 28032 28033 28034 28035 28036 28037 28038 28039 28040 28041 28042 28043 28044 28045 28046 28047 28048 28049 28050 28051 28052 28053 28054 28055 28056 28057 28058 28059 28060 28061 28062 28063 28064 28065 28066 28067 28068 28069 28070 28071 28072 28073 28074 28075 28076 28077 28078 28079 28080 28081 28082 28083 28084 28085 28086 28087 28088 28089 28090 28091 28092 28093 28094 28095 28096 28097 28098 28099 28100 28101 28102 28103 28104 28105 28106 28107 28108 28109 28110 28111 28112 28113 28114 28115 28116 28117 28118 28119 28120 28121 28122 28123 28124 28125 28126 28127 28128 28129 28130 28131 28132 28133 28134 28135 28136 28137 28138 28139 28140 28141 28142 28143 28144 28145 28146 28147 28148 28149 28150 28151 28152 28153 28154 28155 28156 28157 28158 28159 28160 28161 28162 28163 28164 28165 28166 28167 28168 28169 28170 28171 28172 28173 28174 28175 28176 28177 28178 28179 28180 28181 28182 28183 28184 28185 28186 28187 28188 28189 28190 28191 28192 28193 28194 28195 28196 28197 28198 28199 28200 28201 28202 28203 28204 28205 28206 28207 28208 28209 28210 28211 28212 28213 28214 28215 28216 28217 28218 28219 28220 28221 28222 28223 28224 28225 28226 28227 28228 28229 28230 28231 28232 28233 28234 28235 28236 28237 28238 28239 28240 28241 28242 28243 28244 28245 28246 28247 28248 28249 28250 28251 28252 28253 28254 28255 28256 28257 28258 28259 28260 28261 28262 28263 28264 28265 28266 28267 28268 28269 28270 28271 28272 28273 28274 28275 28276 28277 28278 28279 28280 28281 28282 28283 28284 28285 28286 28287 28288 28289 28290 28291 28292 28293 28294 28295 28296 28297 28298 28299 28300 28301 28302 28303 28304 28305 28306 28307 28308 28309 28310 28311 28312 28313 28314 28315 28316 28317 28318 28319 28320 28321 28322 28323 28324 28325 28326 28327 28328 28329 28330 28331 28332 28333 28334 28335 28336 28337 28338 28339 28340 28341 28342 28343 28344 28345 28346 28347 28348 28349 28350 28351 28352 28353 28354 28355 28356 28357 28358 28359 28360 28361 28362 28363 28364 28365 28366 28367 28368 28369 28370 28371 28372 28373 28374 28375 28376 28377 28378 28379 28380 28381 28382 28383 28384 28385 28386 28387 28388 28389 28390 28391 28392 28393 28394 28395 28396 28397 28398 28399 28400 28401 28402 28403 28404 28405 28406 28407 28408 28409 28410 28411 28412 28413 28414 28415 28416 28417 28418 28419 28420 28421 28422 28423 28424 28425 28426 28427 28428 28429 28430 28431 28432 28433 28434 28435 28436 28437 28438 28439 28440 28441 28442 28443 28444 28445 28446 28447 28448 28449 28450 28451 28452 28453 28454 28455 28456 28457 28458 28459 28460 28461 28462 28463 28464 28465 28466 28467 28468 28469 28470 28471 28472 28473 28474 28475 28476 28477 28478 28479 28480 28481 28482 28483 28484 28485 28486 28487 28488 28489 28490 28491 28492 28493 28494 28495 28496 28497 28498 28499 28500 28501 28502 28503 28504 28505 28506 28507 28508 28509 28510 28511 28512 28513 28514 28515 28516 28517 28518 28519 28520 28521 28522 28523 28524 28525 28526 28527 28528 28529 28530 28531 28532 28533 28534 28535 28536 28537 28538 28539 28540 28541 28542 28543 28544 28545 28546 28547 28548 28549 28550 28551 28552 28553 28554 28555 28556 28557 28558 28559 28560 28561 28562 28563 28564 28565 28566 28567 28568 28569 28570 28571 28572 28573 28574 28575 28576 28577 28578 28579 28580 28581 28582 28583 28584 28585 28586 28587 28588 28589 28590 28591 28592 28593 28594 28595 28596 28597 28598 28599 28600 28601 28602 28603 28604 28605 28606 28607 28608 28609 28610 28611 28612 28613 28614 28615 28616 28617 28618 28619 28620 28621 28622 28623 28624 28625 28626 28627 28628 28629 28630 28631 28632 28633 28634 28635 28636 28637 28638 28639 28640 28641 28642 28643 28644 28645 28646 28647 28648 28649 28650 28651 28652 28653 28654 28655 28656 28657 28658 28659 28660 28661 28662 28663 28664 28665 28666 28667 28668 28669 28670 28671 28672 28673 28674 28675 28676 28677 28678 28679 28680 28681 28682 28683 28684 28685 28686 28687 28688 28689 28690 28691 28692 28693 28694 28695 28696 28697 28698 28699 28700 28701 28702 28703 28704 28705 28706 28707 28708 28709 28710 28711 28712 28713 28714 28715 28716 28717 28718 28719 28720 28721 28722 28723 28724 28725 28726 28727 28728 28729 28730 28731 28732 28733 28734 28735 28736 28737 28738 28739 28740 28741 28742 28743 28744 28745 28746 28747 28748 28749 28750 28751 28752 28753 28754 28755 28756 28757 28758 28759 28760 28761 28762 28763 28764 28765 28766 28767 28768 28769 28770 28771 28772 28773 28774 28775 28776 28777 28778 28779 28780 28781 28782 28783 28784 28785 28786 28787 28788 28789 28790 28791 28792 28793 28794 28795 28796 28797 28798 28799 28800 28801 28802 28803 28804 28805 28806 28807 28808 28809 28810 28811 28812 28813 28814 28815 28816 28817 28818 28819 28820 28821 28822 28823 28824 28825 28826 28827 28828 28829 28830 28831 28832 28833 28834 28835 28836 28837 28838 28839 28840 28841 28842 28843 28844 28845 28846 28847 28848 28849 28850 28851 28852 28853 28854 28855 28856 28857 28858 28859 28860 28861 28862 28863 28864 28865 28866 28867 28868 28869 28870 28871 28872 28873 28874 28875 28876 28877 28878 28879 28880 28881 28882 28883 28884 28885 28886 28887 28888 28889 28890 28891 28892 28893 28894 28895 28896 28897 28898 28899 28900 28901 28902 28903 28904 28905 28906 28907 28908 28909 28910 28911 28912 28913 28914 28915 28916 28917 28918 28919 28920 28921 28922 28923 28924 28925 28926 28927 28928 28929 28930 28931 28932 28933 28934 28935 28936 28937 28938 28939 28940 28941 28942 28943 28944 28945 28946 28947 28948 28949 28950 28951 28952 28953 28954 28955 28956 28957 28958 28959 28960 28961 28962 28963 28964 28965 28966 28967 28968 28969 28970 28971 28972 28973 28974 28975 28976 28977 28978 28979 28980 28981 28982 28983 28984 28985 28986 28987 28988 28989 28990 28991 28992 28993 28994 28995 28996 28997 28998 28999 29000 29001 29002 29003 29004 29005 29006 29007 29008 29009 29010 29011 29012 29013 29014 29015 29016 29017 29018 29019 29020 29021 29022 29023 29024 29025 29026 29027 29028 29029 29030 29031 29032 29033 29034 29035 29036 29037 29038 29039 29040 29041 29042 29043 29044 29045 29046 29047 29048 29049 29050 29051 29052 29053 29054 29055 29056 29057 29058 29059 29060 29061 29062 29063 29064 29065 29066 29067 29068 29069 29070 29071 29072 29073 29074 29075 29076 29077 29078 29079 29080 29081 29082 29083 29084 29085 29086 29087 29088 29089 29090 29091 29092 29093 29094 29095 29096 29097 29098 29099 29100 29101 29102 29103 29104 29105 29106 29107 29108 29109 29110 29111 29112 29113 29114 29115 29116 29117 29118 29119 29120 29121 29122 29123 29124 29125 29126 29127 29128 29129 29130 29131 29132 29133 29134 29135 29136 29137 29138 29139 29140 29141 29142 29143 29144 29145 29146 29147 29148 29149 29150 29151 29152 29153 29154 29155 29156 29157 29158 29159 29160 29161 29162 29163 29164 29165 29166 29167 29168 29169 29170 29171 29172 29173 29174 29175 29176 29177 29178 29179 29180 29181 29182 29183 29184 29185 29186 29187 29188 29189 29190 29191 29192 29193 29194 29195 29196 29197 29198 29199 29200 29201 29202 29203 29204 29205 29206 29207 29208 29209 29210 29211 29212 29213 29214 29215 29216 29217 29218 29219 29220 29221 29222 29223 29224 29225 29226 29227 29228 29229 29230 29231 29232 29233 29234 29235 29236 29237 29238 29239 29240 29241 29242 29243 29244 29245 29246 29247 29248 29249 29250 29251 29252 29253 29254 29255 29256 29257 29258 29259 29260 29261 29262 29263 29264 29265 29266 29267 29268 29269 29270 29271 29272 29273 29274 29275 29276 29277 29278 29279 29280 29281 29282 29283 29284 29285 29286 29287 29288 29289 29290 29291 29292 29293 29294 29295 29296 29297 29298 29299 29300 29301 29302 29303 29304 29305 29306 29307 29308 29309 29310 29311 29312 29313 29314 29315 29316 29317 29318 29319 29320 29321 29322 29323 29324 29325 29326 29327 29328 29329 29330 29331 29332 29333 29334 29335 29336 29337 29338 29339 29340 29341 29342 29343 29344 29345 29346 29347 29348 29349 29350 29351 29352 29353 29354 29355 29356 29357 29358 29359 29360 29361 29362 29363 29364 29365 29366 29367 29368 29369 29370 29371 29372 29373 29374 29375 29376 29377 29378 29379 29380 29381 29382 29383 29384 29385 29386 29387 29388 29389 29390 29391 29392 29393 29394 29395 29396 29397 29398 29399 29400 29401 29402 29403 29404 29405 29406 29407 29408 29409 29410 29411 29412 29413 29414 29415 29416 29417 29418 29419 29420 29421 29422 29423 29424 29425 29426 29427 29428 29429 29430 29431 29432 29433 29434 29435 29436 29437 29438 29439 29440 29441 29442 29443 29444 29445 29446 29447 29448 29449 29450 29451 29452 29453 29454 29455 29456 29457 29458 29459 29460 29461 29462 29463 29464 29465 29466 29467 29468 29469 29470 29471 29472 29473 29474 29475 29476 29477 29478 29479 29480 29481 29482 29483 29484 29485 29486 29487 29488 29489 29490 29491 29492 29493 29494 29495 29496 29497 29498 29499 29500 29501 29502 29503 29504 29505 29506 29507 29508 29509 29510 29511 29512 29513 29514 29515 29516 29517 29518 29519 29520 29521 29522 29523 29524 29525 29526 29527 29528 29529 29530 29531 29532 29533 29534 29535 29536 29537 29538 29539 29540 29541 29542 29543 29544 29545 29546 29547 29548 29549 29550 29551 29552 29553 29554 29555 29556 29557 29558 29559 29560 29561 29562 29563 29564 29565 29566 29567 29568 29569 29570 29571 29572 29573 29574 29575 29576 29577 29578 29579 29580 29581 29582 29583 29584 29585 29586 29587 29588 29589 29590 29591 29592 29593 29594 29595 29596 29597 29598 29599 29600 29601 29602 29603 29604 29605 29606 29607 29608 29609 29610 29611 29612 29613 29614 29615 29616 29617 29618 29619 29620 29621 29622 29623 29624 29625 29626 29627 29628 29629 29630 29631 29632 29633 29634 29635 29636 29637 29638 29639 29640 29641 29642 29643 29644 29645 29646 29647 29648 29649 29650 29651 29652 29653 29654 29655 29656 29657 29658 29659 29660 29661 29662 29663 29664 29665 29666 29667 29668 29669 29670 29671 29672 29673 29674 29675 29676 29677 29678 29679 29680 29681 29682 29683 29684 29685 29686 29687 29688 29689 29690 29691 29692 29693 29694 29695 29696 29697 29698 29699 29700 29701 29702 29703 29704 29705 29706 29707 29708 29709 29710 29711 29712 29713 29714 29715 29716 29717 29718 29719 29720 29721 29722 29723 29724 29725 29726 29727 29728 29729 29730 29731 29732 29733 29734 29735 29736 29737 29738 29739 29740 29741 29742 29743 29744 29745 29746 29747 29748 29749 29750 29751 29752 29753 29754 29755 29756 29757 29758 29759 29760 29761 29762 29763 29764 29765 29766 29767 29768 29769 29770 29771 29772 29773 29774 29775 29776 29777 29778 29779 29780 29781 29782 29783 29784 29785 29786 29787 29788 29789 29790 29791 29792 29793 29794 29795 29796 29797 29798 29799 29800 29801 29802 29803 29804 29805 29806 29807 29808 29809 29810 29811 29812 29813 29814 29815 29816 29817 29818 29819 29820 29821 29822 29823 29824 29825 29826 29827 29828 29829 29830 29831 29832 29833 29834 29835 29836 29837 29838 29839 29840 29841 29842 29843 29844 29845 29846 29847 29848 29849 29850 29851 29852 29853 29854 29855 29856 29857 29858 29859 29860 29861 29862 29863 29864 29865 29866 29867 29868 29869 29870 29871 29872 29873 29874 29875 29876 29877 29878 29879 29880 29881 29882 29883 29884 29885 29886 29887 29888 29889 29890 29891 29892 29893 29894 29895 29896 29897 29898 29899 29900 29901 29902 29903 29904 29905 29906 29907 29908 29909 29910 29911 29912 29913 29914 29915 29916 29917 29918 29919 29920 29921 29922 29923 29924 29925 29926 29927 29928 29929 29930 29931 29932 29933 29934 29935 29936 29937 29938 29939 29940 29941 29942 29943 29944 29945 29946 29947 29948 29949 29950 29951 29952 29953 29954 29955 29956 29957 29958 29959 29960 29961 29962 29963 29964 29965 29966 29967 29968 29969 29970 29971 29972 29973 29974 29975 29976 29977 29978 29979 29980 29981 29982 29983 29984 29985 29986 29987 29988 29989 29990 29991 29992 29993 29994 29995 29996 29997 29998 29999 30000 30001 30002 30003 30004 30005 30006 30007 30008 30009 30010 30011 30012 30013 30014 30015 30016 30017 30018 30019 30020 30021 30022 30023 30024 30025 30026 30027 30028 30029 30030 30031 30032 30033 30034 30035 30036 30037 30038 30039 30040 30041 30042 30043 30044 30045 30046 30047 30048 30049 30050 30051 30052 30053 30054 30055 30056 30057 30058 30059 30060 30061 30062 30063 30064 30065 30066 30067 30068 30069 30070 30071 30072 30073 30074 30075 30076 30077 30078 30079 30080 30081 30082 30083 30084 30085 30086 30087 30088 30089 30090 30091 30092 30093 30094 30095 30096 30097 30098 30099 30100 30101 30102 30103 30104 30105 30106 30107 30108 30109 30110 30111 30112 30113 30114 30115 30116 30117 30118 30119 30120 30121 30122 30123 30124 30125 30126 30127 30128 30129 30130 30131 30132 30133 30134 30135 30136 30137 30138 30139 30140 30141 30142 30143 30144 30145 30146 30147 30148 30149 30150 30151 30152 30153 30154 30155 30156 30157 30158 30159 30160 30161 30162 30163 30164 30165 30166 30167 30168 30169 30170 30171 30172 30173 30174 30175 30176 30177 30178 30179 30180 30181 30182 30183 30184 30185 30186 30187 30188 30189 30190 30191 30192 30193 30194 30195 30196 30197 30198 30199 30200 30201 30202 30203 30204 30205 30206 30207 30208 30209 30210 30211 30212 30213 30214 30215 30216 30217 30218 30219 30220 30221 30222 30223 30224 30225 30226 30227 30228 30229 30230 30231 30232 30233 30234 30235 30236 30237 30238 30239 30240 30241 30242 30243 30244 30245 30246 30247 30248 30249 30250 30251 30252 30253 30254 30255 30256 30257 30258 30259 30260 30261 30262 30263 30264 30265 30266 30267 30268 30269 30270 30271 30272 30273 30274 30275 30276 30277 30278 30279 30280 30281 30282 30283 30284 30285 30286 30287 30288 30289 30290 30291 30292 30293 30294 30295 30296 30297 30298 30299 30300 30301 30302 30303 30304 30305 30306 30307 30308 30309 30310 30311 30312 30313 30314 30315 30316 30317 30318 30319 30320 30321 30322 30323 30324 30325 30326 30327 30328 30329 30330 30331 30332 30333 30334 30335 30336 30337 30338 30339 30340 30341 30342 30343 30344 30345 30346 30347 30348 30349 30350 30351 30352 30353 30354 30355 30356 30357 30358 30359 30360 30361 30362 30363 30364 30365 30366 30367 30368 30369 30370 30371 30372 30373 30374 30375 30376 30377 30378 30379 30380 30381 30382 30383 30384 30385 30386 30387 30388 30389 30390 30391 30392 30393 30394 30395 30396 30397 30398 30399 30400 30401 30402 30403 30404 30405 30406 30407 30408 30409 30410 30411 30412 30413 30414 30415 30416 30417 30418 30419 30420 30421 30422 30423 30424 30425 30426 30427 30428 30429 30430 30431 30432 30433 30434 30435 30436 30437 30438 30439 30440 30441 30442 30443 30444 30445 30446 30447 30448 30449 30450 30451 30452 30453 30454 30455 30456 30457 30458 30459 30460 30461 30462 30463 30464 30465 30466 30467 30468 30469 30470 30471 30472 30473 30474 30475 30476 30477 30478 30479 30480 30481 30482 30483 30484 30485 30486 30487 30488 30489 30490 30491 30492 30493 30494 30495 30496 30497 30498 30499 30500 30501 30502 30503 30504 30505 30506 30507 30508 30509 30510 30511 30512 30513 30514 30515 30516 30517 30518 30519 30520 30521 30522 30523 30524 30525 30526 30527 30528 30529 30530 30531 30532 30533 30534 30535 30536 30537 30538 30539 30540 30541 30542 30543 30544 30545 30546 30547 30548 30549 30550 30551 30552 30553 30554 30555 30556 30557 30558 30559 30560 30561 30562 30563 30564 30565 30566 30567 30568 30569 30570 30571 30572 30573 30574 30575 30576 30577 30578 30579 30580 30581 30582 30583 30584 30585 30586 30587 30588 30589 30590 30591 30592 30593 30594 30595 30596 30597 30598 30599 30600 30601 30602 30603 30604 30605 30606 30607 30608 30609 30610 30611 30612 30613 30614 30615 30616 30617 30618 30619 30620 30621 30622 30623 30624 30625 30626 30627 30628 30629 30630 30631 30632 30633 30634 30635 30636 30637 30638 30639 30640 30641 30642 30643 30644 30645 30646 30647 30648 30649 30650 30651 30652 30653 30654 30655 30656 30657 30658 30659 30660 30661 30662 30663 30664 30665 30666 30667 30668 30669 30670 30671 30672 30673 30674 30675 30676 30677 30678 30679 30680 30681 30682 30683 30684 30685 30686 30687 30688 30689 30690 30691 30692 30693 30694 30695 30696 30697 30698 30699 30700 30701 30702 30703 30704 30705 30706 30707 30708 30709 30710 30711 30712 30713 30714 30715 30716 30717 30718 30719 30720 30721 30722 30723 30724 30725 30726 30727 30728 30729 30730 30731 30732 30733 30734 30735 30736 30737 30738 30739 30740 30741 30742 30743 30744 30745 30746 30747 30748 30749 30750 30751 30752 30753 30754 30755 30756 30757 30758 30759 30760 30761 30762 30763 30764 30765 30766 30767 30768 30769 30770 30771 30772 30773 30774 30775 30776 30777 30778 30779 30780 30781 30782 30783 30784 30785 30786 30787 30788 30789 30790 30791 30792 30793 30794 30795 30796 30797 30798 30799 30800 30801 30802 30803 30804 30805 30806 30807 30808 30809 30810 30811 30812 30813 30814 30815 30816 30817 30818 30819 30820 30821 30822 30823 30824 30825 30826 30827 30828 30829 30830 30831 30832 30833 30834 30835 30836 30837 30838 30839 30840 30841 30842 30843 30844 30845 30846 30847 30848 30849 30850 30851 30852 30853 30854 30855 30856 30857 30858 30859 30860 30861 30862 30863 30864 30865 30866 30867 30868 30869 30870 30871 30872 30873 30874 30875 30876 30877 30878 30879 30880 30881 30882 30883 30884 30885 30886 30887 30888 30889 30890 30891 30892 30893 30894 30895 30896 30897 30898 30899 30900 30901 30902 30903 30904 30905 30906 30907 30908 30909 30910 30911 30912 30913 30914 30915 30916 30917 30918 30919 30920 30921 30922 30923 30924 30925 30926 30927 30928 30929 30930 30931 30932 30933 30934 30935 30936 30937 30938 30939 30940 30941 30942 30943 30944 30945 30946 30947 30948 30949 30950 30951 30952 30953 30954 30955 30956 30957 30958 30959 30960 30961 30962 30963 30964 30965 30966 30967 30968 30969 30970 30971 30972 30973 30974 30975 30976 30977 30978 30979 30980 30981 30982 30983 30984 30985 30986 30987 30988 30989 30990 30991 30992 30993 30994 30995 30996 30997 30998 30999 31000 31001 31002 31003 31004 31005 31006 31007 31008 31009 31010 31011 31012 31013 31014 31015 31016 31017 31018 31019 31020 31021 31022 31023 31024 31025 31026 31027 31028 31029 31030 31031 31032 31033 31034 31035 31036 31037 31038 31039 31040 31041 31042 31043 31044 31045 31046 31047 31048 31049 31050 31051 31052 31053 31054 31055 31056 31057 31058 31059 31060 31061 31062 31063 31064 31065 31066 31067 31068 31069 31070 31071 31072 31073 31074 31075 31076 31077 31078 31079 31080 31081 31082 31083 31084 31085 31086 31087 31088 31089 31090 31091 31092 31093 31094 31095 31096 31097 31098 31099 31100 31101 31102 31103 31104 31105 31106 31107 31108 31109 31110 31111 31112 31113 31114 31115 31116 31117 31118 31119 31120 31121 31122 31123 31124 31125 31126 31127 31128 31129 31130 31131 31132 31133 31134 31135 31136 31137 31138 31139 31140 31141 31142 31143 31144 31145 31146 31147 31148 31149 31150 31151 31152 31153 31154 31155 31156 31157 31158 31159 31160 31161 31162 31163 31164 31165 31166 31167 31168 31169 31170 31171 31172 31173 31174 31175 31176 31177 31178 31179 31180 31181 31182 31183 31184 31185 31186 31187 31188 31189 31190 31191 31192 31193 31194 31195 31196 31197 31198 31199 31200 31201 31202 31203 31204 31205 31206 31207 31208 31209 31210 31211 31212 31213 31214 31215 31216 31217 31218 31219 31220 31221 31222 31223 31224 31225 31226 31227 31228 31229 31230 31231 31232 31233 31234 31235 31236 31237 31238 31239 31240 31241 31242 31243 31244 31245 31246 31247 31248 31249 31250 31251 31252 31253 31254 31255 31256 31257 31258 31259 31260 31261 31262 31263 31264 31265 31266 31267 31268 31269 31270 31271 31272 31273 31274 31275 31276 31277 31278 31279 31280 31281 31282 31283 31284 31285 31286 31287 31288 31289 31290 31291 31292 31293 31294 31295 31296 31297 31298 31299 31300 31301 31302 31303 31304 31305 31306 31307 31308 31309 31310 31311 31312 31313 31314 31315 31316 31317 31318 31319 31320 31321 31322 31323 31324 31325 31326 31327 31328 31329 31330 31331 31332 31333 31334 31335 31336 31337 31338 31339 31340 31341 31342 31343 31344 31345 31346 31347 31348 31349 31350 31351 31352 31353 31354 31355 31356 31357 31358 31359 31360 31361 31362 31363 31364 31365 31366 31367 31368 31369 31370 31371 31372 31373 31374 31375 31376 31377 31378 31379 31380 31381 31382 31383 31384 31385 31386 31387 31388 31389 31390 31391 31392 31393 31394 31395 31396 31397 31398 31399 31400 31401 31402 31403 31404 31405 31406 31407 31408 31409 31410 31411 31412 31413 31414 31415 31416 31417 31418 31419 31420 31421 31422 31423 31424 31425 31426 31427 31428 31429 31430 31431 31432 31433 31434 31435 31436 31437 31438 31439 31440 31441 31442 31443 31444 31445 31446 31447 31448 31449 31450 31451 31452 31453 31454 31455 31456 31457 31458 31459 31460 31461 31462 31463 31464 31465 31466 31467 31468 31469 31470 31471 31472 31473 31474 31475 31476 31477 31478 31479 31480 31481 31482 31483 31484 31485 31486 31487 31488 31489 31490 31491 31492 31493 31494 31495 31496 31497 31498 31499 31500 31501 31502 31503 31504 31505 31506 31507 31508 31509 31510 31511 31512 31513 31514 31515 31516 31517 31518 31519 31520 31521 31522 31523 31524 31525 31526 31527 31528 31529 31530 31531 31532 31533 31534 31535 31536 31537 31538 31539 31540 31541 31542 31543 31544 31545 31546 31547 31548 31549 31550 31551 31552 31553 31554 31555 31556 31557 31558 31559 31560 31561 31562 31563 31564 31565 31566 31567 31568 31569 31570 31571 31572 31573 31574 31575 31576 31577 31578 31579 31580 31581 31582 31583 31584 31585 31586 31587 31588 31589 31590 31591 31592 31593 31594 31595 31596 31597 31598 31599 31600 31601 31602 31603 31604 31605 31606 31607 31608 31609 31610 31611 31612 31613 31614 31615 31616 31617 31618 31619 31620 31621 31622 31623 31624 31625 31626 31627 31628 31629 31630 31631 31632 31633 31634 31635 31636 31637 31638 31639 31640 31641 31642 31643 31644 31645 31646 31647 31648 31649 31650 31651 31652 31653 31654 31655 31656 31657 31658 31659 31660 31661 31662 31663 31664 31665 31666 31667 31668 31669 31670 31671 31672 31673 31674 31675 31676 31677 31678 31679 31680 31681 31682 31683 31684 31685 31686 31687 31688 31689 31690 31691 31692 31693 31694 31695 31696 31697 31698 31699 31700 31701 31702 31703 31704 31705 31706 31707 31708 31709 31710 31711 31712 31713 31714 31715 31716 31717 31718 31719 31720 31721 31722 31723 31724 31725 31726 31727 31728 31729 31730 31731 31732 31733 31734 31735 31736 31737 31738 31739 31740 31741 31742 31743 31744 31745 31746 31747 31748 31749 31750 31751 31752 31753 31754 31755 31756 31757 31758 31759 31760 31761 31762 31763 31764 31765 31766 31767 31768 31769 31770 31771 31772 31773 31774 31775 31776 31777 31778 31779 31780 31781 31782 31783 31784 31785 31786 31787 31788 31789 31790 31791 31792 31793 31794 31795 31796 31797 31798 31799 31800 31801 31802 31803 31804 31805 31806 31807 31808 31809 31810 31811 31812 31813 31814 31815 31816 31817 31818 31819 31820 31821 31822 31823 31824 31825 31826 31827 31828 31829 31830 31831 31832 31833 31834 31835 31836 31837 31838 31839 31840 31841 31842 31843 31844 31845 31846 31847 31848 31849 31850 31851 31852 31853 31854 31855 31856 31857 31858 31859 31860 31861 31862 31863 31864 31865 31866 31867 31868 31869 31870 31871 31872 31873 31874 31875 31876 31877 31878 31879 31880 31881 31882 31883 31884 31885 31886 31887 31888 31889 31890 31891 31892 31893 31894 31895 31896 31897 
</DataArray>
<DataArray type="UInt32" Name="offsets" format="ascii">
3 6 9 12 15 17 20 23 26 29 32 35 38 40 43 46 49 52 54 57 60 62 65 68 71 74 76 79 82 85 88 90 93 96 99 102 105 108 111 114 117 120 123 126 129 131 134 137 139 142 145 148 151 154 156 159 162 165 168 171 174 177 179 182 185 188 191 193 196 199 202 205 208 211 214 217 220 222 225 228 230 233 236 238 241 244 247 250 252 255 258 261 264 267 270 273 275 277 279 282 285 287 290 293 296 299 302 304 307 310 313 316 319 322 325 328 331 334 337 340 343 345 348 351 354 356 359 362 365 368 371 374 376 379 382 385 388 391 394 397 400 403 406 409 412 415 418 421 424 427 430 433 436 439 442 445 448 451 453 456 459 462 464 467 470 472 475 478 481 484 487 490 493 496 499 502 505 507 510 513 516 519 522 525 528 531 533 536 539 542 545 548 551 554 557 559 562 565 568 571 574 577 580 583 586 588 591 594 597 600 603 606 609 612 615 618 621 624 627 630 633 636 639 642 645 648 651 654 657 659 662 665 668 670 673 675 678 680 683 686 688 691 694 697 699 702 704 707 709 712 714 716 719 721 724 727 729 732 734 737 740 743 745 748 750 752 755 758 760 763 766 769 771 774 776 778 780 783 785 788 791 794 796 799 801 803 805 808 811 813 815 818 821 824 827 829 832 834 837 840 842 845 848 851 853 856 858 860 862 865 868 871 873 876 878 880 882 884 887 890 893 895 897 900 903 905 907 909 912 914 917 920 923 926 928 931 934 937 940 943 946 949 951 954 957 960 963 966 969 971 973 976 979 982 984 987 990 993 995 998 1000 1003 1005 1007 1010 1013 1016 1019 1021 1024 1027 1029 1032 1035 1038 1041 1043 1046 1048 1051 1054 1057 1060 1063 1065 1067 1070 1073 1076 1079 1082 1085 1088 1091 1093 1096 1099 1102 1104 1107 1110 1112 1115 1117 1120 1123 1126 1129 1132 1135 1138 1141 1144 1147 1150 1152 1155 1157 1160 1162 1165 1168 1171 1173 1176 1178 1181 1183 1186 1189 1192 1195 1198 1201 1203 1206 1208 1211 1214 1217 1219 1222 1225 1228 1230 1233 1235 1237 1240 1243 1246 1249 1251 1254 1257 1260 1263 1265 1267 1270 1273 1275 1278 1280 1283 1285 1287 1290 1293 1296 1298 1301 1304 1307 1310 1312 1315 1318 1321 1324 1327 1330 1333 1336 1339 1342 1345 1347 1350 1353 1356 1359 1361 1364 1367 1370 1372 1375 1377 1379 1381 1384 1387 1390 1392 1394 1397 1399 1402 1405 1407 1410 1413 1416 1419 1421 1424 1427 1430 1433 1436 1439 1442 1445 1448 1451 1454 1456 1458 1461 1464 1466 1469 1472 1475 1477 1480 1483 1486 1489 1492 1495 1497 1500 1503 1506 1508 1511 1514 1517 1519 1522 1525 1528 1531 1534 1537 1540 1543 1546 1549 1552 1554 1557 1560 1563 1565 1568 1571 1574 1577 1580 1583 1586 1588 1591 1594 1597 1600 1603 1605 1608 1611 1614 1617 1620 1623 1626 1629 1632 1635 1638 1641 1644 1647 1650 1653 1656 1659 1662 1664 1667 1670 1673 1676 1678 1681 1684 1686 1689 1692 1695 1698 1701 1704 1707 1709 1712 1715 1718 1721 1724 1727 1730 1733 1735 1738 1740 1743 1746 1748 1751 1754 1757 1759 1762 1765 1767 1770 1773 1776 1778 1781 1783 1786 1789 1791 1794 1796 1799 1802 1805 1808 1811 1814 1817 1820 1823 1826 1829 1832 1835 1838 1841 1844 1847 1850 1853 1856 1859 1862 1864 1867 1869 1872 1874 1877 1880 1883 1886 1889 1892 1895 1898 1901 1904 1907 1910 1913 1916 1919 1921 1924 1927 1930 1933 1936 1939 1942 1945 1948 1950 1953 1956 1959 1962 1965 1968 1971 1974 1977 1980 1983 1986 1989 1992 1995 1998 2001 2004 2007 2010 2013 2016 2019 2022 2025 2028 2031 2034 2037 2039 2042 2045 2047 2050 2053 2056 2058 2060 2063 2065 2068 2071 2074 2077 2080 2082 2085 2088 2091 2094 2097 2099 2102 2105 2108 2111 2114 2117 2120 2123 2126 2129 2132 2135 2138 2141 2144 2147 2150 2153 2156 2159 2162 2165 2168 2171 2174 2177 2180 2183 2186 2189 2192 2195 2198 2201 2204 2207 2210 2213 2216 2219 2222 2225 2228 2231 2234 2237 2240 2243 2246 2248 2251 2254 2257 2260 2263 2266 2269 2272 2275 2278 2281 2284 2287 2290 2293 2295 2298 2301 2304 2307 2309 2312 2315 2318 2321 2324 2327 2330 2333 2336 2339 2342 2345 2348 2351 2354 2357 2360 2363 2366 2369 2372 2375 2378 2381 2384 2387 2390 2392 2395 2398 2400 2403 2405 2407 2409 2411 2414 2417 2419 2422 2425 2428 2431 2434 2437 2440 2443 2446 2449 2452 2455 2458 2461 2464 2467 2470 2472 2475 2478 2480 2483 2485 2488 2491 2494 2497 2499 2502 2504 2507 2510 2513 2516 2518 2521 2524 2527 2529 2532 2535 2538 2541 2544 2546 2549 2551 2554 2557 2559 2561 2564 2566 2569 2572 2575 2578 2581 2584 2587 2590 2593 2596 2599 2601 2604 2607 2610 2612 2615 2618 2621 2623 2626 2629 2631 2633 2635 2638 2641 2644 2647 2650 2653 2656 2659 2662 2665 2668 2670 2673 2676 2679 2682 2685 2688 2691 2694 2696 2698 2700 2703 2706 2709 2712 2715 2718 2721 2724 2726 2728 2731 2734 2737 2739 2742 2745 2747 2750 2753 2756 2759 2762 2765 2768 2771 2774 2777 2780 2782 2785 2788 2791 2794 2797 2800 2803 2806 2808 2811 2814 2817 2820 2823 2826 2829 2832 2835 2838 2840 2843 2845 2847 2849 2852 2855 2858 2861 2864 2867 2870 2872 2874 2877 2879 2882 2885 2888 2891 2894 2896 2899 2901 2903 2906 2909 2912 2914 2917 2919 2922 2925 2928 2931 2933 2936 2939 2942 2945 2948 2951 2954 2957 2960 2963 2966 2969 2972 2975 2978 2981 2984 2986 2989 2992 2995 2997 3000 3003 3006 3009 3012 3014 3017 3020 3023 3026 3029 3032 3034 3037 3039 3042 3045 3048 3051 3054 3057 3060 3063 3065 3068 3071 3074 3076 3079 3082 3085 3088 3091 3094 3097 3100 3103 3106 3109 3112 3115 3118 3121 3124 3127 3130 3133 3136 3139 3142 3145 3148 3151 3153 3155 3157 3160 3163 3166 3169 3171 3174 3177 3180 3183 3185 3188 3191 3194 3197 3200 3203 3206 3208 3211 3214 3217 3220 3223 3226 3229 3232 3234 3237 3240 3243 3246 3249 3252 3255 3258 3261 3264 3267 3270 3272 3275 3278 3281 3284 3287 3290 3292 3295 3298 3301 3304 3307 3310 3313 3316 3318 3321 3324 3327 3329 3332 3335 3338 3341 3344 3347 3350 3353 3356 3359 3362 3365 3367 3370 3373 3376 3379 3382 3385 3388 3391 3394 3397 3400 3403 3406 3409 3412 3415 3418 3421 3424 3427 3430 3433 3436 3439 3442 3445 3448 3451 3454 3457 3460 3463 3466 3469 3472 3475 3478 3481 3484 3487 3490 3493 3496 3499 3502 3505 3508 3510 3513 3516 3519 3522 3525 3528 3531 3534 3537 3540 3543 3546 3549 3552 3555 3558 3561 3564 3567 3570 3573 3576 3579 3582 3584 3587 3590 3593 3596 3599 3602 3605 3608 3611 3614 3616 3619 3622 3624 3627 3630 3633 3636 3639 3642 3645 3648 3651 3653 3656 3658 3661 3664 3667 3670 3672 3675 3678 3680 3683 3685 3688 3691 3694 3697 3700 3702 3705 3708 3711 3714 3717 3720 3723 3726 3728 3731 3734 3737 3740 3743 3746 3749 3752 3755 3758 3761 3764 3767 3770 3772 3775 3777 3779 3782 3785 3788 3791 3794 3796 3799 3802 3805 3808 3811 3814 3817 3820 3823 3826 3829 3832 3835 3838 3841 3843 3846 3849 3852 3855 3858 3861 3864 3867 3870 3873 3876 3879 3882 3885 3888 3891 3893 3896 3899 3902 3905 3908 3910 3912 3915 3918 3920 3923 3926 3929 3932 3935 3938 3941 3944 3947 3950 3952 3955 3958 3961 3964 3967 3970 3973 3976 3979 3981 3984 3986 3989 3992 3995 3998 4001 4003 4006 4009 4012 4015 4017 4020 4023 4026 4028 4031 4034 4037 4039 4042 4045 4047 4050 4053 4056 4059 4062 4065 4068 4071 4074 4077 4080 4083 4086 4089 4092 4095 4097 4100 4103 4106 4109 4112 4115 4118 4120 4123 4126 4129 4132 4135 4138 4141 4144 4147 4150 4153 4156 4159 4162 4165 4168 4171 4174 4177 4180 4183 4186 4189 4192 4195 4198 4201 4203 4206 4209 4212 4215 4217 4220 4223 4226 4228 4231 4234 4237 4240 4243 4246 4249 4252 4255 4257 4260 4262 4265 4268 4271 4274 4277 4280 4283 4286 4289 4292 4295 4298 4301 4304 4307 4310 4313 4316 4318 4320 4323 4326 4329 4331 4334 4337 4339 4342 4345 4347 4350 4353 4356 4358 4361 4364 4366 4369 4372 4375 4378 4381 4384 4387 4390 4393 4396 4399 4402 4405 4408 4411 4414 4417 4420 4423 4426 4428 4431 4433 4436 4439 4442 4445 4448 4451 4454 4457 4460 4463 4466 4468 4471 4473 4476 4479 4482 4484 4487 4490 4493 4496 4499 4501 4504 4507 4510 4513 4516 4519 4521 4524 4527 4530 4533 4536 4539 4542 4545 4548 4551 4554 4556 4559 4562 4565 4568 4571 4574 4577 4580 4582 4585 4588 4591 4593 4596 4599 4601 4604 4607 4610 4613 4616 4618 4621 4624 4627 4630 4633 4636 4639 4642 4645 4647 4650 4653 4655 4658 4660 4663 4665 4667 4669 4672 4674 4677 4680 4683 4686 4689 4692 4694 4697 4700 4703 4706 4709 4712 4714 4717 4720 4723 4726 4729 4732 4735 4737 4740 4743 4746 4749 4751 4754 4757 4760 4763 4766 4768 4771 4773 4776 4779 4782 4785 4788 4791 4794 4797 4800 4803 4805 4808 4811 4814 4817 4820 4823 4826 4828 4831 4834 4837 4840 4843 4846 4849 4851 4854 4856 4859 4862 4865 4868 4871 4874 4877 4880 4882 4885 4888 4891 4893 4895 4898 4901 4904 4907 4910 4912 4914 4917 4919 4922 4925 4927 4930 4933 4935 4938 4941 4944 4947 4950 4953 4956 4959 4961 4964 4967 4970 4973 4976 4978 4981 4984 4987 4990 4992 4995 4998 5000 5003 5006 5009 5012 5015 5018 5021 5024 5027 5030 5033 5036 5039 5042 5045 5048 5051 5054 5057 5060 5063 5066 5069 5072 5075 5078 5081 5084 5087 5090 5093 5096 5099 5102 5105 5108 5111 5114 5117 5120 5123 5125 5128 5131 5133 5136 5139 5142 5145 5148 5150 5153 5156 5159 5162 5164 5167 5170 5173 5176 5179 5182 5185 5188 5191 5194 5197 5200 5203 5206 5209 5212 5215 5218 5221 5224 5227 5230 5233 5236 5238 5241 5244 5247 5249 5252 5255 5258 5261 5264 5267 5269 5272 5275 5278 5281 5284 5287 5290 5293 5296 5299 5302 5304 5307 5309 5311 5314 5317 5319 5322 5325 5328 5331 5334 5337 5340 5343 5346 5349 5352 5354 5357 5360 5362 5365 5368 5371 5374 5377 5380 5383 5386 5389 5392 5395 5398 5401 5404 5407 5409 5412 5415 5418 5421 5424 5427 5430 5432 5435 5437 5440 5443 5446 5449 5451 5454 5456 5459 5462 5465 5468 5471 5474 5477 5480 5483 5485 5488 5491 5494 5497 5500 5503 5506 5509 5512 5515 5518 5521 5524 5527 5530 5533 5536 5538 5541 5544 5547 5550 5553 5556 5559 5562 5565 5568 5571 5574 5577 5580 5583 5586 5589 5592 5595 5598 5601 5604 5607 5610 5613 5615 5617 5620 5623 5626 5629 5632 5635 5638 5641 5644 5647 5650 5652 5655 5658 5661 5664 5666 5669 5672 5675 5678 5680 5683 5686 5689 5692 5695 5698 5701 5704 5706 5709 5712 5715 5718 5721 5724 5727 5730 5733 5735 5738 5741 5744 5747 5750 5753 5756 5759 5762 5765 5768 5771 5774 5777 5780 5783 5786 5789 5792 5795 5797 5800 5803 5806 5809 5812 5815 5818 5821 5824 5827 5830 5833 5836 5839 5841 5844 5846 5849 5852 5855 5858 5861 5864 5867 5870 5872 5875 5878 5880 5883 5886 5889 5892 5895 5898 5901 5904 5907 5910 5913 5916 5919 5922 5925 5928 5931 5934 5937 5940 5943 5946 5949 5952 5955 5958 5961 5964 5967 5970 5973 5976 5979 5982 5985 5988 5990 5993 5996 5998 6001 6004 6007 6010 6012 6015 6017 6020 6023 6025 6028 6030 6033 6036 6039 6042 6045 6047 6050 6053 6056 6059 6062 6065 6068 6071 6074 6077 6080 6083 6085 6088 6091 6094 6096 6099 6102 6105 6108 6111 6114 6117 6120 6123 6125 6128 6131 6134 6137 6139 6141 6144 6147 6150 6153 6156 6159 6162 6165 6167 6170 6173 6176 6179 6182 6184 6187 6190 6193 6195 6198 6201 6204 6206 6209 6212 6215 6218 6220 6223 6226 6229 6232 6235 6238 6241 6244 6247 6250 6253 6256 6259 6262 6264 6267 6270 6273 6276 6279 6282 6284 6287 6289 6291 6294 6296 6299 6301 6304 6307 6310 6313 6315 6318 6321 6324 6327 6329 6332 6335 6338 6341 6344 6347 6350 6353 6356 6358 6361 6364 6367 6370 6373 6376 6379 6382 6385 6388 6391 6394 6397 6400 6402 6405 6408 6411 6413 6416 6419 6422 6424 6427 6429 6432 6435 6438 6441 6444 6447 6450 6453 6456 6459 6462 6465 6468 6471 6474 6477 6479 6482 6485 6488 6491 6494 6497 6499 6502 6505 6508 6511 6514 6517 6520 6523 6526 6529 6532 6535 6538 6541 6544 6547 6550 6553 6555 6558 6561 6564 6567 6570 6573 6576 6579 6582 6585 6588 6591 6594 6597 6600 6603 6606 6609 6612 6615 6618 6621 6624 6627 6630 6633 6636 6639 6642 6645 6648 6651 6654 6657 6659 6662 6665 6668 6671 6673 6676 6679 6682 6685 6688 6691 6694 6696 6699 6702 6705 6708 6711 6714 6717 6720 6723 6725 6728 6731 6733 6736 6739 6742 6745 6748 6750 6753 6756 6759 6761 6764 6767 6769 6772 6775 6778 6781 6784 6787 6790 6793 6796 6799 6802 6805 6808 6811 6814 6817 6820 6823 6826 6829 6831 6834 6837 6840 6843 6846 6849 6852 6855 6858 6861 6863 6865 6868 6870 6873 6876 6879 6882 6885 6887 6890 6893 6896 6899 6901 6904 6907 6910 6913 6916 6918 6921 6923 6926 6929 6931 6934 6937 6940 6943 6946 6949 6952 6955 6957 6960 6963 6966 6969 6972 6975 6977 6980 6983 6986 6989 6992 6995 6997 7000 7003 7006 7009 7011 7014 7017 7019 7022 7024 7027 7030 7032 7035 7038 7041 7044 7047 7050 7052 7055 7058 7061 7064 7066 7069 7072 7075 7078 7081 7084 7087 7090 7092 7094 7097 7100 7103 7106 7109 7112 7115 7118 7120 7123 7126 7129 7132 7135 7138 7140 7143 7146 7149 7152 7155 7158 7161 7163 7166 7169 7172 7174 7177 7180 7183 7186 7189 7192 7195 7198 7201 7204 7207 7210 7212 7215 7218 7221 7224 7226 7229 7232 7234 7237 7240 7243 7246 7248 7251 7254 7257 7259 7261 7264 7267 7270 7272 7275 7278 7281 7283 7286 7289 7292 7295 7298 7301 7304 7307 7310 7312 7315 7318 7321 7323 7326 7329 7332 7335 7338 7341 7344 7347 7350 7353 7356 7359 7361 7364 7366 7369 7372 7374 7377 7380 7382 7385 7388 7391 7394 7397 7400 7403 7405 7408 7411 7414 7417 7420 7422 7425 7427 7430 7433 7436 7438 7440 7443 7445 7447 7450 7452 7455 7458 7461 7464 7467 7470 7472 7475 7477 7480 7483 7486 7489 7492 7495 7498 7501 7504 7507 7510 7513 7516 7518 7521 7524 7526 7529 7531 7534 7537 7539 7542 7545 7548 7550 7552 7555 7558 7560 7563 7566 7569 7572 7575 7578 7581 7584 7587 7590 7593 7596 7599 7602 7605 7608 7611 7614 7617 7620 7623 7626 7629 7631 7633 7636 7638 7641 7643 7646 7649 7651 7653 7656 7659 7661 7664 7667 7669 7672 7675 7677 7680 7682 7685 7688 7691 7694 7696 7699 7702 7705 7708 7710 7713 7715 7717 7720 7722 7725 7728 7730 7732 7735 7738 7741 7743 7746 7749 7752 7755 7757 7759 7762 7765 7768 7771 7774 7776 7779 7782 7785 7788 7791 7794 7797 7800 7803 7806 7809 7811 7814 7816 7819 7821 7824 7827 7829 7832 7834 7837 7840 7843 7846 7849 7852 7855 7858 7860 7863 7866 7868 7871 7874 7877 7880 7882 7885 7888 7891 7894 7897 7900 7903 7906 7909 7912 7915 7918 7920 7923 7926 7929 7932 7935 7938 7941 7944 7947 7950 7953 7955 7958 7961 7964 7967 7970 7973 7975 7978 7980 7983 7986 7988 7991 7994 7997 8000 8003 8006 8009 8012 8015 8018 8021 8024 8027 8030 8033 8036 8039 8041 8043 8046 8049 8052 8054 8057 8060 8062 8065 8068 8071 8074 8077 8080 8083 8086 8089 8092 8095 8098 8101 8104 8107 8110 8113 8116 8119 8122 8125 8128 8131 8134 8137 8139 8141 8144 8147 8150 8153 8156 8159 8162 8165 8168 8171 8174 8176 8179 8182 8185 8188 8191 8194 8197 8200 8203 8206 8209 8212 8215 8218 8221 8224 8227 8230 8233 8236 8239 8242 8245 8248 8251 8254 8257 8260 8263 8266 8269 8272 8275 8277 8280 8283 8286 8289 8292 8294 8297 8300 8302 8305 8308 8310 8312 8315 8318 8321 8324 8327 8330 8333 8336 8339 8342 8345 8348 8351 8353 8356 8359 8361 8364 8367 8370 8373 8376 8379 8381 8384 8387 8389 8392 8395 8398 8401 8404 8407 8410 8413 8416 8419 8422 8425 8428 8430 8433 8436 8439 8442 8445 8448 8451 8453 8456 8459 8462 8465 8468 8471 8474 8477 8480 8483 8486 8489 8491 8494 8497 8499 8502 8505 8508 8511 8514 8517 8520 8523 8526 8529 8532 8535 8538 8541 8544 8547 8550 8553 8556 8559 8561 8564 8567 8569 8572 8574 8577 8580 8583 8585 8588 8591 8593 8596 8598 8601 8604 8607 8609 8612 8615 8618 8621 8623 8626 8629 8632 8635 8638 8641 8644 8646 8649 8652 8655 8657 8660 8663 8666 8669 8672 8675 8678 8681 8684 8687 8690 8693 8695 8698 8701 8704 8707 8710 8713 8716 8719 8721 8724 8727 8730 8733 8736 8739 8742 8745 8748 8751 8754 8756 8759 8762 8765 8768 8771 8774 8777 8780 8783 8786 8789 8792 8795 8798 8801 8804 8807 8810 8813 8815 8817 8820 8823 8826 8828 8831 8834 8837 8840 8843 8846 8849 8852 8855 8858 8861 8864 8866 8869 8872 8875 8878 8881 8884 8887 8890 8893 8895 8898 8901 8904 8907 8910 8913 8916 8919 8922 8925 8928 8931 8934 8937 8940 8943 8945 8948 8950 8953 8956 8959 8962 8965 8967 8970 8973 8976 8979 8981 8984 8987 8990 8992 8995 8998 9001 9003 9006 9009 9012 9015 9018 9021 9024 9027 9030 9032 9035 9038 9041 9043 9046 9049 9051 9054 9057 9060 9063 9066 9069 9071 9074 9077 9080 9083 9086 9089 9092 9095 9097 9100 9103 9106 9108 9111 9114 9117 9120 9123 9126 9129 9132 9135 9138 9141 9144 9147 9150 9153 9156 9159 9162 9165 9168 9171 9174 9177 9180 9183 9186 9189 9191 9194 9197 9200 9203 9206 9209 9212 9214 9217 9220 9223 9226 9229 9232 9235 9238 9241 9244 9247 9250 9253 9256 9259 9262 9265 9268 9271 9274 9277 9280 9283 9286 9289 9291 9294 9296 9299 9302 9305 9308 9311 9314 9316 9319 9322 9325 9327 9330 9333 9335 9338 9341 9344 9347 9350 9353 9356 9359 9362 9365 9368 9371 9373 9376 9379 9382 9385 9388 9390 9393 9396 9399 9402 9405 9408 9411 9414 9417 9420 9423 9426 9429 9431 9434 9437 9440 9442 9445 9448 9451 9454 9457 9460 9463 9466 9469 9472 9475 9478 9480 9482 9485 9488 9491 9494 9496 9499 9502 9505 9508 9511 9514 9517 9520 9523 9525 9527 9530 9533 9536 9539 9542 9544 9547 9550 9553 9556 9559 9561 9564 9567 9570 9573 9576 9578 9581 9583 9586 9589 9592 9595 9597 9600 9602 9605 9607 9609 9612 9615 9618 9621 9624 9627 9630 9632 9634 9637 9640 9643 9646 9649 9652 9654 9656 9658 9661 9663 9665 9668 9671 9674 9676 9679 9682 9685 9688 9691 9693 9695 9697 9700 9702 9705 9708 9711 9713 9716 9718 9720 9723 9726 9729 9732 9735 9738 9741 9743 9745 9748 9751 9753 9755 9757 9760 9763 9766 9769 9772 9775 9778 9781 9784 9787 9790 9793 9796 9799 9802 9805 9808 9811 9814 9817 9820 9823 9826 9829 9832 9835 9838 9841 9844 9847 9850 9853 9856 9859 9862 9865 9868 9871 9874 9877 9879 9882 9885 9888 9891 9894 9897 9900 9903 9906 9909 9911 9914 9917 9920 9923 9926 9929 9931 9934 9937 9939 9942 9945 9948 9951 9954 9957 9960 9963 9966 9969 9972 9975 9978 9980 9983 9985 9988 9991 9994 9997 9999 10002 10005 10008 10010 10013 10016 10018 10021 10024 10027 10029 10032 10035 10037 10040 10043 10046 10049 10052 10054 10057 10060 10063 10066 10069 10072 10075 10077 10080 10083 10086 10089 10092 10095 10098 10100 10103 10106 10108 10111 10114 10117 10120 10122 10125 10127 10130 10133 10136 10139 10142 10144 10147 10150 10153 10156 10158 10161 10164 10167 10170 10173 10176 10178 10180 10183 10186 10189 10192 10195 10197 10200 10203 10205 10208 10211 10214 10217 10220 10223 10226 10229 10232 10235 10237 10240 10243 10246 10249 10252 10255 10258 10261 10264 10267 10270 10273 10276 10279 10282 10285 10288 10291 10293 10296 10299 10302 10305 10308 10311 10313 10316 10319 10322 10325 10328 10331 10334 10336 10338 10341 10344 10347 10350 10352 10355 10358 10361 10364 10367 10370 10373 10375 10378 10381 10383 10386 10388 10390 10392 10395 10398 10401 10404 10407 10410 10412 10415 10418 10421 10424 10427 10429 10432 10435 10438 10441 10443 10446 10449 10452 10454 10457 10460 10463 10465 10468 10471 10474 10477 10480 10483 10486 10489 10492 10495 10498 10501 10504 10507 10510 10513 10516 10519 10522 10525 10528 10531 10534 10537 10540 10542 10545 10548 10551 10554 10557 10560 10563 10565 10568 10570 10573 10576 10579 10582 10585 10588 10590 10593 10596 10598 10601 10604 10607 10609 10612 10615 10617 10620 10623 10626 10629 10632 10634 10637 10640 10643 10645 10647 10650 10653 10656 10659 10662 10665 10668 10671 10674 10677 10680 10683 10685 10688 10691 10694 10697 10700 10703 10706 10709 10712 10714 10717 10720 10723 10726 10729 10731 10733 10736 10739 10742 10745 10748 10751 10754 10757 10760 10762 10765 10768 10771 10774 10777 10780 10783 10786 10788 10791 10794 10797 10800 10803 10806 10809 10812 10815 10818 10821 10824 10827 10830 10833 10836 10839 10842 10844 10847 10850 10853 10856 10858 10861 10863 10866 10868 10871 10874 10877 10880 10883 10886 10889 10892 10895 10898 10901 10904 10907 10910 10913 10916 10919 10921 10924 10927 10930 10933 10936 10938 10941 10944 10947 10949 10951 10954 10957 10960 10963 10966 10968 10971 10974 10977 10980 10982 10985 10988 10991 10994 10997 11000 11003 11006 11008 11011 11014 11017 11020 11023 11026 11029 11031 11034 11037 11040 11043 11046 11049 11052 11055 11058 11060 11063 11066 11069 11072 11075 11078 11081 11084 11087 11090 11093 11096 11099 11102 11105 11108 11111 11114 11116 11119 11122 11125 11128 11131 11134 11137 11140 11143 11146 11149 11152 11155 11157 11160 11163 11166 11169 11172 11175 11177 11180 11183 11185 11188 11191 11193 11196 11199 11202 11205 11208 11211 11214 11217 11220 11223 11226 11229 11232 11235 11238 11241 11244 11247 11250 11253 11256 11259 11262 11265 11268 11271 11273 11276 11278 11281 11283 11285 11288 11291 11294 11296 11299 11302 11305 11308 11311 11314 11317 11320 11323 11325 11327 11330 11332 11335 11338 11341 11344 11347 11350 11353 11356 11359 11362 11365 11368 11371 11374 11376 11379 11381 11383 11386 11388 11391 11394 11397 11400 11403 11406 11409 11412 11415 11417 11419 11422 11425 11428 11431 11434 11437 11440 11443 11446 11449 11452 11455 11458 11461 11464 11467 11470 11473 11476 11479 11482 11485 11487 11490 11493 11496 11499 11502 11504 11507 11510 11513 11516 11519 11521 11524 11527 11530 11532 11535 11538 11541 11544 11547 11550 11553 11556 11559 11561 11564 11567 11570 11573 11575 11578 11581 11584 11587 11590 11593 11595 11598 11601 11604 11607 11610 11613 11616 11618 11621 11624 11627 11630 11632 11635 11638 11641 11644 11647 11650 11653 11656 11659 11662 11664 11667 11670 11673 11676 11678 11681 11684 11687 11689 11692 11695 11698 11701 11704 11706 11709 11712 11715 11718 11721 11724 11727 11730 11733 11736 11739 11742 11745 11748 11750 11752 11755 11758 11760 11763 11766 11769 11772 11775 11778 11781 11783 11786 11789 11792 11795 11798 11801 11803 11806 11809 11812 11815 11818 11821 11824 11827 11830 11833 11836 11839 11842 11845 11848 11851 11854 11857 11860 11863 11866 11869 11872 11874 11877 11880 11883 11886 11889 11892 11895 11898 11900 11903 11906 11909 11912 11914 11917 11920 11923 11926 11929 11931 11934 11936 11939 11941 11944 11947 11950 11953 11956 11959 11962 11964 11967 11970 11973 11975 11978 11981 11984 11987 11990 11992 11995 11998 12001 12004 12007 12009 12012 12014 12017 12020 12022 12025 12027 12030 12033 12036 12039 12042 12044 12047 12050 12053 12055 12058 12061 12064 12067 12070 12073 12076 12079 12082 12085 12087 12090 12093 12096 12099 12102 12105 12108 12111 12114 12117 12120 12123 12126 12129 12132 12135 12138 12141 12144 12147 12150 12153 12155 12158 12161 12164 12167 12170 12173 12176 12179 12182 12185 12188 12191 12194 12197 12200 12203 12206 12209 12211 12214 12217 12220 12222 12225 12228 12231 12234 12237 12240 12242 12245 12248 12251 12253 12255 12258 12260 12263 12265 12267 12270 12272 12275 12278 12280 12283 12286 12288 12290 12293 12296 12299 12302 12305 12308 12311 12314 12316 12319 12321 12324 12327 12330 12333 12336 12339 12342 12345 12348 12351 12354 12357 12360 12363 12366 12369 12372 12375 12378 12381 12384 12387 12389 12392 12395 12398 12401 12404 12407 12410 12413 12415 12418 12421 12423 12426 12429 12431 12433 12436 12439 12441 12444 12447 12450 12453 12456 12459 12462 12465 12468 12471 12474 12477 12480 12483 12486 12489 12492 12495 12498 12501 12504 12507 12510 12513 12516 12519 12522 12525 12528 12531 12534 12537 12540 12543 12546 12549 12552 12555 12558 12560 12563 12565 12568 12571 12574 12577 12580 12583 12586 12589 12592 12595 12598 12601 12604 12607 12610 12613 12616 12619 12622 12625 12628 12631 12634 12637 12640 12643 12646 12649 12652 12655 12658 12661 12664 12667 12670 12673 12676 12679 12682 12685 12687 12690 12693 12695 12698 12701 12704 12707 12710 12712 12715 12717 12720 12723 12725 12728 12731 12734 12737 12740 12743 12745 12748 12751 12754 12757 12760 12763 12766 12769 12772 12775 12778 12780 12783 12786 12788 12790 12793 12795 12798 12801 12803 12806 12809 12812 12815 12817 12820 12823 12826 12829 12832 12835 12838 12841 12844 12846 12849 12851 12854 12857 12860 12863 12866 12869 12872 12874 12877 12879 12882 12885 12888 12891 12894 12897 12900 12903 12906 12908 12911 12913 12916 12919 12922 12925 12928 12931 12934 12937 12940 12943 12945 12948 12951 12954 12956 12959 12962 12964 12967 12970 12972 12975 12978 12981 12984 12986 12989 12992 12995 12997 13000 13003 13006 13009 13012 13015 13018 13021 13024 13027 13030 13033 13036 13039 13041 13044 13047 13050 13053 13056 13059 13061 13064 13066 13069 13071 13074 13077 13080 13082 13085 13088 13091 13094 13097 13100 13103 13106 13108 13111 13114 13117 13120 13123 13125 13128 13131 13133 13136 13139 13142 13145 13148 13151 13154 13157 13160 13162 13165 13168 13171 13173 13176 13179 13182 13185 13188 13191 13193 13196 13199 13202 13205 13208 13211 13214 13217 13220 13223 13226 13229 13232 13235 13238 13241 13244 13247 13250 13253 13256 13259 13262 13265 13268 13271 13274 13277 13280 13283 13286 13288 13291 13294 13297 13300 13303 13305 13308 13311 13313 13315 13318 13321 13324 13327 13329 13332 13335 13338 13341 13344 13346 13349 13352 13355 13358 13361 13364 13367 13370 13373 13376 13379 13382 13385 13388 13391 13394 13396 13399 13402 13405 13408 13411 13414 13417 13420 13422 13424 13427 13430 13433 13436 13439 13442 13444 13447 13450 13453 13456 13458 13461 13464 13467 13470 13473 13476 13479 13482 13485 13488 13491 13494 13497 13500 13503 13506 13509 13512 13515 13518 13521 13524 13527 13530 13532 13535 13538 13540 13543 13546 13549 13552 13555 13558 13561 13564 13567 13570 13573 13576 13579 13582 13585 13588 13591 13594 13597 13600 13603 13606 13609 13612 13615 13618 13621 13623 13626 13628 13631 13634 13637 13640 13643 13645 13648 13651 13654 13657 13660 13663 13666 13669 13672 13675 13678 13681 13684 13687 13690 13693 13696 13699 13702 13705 13707 13709 13712 13714 13717 13720 13723 13726 13729 13732 13735 13738 13741 13744 13747 13750 13753 13756 13759 13762 13764 13767 13770 13773 13775 13778 13781 13784 13787 13790 13793 13796 13799 13802 13805 13808 13811 13814 13816 13819 13822 13825 13828 13831 13834 13837 13840 13843 13846 13849 13852 13855 13858 13861 13864 13867 13870 13873 13876 13879 13882 13884 13887 13890 13893 13896 13899 13902 13905 13908 13911 13914 13917 13920 13923 13925 13928 13930 13933 13936 13938 13940 13943 13946 13949 13952 13955 13958 13961 13964 13967 13970 13973 13976 13979 13982 13985 13988 13991 13994 13997 14000 14002 14005 14008 14010 14013 14016 14019 14021 14024 14027 14030 14033 14036 14039 14041 14044 14047 14050 14052 14055 14058 14061 14064 14067 14070 14073 14076 14078 14081 14084 14086 14089 14092 14094 14097 14099 14102 14105 14108 14111 14113 14115 14118 14121 14123 14125 14128 14131 14133 14136 14139 14142 14145 14147 14150 14153 14155 14157 14160 14162 14165 14168 14171 14174 14177 14180 14183 14186 14189 14192 14195 14198 14201 14204 14207 14210 14213 14216 14219 14222 14224 14227 14230 14233 14236 14238 14241 14244 14247 14250 14252 14254 14257 14260 14263 14266 14269 14272 14275 14278 14281 14284 14287 14290 14292 14295 14298 14301 14303 14306 14309 14312 14315 14318 14321 14324 14326 14329 14332 14335 14337 14340 14343 14345 14347 14350 14353 14356 14358 14361 14364 14367 14369 14372 14375 14378 14381 14384 14387 14390 14393 14396 14399 14402 14405 14408 14411 14414 14417 14420 14423 14425 14428 14431 14434 14437 14440 14443 14446 14449 14452 14455 14458 14461 14464 14467 14470 14473 14476 14479 14481 14483 14486 14489 14492 14495 14498 14500 14502 14505 14507 14510 14513 14516 14519 14522 14525 14528 14531 14534 14536 14539 14542 14545 14547 14550 14553 14556 14559 14562 14565 14568 14571 14574 14577 14580 14583 14586 14589 14591 14594 14597 14600 14603 14606 14609 14612 14614 14617 14620 14622 14625 14628 14631 14634 14637 14640 14642 14645 14648 14651 14654 14656 14659 14662 14665 14668 14671 14674 14676 14679 14682 14685 14688 14691 14694 14697 14700 14702 14704 14707 14710 14713 14715 14717 14720 14723 14726 14729 14732 14734 14737 14740 14743 14746 14749 14752 14754 14757 14760 14763 14766 14768 14771 14774 14777 14780 14783 14785 14788 14791 14794 14797 14799 14802 14805 14808 14811 14814 14817 14820 14823 14826 14829 14832 14835 14838 14841 14844 14847 14850 14853 14856 14859 14862 14865 14868 14871 14874 14876 14879 14882 14885 14888 14890 14893 14895 14898 14900 14903 14906 14908 14911 14914 14916 14919 14922 14924 14927 14930 14933 14936 14939 14942 14944 14947 14950 14952 14955 14957 14959 14961 14964 14967 14969 14972 14974 14976 14979 14982 14985 14987 14990 14992 14995 14998 15001 15004 15007 15010 15012 15015 15018 15021 15023 15026 15029 15032 15035 15038 15041 15044 15046 15049 15052 15055 15057 15060 15062 15064 15067 15070 15073 15076 15079 15082 15085 15087 15090 15093 15096 15099 15102 15105 15108 15111 15113 15115 15118 15121 15124 15127 15129 15132 15135 15137 15140 15143 15146 15148 15151 15154 15157 15159 15161 15164 15167 15170 15173 15175 15178 15181 15184 15187 15190 15192 15194 15197 15200 15203 15206 15209 15212 15215 15218 15221 15224 15227 15230 15233 15236 15239 15242 15245 15248 15251 15254 15257 15260 15263 15266 15269 15272 15275 15278 15281 15284 15287 15289 15292 15295 15298 15300 15303 15306 15309 15312 15315 15318 15321 15324 15327 15330 15333 15336 15339 15342 15345 15347 15350 15352 15354 15357 15360 15362 15365 15368 15371 15374 15377 15380 15383 15386 15389 15392 15395 15398 15401 15404 15407 15410 15413 15416 15419 15422 15425 15428 15431 15433 15436 15439 15441 15443 15446 15449 15452 15455 15458 15461 15464 15466 15469 15472 15475 15477 15480 15483 15486 15489 15491 15493 15496 15499 15502 15505 15508 15511 15514 15516 15519 15522 15525 15528 15530 15533 15536 15539 15542 15544 15547 15550 15553 15556 15559 15562 15565 15568 15571 15574 15577 15580 15583 15586 15589 15592 15595 15598 15601 15603 15606 15609 15612 15615 15618 15621 15624 15627 15630 15633 15636 15639 15642 15645 15648 15651 15653 15656 15659 15662 15664 15667 15670 15673 15676 15679 15682 15685 15688 15691 15693 15696 15699 15702 15705 15708 15711 15714 15717 15720 15723 15726 15729 15732 15735 15738 15741 15744 15747 15750 15753 15756 15758 15761 15764 15767 15770 15773 15776 15779 15782 15785 15788 15791 15794 15797 15800 15803 15806 15809 15811 15814 15817 15820 15823 15826 15828 15831 15834 15837 15840 15843 15846 15849 15852 15855 15858 15861 15864 15867 15870 15873 15876 15879 15882 15885 15888 15891 15894 15897 15900 15903 15906 15909 15911 15914 15917 15919 15922 15925 15928 15930 15933 15936 15939 15942 15945 15948 15951 15954 15957 15960 15963 15966 15969 15972 15975 15977 15980 15982 15985 15988 15991 15994 15997 16000 16003 16006 16009 16011 16014 16017 16020 16023 16026 16029 16032 16035 16038 16040 16042 16045 16048 16051 16054 16057 16060 16063 16066 16069 16072 16075 16078 16081 16084 16087 16090 16093 16096 16099 16102 16105 16108 16111 16114 16117 16120 16123 16126 16129 16132 16135 16138 16141 16144 16147 16150 16153 16156 16159 16162 16165 16168 16171 16174 16177 16180 16183 16186 16189 16192 16195 16198 16201 16204 16207 16210 16213 16216 16219 16222 16225 16228 16231 16234 16237 16240 16243 16246 16249 16252 16255 16257 16260 16263 16266 16269 16272 16275 16277 16280 16283 16286 16289 16292 16295 16298 16301 16304 16306 16309 16311 16314 16317 16320 16323 16326 16329 16332 16335 16338 16341 16344 16347 16350 16353 16356 16359 16362 16365 16368 16371 16374 16377 16380 16383 16386 16389 16392 16395 16398 16401 16404 16407 16410 16413 16415 16418 16421 16424 16426 16428 16431 16434 16437 16440 16443 16446 16449 16452 16455 16458 16461 16464 16467 16470 16473 16476 16479 16482 16485 16488 16491 16494 16496 16498 16501 16504 16507 16510 16513 16516 16519 16522 16524 16527 16530 16533 16536 16539 16542 16544 16547 16550 16553 16556 16559 16561 16564 16567 16570 16573 16575 16578 16581 16584 16586 16589 16592 16595 16597 16600 16603 16605 16608 16611 16614 16617 16620 16623 16626 16629 16632 16635 16638 16641 16644 16646 16649 16652 16655 16658 16661 16664 16667 16670 16672 16675 16678 16681 16684 16687 16690 16693 16696 16699 16702 16705 16707 16710 16713 16716 16718 16721 16724 16727 16730 16732 16735 16738 16741 16744 16747 16750 16753 16756 16758 16761 16763 16766 16769 16771 16774 16777 16780 16783 16786 16788 16791 16794 16797 16800 16803 16806 16809 16812 16815 16818 16821 16824 16826 16829 16832 16835 16838 16841 16844 16847 16850 16853 16855 16858 16861 16864 16867 16870 16873 16875 16878 16881 16884 16887 16890 16893 16896 16898 16901 16904 16907 16910 16913 16915 16918 16921 16924 16927 16930 16933 16936 16939 16942 16945 16948 16951 16954 16957 16960 16963 16966 16969 16972 16975 16978 16981 16984 16987 16990 16993 16996 16999 17002 17005 17008 17011 17014 17017 17020 17023 17026 17029 17032 17035 17038 17041 17044 17047 17050 17053 17056 17058 17061 17063 17066 17069 17072 17075 17078 17081 17084 17087 17090 17093 17096 17099 17102 17105 17107 17110 17113 17116 17119 17122 17125 17128 17131 17134 17137 17140 17143 17146 17149 17152 17154 17157 17160 17162 17165 17167 17170 17173 17176 17179 17182 17184 17187 17190 17193 17196 17199 17202 17205 17208 17211 17214 17217 17220 17223 17226 17229 17232 17235 17238 17241 17244 17246 17249 17252 17255 17258 17261 17264 17267 17270 17273 17276 17279 17281 17284 17286 17289 17292 17294 17297 17299 17302 17305 17308 17311 17314 17317 17320 17322 17325 17327 17330 17333 17336 17339 17341 17344 17347 17350 17353 17355 17357 17360 17363 17365 17368 17371 17374 17377 17380 17383 17386 17389 17392 17395 17398 17401 17404 17407 17410 17413 17415 17418 17421 17424 17427 17430 17433 17436 17439 17442 17445 17448 17451 17454 17457 17459 17462 17464 17467 17470 17473 17476 17479 17482 17485 17487 17490 17492 17495 17498 17501 17504 17507 17510 17513 17516 17519 17521 17523 17526 17529 17532 17534 17537 17540 17543 17546 17548 17551 17553 17556 17559 17561 17564 17566 17568 17570 17573 17576 17578 17581 17584 17587 17589 17591 17593 17596 17599 17602 17605 17608 17611 17614 17617 17620 17623 17626 17628 17631 17634 17637 17640 17643 17646 17648 17651 17654 17657 17659 17662 17665 17668 17671 17674 17677 17680 17683 17685 17688 17691 17694 17696 17699 17702 17705 17708 17711 17714 17717 17720 17723 17726 17729 17732 17735 17738 17741 17744 17747 17750 17753 17756 17759 17762 17765 17768 17771 17774 17777 17780 17783 17786 17789 17792 17795 17798 17801 17804 17807 17810 17813 17816 17819 17822 17825 17828 17831 17834 17837 17840 17843 17846 17849 17852 17855 17858 17861 17864 17867 17870 17873 17876 17878 17881 17884 17887 17890 17893 17895 17898 17901 17904 17907 17909 17912 17915 17918 17920 17923 17926 17929 17932 17935 17938 17941 17944 17947 17950 17953 17956 17959 17962 17965 17968 17971 17974 17977 17980 17983 17986 17989 17992 17995 17998 18001 18004 18007 18010 18013 18016 18019 18022 18025 18028 18031 18034 18037 18040 18042 18045 18048 18050 18053 18056 18059 18062 18065 18068 18071 18073 18076 18079 18082 18085 18088 18091 18094 18097 18100 18103 18106 18108 18111 18114 18116 18119 18121 18124 18127 18130 18132 18135 18138 18141 18144 18147 18150 18153 18156 18158 18161 18164 18167 18170 18172 18175 18178 18181 18184 18186 18189 18191 18194 18197 18200 18203 18206 18209 18212 18215 18218 18221 18224 18227 18229 18232 18234 18237 18240 18243 18246 18249 18252 18255 18258 18261 18264 18267 18270 18273 18275 18278 18281 18284 18287 18290 18293 18296 18299 18302 18304 18307 18310 18313 18315 18318 18321 18324 18327 18330 18333 18336 18339 18342 18345 18348 18351 18354 18357 18360 18363 18366 18369 18372 18375 18378 18381 18384 18387 18390 18393 18396 18399 18402 18405 18408 18411 18414 18417 18420 18422 18425 18428 18430 18433 18436 18439 18442 18444 18447 18450 18453 18456 18459 18462 18465 18468 18471 18474 18477 18480 18483 18486 18489 18491 18494 18497 18500 18503 18506 18509 18512 18515 18518 18520 18523 18525 18528 18531 18534 18537 18540 18543 18546 18548 18551 18554 18557 18560 18563 18566 18569 18572 18575 18578 18581 18584 18587 18590 18592 18595 18598 18601 18604 18607 18610 18613 18616 18619 18622 18625 18627 18630 18633 18636 18639 18642 18645 18648 18651 18654 18657 18660 18663 18666 18669 18672 18675 18678 18681 18684 18687 18690 18693 18696 18698 18701 18703 18706 18709 18712 18715 18718 18721 18723 18726 18728 18731 18734 18737 18739 18742 18745 18748 18750 18753 18756 18759 18761 18764 18767 18769 18772 18775 18778 18781 18784 18787 18790 18792 18795 18798 18801 18804 18807 18810 18813 18815 18818 18821 18824 18827 18830 18833 18836 18839 18842 18845 18848 18851 18854 18856 18859 18862 18865 18868 18871 18874 18877 18880 18882 18885 18888 18891 18894 18897 18900 18903 18906 18909 18912 18915 18918 18921 18924 18927 18930 18933 18936 18939 18942 18944 18947 18950 18953 18956 18959 18962 18965 18968 18971 18974 18977 18980 18983 18986 18989 18992 18995 18998 19001 19004 19007 19010 19013 19016 19019 19022 19025 19028 19031 19034 19037 19040 19043 19046 19049 19052 19055 19058 19061 19064 19067 19070 19073 19076 19079 19082 19085 19088 19091 19094 19096 19099 19101 19104 19107 19110 19112 19115 19118 19120 19122 19125 19127 19130 19133 19136 19139 19142 19145 19148 19151 19154 19157 19160 19163 19166 19169 19172 19175 19178 19181 19184 19187 19190 19193 19196 19199 19202 19205 19208 19211 19214 19217 19220 19223 19226 19229 19232 19234 19237 19240 19243 19246 19248 19251 19254 19256 19259 19262 19265 19267 19270 19273 19276 19279 19281 19284 19286 19288 19291 19294 19297 19300 19302 19305 19308 19311 19313 19316 19319 19322 19324 19327 19330 19333 19336 19339 19342 19344 19347 19350 19353 19356 19359 19362 19365 19368 19371 19374 19377 19380 19383 19386 19389 19392 19395 19398 19401 19404 19406 19409 19412 19415 19418 19421 19424 19427 19430 19433 19436 19439 19442 19445 19448 19451 19454 19457 19460 19462 19465 19468 19470 19473 19476 19478 19481 19484 19487 19490 19493 19496 19499 19502 19505 19508 19511 19513 19516 19519 19522 19525 19527 19530 19533 19536 19539 19541 19544 19547 19550 19552 19555 19558 19561 19564 19567 19570 19573 19576 19579 19582 19585 19588 19591 19594 19597 19600 19603 19606 19609 19612 19615 19618 19621 19624 19627 19629 19632 19635 19638 19641 19644 19647 19650 19653 19655 19658 19661 19664 19666 19669 19672 19675 19678 19681 19684 19687 19690 19693 19696 19699 19702 19705 19708 19711 19714 19717 19720 19723 19726 19729 19732 19735 19738 19740 19743 19746 19749 19751 19754 19757 19760 19763 19766 19769 19772 19775 19777 19780 19783 19785 19788 19791 19794 19797 19799 19802 19805 19808 19811 19814 19817 19820 19822 19825 19827 19830 19833 19835 19838 19841 19843 19845 19848 19851 19854 19857 19860 19863 19866 19869 19872 19875 19878 19881 19884 19887 19890 19893 19896 19899 19902 19905 19908 19910 19913 19916 19919 19922 19924 19927 19930 19933 19936 19939 19942 19945 19948 19951 19954 19957 19960 19963 19965 19968 19971 19973 19976 19979 19982 19985 19988 19991 19994 19997 20000 20003 20006 20009 20012 20015 20018 20021 20024 20027 20030 20033 20036 20039 20042 20045 20048 20051 20054 20057 20060 20063 20066 20069 20072 20075 20078 20081 20084 20087 20090 20093 20096 20099 20102 20105 20108 20111 20114 20117 20120 20123 20126 20129 20132 20135 20138 20141 20144 20147 20150 20153 20156 20159 20162 20165 20168 20171 20174 20177 20180 20183 20186 20189 20192 20195 20198 20201 20204 20207 20210 20213 20216 20219 20222 20225 20228 20231 20234 20237 20240 20243 20246 20249 20252 20255 20258 20261 20264 20267 20270 20273 20276 20279 20282 20285 20288 20291 20294 20297 20300 20303 20306 20309 20312 20315 20318 20321 20324 20327 20330 20333 20336 20339 20342 20345 20348 20351 20354 20357 20359 20362 20365 20368 20371 20374 20377 20380 20382 20385 20388 20391 20394 20397 20400 20403 20406 20409 20411 20414 20416 20419 20422 20425 20427 20430 20433 20435 20438 20441 20444 20447 20450 20453 20456 20459 20462 20465 20468 20471 20474 20477 20480 20483 20486 20489 20492 20495 20498 20501 20504 20507 20510 20513 20516 20519 20522 20525 20528 20531 20534 20537 20540 20543 20546 20548 20551 20554 20556 20558 20561 20564 20566 20569 20572 20574 20577 20580 20583 20585 20588 20591 20594 20597 20600 20603 20606 20609 20612 20614 20617 20620 20623 20626 20629 20632 20634 20637 20640 20643 20646 20649 20652 20655 20658 20661 20664 20667 20670 20673 20676 20679 20682 20685 20688 20691 20694 20697 20700 20703 20706 20709 20712 20715 20718 20721 20724 20727 20729 20732 20735 20738 20741 20744 20747 20750 20753 20756 20759 20762 20765 20768 20771 20774 20777 20780 20783 20786 20789 20792 20795 20798 20801 20804 20807 20810 20813 20816 20819 20822 20825 20828 20831 20834 20837 20840 20843 20846 20849 20852 20855 20858 20861 20864 20867 20869 20872 20874 20877 20880 20883 20886 20888 20891 20894 20897 20900 20902 20905 20908 20911 20914 20916 20919 20922 20925 20928 20931 20934 20937 20940 20942 20945 20948 20950 20953 20955 20958 20961 20964 20967 20969 20972 20975 20977 20979 20982 20985 20988 20991 20994 20997 20999 21002 21005 21008 21011 21014 21017 21020 21023 21026 21029 21031 21033 21036 21039 21042 21045 21048 21050 21053 21056 21058 21061 21064 21067 21070 21072 21075 21078 21080 21083 21086 21089 21092 21095 21098 21101 21104 21107 21110 21113 21116 21119 21122 21125 21128 21131 21134 21137 21140 21143 21146 21149 21152 21155 21158 21161 21164 21167 21169 21172 21174 21177 21180 21183 21186 21189 21192 21195 21198 21201 21204 21207 21210 21213 21215 21218 21221 21224 21227 21229 21231 21234 21237 21240 21243 21246 21249 21252 21255 21258 21261 21264 21267 21270 21273 21276 21279 21282 21285 21288 21291 21294 21297 21300 21303 21306 21309 21312 21315 21318 21321 21324 21327 21330 21333 21336 21339 21342 21345 21348 21351 21354 21357 21359 21362 21365 21368 21370 21373 21376 21379 21382 21385 21388 21391 21394 21397 21400 21403 21406 21409 21412 21415 21418 21421 21424 21427 21430 21432 21435 21438 21440 21443 21446 21449 21452 21455 21458 21461 21464 21467 21469 21472 21475 21478 21481 21484 21486 21489 21492 21495 21498 21501 21503 21506 21508 21511 21514 21517 21520 21523 21526 21529 21532 21535 21538 21541 21544 21547 21549 21552 21555 21558 21560 21562 21565 21568 21571 21574 21577 21580 21583 21586 21588 21591 21594 21596 21599 21602 21604 21606 21609 21612 21615 21618 21621 21623 21626 21629 21632 21635 21638 21641 21644 21646 21649 21652 21654 21656 21659 21662 21665 21668 21671 21674 21676 21678 21681 21684 21687 21689 21692 21695 21698 21701 21704 21707 21710 21712 21715 21718 21721 21724 21727 21730 21733 21736 21739 21742 21745 21748 21751 21754 21757 21760 21763 21766 21769 21772 21775 21778 21781 21784 21787 21790 21792 21795 21798 21801 21804 21807 21810 21813 21815 21818 21821 21824 21827 21830 21833 21836 21839 21842 21845 21848 21850 21853 21856 21859 21862 21865 21868 21871 21874 21876 21879 21882 21885 21888 21891 21894 21897 21900 21903 21906 21909 21912 21915 21918 21921 21924 21926 21929 21932 21935 21937 21940 21943 21946 21949 21952 21954 21957 21960 21963 21966 21969 21972 21975 21978 21981 21984 21987 21990 21993 21996 21998 22001 22004 22007 22010 22012 22015 22018 22020 22023 22026 22029 22032 22035 22037 22040 22043 22046 22049 22052 22055 22058 22061 22064 22067 22070 22073 22076 22079 22081 22084 22086 22089 22092 22095 22097 22100 22102 22105 22107 22110 22113 22116 22119 22122 22125 22127 22129 22132 22135 22138 22141 22144 22147 22149 22152 22154 22157 22160 22163 22166 22169 22172 22175 22178 22181 22184 22187 22190 22193 22196 22199 22202 22205 22207 22210 22213 22216 22218 22220 22223 22226 22229 22232 22235 22237 22240 22243 22245 22247 22250 22253 22256 22259 22262 22265 22268 22271 22274 22277 22280 22283 22286 22289 22292 22295 22298 22301 22304 22307 22310 22313 22316 22319 22322 22325 22328 22331 22334 22337 22340 22343 22346 22349 22352 22355 22358 22361 22364 22367 22370 22373 22376 22379 22381 22384 22387 22389 22391 22393 22396 22399 22402 22405 22408 22411 22413 22416 22419 22422 22425 22428 22431 22434 22437 22440 22442 22445 22448 22451 22453 22456 22459 22462 22465 22468 22471 22474 22477 22480 22483 22486 22489 22492 22495 22498 22501 22504 22507 22510 22513 22515 22518 22521 22524 22527 22529 22532 22535 22538 22541 22544 22547 22550 22553 22556 22559 22562 22565 22568 22571 22574 22577 22580 22583 22586 22589 22592 22595 22598 22601 22604 22607 22610 22613 22616 22619 22622 22625 22628 22631 22633 22636 22638 22641 22644 22647 22650 22653 22656 22659 22662 22664 22667 22670 22673 22675 22678 22680 22683 22686 22689 22692 22695 22698 22701 22704 22706 22709 22712 22715 22718 22720 22723 22726 22729 22732 22734 22737 22740 22743 22746 22749 22752 22755 22757 22760 22763 22766 22769 22771 22774 22777 22780 22783 22786 22789 22792 22795 22798 22801 22804 22807 22810 22813 22816 22819 22822 22825 22828 22831 22834 22837 22840 22843 22846 22849 22852 22855 22858 22861 22864 22867 22870 22873 22876 22879 22882 22885 22888 22891 22894 22897 22900 22903 22906 22909 22911 22914 22917 22920 22923 22925 22927 22930 22933 22935 22937 22940 22943 22946 22949 22952 22955 22958 22961 22964 22967 22970 22973 22976 22979 22982 22985 22988 22991 22994 22996 22999 23002 23005 23007 23009 23012 23015 23018 23021 23024 23027 23030 23033 23036 23039 23042 23045 23048 23051 23054 23057 23060 23063 23066 23069 23072 23075 23078 23081 23084 23087 23090 23092 23095 23098 23101 23104 23107 23110 23113 23115 23118 23121 23124 23127 23130 23133 23136 23139 23142 23145 23148 23151 23154 23157 23160 23162 23165 23168 23171 23174 23177 23180 23183 23186 23188 23191 23193 23195 23198 23201 23204 23207 23210 23213 23216 23219 23222 23225 23228 23231 23233 23236 23239 23242 23245 23248 23251 23254 23257 23260 23263 23266 23269 23272 23275 23278 23281 23284 23287 23289 23292 23295 23298 23300 23303 23306 23309 23312 23315 23318 23321 23324 23326 23329 23332 23335 23338 23341 23344 23347 23350 23353 23356 23359 23362 23365 23368 23371 23373 23376 23379 23382 23384 23387 23390 23393 23396 23399 23402 23405 23408 23411 23414 23417 23420 23423 23426 23429 23432 23435 23438 23441 23444 23447 23450 23453 23456 23459 23462 23465 23468 23471 23474 23477 23480 23483 23485 23488 23490 23493 23496 23499 23502 23505 23508 23511 23514 23516 23519 23522 23525 23528 23531 23534 23537 23540 23543 23545 23548 23551 23553 23556 23559 23562 23565 23568 23570 23573 23576 23579 23582 23584 23587 23590 23593 23596 23598 23601 23604 23607 23609 23612 23614 23617 23620 23622 23625 23628 23631 23634 23637 23640 23643 23646 23649 23652 23655 23658 23661 23664 23666 23669 23672 23674 23677 23679 23682 23685 23688 23690 23693 23696 23698 23701 23704 23707 23710 23712 23715 23717 23720 23723 23726 23729 23732 23735 23737 23740 23742 23745 23748 23751 23754 23757 23759 23762 23765 23768 23771 23773 23776 23779 23782 23785 23788 23791 23793 23796 23799 23802 23805 23808 23811 23814 23817 23820 23823 23826 23829 23832 23835 23838 23841 23844 23847 23850 23853 23856 23859 23862 23865 23868 23871 23874 23877 23880 23883 23886 23889 23892 23894 23896 23899 23902 23905 23908 23911 23914 23917 23920 23923 23926 23928 23931 23934 23936 23938 23941 23943 23946 23949 23952 23955 23958 23961 23964 23966 23969 23972 23975 23978 23981 23984 23987 23990 23993 23996 23999 24002 24004 24007 24010 24013 24016 24018 24021 24024 24027 24030 24033 24036 24039 24042 24045 24048 24051 24054 24056 24059 24062 24065 24068 24071 24074 24077 24080 24083 24086 24089 24092 24095 24098 24101 24104 24107 24109 24112 24115 24118 24121 24124 24126 24129 24132 24135 24137 24140 24143 24146 24149 24152 24155 24157 24160 24162 24165 24168 24171 24173 24176 24179 24182 24185 24188 24191 24194 24197 24200 24202 24205 24208 24210 24213 24216 24219 24222 24225 24228 24231 24233 24236 24239 24242 24245 24248 24251 24254 24257 24260 24263 24266 24269 24272 24274 24277 24280 24282 24285 24288 24291 24294 24297 24300 24302 24305 24308 24311 24314 24317 24320 24322 24325 24328 24331 24334 24337 24340 24343 24345 24348 24351 24354 24357 24360 24363 24366 24369 24372 24375 24378 24381 24384 24387 24390 24393 24396 24399 24402 24405 24408 24411 24413 24416 24419 24422 24425 24428 24431 24434 24437 24440 24443 24445 24448 24451 24454 24457 24459 24461 24464 24467 24470 24473 24475 24478 24481 24484 24487 24490 24493 24496 24499 24502 24504 24507 24510 24513 24516 24519 24522 24525 24528 24531 24534 24537 24539 24542 24545 24548 24550 24553 24556 24559 24561 24564 24567 24570 24573 24576 24579 24582 24585 24588 24591 24594 24597 24599 24602 24605 24608 24611 24614 24616 24619 24622 24624 24627 24630 24633 24636 24639 24642 24645 24648 24651 24654 24657 24660 24663 24666 24668 24671 24674 24677 24680 24683 24686 24689 24691 24694 24697 24700 24702 24705 24708 24711 24714 24717 24719 24722 24725 24728 24731 24734 24737 24740 24743 24746 24748 24751 24754 24757 24760 24763 24766 24769 24772 24774 24777 24780 24783 24786 24789 24791 24794 24797 24800 24803 24806 24809 24812 24814 24817 24820 24823 24826 24829 24832 24835 24838 24841 24844 24847 24850 24853 24856 24859 24862 24865 24868 24871 24874 24877 24880 24883 24886 24889 24892 24895 24898 24901 24904 24907 24910 24913 24916 24919 24922 24925 24928 24931 24934 24937 24940 24943 24946 24949 24952 24955 24958 24960 24963 24966 24969 24972 24975 24978 24981 24983 24986 24989 24992 24995 24998 25001 25004 25007 25010 25013 25016 25019 25022 25025 25028 25031 25034 25037 25040 25043 25046 25049 25051 25053 25056 25059 25061 25063 25066 25069 25072 25075 25078 25081 25084 25086 25089 25092 25095 25098 25101 25104 25107 25110 25113 25116 25119 25122 25125 25128 25130 25133 25136 25139 25142 25145 25148 25151 25154 25156 25159 25162 25164 25167 25170 25173 25175 25178 25181 25184 25187 25190 25193 25196 25199 25202 25205 25208 25211 25214 25217 25220 25223 25226 25229 25232 25235 25238 25241 25244 25247 25250 25253 25256 25259 25261 25264 25267 25270 25273 25276 25279 25282 25285 25287 25290 25293 25296 25299 25302 25305 25307 25309 25312 25315 25318 25321 25323 25326 25329 25331 25334 25337 25339 25342 25345 25348 25351 25354 25357 25359 25362 25365 25368 25371 25374 25377 25380 25383 25385 25388 25391 25394 25397 25400 25403 25406 25409 25412 25415 25418 25420 25423 25426 25428 25431 25434 25437 25440 25443 25446 25449 25451 25454 25457 25460 25462 25465 25467 25470 25472 25475 25478 25481 25484 25487 25490 25493 25496 25499 25502 25505 25508 25511 25514 25517 25520 25523 25525 25528 25530 25533 25536 25539 25542 25545 25548 25551 25554 25557 25560 25562 25565 25568 25571 25574 25577 25580 25583 25585 25588 25591 25594 25596 25599 25601 25603 25606 25609 25611 25614 25617 25620 25623 25625 25628 25631 25634 25636 25639 25642 25645 25647 25650 25652 25654 25657 25660 25663 25666 25669 25672 25674 25677 25680 25683 25686 25689 25692 25695 25698 25700 25702 25704 25707 25709 25712 25715 25717 25719 25722 25725 25727 25730 25733 25736 25739 25742 25745 25748 25751 25754 25757 25760 25762 25765 25768 25771 25774 25777 25780 25783 25786 25789 25792 25795 25798 25801 25803 25805 25808 25811 25814 25817 25819 25822 25825 25828 25830 25833 25836 25839 25842 25845 25847 25849 25852 25855 25858 25860 25863 25866 25869 25872 25875 25878 25881 25884 25887 25890 25893 25896 25899 25902 25905 25907 25910 25913 25916 25918 25921 25924 25927 25929 25932 25935 25938 25941 25944 25947 25949 25952 25955 25958 25961 25964 25966 25969 25972 25975 25978 25981 25984 25987 25990 25992 25995 25998 26001 26004 26007 26010 26013 26016 26019 26021 26024 26027 26030 26033 26035 26038 26040 26043 26046 26048 26051 26053 26056 26059 26062 26065 26068 26071 26073 26076 26078 26080 26083 26086 26089 26092 26095 26098 26101 26104 26106 26109 26111 26114 26116 26119 26121 26124 26127 26130 26133 26136 26139 26142 26145 26148 26151 26154 26156 26159 26162 26165 26167 26170 26173 26176 26179 26182 26185 26188 26191 26193 26196 26199 26202 26205 26208 26211 26214 26217 26220 26222 26225 26228 26231 26234 26236 26239 26242 26244 26247 26250 26253 26256 26259 26262 26265 26268 26271 26273 26276 26279 26282 26284 26287 26290 26293 26296 26299 26302 26305 26308 26311 26314 26317 26320 26323 26326 26329 26332 26335 26338 26341 26343 26346 26349 26352 26355 26358 26361 26364 26367 26370 26373 26375 26378 26381 26384 26387 26390 26393 26396 26399 26402 26405 26408 26411 26414 26417 26420 26423 26426 26429 26432 26435 26438 26441 26444 26447 26450 26453 26456 26459 26462 26465 26468 26471 26474 26477 26480 26483 26486 26489 26492 26495 26498 26501 26504 26507 26510 26512 26514 26517 26520 26523 26526 26529 26532 26535 26538 26541 26544 26547 26550 26553 26555 26557 26560 26563 26566 26568 26571 26574 26576 26579 26582 26585 26587 26590 26593 26596 26598 26601 26604 26607 26610 26613 26616 26619 26622 26624 26627 26630 26632 26635 26637 26639 26642 26645 26648 26651 26654 26657 26659 26662 26664 26666 26668 26671 26674 26676 26679 26682 26684 26686 26689 26692 26695 26698 26701 26704 26707 26710 26713 26716 26719 26722 26725 26728 26731 26734 26737 26740 26743 26746 26749 26751 26754 26757 26760 26763 26766 26769 26772 26775 26778 26780 26783 26786 26789 26792 26795 26798 26801 26803 26805 26808 26811 26814 26817 26820 26823 26826 26829 26832 26835 26838 26841 26844 26847 26850 26853 26856 26859 26862 26865 26868 26871 26874 26876 26879 26881 26884 26887 26890 26893 26896 26899 26902 26904 26907 26910 26913 26915 26917 26920 26923 26925 26928 26931 26934 26937 26939 26942 26945 26948 26950 26953 26956 26959 26961 26964 26967 26970 26973 26976 26979 26982 26985 26988 26990 26992 26995 26998 27001 27004 27007 27009 27012 27015 27017 27019 27021 27024 27027 27030 27033 27036 27038 27041 27044 27047 27050 27053 27056 27059 27062 27065 27067 27070 27072 27075 27078 27081 27084 27087 27090 27093 27096 27099 27102 27105 27108 27111 27114 27117 27120 27123 27126 27129 27132 27135 27138 27141 27144 27146 27149 27152 27155 27158 27160 27162 27165 27168 27171 27173 27176 27179 27182 27185 27188 27191 27194 27197 27200 27203 27206 27209 27212 27215 27218 27221 27223 27226 27229 27232 27234 27237 27240 27242 27245 27248 27251 27254 27257 27260 27263 27266 27269 27272 27275 27278 27281 27283 27286 27289 27291 27294 27297 27300 27302 27305 27307 27310 27312 27315 27317 27319 27321 27324 27327 27330 27333 27336 27339 27342 27345 27347 27350 27353 27356 27359 27362 27365 27368 27371 27373 27376 27379 27381 27384 27387 27390 27393 27396 27399 27402 27405 27408 27411 27414 27417 27420 27423 27426 27429 27432 27435 27438 27441 27444 27446 27449 27452 27455 27458 27461 27464 27467 27470 27473 27476 27478 27481 27483 27486 27489 27491 27494 27496 27499 27501 27504 27507 27509 27512 27514 27517 27520 27522 27525 27528 27531 27533 27536 27539 27542 27545 27548 27551 27554 27557 27560 27563 27566 27569 27572 27575 27578 27581 27584 27587 27590 27593 27596 27599 27602 27605 27608 27611 27614 27617 27620 27623 27626 27629 27632 27635 27638 27641 27644 27647 27650 27653 27656 27659 27662 27665 27668 27671 27674 27677 27680 27683 27686 27689 27692 27695 27698 27701 27704 27707 27710 27713 27716 27718 27721 27724 27726 27729 27732 27735 27738 27741 27744 27746 27748 27751 27754 27757 27760 27763 27766 27769 27772 27775 27778 27781 27784 27787 27790 27793 27796 27799 27802 27804 27807 27810 27813 27815 27818 27821 27824 27827 27830 27833 27836 27839 27842 27845 27848 27851 27854 27857 27860 27863 27865 27868 27871 27874 27877 27880 27883 27886 27888 27891 27894 27897 27900 27903 27906 27909 27912 27914 27917 27919 27922 27925 27928 27931 27934 27937 27940 27943 27946 27949 27952 27955 27958 27961 27964 27967 27969 27972 27975 27978 27981 27984 27987 27990 27992 27995 27998 28001 28004 28006 28009 28012 28015 28018 28021 28024 28027 28029 28032 28035 28037 28039 28042 28045 28047 28050 28053 28056 28059 28062 28065 28067 28070 28073 28076 28079 28082 28085 28088 28091 28094 28096 28099 28102 28104 28107 28110 28112 28115 28118 28120 28123 28126 28129 28132 28135 28137 28140 28143 28146 28149 28152 28155 28158 28161 28163 28166 28169 28172 28175 28178 28181 28184 28186 28189 28192 28195 28198 28201 28204 28207 28210 28213 28216 28219 28222 28224 28227 28230 28233 28236 28239 28242 28245 28247 28249 28252 28254 28257 28259 28262 28265 28268 28271 28274 28277 28280 28283 28286 28289 28292 28295 28298 28301 28304 28306 28309 28311 28314 28317 28320 28323 28326 28329 28332 28335 28337 28340 28342 28345 28347 28350 28352 28355 28357 28360 28363 28365 28368 28371 28374 28377 28380 28382 28385 28388 28391 28394 28397 28400 28403 28406 28408 28411 28414 28417 28420 28423 28425 28428 28431 28433 28436 28438 28440 28443 28446 28449 28452 28455 28458 28461 28464 28466 28469 28472 28475 28478 28481 28484 28487 28490 28493 28496 28499 28502 28505 28507 28510 28513 28516 28519 28522 28525 28528 28530 28533 28536 28539 28541 28544 28547 28550 28553 28556 28559 28562 28565 28568 28571 28574 28577 28580 28583 28586 28589 28592 28594 28597 28600 28603 28606 28609 28612 28615 28617 28620 28623 28625 28628 28631 28634 28637 28640 28643 28646 28649 28652 28655 28658 28661 28664 28667 28670 28672 28675 28678 28681 28684 28686 28689 28692 28695 28698 28701 28704 28707 28710 28713 28716 28719 28722 28725 28728 28731 28734 28737 28740 28743 28746 28749 28752 28755 28758 28761 28763 28766 28769 28772 28775 28778 28781 28783 28786 28789 28792 28795 28798 28801 28804 28807 28810 28812 28814 28817 28820 28823 28825 28828 28830 28833 28836 28839 28842 28845 28848 28851 28854 28857 28860 28863 28866 28869 28872 28875 28877 28880 28883 28886 28889 28892 28895 28898 28901 28904 28907 28910 28913 28915 28917 28920 28923 28926 28929 28932 28935 28938 28941 28943 28946 28949 28951 28954 28957 28959 28961 28964 28967 28970 28973 28976 28979 28982 28984 28987 28990 28993 28996 28999 29002 29005 29008 29011 29013 29016 29019 29022 29024 29027 29030 29033 29036 29039 29041 29044 29047 29050 29053 29056 29059 29062 29065 29068 29071 29074 29077 29079 29082 29085 29088 29090 29093 29096 29099 29101 29104 29107 29110 29113 29116 29119 29122 29125 29128 29131 29134 29137 29140 29143 29146 29149 29152 29155 29158 29161 29164 29167 29170 29173 29176 29179 29182 29185 29188 29191 29194 29197 29199 29202 29205 29208 29211 29214 29217 29220 29223 29226 29229 29232 29235 29238 29241 29244 29247 29250 29253 29256 29259 29262 29265 29268 29271 29273 29276 29278 29281 29284 29286 29289 29292 29295 29298 29301 29304 29307 29310 29313 29315 29318 29321 29324 29327 29330 29333 29336 29339 29342 29345 29348 29351 29354 29357 29359 29362 29365 29368 29371 29373 29376 29379 29382 29384 29387 29390 29393 29396 29399 29402 29405 29408 29411 29414 29417 29420 29423 29426 29429 29432 29435 29438 29441 29444 29447 29450 29453 29456 29459 29462 29465 29468 29471 29474 29477 29480 29483 29486 29489 29492 29495 29498 29501 29504 29507 29510 29513 29516 29519 29522 29525 29528 29531 29534 29537 29540 29543 29546 29549 29552 29555 29558 29561 29564 29567 29570 29573 29576 29579 29582 29585 29588 29591 29594 29597 29600 29603 29606 29609 29612 29615 29618 29621 29624 29627 29630 29633 29636 29639 29642 29645 29648 29651 29654 29657 29660 29663 29666 29669 29672 29675 29678 29681 29684 29687 29690 29693 29696 29699 29702 29705 29708 29711 29714 29717 29720 29723 29726 29729 29732 29735 29738 29741 29744 29747 29750 29753 29756 29759 29762 29765 29768 29771 29774 29777 29780 29783 29786 29789 29792 29795 29798 29801 29804 29807 29810 29813 29816 29819 29822 29825 29828 29831 29834 29837 29840 29843 29846 29849 29852 29855 29858 29861 29864 29867 29870 29873 29876 29879 29882 29885 29888 29891 29894 29897 29900 29903 29906 29909 29912 29915 29918 29921 29924 29927 29930 29933 29936 29939 29942 29945 29948 29951 29953 29956 29959 29962 29965 29968 29971 29974 29977 29980 29983 29986 29989 29992 29995 29998 30001 30003 30006 30009 30012 30015 30018 30021 30024 30027 30029 30032 30035 30038 30041 30043 30046 30049 30052 30055 30058 30061 30064 30067 30070 30073 30076 30079 30082 30085 30088 30091 30094 30097 30100 30103 30106 30109 30111 30114 30117 30120 30123 30126 30129 30132 30135 30138 30141 30144 30147 30150 30152 30154 30157 30160 30163 30166 30169 30171 30174 30176 30179 30182 30185 30188 30191 30194 30197 30200 30203 30206 30209 30211 30214 30217 30220 30223 30226 30229 30232 30234 30237 30240 30243 30246 30249 30252 30255 30258 30261 30264 30267 30270 30273 30276 30279 30281 30283 30286 30289 30292 30295 30298 30301 30304 30307 30310 30313 30316 30319 30321 30324 30327 30330 30333 30336 30339 30342 30345 30348 30351 30354 30357 30360 30363 30366 30369 30371 30374 30377 30380 30383 30386 30389 30392 30394 30397 30400 30403 30406 30409 30412 30415 30418 30421 30424 30426 30428 30431 30434 30437 30440 30443 30446 30449 30452 30455 30458 30461 30464 30467 30470 30473 30476 30479 30482 30485 30488 30491 30494 30497 30500 30503 30506 30509 30512 30515 30518 30520 30523 30526 30529 30532 30535 30537 30540 30543 30546 30549 30552 30555 30558 30561 30564 30567 30569 30572 30575 30578 30581 30583 30586 30589 30592 30595 30598 30601 30604 30607 30610 30613 30615 30618 30620 30623 30626 30629 30632 30635 30638 30641 30644 30647 30650 30653 30656 30659 30662 30665 30668 30671 30674 30677 30680 30683 30686 30689 30692 30695 30698 30701 30704 30707 30710 30713 30715 30718 30721 30724 30727 30730 30732 30735 30738 30741 30744 30747 30750 30753 30756 30759 30762 30765 30768 30771 30774 30777 30780 30783 30786 30788 30791 30794 30796 30799 30802 30805 30807 30810 30813 30816 30819 30822 30824 30827 30830 30833 30836 30839 30842 30845 30848 30851 30854 30856 30859 30862 30865 30868 30871 30874 30876 30879 30882 30885 30888 30891 30893 30895 30898 30901 30903 30906 30909 30911 30914 30917 30920 30923 30926 30929 30932 30935 30938 30941 30943 30946 30949 30951 30954 30957 30959 30962 30965 30967 30970 30973 30975 30978 30981 30983 30986 30989 30992 30995 30998 31001 31003 31006 31009 31012 31015 31018 31021 31024 31027 31030 31033 31036 31038 31041 31044 31047 31050 31053 31056 31059 31061 31064 31067 31070 31073 31075 31078 31081 31084 31086 31089 31092 31095 31098 31101 31104 31107 31110 31113 31116 31119 31121 31124 31127 31130 31133 31136 31139 31142 31145 31148 31151 31154 31157 31160 31163 31166 31169 31172 31175 31178 31181 31184 31187 31190 31193 31195 31198 31201 31204 31207 31210 31212 31215 31218 31221 31224 31227 31230 31233 31236 31239 31242 31245 31248 31251 31254 31256 31259 31262 31264 31267 31269 31272 31275 31278 31281 31283 31286 31288 31290 31293 31295 31298 31301 31304 31307 31310 31313 31316 31318 31321 31323 31326 31329 31332 31335 31338 31341 31343 31346 31349 31352 31355 31358 31361 31363 31366 31369 31372 31375 31377 31380 31383 31386 31389 31392 31394 31397 31400 31402 31405 31408 31411 31414 31416 31419 31422 31425 31428 31430 31433 31436 31439 31442 31445 31448 31450 31453 31456 31459 31462 31465 31468 31471 31474 31477 31479 31482 31485 31488 31491 31494 31497 31499 31502 31505 31508 31511 31513 31516 31519 31522 31525 31528 31531 31534 31537 31540 31543 31546 31549 31552 31555 31558 31561 31563 31566 31569 31572 31574 31577 31580 31582 31585 31588 31591 31594 31597 31600 31603 31606 31609 31612 31615 31618 31621 31624 31627 31630 31632 31635 31637 31640 31643 31646 31649 31652 31655 31658 31661 31664 31667 31670 31673 31676 31679 31682 31685 31688 31691 31694 31697 31700 31703 31706 31709 31712 31715 31717 31720 31723 31725 31728 31731 31734 31737 31740 31743 31746 31749 31752 31755 31757 31760 31763 31766 31769 31771 31774 31777 31780 31783 31785 31788 31791 31794 31797 31800 31803 31806 31809 31812 31814 31817 31820 31823 31826 31829 31832 31835 31838 31841 31844 31847 31850 31853 31856 31859 31862 31865 31868 31871 31874 31877 31880 31883 31886 31889 31892 31895 31898 
</DataArray>
<DataArray type="UInt32" Name="types" format="ascii">
5 5 5 5 5 3 5 5 5 5 5 5 5 3 5 5 5 5 3 5 5 3 5 5 5 5 3 5 5 5 5 3 5 5 5 5 5 5 5 5 5 5 5 5 5 3 5 5 3 5 5 5 5 5 3 5 5 5 5 5 5 5 3 5 5 5 5 3 5 5 5 5 5 5 5 5 5 3 5 5 3 5 5 3 5 5 5 5 3 5 5 5 5 5 5 5 3 3 3 5 5 3 5 5 5 5 5 3 5 5 5 5 5 5 5 5 5 5 5 5 5 3 5 5 5 3 5 5 5 5 5 5 3 5 5 5 5 5 5 5 5 5 5 5 5 5 5 5 5 5 5 5 5 5 5 5 5 5 3 5 5 5 3 5 5 3 5 5 5 5 5 5 5 5 5 5 5 3 5 5 5 5 5 5 5 5 3 5 5 5 5 5 5 5 5 3 5 5 5 5 5 5 5 5 5 3 5 5 5 5 5 5 5 5 5 5 5 5 5 5 5 5 5 5 5 5 5 5 5 3 5 5 5 3 5 3 5 3 5 5 3 5 5 5 3 5 3 5 3 5 3 3 5 3 5 5 3 5 3 5 5 5 3 5 3 3 5 5 3 5 5 5 3 5 3 3 3 5 3 5 5 5 3 5 3 3 3 5 5 3 3 5 5 5 5 3 5 3 5 5 3 5 5 5 3 5 3 3 3 5 5 5 3 5 3 3 3 3 5 5 5 3 3 5 5 3 3 3 5 3 5 5 5 5 3 5 5 5 5 5 5 5 3 5 5 5 5 5 5 3 3 5 5 5 3 5 5 5 3 5 3 5 3 3 5 5 5 5 3 5 5 3 5 5 5 5 3 5 3 5 5 5 5 5 3 3 5 5 5 5 5 5 5 5 3 5 5 5 3 5 5 3 5 3 5 5 5 5 5 5 5 5 5 5 5 3 5 3 5 3 5 5 5 3 5 3 5 3 5 5 5 5 5 5 3 5 3 5 5 5 3 5 5 5 3 5 3 3 5 5 5 5 3 5 5 5 5 3 3 5 5 3 5 3 5 3 3 5 5 5 3 5 5 5 5 3 5 5 5 5 5 5 5 5 5 5 5 3 5 5 5 5 3 5 5 5 3 5 3 3 3 5 5 5 3 3 5 3 5 5 3 5 5 5 5 3 5 5 5 5 5 5 5 5 5 5 5 3 3 5 5 3 5 5 5 3 5 5 5 5 5 5 3 5 5 5 3 5 5 5 3 5 5 5 5 5 5 5 5 5 5 5 3 5 5 5 3 5 5 5 5 5 5 5 3 5 5 5 5 5 3 5 5 5 5 5 5 5 5 5 5 5 5 5 5 5 5 5 5 5 3 5 5 5 5 3 5 5 3 5 5 5 5 5 5 5 3 5 5 5 5 5 5 5 5 3 5 3 5 5 3 5 5 5 3 5 5 3 5 5 5 3 5 3 5 5 3 5 3 5 5 5 5 5 5 5 5 5 5 5 5 5 5 5 5 5 5 5 5 5 5 3 5 3 5 3 5 5 5 5 5 5 5 5 5 5 5 5 5 5 5 3 5 5 5 5 5 5 5 5 5 3 5 5 5 5 5 5 5 5 5 5 5 5 5 5 5 5 5 5 5 5 5 5 5 5 5 5 5 5 5 3 5 5 3 5 5 5 3 3 5 3 5 5 5 5 5 3 5 5 5 5 5 3 5 5 5 5 5 5 5 5 5 5 5 5 5 5 5 5 5 5 5 5 5 5 5 5 5 5 5 5 5 5 5 5 5 5 5 5 5 5 5 5 5 5 5 5 5 5 5 5 5 3 5 5 5 5 5 5 5 5 5 5 5 5 5 5 5 3 5 5 5 5 3 5 5 5 5 5 5 5 5 5 5 5 5 5 5 5 5 5 5 5 5 5 5 5 5 5 5 5 3 5 5 3 5 3 3 3 3 5 5 3 5 5 5 5 5 5 5 5 5 5 5 5 5 5 5 5 5 3 5 5 3 5 3 5 5 5 5 3 5 3 5 5 5 5 3 5 5 5 3 5 5 5 5 5 3 5 3 5 5 3 3 5 3 5 5 5 5 5 5 5 5 5 5 5 3 5 5 5 3 5 5 5 3 5 5 3 3 3 5 5 5 5 5 5 5 5 5 5 5 3 5 5 5 5 5 5 5 5 3 3 3 5 5 5 5 5 5 5 5 3 3 5 5 5 3 5 5 3 5 5 5 5 5 5 5 5 5 5 5 3 5 5 5 5 5 5 5 5 3 5 5 5 5 5 5 5 5 5 5 3 5 3 3 3 5 5 5 5 5 5 5 3 3 5 3 5 5 5 5 5 3 5 3 3 5 5 5 3 5 3 5 5 5 5 3 5 5 5 5 5 5 5 5 5 5 5 5 5 5 5 5 5 3 5 5 5 3 5 5 5 5 5 3 5 5 5 5 5 5 3 5 3 5 5 5 5 5 5 5 5 3 5 5 5 3 5 5 5 5 5 5 5 5 5 5 5 5 5 5 5 5 5 5 5 5 5 5 5 5 5 3 3 3 5 5 5 5 3 5 5 5 5 3 5 5 5 5 5 5 5 3 5 5 5 5 5 5 5 5 3 5 5 5 5 5 5 5 5 5 5 5 5 3 5 5 5 5 5 5 3 5 5 5 5 5 5 5 5 3 5 5 5 3 5 5 5 5 5 5 5 5 5 5 5 5 3 5 5 5 5 5 5 5 5 5 5 5 5 5 5 5 5 5 5 5 5 5 5 5 5 5 5 5 5 5 5 5 5 5 5 5 5 5 5 5 5 5 5 5 5 5 5 5 3 5 5 5 5 5 5 5 5 5 5 5 5 5 5 5 5 5 5 5 5 5 5 5 5 3 5 5 5 5 5 5 5 5 5 5 3 5 5 3 5 5 5 5 5 5 5 5 5 3 5 3 5 5 5 5 3 5 5 3 5 3 5 5 5 5 5 3 5 5 5 5 5 5 5 5 3 5 5 5 5 5 5 5 5 5 5 5 5 5 5 3 5 3 3 5 5 5 5 5 3 5 5 5 5 5 5 5 5 5 5 5 5 5 5 5 3 5 5 5 5 5 5 5 5 5 5 5 5 5 5 5 5 3 5 5 5 5 5 3 3 5 5 3 5 5 5 5 5 5 5 5 5 5 3 5 5 5 5 5 5 5 5 5 3 5 3 5 5 5 5 5 3 5 5 5 5 3 5 5 5 3 5 5 5 3 5 5 3 5 5 5 5 5 5 5 5 5 5 5 5 5 5 5 5 3 5 5 5 5 5 5 5 3 5 5 5 5 5 5 5 5 5 5 5 5 5 5 5 5 5 5 5 5 5 5 5 5 5 5 5 3 5 5 5 5 3 5 5 5 3 5 5 5 5 5 5 5 5 5 3 5 3 5 5 5 5 5 5 5 5 5 5 5 5 5 5 5 5 5 5 3 3 5 5 5 3 5 5 3 5 5 3 5 5 5 3 5 5 3 5 5 5 5 5 5 5 5 5 5 5 5 5 5 5 5 5 5 5 5 3 5 3 5 5 5 5 5 5 5 5 5 5 5 3 5 3 5 5 5 3 5 5 5 5 5 3 5 5 5 5 5 5 3 5 5 5 5 5 5 5 5 5 5 5 3 5 5 5 5 5 5 5 5 3 5 5 5 3 5 5 3 5 5 5 5 5 3 5 5 5 5 5 5 5 5 5 3 5 5 3 5 3 5 3 3 3 5 3 5 5 5 5 5 5 3 5 5 5 5 5 5 3 5 5 5 5 5 5 5 3 5 5 5 5 3 5 5 5 5 5 3 5 3 5 5 5 5 5 5 5 5 5 5 3 5 5 5 5 5 5 5 3 5 5 5 5 5 5 5 3 5 3 5 5 5 5 5 5 5 5 3 5 5 5 3 3 5 5 5 5 5 3 3 5 3 5 5 3 5 5 3 5 5 5 5 5 5 5 5 3 5 5 5 5 5 3 5 5 5 5 3 5 5 3 5 5 5 5 5 5 5 5 5 5 5 5 5 5 5 5 5 5 5 5 5 5 5 5 5 5 5 5 5 5 5 5 5 5 5 5 5 5 5 5 5 3 5 5 3 5 5 5 5 5 3 5 5 5 5 3 5 5 5 5 5 5 5 5 5 5 5 5 5 5 5 5 5 5 5 5 5 5 5 5 3 5 5 5 3 5 5 5 5 5 5 3 5 5 5 5 5 5 5 5 5 5 5 3 5 3 3 5 5 3 5 5 5 5 5 5 5 5 5 5 5 3 5 5 3 5 5 5 5 5 5 5 5 5 5 5 5 5 5 5 3 5 5 5 5 5 5 5 3 5 3 5 5 5 5 3 5 3 5 5 5 5 5 5 5 5 5 3 5 5 5 5 5 5 5 5 5 5 5 5 5 5 5 5 5 3 5 5 5 5 5 5 5 5 5 5 5 5 5 5 5 5 5 5 5 5 5 5 5 5 5 3 3 5 5 5 5 5 5 5 5 5 5 5 3 5 5 5 5 3 5 5 5 5 3 5 5 5 5 5 5 5 5 3 5 5 5 5 5 5 5 5 5 3 5 5 5 5 5 5 5 5 5 5 5 5 5 5 5 5 5 5 5 5 3 5 5 5 5 5 5 5 5 5 5 5 5 5 5 3 5 3 5 5 5 5 5 5 5 5 3 5 5 3 5 5 5 5 5 5 5 5 5 5 5 5 5 5 5 5 5 5 5 5 5 5 5 5 5 5 5 5 5 5 5 5 5 5 5 5 3 5 5 3 5 5 5 5 3 5 3 5 5 3 5 3 5 5 5 5 5 3 5 5 5 5 5 5 5 5 5 5 5 5 3 5 5 5 3 5 5 5 5 5 5 5 5 5 3 5 5 5 5 3 3 5 5 5 5 5 5 5 5 3 5 5 5 5 5 3 5 5 5 3 5 5 5 3 5 5 5 5 3 5 5 5 5 5 5 5 5 5 5 5 5 5 5 3 5 5 5 5 5 5 3 5 3 3 5 3 5 3 5 5 5 5 3 5 5 5 5 3 5 5 5 5 5 5 5 5 5 3 5 5 5 5 5 5 5 5 5 5 5 5 5 5 3 5 5 5 3 5 5 5 3 5 3 5 5 5 5 5 5 5 5 5 5 5 5 5 5 5 5 3 5 5 5 5 5 5 3 5 5 5 5 5 5 5 5 5 5 5 5 5 5 5 5 5 5 3 5 5 5 5 5 5 5 5 5 5 5 5 5 5 5 5 5 5 5 5 5 5 5 5 5 5 5 5 5 5 5 5 5 5 3 5 5 5 5 3 5 5 5 5 5 5 5 3 5 5 5 5 5 5 5 5 5 3 5 5 3 5 5 5 5 5 3 5 5 5 3 5 5 3 5 5 5 5 5 5 5 5 5 5 5 5 5 5 5 5 5 5 5 5 3 5 5 5 5 5 5 5 5 5 5 3 3 5 3 5 5 5 5 5 3 5 5 5 5 3 5 5 5 5 5 3 5 3 5 5 3 5 5 5 5 5 5 5 5 3 5 5 5 5 5 5 3 5 5 5 5 5 5 3 5 5 5 5 3 5 5 3 5 3 5 5 3 5 5 5 5 5 5 3 5 5 5 5 3 5 5 5 5 5 5 5 5 3 3 5 5 5 5 5 5 5 5 3 5 5 5 5 5 5 3 5 5 5 5 5 5 5 3 5 5 5 3 5 5 5 5 5 5 5 5 5 5 5 5 3 5 5 5 5 3 5 5 3 5 5 5 5 3 5 5 5 3 3 5 5 5 3 5 5 5 3 5 5 5 5 5 5 5 5 5 3 5 5 5 3 5 5 5 5 5 5 5 5 5 5 5 5 3 5 3 5 5 3 5 5 3 5 5 5 5 5 5 5 3 5 5 5 5 5 3 5 3 5 5 5 3 3 5 3 3 5 3 5 5 5 5 5 5 3 5 3 5 5 5 5 5 5 5 5 5 5 5 5 5 3 5 5 3 5 3 5 5 3 5 5 5 3 3 5 5 3 5 5 5 5 5 5 5 5 5 5 5 5 5 5 5 5 5 5 5 5 5 5 5 3 3 5 3 5 3 5 5 3 3 5 5 3 5 5 3 5 5 3 5 3 5 5 5 5 3 5 5 5 5 3 5 3 3 5 3 5 5 3 3 5 5 5 3 5 5 5 5 3 3 5 5 5 5 5 3 5 5 5 5 5 5 5 5 5 5 5 3 5 3 5 3 5 5 3 5 3 5 5 5 5 5 5 5 5 3 5 5 3 5 5 5 5 3 5 5 5 5 5 5 5 5 5 5 5 5 3 5 5 5 5 5 5 5 5 5 5 5 3 5 5 5 5 5 5 3 5 3 5 5 3 5 5 5 5 5 5 5 5 5 5 5 5 5 5 5 5 5 3 3 5 5 5 3 5 5 3 5 5 5 5 5 5 5 5 5 5 5 5 5 5 5 5 5 5 5 5 5 5 5 5 5 3 3 5 5 5 5 5 5 5 5 5 5 5 3 5 5 5 5 5 5 5 5 5 5 5 5 5 5 5 5 5 5 5 5 5 5 5 5 5 5 5 5 5 5 5 5 5 3 5 5 5 5 5 3 5 5 3 5 5 3 3 5 5 5 5 5 5 5 5 5 5 5 5 5 3 5 5 3 5 5 5 5 5 5 3 5 5 3 5 5 5 5 5 5 5 5 5 5 5 5 5 3 5 5 5 5 5 5 5 3 5 5 5 5 5 5 5 5 5 5 5 5 3 5 5 3 5 5 5 5 5 5 5 5 5 5 5 5 5 5 5 5 5 5 5 5 3 5 5 3 5 3 5 5 5 3 5 5 3 5 3 5 5 5 3 5 5 5 5 3 5 5 5 5 5 5 5 3 5 5 5 3 5 5 5 5 5 5 5 5 5 5 5 5 3 5 5 5 5 5 5 5 5 3 5 5 5 5 5 5 5 5 5 5 5 3 5 5 5 5 5 5 5 5 5 5 5 5 5 5 5 5 5 5 5 3 3 5 5 5 3 5 5 5 5 5 5 5 5 5 5 5 5 3 5 5 5 5 5 5 5 5 5 3 5 5 5 5 5 5 5 5 5 5 5 5 5 5 5 5 3 5 3 5 5 5 5 5 3 5 5 5 5 3 5 5 5 3 5 5 5 3 5 5 5 5 5 5 5 5 5 3 5 5 5 3 5 5 3 5 5 5 5 5 5 3 5 5 5 5 5 5 5 5 3 5 5 5 3 5 5 5 5 5 5 5 5 5 5 5 5 5 5 5 5 5 5 5 5 5 5 5 5 5 5 5 3 5 5 5 5 5 5 5 3 5 5 5 5 5 5 5 5 5 5 5 5 5 5 5 5 5 5 5 5 5 5 5 5 5 3 5 3 5 5 5 5 5 5 3 5 5 5 3 5 5 3 5 5 5 5 5 5 5 5 5 5 5 5 3 5 5 5 5 5 3 5 5 5 5 5 5 5 5 5 5 5 5 5 3 5 5 5 3 5 5 5 5 5 5 5 5 5 5 5 5 3 3 5 5 5 5 3 5 5 5 5 5 5 5 5 5 3 3 5 5 5 5 5 3 5 5 5 5 5 3 5 5 5 5 5 3 5 3 5 5 5 5 3 5 3 5 3 3 5 5 5 5 5 5 5 3 3 5 5 5 5 5 5 3 3 3 5 3 3 5 5 5 3 5 5 5 5 5 3 3 3 5 3 5 5 5 3 5 3 3 5 5 5 5 5 5 5 3 3 5 5 3 3 3 5 5 5 5 5 5 5 5 5 5 5 5 5 5 5 5 5 5 5 5 5 5 5 5 5 5 5 5 5 5 5 5 5 5 5 5 5 5 5 5 3 5 5 5 5 5 5 5 5 5 5 3 5 5 5 5 5 5 3 5 5 3 5 5 5 5 5 5 5 5 5 5 5 5 5 3 5 3 5 5 5 5 3 5 5 5 3 5 5 3 5 5 5 3 5 5 3 5 5 5 5 5 3 5 5 5 5 5 5 5 3 5 5 5 5 5 5 5 3 5 5 3 5 5 5 5 3 5 3 5 5 5 5 5 3 5 5 5 5 3 5 5 5 5 5 5 3 3 5 5 5 5 5 3 5 5 3 5 5 5 5 5 5 5 5 5 5 3 5 5 5 5 5 5 5 5 5 5 5 5 5 5 5 5 5 5 3 5 5 5 5 5 5 3 5 5 5 5 5 5 5 3 3 5 5 5 5 3 5 5 5 5 5 5 5 3 5 5 3 5 3 3 3 5 5 5 5 5 5 3 5 5 5 5 5 3 5 5 5 5 3 5 5 5 3 5 5 5 3 5 5 5 5 5 5 5 5 5 5 5 5 5 5 5 5 5 5 5 5 5 5 5 5 5 3 5 5 5 5 5 5 5 3 5 3 5 5 5 5 5 5 3 5 5 3 5 5 5 3 5 5 3 5 5 5 5 5 3 5 5 5 3 3 5 5 5 5 5 5 5 5 5 5 5 5 3 5 5 5 5 5 5 5 5 5 3 5 5 5 5 5 3 3 5 5 5 5 5 5 5 5 5 3 5 5 5 5 5 5 5 5 3 5 5 5 5 5 5 5 5 5 5 5 5 5 5 5 5 5 5 3 5 5 5 5 3 5 3 5 3 5 5 5 5 5 5 5 5 5 5 5 5 5 5 5 5 5 3 5 5 5 5 5 3 5 5 5 3 3 5 5 5 5 5 3 5 5 5 5 3 5 5 5 5 5 5 5 5 3 5 5 5 5 5 5 5 3 5 5 5 5 5 5 5 5 5 3 5 5 5 5 5 5 5 5 5 5 5 5 5 5 5 5 5 5 3 5 5 5 5 5 5 5 5 5 5 5 5 5 3 5 5 5 5 5 5 3 5 5 3 5 5 3 5 5 5 5 5 5 5 5 5 5 5 5 5 5 5 5 5 5 5 5 5 5 5 5 5 5 3 5 3 5 3 3 5 5 5 3 5 5 5 5 5 5 5 5 5 3 3 5 3 5 5 5 5 5 5 5 5 5 5 5 5 5 5 3 5 3 3 5 3 5 5 5 5 5 5 5 5 5 3 3 5 5 5 5 5 5 5 5 5 5 5 5 5 5 5 5 5 5 5 5 5 5 3 5 5 5 5 5 3 5 5 5 5 5 3 5 5 5 3 5 5 5 5 5 5 5 5 5 3 5 5 5 5 3 5 5 5 5 5 5 3 5 5 5 5 5 5 5 3 5 5 5 5 3 5 5 5 5 5 5 5 5 5 5 3 5 5 5 5 3 5 5 5 3 5 5 5 5 5 3 5 5 5 5 5 5 5 5 5 5 5 5 5 5 3 3 5 5 3 5 5 5 5 5 5 5 3 5 5 5 5 5 5 3 5 5 5 5 5 5 5 5 5 5 5 5 5 5 5 5 5 5 5 5 5 5 5 3 5 5 5 5 5 5 5 5 3 5 5 5 5 3 5 5 5 5 5 3 5 3 5 3 5 5 5 5 5 5 5 3 5 5 5 3 5 5 5 5 5 3 5 5 5 5 5 3 5 3 5 5 3 5 3 5 5 5 5 5 3 5 5 5 3 5 5 5 5 5 5 5 5 5 5 3 5 5 5 5 5 5 5 5 5 5 5 5 5 5 5 5 5 5 5 5 5 5 3 5 5 5 5 5 5 5 5 5 5 5 5 5 5 5 5 5 5 3 5 5 5 3 5 5 5 5 5 5 3 5 5 5 3 3 5 3 5 3 3 5 3 5 5 3 5 5 3 3 5 5 5 5 5 5 5 5 3 5 3 5 5 5 5 5 5 5 5 5 5 5 5 5 5 5 5 5 5 5 5 5 5 3 5 5 5 5 5 5 5 5 3 5 5 3 5 5 3 3 5 5 3 5 5 5 5 5 5 5 5 5 5 5 5 5 5 5 5 5 5 5 5 5 5 5 5 5 5 5 5 5 5 5 5 5 5 5 5 5 5 5 3 5 3 5 5 5 5 5 5 5 5 5 5 5 5 5 5 5 5 5 5 5 5 5 5 5 5 5 5 5 5 5 5 5 5 5 5 5 5 5 5 5 5 3 5 5 3 5 5 5 5 5 3 5 3 5 5 3 5 5 5 5 5 5 3 5 5 5 5 5 5 5 5 5 5 5 3 5 5 3 3 5 3 5 5 3 5 5 5 5 3 5 5 5 5 5 5 5 5 5 3 5 3 5 5 5 5 5 5 5 3 5 3 5 5 5 5 5 5 5 5 5 3 5 3 5 5 5 5 5 5 5 5 5 5 3 5 5 5 3 5 5 3 5 5 3 5 5 5 5 3 5 5 5 3 5 5 5 5 5 5 5 5 5 5 5 5 5 5 3 5 5 5 5 5 5 3 5 3 5 3 5 5 5 3 5 5 5 5 5 5 5 5 3 5 5 5 5 5 3 5 5 3 5 5 5 5 5 5 5 5 5 3 5 5 5 3 5 5 5 5 5 5 3 5 5 5 5 5 5 5 5 5 5 5 5 5 5 5 5 5 5 5 5 5 5 5 5 5 5 5 5 5 5 5 3 5 5 5 5 5 3 5 5 3 3 5 5 5 5 3 5 5 5 5 5 3 5 5 5 5 5 5 5 5 5 5 5 5 5 5 5 5 3 5 5 5 5 5 5 5 5 3 3 5 5 5 5 5 5 3 5 5 5 5 3 5 5 5 5 5 5 5 5 5 5 5 5 5 5 5 5 5 5 5 5 5 5 5 5 3 5 5 3 5 5 5 5 5 5 5 5 5 5 5 5 5 5 5 5 5 5 5 5 5 5 5 5 5 5 5 3 5 3 5 5 5 5 5 3 5 5 5 5 5 5 5 5 5 5 5 5 5 5 5 5 5 5 5 5 3 3 5 3 5 5 5 5 5 5 5 5 5 5 5 5 5 5 5 5 3 5 5 5 3 5 5 5 5 5 5 5 5 5 5 5 5 5 3 5 5 5 5 5 5 5 5 5 5 5 5 5 5 5 5 5 5 5 5 5 5 3 5 5 5 5 5 5 5 5 5 5 5 5 5 3 5 3 5 5 3 3 5 5 5 5 5 5 5 5 5 5 5 5 5 5 5 5 5 5 5 5 3 5 5 3 5 5 5 3 5 5 5 5 5 5 3 5 5 5 3 5 5 5 5 5 5 5 5 3 5 5 3 5 5 3 5 3 5 5 5 5 3 3 5 5 3 3 5 5 3 5 5 5 5 3 5 5 3 3 5 3 5 5 5 5 5 5 5 5 5 5 5 5 5 5 5 5 5 5 5 5 3 5 5 5 5 3 5 5 5 5 3 3 5 5 5 5 5 5 5 5 5 5 5 5 3 5 5 5 3 5 5 5 5 5 5 5 3 5 5 5 3 5 5 3 3 5 5 5 3 5 5 5 3 5 5 5 5 5 5 5 5 5 5 5 5 5 5 5 5 5 5 3 5 5 5 5 5 5 5 5 5 5 5 5 5 5 5 5 5 5 3 3 5 5 5 5 5 3 3 5 3 5 5 5 5 5 5 5 5 5 3 5 5 5 3 5 5 5 5 5 5 5 5 5 5 5 5 5 5 3 5 5 5 5 5 5 5 3 5 5 3 5 5 5 5 5 5 3 5 5 5 5 3 5 5 5 5 5 5 3 5 5 5 5 5 5 5 5 3 3 5 5 5 3 3 5 5 5 5 5 3 5 5 5 5 5 5 3 5 5 5 5 3 5 5 5 5 5 3 5 5 5 5 3 5 5 5 5 5 5 5 5 5 5 5 5 5 5 5 5 5 5 5 5 5 5 5 5 5 3 5 5 5 5 3 5 3 5 3 5 5 3 5 5 3 5 5 3 5 5 5 5 5 5 3 5 5 3 5 3 3 3 5 5 3 5 3 3 5 5 5 3 5 3 5 5 5 5 5 5 3 5 5 5 3 5 5 5 5 5 5 5 3 5 5 5 3 5 3 3 5 5 5 5 5 5 5 3 5 5 5 5 5 5 5 5 3 3 5 5 5 5 3 5 5 3 5 5 5 3 5 5 5 3 3 5 5 5 5 3 5 5 5 5 5 3 3 5 5 5 5 5 5 5 5 5 5 5 5 5 5 5 5 5 5 5 5 5 5 5 5 5 5 5 5 5 5 5 3 5 5 5 3 5 5 5 5 5 5 5 5 5 5 5 5 5 5 5 3 5 3 3 5 5 3 5 5 5 5 5 5 5 5 5 5 5 5 5 5 5 5 5 5 5 5 5 5 5 3 5 5 3 3 5 5 5 5 5 5 5 3 5 5 5 3 5 5 5 5 3 3 5 5 5 5 5 5 5 3 5 5 5 5 3 5 5 5 5 3 5 5 5 5 5 5 5 5 5 5 5 5 5 5 5 5 5 5 5 3 5 5 5 5 5 5 5 5 5 5 5 5 5 5 5 5 3 5 5 5 3 5 5 5 5 5 5 5 5 5 3 5 5 5 5 5 5 5 5 5 5 5 5 5 5 5 5 5 5 5 5 5 3 5 5 5 5 5 5 5 5 5 5 5 5 5 5 5 5 5 3 5 5 5 5 5 3 5 5 5 5 5 5 5 5 5 5 5 5 5 5 5 5 5 5 5 5 5 5 5 5 5 5 5 3 5 5 3 5 5 5 3 5 5 5 5 5 5 5 5 5 5 5 5 5 5 5 3 5 3 5 5 5 5 5 5 5 5 5 3 5 5 5 5 5 5 5 5 5 3 3 5 5 5 5 5 5 5 5 5 5 5 5 5 5 5 5 5 5 5 5 5 5 5 5 5 5 5 5 5 5 5 5 5 5 5 5 5 5 5 5 5 5 5 5 5 5 5 5 5 5 5 5 5 5 5 5 5 5 5 5 5 5 5 5 5 5 5 5 5 5 5 3 5 5 5 5 5 5 3 5 5 5 5 5 5 5 5 5 3 5 3 5 5 5 5 5 5 5 5 5 5 5 5 5 5 5 5 5 5 5 5 5 5 5 5 5 5 5 5 5 5 5 5 5 5 3 5 5 5 3 3 5 5 5 5 5 5 5 5 5 5 5 5 5 5 5 5 5 5 5 5 5 5 3 3 5 5 5 5 5 5 5 5 3 5 5 5 5 5 5 3 5 5 5 5 5 3 5 5 5 5 3 5 5 5 3 5 5 5 3 5 5 3 5 5 5 5 5 5 5 5 5 5 5 5 5 3 5 5 5 5 5 5 5 5 3 5 5 5 5 5 5 5 5 5 5 5 3 5 5 5 3 5 5 5 5 3 5 5 5 5 5 5 5 5 3 5 3 5 5 3 5 5 5 5 5 3 5 5 5 5 5 5 5 5 5 5 5 5 3 5 5 5 5 5 5 5 5 5 3 5 5 5 5 5 5 3 5 5 5 5 5 5 5 3 5 5 5 5 5 3 5 5 5 5 5 5 5 5 5 5 5 5 5 5 5 5 5 5 5 5 5 5 5 5 5 5 5 5 5 5 5 5 5 5 5 5 5 5 5 5 5 5 5 5 5 5 5 3 5 3 5 5 5 5 5 5 5 5 5 5 5 5 5 5 3 5 5 5 5 5 5 5 5 5 5 5 5 5 5 5 3 5 5 3 5 3 5 5 5 5 5 3 5 5 5 5 5 5 5 5 5 5 5 5 5 5 5 5 5 5 5 5 3 5 5 5 5 5 5 5 5 5 5 5 3 5 3 5 5 3 5 3 5 5 5 5 5 5 5 3 5 3 5 5 5 5 3 5 5 5 5 3 3 5 5 3 5 5 5 5 5 5 5 5 5 5 5 5 5 5 5 5 3 5 5 5 5 5 5 5 5 5 5 5 5 5 5 3 5 3 5 5 5 5 5 5 5 3 5 3 5 5 5 5 5 5 5 5 5 3 3 5 5 5 3 5 5 5 5 3 5 3 5 5 3 5 3 3 3 5 5 3 5 5 5 3 3 3 5 5 5 5 5 5 5 5 5 5 5 3 5 5 5 5 5 5 3 5 5 5 3 5 5 5 5 5 5 5 5 3 5 5 5 3 5 5 5 5 5 5 5 5 5 5 5 5 5 5 5 5 5 5 5 5 5 5 5 5 5 5 5 5 5 5 5 5 5 5 5 5 5 5 5 5 5 5 5 5 5 5 5 5 5 5 5 5 5 5 5 5 5 5 5 5 3 5 5 5 5 5 3 5 5 5 5 3 5 5 5 3 5 5 5 5 5 5 5 5 5 5 5 5 5 5 5 5 5 5 5 5 5 5 5 5 5 5 5 5 5 5 5 5 5 5 5 5 5 5 5 5 3 5 5 3 5 5 5 5 5 5 5 3 5 5 5 5 5 5 5 5 5 5 5 3 5 5 3 5 3 5 5 5 3 5 5 5 5 5 5 5 5 3 5 5 5 5 3 5 5 5 5 3 5 3 5 5 5 5 5 5 5 5 5 5 5 5 3 5 3 5 5 5 5 5 5 5 5 5 5 5 5 5 3 5 5 5 5 5 5 5 5 5 3 5 5 5 3 5 5 5 5 5 5 5 5 5 5 5 5 5 5 5 5 5 5 5 5 5 5 5 5 5 5 5 5 5 5 5 5 5 5 5 3 5 5 3 5 5 5 5 3 5 5 5 5 5 5 5 5 5 5 5 5 5 5 5 3 5 5 5 5 5 5 5 5 5 3 5 3 5 5 5 5 5 5 5 3 5 5 5 5 5 5 5 5 5 5 5 5 5 5 3 5 5 5 5 5 5 5 5 5 5 5 3 5 5 5 5 5 5 5 5 5 5 5 5 5 5 5 5 5 5 5 5 5 5 5 3 5 3 5 5 5 5 5 5 3 5 3 5 5 5 3 5 5 5 3 5 5 5 3 5 5 3 5 5 5 5 5 5 5 3 5 5 5 5 5 5 5 3 5 5 5 5 5 5 5 5 5 5 5 5 5 3 5 5 5 5 5 5 5 5 3 5 5 5 5 5 5 5 5 5 5 5 5 5 5 5 5 5 5 5 5 3 5 5 5 5 5 5 5 5 5 5 5 5 5 5 5 5 5 5 5 5 5 5 5 5 5 5 5 5 5 5 5 5 5 5 5 5 5 5 5 5 5 5 5 5 5 5 5 5 5 5 3 5 3 5 5 5 3 5 5 3 3 5 3 5 5 5 5 5 5 5 5 5 5 5 5 5 5 5 5 5 5 5 5 5 5 5 5 5 5 5 5 5 5 5 5 5 5 5 3 5 5 5 5 3 5 5 3 5 5 5 3 5 5 5 5 3 5 3 3 5 5 5 5 3 5 5 5 3 5 5 5 3 5 5 5 5 5 5 3 5 5 5 5 5 5 5 5 5 5 5 5 5 5 5 5 5 5 5 5 3 5 5 5 5 5 5 5 5 5 5 5 5 5 5 5 5 5 5 3 5 5 3 5 5 3 5 5 5 5 5 5 5 5 5 5 5 3 5 5 5 5 3 5 5 5 5 3 5 5 5 3 5 5 5 5 5 5 5 5 5 5 5 5 5 5 5 5 5 5 5 5 5 5 5 5 5 3 5 5 5 5 5 5 5 5 3 5 5 5 3 5 5 5 5 5 5 5 5 5 5 5 5 5 5 5 5 5 5 5 5 5 5 5 5 3 5 5 5 3 5 5 5 5 5 5 5 5 3 5 5 3 5 5 5 5 3 5 5 5 5 5 5 5 3 5 3 5 5 3 5 5 3 3 5 5 5 5 5 5 5 5 5 5 5 5 5 5 5 5 5 5 5 5 5 3 5 5 5 5 3 5 5 5 5 5 5 5 5 5 5 5 5 5 3 5 5 3 5 5 5 5 5 5 5 5 5 5 5 5 5 5 5 5 5 5 5 5 5 5 5 5 5 5 5 5 5 5 5 5 5 5 5 5 5 5 5 5 5 5 5 5 5 5 5 5 5 5 5 5 5 5 5 5 5 5 5 5 5 5 5 5 5 5 5 5 5 5 5 5 5 5 5 5 5 5 5 5 5 5 5 5 5 5 5 5 5 5 5 5 5 5 5 5 5 5 5 5 5 5 5 5 5 5 5 5 5 5 5 5 5 5 5 5 5 5 5 5 5 5 5 5 5 5 5 5 3 5 5 5 5 5 5 5 3 5 5 5 5 5 5 5 5 5 3 5 3 5 5 5 3 5 5 3 5 5 5 5 5 5 5 5 5 5 5 5 5 5 5 5 5 5 5 5 5 5 5 5 5 5 5 5 5 5 5 5 5 5 5 5 5 3 5 5 3 3 5 5 3 5 5 3 5 5 5 3 5 5 5 5 5 5 5 5 5 3 5 5 5 5 5 5 3 5 5 5 5 5 5 5 5 5 5 5 5 5 5 5 5 5 5 5 5 5 5 5 5 5 5 5 5 5 5 5 3 5 5 5 5 5 5 5 5 5 5 5 5 5 5 5 5 5 5 5 5 5 5 5 5 5 5 5 5 5 5 5 5 5 5 5 5 5 5 5 5 5 5 5 5 5 5 3 5 3 5 5 5 5 3 5 5 5 5 3 5 5 5 5 3 5 5 5 5 5 5 5 5 3 5 5 3 5 3 5 5 5 5 3 5 5 3 3 5 5 5 5 5 5 3 5 5 5 5 5 5 5 5 5 5 3 3 5 5 5 5 5 3 5 5 3 5 5 5 5 3 5 5 3 5 5 5 5 5 5 5 5 5 5 5 5 5 5 5 5 5 5 5 5 5 5 5 5 5 5 5 5 5 3 5 3 5 5 5 5 5 5 5 5 5 5 5 5 5 3 5 5 5 5 3 3 5 5 5 5 5 5 5 5 5 5 5 5 5 5 5 5 5 5 5 5 5 5 5 5 5 5 5 5 5 5 5 5 5 5 5 5 5 5 5 5 5 5 3 5 5 5 3 5 5 5 5 5 5 5 5 5 5 5 5 5 5 5 5 5 5 5 5 3 5 5 3 5 5 5 5 5 5 5 5 5 3 5 5 5 5 5 3 5 5 5 5 5 3 5 3 5 5 5 5 5 5 5 5 5 5 5 5 5 3 5 5 5 3 3 5 5 5 5 5 5 5 5 3 5 5 3 5 5 3 3 5 5 5 5 5 3 5 5 5 5 5 5 5 3 5 5 3 3 5 5 5 5 5 5 3 3 5 5 5 3 5 5 5 5 5 5 5 3 5 5 5 5 5 5 5 5 5 5 5 5 5 5 5 5 5 5 5 5 5 5 5 5 5 5 3 5 5 5 5 5 5 5 3 5 5 5 5 5 5 5 5 5 5 5 3 5 5 5 5 5 5 5 5 3 5 5 5 5 5 5 5 5 5 5 5 5 5 5 5 5 3 5 5 5 3 5 5 5 5 5 3 5 5 5 5 5 5 5 5 5 5 5 5 5 5 3 5 5 5 5 3 5 5 3 5 5 5 5 5 3 5 5 5 5 5 5 5 5 5 5 5 5 5 5 3 5 3 5 5 5 3 5 3 5 3 5 5 5 5 5 5 3 3 5 5 5 5 5 5 3 5 3 5 5 5 5 5 5 5 5 5 5 5 5 5 5 5 5 5 3 5 5 5 3 3 5 5 5 5 5 3 5 5 3 3 5 5 5 5 5 5 5 5 5 5 5 5 5 5 5 5 5 5 5 5 5 5 5 5 5 5 5 5 5 5 5 5 5 5 5 5 5 5 5 5 5 5 5 5 3 5 5 3 3 3 5 5 5 5 5 5 3 5 5 5 5 5 5 5 5 5 3 5 5 5 3 5 5 5 5 5 5 5 5 5 5 5 5 5 5 5 5 5 5 5 5 3 5 5 5 5 3 5 5 5 5 5 5 5 5 5 5 5 5 5 5 5 5 5 5 5 5 5 5 5 5 5 5 5 5 5 5 5 5 5 5 3 5 3 5 5 5 5 5 5 5 5 3 5 5 5 3 5 3 5 5 5 5 5 5 5 5 3 5 5 5 5 3 5 5 5 5 3 5 5 5 5 5 5 5 3 5 5 5 5 3 5 5 5 5 5 5 5 5 5 5 5 5 5 5 5 5 5 5 5 5 5 5 5 5 5 5 5 5 5 5 5 5 5 5 5 5 5 5 5 5 5 5 5 5 5 5 3 5 5 5 5 3 3 5 5 3 3 5 5 5 5 5 5 5 5 5 5 5 5 5 5 5 5 5 5 5 3 5 5 5 3 3 5 5 5 5 5 5 5 5 5 5 5 5 5 5 5 5 5 5 5 5 5 5 5 5 5 5 5 3 5 5 5 5 5 5 5 3 5 5 5 5 5 5 5 5 5 5 5 5 5 5 5 3 5 5 5 5 5 5 5 5 3 5 3 3 5 5 5 5 5 5 5 5 5 5 5 5 3 5 5 5 5 5 5 5 5 5 5 5 5 5 5 5 5 5 5 3 5 5 5 3 5 5 5 5 5 5 5 5 3 5 5 5 5 5 5 5 5 5 5 5 5 5 5 5 3 5 5 5 3 5 5 5 5 5 5 5 5 5 5 5 5 5 5 5 5 5 5 5 5 5 5 5 5 5 5 5 5 5 5 5 5 5 3 5 3 5 5 5 5 5 5 5 5 3 5 5 5 5 5 5 5 5 5 3 5 5 3 5 5 5 5 5 3 5 5 5 5 3 5 5 5 5 3 5 5 5 3 5 3 5 5 3 5 5 5 5 5 5 5 5 5 5 5 5 5 5 3 5 5 3 5 3 5 5 5 3 5 5 3 5 5 5 5 3 5 3 5 5 5 5 5 5 3 5 3 5 5 5 5 5 3 5 5 5 5 3 5 5 5 5 5 5 3 5 5 5 5 5 5 5 5 5 5 5 5 5 5 5 5 5 5 5 5 5 5 5 5 5 5 5 5 5 5 5 5 5 3 3 5 5 5 5 5 5 5 5 5 5 3 5 5 3 3 5 3 5 5 5 5 5 5 5 3 5 5 5 5 5 5 5 5 5 5 5 5 3 5 5 5 5 3 5 5 5 5 5 5 5 5 5 5 5 5 3 5 5 5 5 5 5 5 5 5 5 5 5 5 5 5 5 5 3 5 5 5 5 5 3 5 5 5 3 5 5 5 5 5 5 3 5 3 5 5 5 3 5 5 5 5 5 5 5 5 5 3 5 5 3 5 5 5 5 5 5 5 3 5 5 5 5 5 5 5 5 5 5 5 5 5 3 5 5 3 5 5 5 5 5 5 3 5 5 5 5 5 5 3 5 5 5 5 5 5 5 3 5 5 5 5 5 5 5 5 5 5 5 5 5 5 5 5 5 5 5 5 5 5 3 5 5 5 5 5 5 5 5 5 5 3 5 5 5 5 3 3 5 5 5 5 3 5 5 5 5 5 5 5 5 5 3 5 5 5 5 5 5 5 5 5 5 5 3 5 5 5 3 5 5 5 3 5 5 5 5 5 5 5 5 5 5 5 5 3 5 5 5 5 5 3 5 5 3 5 5 5 5 5 5 5 5 5 5 5 5 5 5 3 5 5 5 5 5 5 5 3 5 5 5 3 5 5 5 5 5 3 5 5 5 5 5 5 5 5 5 3 5 5 5 5 5 5 5 5 3 5 5 5 5 5 3 5 5 5 5 5 5 5 3 5 5 5 5 5 5 5 5 5 5 5 5 5 5 5 5 5 5 5 5 5 5 5 5 5 5 5 5 5 5 5 5 5 5 5 5 5 5 5 5 5 5 5 5 5 5 5 5 3 5 5 5 5 5 5 5 3 5 5 5 5 5 5 5 5 5 5 5 5 5 5 5 5 5 5 5 5 5 5 3 3 5 5 3 3 5 5 5 5 5 5 5 3 5 5 5 5 5 5 5 5 5 5 5 5 5 5 3 5 5 5 5 5 5 5 5 3 5 5 3 5 5 5 3 5 5 5 5 5 5 5 5 5 5 5 5 5 5 5 5 5 5 5 5 5 5 5 5 5 5 5 5 3 5 5 5 5 5 5 5 5 3 5 5 5 5 5 5 3 3 5 5 5 5 3 5 5 3 5 5 3 5 5 5 5 5 5 3 5 5 5 5 5 5 5 5 3 5 5 5 5 5 5 5 5 5 5 5 3 5 5 3 5 5 5 5 5 5 5 3 5 5 5 3 5 3 5 3 5 5 5 5 5 5 5 5 5 5 5 5 5 5 5 5 5 3 5 3 5 5 5 5 5 5 5 5 5 5 3 5 5 5 5 5 5 5 3 5 5 5 3 5 3 3 5 5 3 5 5 5 5 3 5 5 5 3 5 5 5 3 5 3 3 5 5 5 5 5 5 3 5 5 5 5 5 5 5 5 3 3 3 5 3 5 5 3 3 5 5 3 5 5 5 5 5 5 5 5 5 5 5 3 5 5 5 5 5 5 5 5 5 5 5 5 5 3 3 5 5 5 5 3 5 5 5 3 5 5 5 5 5 3 3 5 5 5 3 5 5 5 5 5 5 5 5 5 5 5 5 5 5 5 3 5 5 5 3 5 5 5 3 5 5 5 5 5 5 3 5 5 5 5 5 3 5 5 5 5 5 5 5 5 3 5 5 5 5 5 5 5 5 5 3 5 5 5 5 3 5 3 5 5 3 5 3 5 5 5 5 5 5 3 5 3 3 5 5 5 5 5 5 5 5 3 5 3 5 3 5 3 5 5 5 5 5 5 5 5 5 5 5 3 5 5 5 3 5 5 5 5 5 5 5 5 3 5 5 5 5 5 5 5 5 5 3 5 5 5 5 3 5 5 3 5 5 5 5 5 5 5 5 5 3 5 5 5 3 5 5 5 5 5 5 5 5 5 5 5 5 5 5 5 5 5 5 5 3 5 5 5 5 5 5 5 5 5 5 3 5 5 5 5 5 5 5 5 5 5 5 5 5 5 5 5 5 5 5 5 5 5 5 5 5 5 5 5 5 5 5 5 5 5 5 5 5 5 5 5 5 5 5 5 5 3 3 5 5 5 5 5 5 5 5 5 5 5 5 5 3 3 5 5 5 3 5 5 3 5 5 5 3 5 5 5 3 5 5 5 5 5 5 5 5 3 5 5 3 5 3 3 5 5 5 5 5 5 3 5 3 3 3 5 5 3 5 5 3 3 5 5 5 5 5 5 5 5 5 5 5 5 5 5 5 5 5 5 5 5 5 3 5 5 5 5 5 5 5 5 5 3 5 5 5 5 5 5 5 3 3 5 5 5 5 5 5 5 5 5 5 5 5 5 5 5 5 5 5 5 5 5 5 5 3 5 3 5 5 5 5 5 5 5 3 5 5 5 3 3 5 5 3 5 5 5 5 3 5 5 5 3 5 5 5 3 5 5 5 5 5 5 5 5 5 3 3 5 5 5 5 5 3 5 5 3 3 3 5 5 5 5 5 3 5 5 5 5 5 5 5 5 5 3 5 3 5 5 5 5 5 5 5 5 5 5 5 5 5 5 5 5 5 5 5 5 5 5 5 5 3 5 5 5 5 3 3 5 5 5 3 5 5 5 5 5 5 5 5 5 5 5 5 5 5 5 5 3 5 5 5 3 5 5 3 5 5 5 5 5 5 5 5 5 5 5 5 5 3 5 5 3 5 5 5 3 5 3 5 3 5 3 3 3 5 5 5 5 5 5 5 5 3 5 5 5 5 5 5 5 5 3 5 5 3 5 5 5 5 5 5 5 5 5 5 5 5 5 5 5 5 5 5 5 5 5 3 5 5 5 5 5 5 5 5 5 5 3 5 3 5 5 3 5 3 5 3 5 5 3 5 3 5 5 3 5 5 5 3 5 5 5 5 5 5 5 5 5 5 5 5 5 5 5 5 5 5 5 5 5 5 5 5 5 5 5 5 5 5 5 5 5 5 5 5 5 5 5 5 5 5 5 5 5 5 5 5 5 5 5 5 5 5 5 5 5 5 5 5 5 3 5 5 3 5 5 5 5 5 5 3 3 5 5 5 5 5 5 5 5 5 5 5 5 5 5 5 5 5 5 3 5 5 5 3 5 5 5 5 5 5 5 5 5 5 5 5 5 5 5 5 3 5 5 5 5 5 5 5 3 5 5 5 5 5 5 5 5 3 5 3 5 5 5 5 5 5 5 5 5 5 5 5 5 5 5 5 3 5 5 5 5 5 5 5 3 5 5 5 5 3 5 5 5 5 5 5 5 3 5 5 3 3 5 5 3 5 5 5 5 5 5 3 5 5 5 5 5 5 5 5 5 3 5 5 3 5 5 3 5 5 3 5 5 5 5 5 3 5 5 5 5 5 5 5 5 3 5 5 5 5 5 5 5 3 5 5 5 5 5 5 5 5 5 5 5 5 3 5 5 5 5 5 5 5 3 3 5 3 5 3 5 5 5 5 5 5 5 5 5 5 5 5 5 5 5 3 5 3 5 5 5 5 5 5 5 5 3 5 3 5 3 5 3 5 3 5 5 3 5 5 5 5 5 3 5 5 5 5 5 5 5 5 3 5 5 5 5 5 3 5 5 3 5 3 3 5 5 5 5 5 5 5 5 3 5 5 5 5 5 5 5 5 5 5 5 5 5 3 5 5 5 5 5 5 5 3 5 5 5 3 5 5 5 5 5 5 5 5 5 5 5 5 5 5 5 5 5 3 5 5 5 5 5 5 5 3 5 5 3 5 5 5 5 5 5 5 5 5 5 5 5 5 5 5 3 5 5 5 5 3 5 5 5 5 5 5 5 5 5 5 5 5 5 5 5 5 5 5 5 5 5 5 5 5 5 3 5 5 5 5 5 5 3 5 5 5 5 5 5 5 5 5 3 3 5 5 5 3 5 3 5 5 5 5 5 5 5 5 5 5 5 5 5 5 5 3 5 5 5 5 5 5 5 5 5 5 5 5 3 3 5 5 5 5 5 5 5 5 3 5 5 3 5 5 3 3 5 5 5 5 5 5 5 3 5 5 5 5 5 5 5 5 5 3 5 5 5 3 5 5 5 5 5 3 5 5 5 5 5 5 5 5 5 5 5 5 3 5 5 5 3 5 5 5 3 5 5 5 5 5 5 5 5 5 5 5 5 5 5 5 5 5 5 5 5 5 5 5 5 5 5 5 5 5 5 5 5 3 5 5 5 5 5 5 5 5 5 5 5 5 5 5 5 5 5 5 5 5 5 5 5 5 3 5 3 5 5 3 5 5 5 5 5 5 5 5 5 3 5 5 5 5 5 5 5 5 5 5 5 5 5 5 3 5 5 5 5 3 5 5 5 3 5 5 5 5 5 5 5 5 5 5 5 5 5 5 5 5 5 5 5 5 5 5 5 5 5 5 5 5 5 5 5 5 5 5 5 5 5 5 5 5 5 5 5 5 5 5 5 5 5 5 5 5 5 5 5 5 5 5 5 5 5 5 5 5 5 5 5 5 5 5 5 5 5 5 5 5 5 5 5 5 5 5 5 5 5 5 5 5 5 5 5 5 5 5 5 5 5 5 5 5 5 5 5 5 5 5 5 5 5 5 5 5 5 5 5 5 5 5 5 5 5 5 5 5 5 5 5 5 5 5 5 5 5 5 5 5 5 5 5 5 5 5 5 5 5 5 5 5 5 5 5 5 5 5 5 5 5 5 5 5 5 5 5 5 5 5 5 5 5 5 5 5 5 5 5 5 5 5 5 5 5 5 5 5 5 5 5 5 5 3 5 5 5 5 5 5 5 5 5 5 5 5 5 5 5 5 3 5 5 5 5 5 5 5 5 3 5 5 5 5 3 5 5 5 5 5 5 5 5 5 5 5 5 5 5 5 5 5 5 5 5 5 5 3 5 5 5 5 5 5 5 5 5 5 5 5 5 3 3 5 5 5 5 5 3 5 3 5 5 5 5 5 5 5 5 5 5 5 3 5 5 5 5 5 5 5 3 5 5 5 5 5 5 5 5 5 5 5 5 5 5 5 3 3 5 5 5 5 5 5 5 5 5 5 5 5 3 5 5 5 5 5 5 5 5 5 5 5 5 5 5 5 5 3 5 5 5 5 5 5 5 3 5 5 5 5 5 5 5 5 5 5 3 3 5 5 5 5 5 5 5 5 5 5 5 5 5 5 5 5 5 5 5 5 5 5 5 5 5 5 5 5 5 5 3 5 5 5 5 5 3 5 5 5 5 5 5 5 5 5 5 3 5 5 5 5 3 5 5 5 5 5 5 5 5 5 5 3 5 3 5 5 5 5 5 5 5 5 5 5 5 5 5 5 5 5 5 5 5 5 5 5 5 5 5 5 5 5 5 5 5 3 5 5 5 5 5 3 5 5 5 5 5 5 5 5 5 5 5 5 5 5 5 5 5 5 3 5 5 3 5 5 5 3 5 5 5 5 5 3 5 5 5 5 5 5 5 5 5 5 3 5 5 5 5 5 5 3 5 5 5 5 5 3 3 5 5 3 5 5 3 5 5 5 5 5 5 5 5 5 5 3 5 5 3 5 5 3 5 5 3 5 5 3 5 5 3 5 5 5 5 5 5 3 5 5 5 5 5 5 5 5 5 5 5 3 5 5 5 5 5 5 5 3 5 5 5 5 3 5 5 5 3 5 5 5 5 5 5 5 5 5 5 5 3 5 5 5 5 5 5 5 5 5 5 5 5 5 5 5 5 5 5 5 5 5 5 5 5 3 5 5 5 5 5 3 5 5 5 5 5 5 5 5 5 5 5 5 5 5 3 5 5 3 5 3 5 5 5 5 3 5 3 3 5 3 5 5 5 5 5 5 5 3 5 3 5 5 5 5 5 5 3 5 5 5 5 5 5 3 5 5 5 5 3 5 5 5 5 5 3 5 5 3 5 5 5 5 3 5 5 5 5 3 5 5 5 5 5 5 3 5 5 5 5 5 5 5 5 5 3 5 5 5 5 5 5 3 5 5 5 5 3 5 5 5 5 5 5 5 5 5 5 5 5 5 5 5 5 3 5 5 5 3 5 5 3 5 5 5 5 5 5 5 5 5 5 5 5 5 5 5 5 3 5 3 5 5 5 5 5 5 5 5 5 5 5 5 5 5 5 5 5 5 5 5 5 5 5 5 5 5 3 5 5 3 5 5 5 5 5 5 5 5 5 5 3 5 5 5 5 3 5 5 5 5 3 5 5 5 5 5 5 5 5 5 3 5 5 5 5 5 5 5 5 5 5 5 5 5 5 5 5 5 5 5 5 5 5 5 5 5 5 5 5 
</DataArray>
</Cells>
<PointData Scalars="" Vectors="displacement," Tensors="">
<DataArray type="Float64" Name="displacement" NumberOfComponents="3" format="ascii">
-0.034997365658344229 -0.034997997859360634 0 -0.032600975768959178 -0.034331977856704138 0 -0.029503338461686193 -0.034995272208160566 0 -0.034997365658344229 -0.034997997859360634 0 -0.03440001820183354 -0.03367908752025011 0 -0.032600975768959178 -0.034331977856704138 0 -0.034997365658344229 -0.034997997859360634 0 -0.03440001820183354 -0.03367908752025011 0 -0.034998023974174543 -0.031405140477507476 0 -0.03440001820183354 -0.03367908752025011 0 -0.034998023974174543 -0.031405140477507476 0 -0.034544671188036197 -0.033061838635347222 0 -0.034998023974174543 -0.031405140477507476 0 -0.034544671188036197 -0.033061838635347222 0 -0.035059918474099054 -0.030759765655839856 0 -0.03362666611777592 -0.0339338287485259 0 -0.033353163252723514 -0.034189719054728729 0 -0.034544671188036197 -0.033061838635347222 0 -0.036853265441236252 -0.032911639777175712 0 -0.037055283373185283 -0.031848432225380412 0 -0.034544671188036197 -0.033061838635347222 0 -0.037055283373185283 -0.031848432225380412 0 -0.036166241648339294 -0.030943115938192833 0 -0.03440001820183354 -0.03367908752025011 0 -0.034544671188036197 -0.033061838635347222 0 -0.032600975768959178 -0.034331977856704138 0 -0.034544671188036197 -0.033061838635347222 0 -0.032600975768959178 -0.034331977856704138 0 -0.031863719949990064 -0.034861732687761673 0 -0.032600975768959178 -0.034331977856704138 0 -0.030410652256092647 -0.034578961091825608 0 -0.031863719949990064 -0.034861732687761673 0 -0.032600975768959178 -0.034331977856704138 0 -0.029503338461686193 -0.034995272208160566 0 -0.030410652256092647 -0.034578961091825608 0 -0.029492653473363127 -0.034999989642669406 0 -0.028745290034450224 -0.036306819927778698 0 -0.027572046854946075 -0.034999985795337731 0 -0.029493308082347708 -0.035000211648683291 0 -0.029778475722963108 -0.035071250533375314 0 -0.027572046854946075 -0.034999985795337731 0 -0.027290087188977099 -0.036476211146454357 0 -0.02599590956029843 -0.036086379807553789 0 -0.027572046854946075 -0.034999985795337731 0 -0.025651401767017228 -0.034999984920756906 0 -0.02599590956029843 -0.036086379807553789 0 -0.028745290034450224 -0.036306819927778698 0 -0.027572046854946075 -0.034999985795337731 0 -0.027290087188977099 -0.036476211146454357 0 -0.028745290034450224 -0.036306819927778698 0 -0.027290087188977099 -0.036476211146454357 0 -0.028012074499317911 -0.037605076168442365 0 -0.029778475722963108 -0.035071250533375314 0 -0.030492497715850695 -0.034401953192978493 0 -0.027290087188977099 -0.036476211146454357 0 -0.026371333004304574 -0.037255695982805696 0 -0.028012074499317911 -0.037605076168442365 0 -0.027290087188977099 -0.036476211146454357 0 -0.026371333004304574 -0.037255695982805696 0 -0.02599590956029843 -0.036086379807553789 0 -0.026380440562805935 -0.035319644703248672 0 -0.030492497715850695 -0.034401953192978493 0 -0.024176600013016605 -0.03669636066543483 0 -0.023947335424051686 -0.036505458006032443 0 -0.023701618533482238 -0.036612098791059838 0 -0.024176600013016605 -0.03669636066543483 0 -0.023947335424051686 -0.036505458006032443 0 -0.024123522664734685 -0.036492629809578778 0 -0.023947335424051686 -0.036505458006032443 0 -0.023701618533482238 -0.036612098791059838 0 -0.023855615938546935 -0.036220306325350247 0 -0.038024277777105348 -0.032745746770917031 0 -0.038207657444341701 -0.031946958133885643 0 -0.037668357400196813 -0.032235600981137209 0 -0.030492497715850695 -0.034401953192978493 0 -0.03044085815909605 -0.033771993551315042 0 -0.038207657444341701 -0.031946958133885643 0 -0.037668357400196813 -0.032235600981137209 0 -0.037854512912483325 -0.031710079896480552 0 -0.023855615938546935 -0.036220306325350247 0 -0.024123522664734685 -0.036492629809578778 0 -0.024182560611499038 -0.036200873907802675 0 -0.023947335424051686 -0.036505458006032443 0 -0.023855615938546935 -0.036220306325350247 0 -0.024123522664734685 -0.036492629809578778 0 -0.038024277777105348 -0.032745746770917031 0 -0.036853265441236252 -0.032911639777175712 0 -0.037668357400196813 -0.032235600981137209 0 -0.030492497715850695 -0.034401953192978493 0 -0.033353163252723514 -0.034189719054728729 0 -0.030410652256092647 -0.034578961091825608 0 -0.030289338122877305 -0.035049954210182477 0 -0.031863719949990064 -0.034861732687761673 0 -0.037668357400196813 -0.032235600981137209 0 -0.037055283373185283 -0.031848432225380412 0 -0.037583728988251269 -0.031763283732704255 0 -0.037668357400196813 -0.032235600981137209 0 -0.037583728988251269 -0.031763283732704255 0 -0.037854512912483325 -0.031710079896480552 0 -0.036853265441236252 -0.032911639777175712 0 -0.037668357400196813 -0.032235600981137209 0 -0.037055283373185283 -0.031848432225380412 0 -0.037055283373185283 -0.031848432225380412 0 -0.037016376060048151 -0.031119143303398222 0 -0.036166241648339294 -0.030943115938192833 0 -0.037016376060048151 -0.031119143303398222 0 -0.036871308822941866 -0.030397357061539745 0 -0.036166241648339294 -0.030943115938192833 0 -0.037016376060048151 -0.031119143303398222 0 -0.037333336065049919 -0.031143427590819638 0 -0.037307412687643121 -0.030784019544159994 0 -0.037016376060048151 -0.031119143303398222 0 -0.037399733644533778 -0.031451766537523136 0 -0.037333336065049919 -0.031143427590819638 0 -0.037055283373185283 -0.031848432225380412 0 -0.037016376060048151 -0.031119143303398222 0 -0.037399733644533778 -0.031451766537523136 0 -0.037055283373185283 -0.031848432225380412 0 -0.037583728988251269 -0.031763283732704255 0 -0.037399733644533778 -0.031451766537523136 0 -0.037583728988251269 -0.031763283732704255 0 -0.037399733644533778 -0.031451766537523136 0 -0.037704837985811639 -0.031443947958400199 0 -0.037583728988251269 -0.031763283732704255 0 -0.037704837985811639 -0.031443947958400199 0 -0.037854512912483325 -0.031710079896480552 0 -0.037704837985811639 -0.031443947958400199 0 -0.037854512912483325 -0.031710079896480552 0 -0.037833646026308156 -0.031472138257303807 0 -0.03638958993108065 -0.029752603098446111 0 -0.036363665367321399 -0.029558197759406279 0 -0.037704837985811639 -0.031443947958400199 0 -0.037608444966383665 -0.031213322825968455 0 -0.037886606504868137 -0.03074726766623093 0 -0.037704837985811639 -0.031443947958400199 0 -0.037754076839891501 -0.031405224231528674 0 -0.037833646026308156 -0.031472138257303807 0 -0.036372553449704345 -0.029624103742325235 0 -0.036363665367321399 -0.029558197759406279 0 -0.037608444966383665 -0.031213322825968455 0 -0.037307412687643121 -0.030784019544159994 0 -0.037881818084313165 -0.030730447018772849 0 -0.037399733644533778 -0.031451766537523136 0 -0.037333336065049919 -0.031143427590819638 0 -0.037608444966383665 -0.031213322825968455 0 -0.037399733644533778 -0.031451766537523136 0 -0.037704837985811639 -0.031443947958400199 0 -0.037608444966383665 -0.031213322825968455 0 -0.037333336065049919 -0.031143427590819638 0 -0.037608444966383665 -0.031213322825968455 0 -0.037307412687643121 -0.030784019544159994 0 -0.037307412687643121 -0.030784019544159994 0 -0.037881818084313165 -0.030730447018772849 0 -0.037400839888316793 -0.03011736307978757 0 -0.036363665367321399 -0.029558197759406279 0 -0.036660463319493831 -0.028358555888318975 0 -0.037881818084313165 -0.030730447018772849 0 -0.037400839888316793 -0.03011736307978757 0 -0.038040910132064863 -0.0294097682876284 0 -0.037400839888316793 -0.03011736307978757 0 -0.036871308822941866 -0.030397357061539745 0 -0.03693662534285224 -0.029322743797110699 0 -0.036871308822941866 -0.030397357061539745 0 -0.03693662534285224 -0.029322743797110699 0 -0.03619252488749259 -0.030123453976460487 0 -0.037307412687643121 -0.030784019544159994 0 -0.037400839888316793 -0.03011736307978757 0 -0.036871308822941866 -0.030397357061539745 0 -0.037016376060048151 -0.031119143303398222 0 -0.037307412687643121 -0.030784019544159994 0 -0.036871308822941866 -0.030397357061539745 0 -0.038207657444341701 -0.031946958133885643 0 -0.038105698421514976 -0.031473097689359963 0 -0.037987832312605919 -0.031526057680295816 0 -0.023855615938546935 -0.036220306325350247 0 -0.024021828906751374 -0.035728021339533442 0 -0.024182560611499038 -0.036200873907802675 0 -0.03044085815909605 -0.033771993551315042 0 -0.030215550347442985 -0.032879378771533532 0 -0.038105698421514976 -0.031473097689359963 0 -0.037987832312605919 -0.031526057680295816 0 -0.037986783385790569 -0.031396112213598795 0 -0.038207657444341701 -0.031946958133885643 0 -0.037987832312605919 -0.031526057680295816 0 -0.037854512912483325 -0.031710079896480552 0 -0.037987832312605919 -0.031526057680295816 0 -0.037854512912483325 -0.031710079896480552 0 -0.037833646026308156 -0.031472138257303807 0 -0.037754076839891501 -0.031405224231528674 0 -0.037897451670375587 -0.031351848663944124 0 -0.03790051674565207 -0.031242110508172456 0 -0.036363665367321399 -0.029558197759406279 0 -0.035918537038812162 -0.028676403296812921 0 -0.037987832312605919 -0.031526057680295816 0 -0.037833646026308156 -0.031472138257303807 0 -0.037897451670375587 -0.031351848663944124 0 -0.037754076839891501 -0.031405224231528674 0 -0.037833646026308156 -0.031472138257303807 0 -0.037897451670375587 -0.031351848663944124 0 -0.037987832312605919 -0.031526057680295816 0 -0.037897451670375587 -0.031351848663944124 0 -0.037986783385790569 -0.031396112213598795 0 -0.037897451670375587 -0.031351848663944124 0 -0.037986783385790569 -0.031396112213598795 0 -0.037950407829169246 -0.031252912933420293 0 -0.038105698421514976 -0.031473097689359963 0 -0.037950407829169246 -0.031252912933420293 0 -0.038069700005370397 -0.031253840330040708 0 -0.038105698421514976 -0.031473097689359963 0 -0.037986783385790569 -0.031396112213598795 0 -0.037950407829169246 -0.031252912933420293 0 -0.037950407829169246 -0.031252912933420293 0 -0.037899659913725681 -0.031264535820373883 0 -0.03790051674565207 -0.031242110508172456 0 -0.037950407829169246 -0.031252912933420293 0 -0.037899659913725681 -0.031264535820373883 0 -0.037837740294263178 -0.031273659575218736 0 -0.037897451670375587 -0.031351848663944124 0 -0.037950407829169246 -0.031252912933420293 0 -0.03790051674565207 -0.031242110508172456 0 -0.035918537038812162 -0.028676403296812921 0 -0.035091263665131683 -0.026677910446111255 0 -0.036405796323233978 -0.027985413318387695 0 -0.036111433223000491 -0.026917993926342546 0 -0.036990905231919578 -0.026929163650386514 0 -0.036405796323233978 -0.027985413318387695 0 -0.036111433223000491 -0.026917993926342546 0 -0.03596175624535241 -0.027980369180620135 0 -0.036884633008067297 -0.026468004712899736 0 -0.035091263665131683 -0.026677910446111255 0 -0.037893436115288136 -0.031319990410667138 0 -0.037837740294263178 -0.031273659575218736 0 -0.03777052219056231 -0.031352132882655391 0 -0.037899659913725681 -0.031264535820373883 0 -0.037893436115288136 -0.031319990410667138 0 -0.037837740294263178 -0.031273659575218736 0 -0.035091263665131683 -0.026677910446111255 0 -0.033121927963026147 -0.027379321323062689 0 -0.037899659913725681 -0.031264535820373883 0 -0.03790051674565207 -0.031242110508172456 0 -0.037893436115288136 -0.031319990410667138 0 -0.035817235659221951 -0.029051649987849721 0 -0.036405796323233978 -0.027985413318387695 0 -0.03596175624535241 -0.027980369180620135 0 -0.037400839888316793 -0.03011736307978757 0 -0.03693662534285224 -0.029322743797110699 0 -0.038040910132064863 -0.0294097682876284 0 -0.038201778119294011 -0.028196719914860401 0 -0.03693662534285224 -0.029322743797110699 0 -0.038040910132064863 -0.0294097682876284 0 -0.036884633008067297 -0.026468004712899736 0 -0.036660463319493831 -0.028358555888318975 0 -0.038201778119294011 -0.028196719914860401 0 -0.03693662534285224 -0.029322743797110699 0 -0.036596723513694362 -0.028193585895954769 0 -0.03693662534285224 -0.029322743797110699 0 -0.036024253486700707 -0.029155534307658316 0 -0.036596723513694362 -0.028193585895954769 0 -0.036024253486700707 -0.029155534307658316 0 -0.035044670491540642 -0.028171587501398813 0 -0.036596723513694362 -0.028193585895954769 0 -0.03693662534285224 -0.029322743797110699 0 -0.036024253486700707 -0.029155534307658316 0 -0.03619252488749259 -0.030123453976460487 0 -0.036024253486700707 -0.029155534307658316 0 -0.035459164541693365 -0.029718740135394276 0 -0.03619252488749259 -0.030123453976460487 0 -0.035839015363186295 -0.029520847551103836 0 -0.035543546202918358 -0.028257564160504851 0 -0.035470535069922392 -0.029729396285424061 0 -0.03779196997947077 -0.028119558019200904 0 -0.037539273844787405 -0.027171253554746765 0 -0.036432083930584225 -0.027394974216068648 0 -0.036506293427650313 -0.027995662546841434 0 -0.03578696885934924 -0.027421320359987192 0 -0.036506293427650313 -0.027995662546841434 0 -0.036507121339131497 -0.028010183093863158 0 -0.036506293427650313 -0.027995662546841434 0 -0.036462963371130634 -0.027496173404311878 0 -0.036024253486700707 -0.029155534307658316 0 -0.035459164541693365 -0.029718740135394276 0 -0.035251378067528379 -0.028946602813395939 0 -0.036024253486700707 -0.029155534307658316 0 -0.035251378067528379 -0.028946602813395939 0 -0.035044670491540642 -0.028171587501398813 0 -0.036462963371130634 -0.027496173404311878 0 -0.036341192323079939 -0.026549555780120325 0 -0.037539273844787405 -0.027171253554746765 0 -0.036896812584321474 -0.026823205754770672 0 -0.037285177890220123 -0.026205940306306449 0 -0.036896812584321474 -0.026823205754770672 0 -0.036432083930584225 -0.027394974216068648 0 -0.036529638696894268 -0.026183151652555102 0 -0.036432083930584225 -0.027394974216068648 0 -0.035696727866397979 -0.026066724949399423 0 -0.036529638696894268 -0.026183151652555102 0 -0.036896812584321474 -0.026823205754770672 0 -0.036529638696894268 -0.026183151652555102 0 -0.037285177890220123 -0.026205940306306449 0 -0.037539273844787405 -0.027171253554746765 0 -0.036896812584321474 -0.026823205754770672 0 -0.036432083930584225 -0.027394974216068648 0 -0.035000495956763356 -0.026667292718002149 0 -0.03578696885934924 -0.027421320359987192 0 -0.03500000385256561 -0.026666199695800905 0 -0.036432083930584225 -0.027394974216068648 0 -0.035696727866397979 -0.026066724949399423 0 -0.034999856883050941 -0.026667576006534549 0 -0.035543546202918358 -0.028257564160504851 0 -0.03499911463046998 -0.028699216150034953 0 -0.035543546202918358 -0.028257564160504851 0 -0.035470535069922392 -0.029729396285424061 0 -0.03499911463046998 -0.028699216150034953 0 -0.035470535069922392 -0.029729396285424061 0 -0.03499911463046998 -0.028699216150034953 0 -0.035059918474099054 -0.030759765655839856 0 -0.034998023974174543 -0.031405140477507476 0 -0.03499911463046998 -0.028699216150034953 0 -0.035059918474099054 -0.030759765655839856 0 -0.035470535069922392 -0.029729396285424061 0 -0.035059918474099054 -0.030759765655839856 0 -0.03533834200046812 -0.030873262869580902 0 -0.034544671188036197 -0.033061838635347222 0 -0.035059918474099054 -0.030759765655839856 0 -0.03533834200046812 -0.030873262869580902 0 -0.034544671188036197 -0.033061838635347222 0 -0.03533834200046812 -0.030873262869580902 0 -0.036166241648339294 -0.030943115938192833 0 -0.03533834200046812 -0.030873262869580902 0 -0.036166241648339294 -0.030943115938192833 0 -0.035780543697917694 -0.030253488211469372 0 -0.036166241648339294 -0.030943115938192833 0 -0.03619252488749259 -0.030123453976460487 0 -0.035780543697917694 -0.030253488211469372 0 -0.036871308822941866 -0.030397357061539745 0 -0.036166241648339294 -0.030943115938192833 0 -0.03619252488749259 -0.030123453976460487 0 -0.035805225028516005 -0.0295513443920974 0 -0.03619252488749259 -0.030123453976460487 0 -0.035818362107691203 -0.029671477044192728 0 -0.03619252488749259 -0.030123453976460487 0 -0.035818362107691203 -0.029671477044192728 0 -0.035780543697917694 -0.030253488211469372 0 -0.036506293427650313 -0.027995662546841434 0 -0.036522424416412444 -0.028220225200081522 0 -0.035470535069922392 -0.029729396285424061 0 -0.035818362107691203 -0.029671477044192728 0 -0.035780543697917694 -0.030253488211469372 0 -0.035839015363186295 -0.029520847551103836 0 -0.035470535069922392 -0.029729396285424061 0 -0.035818362107691203 -0.029671477044192728 0 -0.035470535069922392 -0.029729396285424061 0 -0.03533834200046812 -0.030873262869580902 0 -0.035780543697917694 -0.030253488211469372 0 -0.015377196903170782 -0.036376583488569265 0 -0.014070293136563916 -0.034608607614415303 0 -0.01742690084628773 -0.037205466198572727 0 -0.017321761059032999 -0.038889419487189845 0 -0.016406514437815232 -0.037565599490455584 0 -0.019214236940381716 -0.038022350139895147 0 -0.017939251305475717 -0.037618215764268229 0 -0.017838660972194456 -0.039006442056135994 0 -0.019214236940381716 -0.038022350139895147 0 -0.019142647071138583 -0.039235589480017916 0 -0.017838660972194456 -0.039006442056135994 0 -0.019214236940381716 -0.038022350139895147 0 -0.020377663989982218 -0.038530959787629111 0 -0.019142647071138583 -0.039235589480017916 0 -0.019214236940381716 -0.038022350139895147 0 -0.018716477675010577 -0.036952399033411687 0 -0.019752217075836725 -0.03683114424949132 0 -0.019214236940381716 -0.038022350139895147 0 -0.018716477675010577 -0.036952399033411687 0 -0.017939251305475717 -0.037618215764268229 0 -0.015377196903170782 -0.036376583488569265 0 -0.015810567781108713 -0.036321455641161605 0 -0.018716477675010577 -0.036952399033411687 0 -0.017939251305475717 -0.037618215764268229 0 -0.017885187929603499 -0.036122762418838043 0 -0.01742690084628773 -0.037205466198572727 0 -0.017885187929603499 -0.036122762418838043 0 -0.016239671140124118 -0.036332211183981999 0 -0.017885187929603499 -0.036122762418838043 0 -0.017968493990861614 -0.034999578934376802 0 -0.019130503785586932 -0.035918215391253373 0 -0.017885187929603499 -0.036122762418838043 0 -0.017968493990861614 -0.034999578934376802 0 -0.016820416299204482 -0.035586017922007093 0 -0.017968493990861614 -0.034999578934376802 0 -0.019130503785586932 -0.035918215391253373 0 -0.019889424180186053 -0.034999882446836682 0 -0.018716477675010577 -0.036952399033411687 0 -0.017885187929603499 -0.036122762418838043 0 -0.019130503785586932 -0.035918215391253373 0 -0.018716477675010577 -0.036952399033411687 0 -0.019130503785586932 -0.035918215391253373 0 -0.019752217075836725 -0.03683114424949132 0 -0.019752217075836725 -0.03683114424949132 0 -0.020385371473150393 -0.035842169882859744 0 -0.020806888377143739 -0.036675482460854184 0 -0.019130503785586932 -0.035918215391253373 0 -0.019752217075836725 -0.03683114424949132 0 -0.020385371473150393 -0.035842169882859744 0 -0.019889424180186053 -0.034999882446836682 0 -0.020385371473150393 -0.035842169882859744 0 -0.021809946828963776 -0.034999890543640395 0 -0.019130503785586932 -0.035918215391253373 0 -0.019889424180186053 -0.034999882446836682 0 -0.020385371473150393 -0.035842169882859744 0 -0.020385371473150393 -0.035842169882859744 0 -0.021809946828963776 -0.034999890543640395 0 -0.021349578313539824 -0.036044915084113165 0 -0.021349578313539824 -0.036044915084113165 0 -0.020806888377143739 -0.036675482460854184 0 -0.021861193491411097 -0.036607144765034308 0 -0.020385371473150393 -0.035842169882859744 0 -0.021349578313539824 -0.036044915084113165 0 -0.020806888377143739 -0.036675482460854184 0 -0.020806888377143739 -0.036675482460854184 0 -0.021313647240378951 -0.037278722013605284 0 -0.021861193491411097 -0.036607144765034308 0 -0.021313647240378951 -0.037278722013605284 0 -0.02109077836289679 -0.038127131531662813 0 -0.021771081238003077 -0.037778449106410789 0 -0.021313647240378951 -0.037278722013605284 0 -0.020406930186049631 -0.037571112025949323 0 -0.02109077836289679 -0.038127131531662813 0 -0.020806888377143739 -0.036675482460854184 0 -0.021313647240378951 -0.037278722013605284 0 -0.020406930186049631 -0.037571112025949323 0 -0.019214236940381716 -0.038022350139895147 0 -0.019752217075836725 -0.03683114424949132 0 -0.020406930186049631 -0.037571112025949323 0 -0.019752217075836725 -0.03683114424949132 0 -0.020806888377143739 -0.036675482460854184 0 -0.020406930186049631 -0.037571112025949323 0 -0.019214236940381716 -0.038022350139895147 0 -0.020406930186049631 -0.037571112025949323 0 -0.020377663989982218 -0.038530959787629111 0 -0.020406930186049631 -0.037571112025949323 0 -0.020377663989982218 -0.038530959787629111 0 -0.02109077836289679 -0.038127131531662813 0 -0.020377663989982218 -0.038530959787629111 0 -0.02109077836289679 -0.038127131531662813 0 -0.021125820593535551 -0.038889608153185116 0 -0.02109077836289679 -0.038127131531662813 0 -0.022046489661993351 -0.038566176365732674 0 -0.021125820593535551 -0.038889608153185116 0 -0.02109077836289679 -0.038127131531662813 0 -0.021771081238003077 -0.037778449106410789 0 -0.022046489661993351 -0.038566176365732674 0 -0.020206885954892947 -0.036069417770852444 0 -0.020397893667768761 -0.036416920817600229 0 -0.022172031072481287 -0.038216088134710308 0 -0.022965923201926693 -0.038291859431510332 0 -0.022533138898305972 -0.037424845343556272 0 -0.021771081238003077 -0.037778449106410789 0 -0.022046489661993351 -0.038566176365732674 0 -0.022533138898305972 -0.037424845343556272 0 -0.023103010222110244 -0.037915656387620365 0 -0.023205674019461116 -0.0374912404346412 0 -0.022686502739849682 -0.036751471363039266 0 -0.022656923444988868 -0.035243249285994906 0 -0.023083337462428275 -0.035681525390048742 0 -0.023103010222110244 -0.037915656387620365 0 -0.023205674019461116 -0.0374912404346412 0 -0.023682499068085557 -0.03742619637982101 0 -0.023205674019461116 -0.0374912404346412 0 -0.022686502739849682 -0.036751471363039266 0 -0.02305603277615445 -0.036918580007188534 0 -0.022656923444988868 -0.035243249285994906 0 -0.022887321531429434 -0.03662062648515791 0 -0.022965923201926693 -0.038291859431510332 0 -0.022686502739849682 -0.036751471363039266 0 -0.022533138898305972 -0.037424845343556272 0 -0.023205674019461116 -0.0374912404346412 0 -0.023273649797805808 -0.03711332845508801 0 -0.023514627768033109 -0.037149176522086005 0 -0.023205674019461116 -0.0374912404346412 0 -0.023273649797805808 -0.03711332845508801 0 -0.02305603277615445 -0.036918580007188534 0 -0.023273649797805808 -0.03711332845508801 0 -0.02339136803564739 -0.03685151635554814 0 -0.023514627768033109 -0.037149176522086005 0 -0.023273649797805808 -0.03711332845508801 0 -0.02339136803564739 -0.03685151635554814 0 -0.02305603277615445 -0.036918580007188534 0 -0.022686502739849682 -0.036751471363039266 0 -0.022040406292751683 -0.03716165667761314 0 -0.021861193491411097 -0.036607144765034308 0 -0.022686502739849682 -0.036751471363039266 0 -0.022533138898305972 -0.037424845343556272 0 -0.022040406292751683 -0.03716165667761314 0 -0.021313647240378951 -0.037278722013605284 0 -0.021771081238003077 -0.037778449106410789 0 -0.022040406292751683 -0.03716165667761314 0 -0.021771081238003077 -0.037778449106410789 0 -0.022533138898305972 -0.037424845343556272 0 -0.022040406292751683 -0.03716165667761314 0 -0.021313647240378951 -0.037278722013605284 0 -0.022040406292751683 -0.03716165667761314 0 -0.021861193491411097 -0.036607144765034308 0 -0.021349578313539824 -0.036044915084113165 0 -0.021861193491411097 -0.036607144765034308 0 -0.022731070865722045 -0.036255306938114143 0 -0.022527132626097367 -0.035856944182139409 0 -0.023238893167553072 -0.035902047399799228 0 -0.021349578313539824 -0.036044915084113165 0 -0.022355365476340934 -0.035800978772834446 0 -0.023066740328113726 -0.036537261502339831 0 -0.022686502739849682 -0.036751471363039266 0 -0.021861193491411097 -0.036607144765034308 0 -0.022731070865722045 -0.036255306938114143 0 -0.021809946828963776 -0.034999890543640395 0 -0.023730760310060699 -0.034999972881141893 0 -0.023058371351819366 -0.035632577475417135 0 -0.021809946828963776 -0.034999890543640395 0 -0.022355365476340934 -0.035800978772834446 0 -0.023058371351819366 -0.035632577475417135 0 -0.021809946828963776 -0.034999890543640395 0 -0.021349578313539824 -0.036044915084113165 0 -0.022355365476340934 -0.035800978772834446 0 -0.022355365476340934 -0.035800978772834446 0 -0.023058371351819366 -0.035632577475417135 0 -0.023066740328113726 -0.036537261502339831 0 -0.023058371351819366 -0.035632577475417135 0 -0.023066740328113726 -0.036537261502339831 0 -0.024358851163667046 -0.035886675251894651 0 -0.023730760310060699 -0.034999972881141893 0 -0.023058371351819366 -0.035632577475417135 0 -0.024358851163667046 -0.035886675251894651 0 -0.023238893167553072 -0.035902047399799228 0 -0.024576699180559023 -0.035802118535022791 0 -0.023066740328113726 -0.036537261502339831 0 -0.024723463997074861 -0.036902525874217662 0 -0.024358851163667046 -0.035886675251894651 0 -0.02339136803564739 -0.03685151635554814 0 -0.022731070865722045 -0.036255306938114143 0 -0.023947034682078774 -0.036510580547339147 0 -0.022686502739849682 -0.036751471363039266 0 -0.02305603277615445 -0.036918580007188534 0 -0.022731070865722045 -0.036255306938114143 0 -0.02339136803564739 -0.03685151635554814 0 -0.02305603277615445 -0.036918580007188534 0 -0.022731070865722045 -0.036255306938114143 0 -0.024723463997074861 -0.036902525874217662 0 -0.024358851163667046 -0.035886675251894651 0 -0.02599590956029843 -0.036086379807553789 0 -0.023730760310060699 -0.034999972881141893 0 -0.024358851163667046 -0.035886675251894651 0 -0.025651401767017228 -0.034999984920756906 0 -0.024358851163667046 -0.035886675251894651 0 -0.025651401767017228 -0.034999984920756906 0 -0.02599590956029843 -0.036086379807553789 0 -0.026371333004304574 -0.037255695982805696 0 -0.024723463997074861 -0.036902525874217662 0 -0.02599590956029843 -0.036086379807553789 0 -0.026380440562805935 -0.035319644703248672 0 -0.024576699180559023 -0.035802118535022791 0 -0.024176600013016605 -0.03669636066543483 0 -0.024123522664734685 -0.036492629809578778 0 -0.024181456086606393 -0.036718816696426966 0 -0.024176600013016605 -0.03669636066543483 0 -0.023947034682078774 -0.036510580547339147 0 -0.024181456086606393 -0.036718816696426966 0 -0.024123522664734685 -0.036492629809578778 0 -0.024181456086606393 -0.036718816696426966 0 -0.024273665324961561 -0.036446715121651492 0 -0.023947034682078774 -0.036510580547339147 0 -0.024181456086606393 -0.036718816696426966 0 -0.023778839784646965 -0.036916463216068333 0 -0.02339136803564739 -0.03685151635554814 0 -0.023947034682078774 -0.036510580547339147 0 -0.023778839784646965 -0.036916463216068333 0 -0.02339136803564739 -0.03685151635554814 0 -0.023778839784646965 -0.036916463216068333 0 -0.023514627768033109 -0.037149176522086005 0 -0.023778839784646965 -0.036916463216068333 0 -0.023514627768033109 -0.037149176522086005 0 -0.023682499068085557 -0.03742619637982101 0 -0.024181456086606393 -0.036718816696426966 0 -0.024674134690617397 -0.036419563316663246 0 -0.024273665324961561 -0.036446715121651492 0 -0.024181456086606393 -0.036718816696426966 0 -0.023778839784646965 -0.036916463216068333 0 -0.023682499068085557 -0.03742619637982101 0 -0.023222784700635376 -0.035800368144558954 0 -0.023083337462428275 -0.035681525390048742 0 -0.024674134690617397 -0.036419563316663246 0 -0.024449616421642634 -0.03626534594665496 0 -0.024273665324961561 -0.036446715121651492 0 -0.023205674019461116 -0.0374912404346412 0 -0.023514627768033109 -0.037149176522086005 0 -0.023682499068085557 -0.03742619637982101 0 -0.024674134690617397 -0.036419563316663246 0 -0.024722616207891252 -0.036230539623710055 0 -0.024449616421642634 -0.03626534594665496 0 -0.025049688602488258 -0.03608436371306712 0 -0.024674134690617397 -0.036419563316663246 0 -0.024722616207891252 -0.036230539623710055 0 -0.024722616207891252 -0.036230539623710055 0 -0.024566829559366447 -0.036090105281151676 0 -0.024661838864345566 -0.035902855157532568 0 -0.024722616207891252 -0.036230539623710055 0 -0.024566829559366447 -0.036090105281151676 0 -0.024449616421642634 -0.03626534594665496 0 -0.024566829559366447 -0.036090105281151676 0 -0.024449616421642634 -0.03626534594665496 0 -0.024373583153202209 -0.035956808083947682 0 -0.024449616421642634 -0.03626534594665496 0 -0.024182560611499038 -0.036200873907802675 0 -0.024373583153202209 -0.035956808083947682 0 -0.024123522664734685 -0.036492629809578778 0 -0.024182560611499038 -0.036200873907802675 0 -0.024273665324961561 -0.036446715121651492 0 -0.024449616421642634 -0.03626534594665496 0 -0.024182560611499038 -0.036200873907802675 0 -0.024273665324961561 -0.036446715121651492 0 -0.024021828906751374 -0.035728021339533442 0 -0.024182560611499038 -0.036200873907802675 0 -0.024373583153202209 -0.035956808083947682 0 -0.024021828906751374 -0.035728021339533442 0 -0.024373583153202209 -0.035956808083947682 0 -0.024356180198969797 -0.035593817222120211 0 -0.024373583153202209 -0.035956808083947682 0 -0.024574106243394664 -0.035674869411266873 0 -0.024356180198969797 -0.035593817222120211 0 -0.024722616207891252 -0.036230539623710055 0 -0.024661838864345566 -0.035902855157532568 0 -0.02496302545884108 -0.035725811781018739 0 -0.024566829559366447 -0.036090105281151676 0 -0.024373583153202209 -0.035956808083947682 0 -0.024661838864345566 -0.035902855157532568 0 -0.024661838864345566 -0.035902855157532568 0 -0.024775024477339203 -0.03568221411605569 0 -0.024574106243394664 -0.035674869411266873 0 -0.024661838864345566 -0.035902855157532568 0 -0.024775024477339203 -0.03568221411605569 0 -0.02496302545884108 -0.035725811781018739 0 -0.024373583153202209 -0.035956808083947682 0 -0.024661838864345566 -0.035902855157532568 0 -0.024574106243394664 -0.035674869411266873 0 -0.024574106243394664 -0.035674869411266873 0 -0.024548795565033529 -0.035419791066751319 0 -0.024356180198969797 -0.035593817222120211 0 -0.024548795565033529 -0.035419791066751319 0 -0.024278714247483991 -0.035189263336019051 0 -0.024855754080364573 -0.03516257364291326 0 -0.024574106243394664 -0.035674869411266873 0 -0.024748382026837074 -0.035537460701365917 0 -0.024548795565033529 -0.035419791066751319 0 -0.024775024477339203 -0.03568221411605569 0 -0.024574106243394664 -0.035674869411266873 0 -0.024748382026837074 -0.035537460701365917 0 -0.024775024477339203 -0.03568221411605569 0 -0.024748382026837074 -0.035537460701365917 0 -0.024928793748207306 -0.035573694268695173 0 -0.023745743817334217 -0.033050272940894111 0 -0.023614455349158764 -0.032972051918367919 0 -0.024748382026837074 -0.035537460701365917 0 -0.024548795565033529 -0.035419791066751319 0 -0.024855754080364573 -0.03516257364291326 0 -0.024748382026837074 -0.035537460701365917 0 -0.024855754080364573 -0.03516257364291326 0 -0.024937701044535777 -0.035567327096694523 0 -0.024021828906751374 -0.035728021339533442 0 -0.024356180198969797 -0.035593817222120211 0 -0.024278714247483991 -0.035189263336019051 0 -0.030215550347442985 -0.032879378771533532 0 -0.029861634159460179 -0.031246538086074114 0 -0.024548795565033529 -0.035419791066751319 0 -0.024356180198969797 -0.035593817222120211 0 -0.024278714247483991 -0.035189263336019051 0 -0.031930474134956963 -0.031206364555988311 0 -0.029861634159460179 -0.031246538086074114 0 -0.037950407829169246 -0.031252912933420293 0 -0.037774642533271931 -0.031196695440188695 0 -0.037837740294263178 -0.031273659575218736 0 -0.029861634159460179 -0.031246538086074114 0 -0.029707892861245314 -0.029496855283287764 0 -0.037774642533271931 -0.031196695440188695 0 -0.037837740294263178 -0.031273659575218736 0 -0.03768970378546866 -0.031259852427506923 0 -0.037837740294263178 -0.031273659575218736 0 -0.03768970378546866 -0.031259852427506923 0 -0.03777052219056231 -0.031352132882655391 0 -0.033121927963026147 -0.027379321323062689 0 -0.028786175789548365 -0.027697663223011294 0 -0.03768970378546866 -0.031259852427506923 0 -0.03777052219056231 -0.031352132882655391 0 -0.037587872757706489 -0.031348286425682437 0 -0.027890753877403789 -0.030331629828862183 0 -0.02836841830700897 -0.029611494245937904 0 -0.028680990620800078 -0.031013811462046958 0 -0.02487158814127461 -0.027838547645981607 0 -0.024973466885263609 -0.028357945741698858 0 -0.025093798340392368 -0.028076668063440974 0 -0.028301281217977522 -0.027624802985493743 0 -0.025413088990186385 -0.030761400254673069 0 -0.0288159098537208 -0.0269111159893301 0 -0.027701761041965617 -0.026897304857421905 0 -0.02888032715583002 -0.027182449867457846 0 -0.028301281217977522 -0.027624802985493743 0 -0.026330274818394419 -0.026918679241984742 0 -0.029002560487359538 -0.029769378411537071 0 -0.027558575765043555 -0.029748565689552173 0 -0.028574720375107224 -0.027930633915526956 0 -0.028301281217977522 -0.027624802985493743 0 -0.028786175789548365 -0.027697663223011294 0 -0.027890753877403789 -0.030331629828862183 0 -0.02836841830700897 -0.029611494245937904 0 -0.02828608298671691 -0.029610187365718077 0 -0.029707892861245314 -0.029496855283287764 0 -0.028786175789548365 -0.027697663223011294 0 -0.029861634159460179 -0.031246538086074114 0 -0.025413088990186385 -0.030761400254673069 0 -0.027501515292761826 -0.031048194300611967 0 -0.027890753877403789 -0.030331629828862183 0 -0.028680990620800078 -0.031013811462046958 0 -0.025413088990186385 -0.030761400254673069 0 -0.022885199812442476 -0.030281654380952136 0 -0.02523095655522874 -0.028348124086194998 0 -0.025093798340392368 -0.028076668063440974 0 -0.025371523284198859 -0.027998663707987079 0 -0.024973466885263609 -0.028357945741698858 0 -0.02523095655522874 -0.028348124086194998 0 -0.025093798340392368 -0.028076668063440974 0 -0.026330274818394419 -0.026918679241984742 0 -0.021646314702869953 -0.025504703085697251 0 -0.025093798340392368 -0.028076668063440974 0 -0.025019924141641406 -0.027841770986069242 0 -0.025371523284198859 -0.027998663707987079 0 -0.026330274818394419 -0.026918679241984742 0 -0.022044501207459023 -0.02727856064222987 0 -0.02487158814127461 -0.027838547645981607 0 -0.025093798340392368 -0.028076668063440974 0 -0.025019924141641406 -0.027841770986069242 0 -0.025000110712010321 -0.026405936353934709 0 -0.021546442358753422 -0.026349128000823629 0 -0.022048430422470237 -0.025182137984970168 0 -0.019550319592095015 -0.026802578817462328 0 -0.019801413862906628 -0.026225595617702803 0 -0.018290948469669294 -0.026243847477448762 0 -0.021646314702869953 -0.025504703085697251 0 -0.022044501207459023 -0.02727856064222987 0 -0.0221601744466784 -0.028981229387097723 0 -0.02165221256948572 -0.030151287949761383 0 -0.020281874539268871 -0.029025328514842932 0 -0.022885199812442476 -0.030281654380952136 0 -0.022044501207459023 -0.02727856064222987 0 -0.022885199812442476 -0.030281654380952136 0 -0.018963368894745893 -0.030229213298864278 0 -0.021568207911360139 -0.031800576917488964 0 -0.021143697449464333 -0.031445547784815182 0 -0.020505487703032736 -0.031819008529271706 0 -0.021143697449464333 -0.031445547784815182 0 -0.021829097102903594 -0.031208312491410484 0 -0.021073058480656191 -0.031065456383948489 0 -0.02312193637685464 -0.032906277387688934 0 -0.020657371195624313 -0.033614309563861841 0 -0.021143697449464333 -0.031445547784815182 0 -0.021073058480656191 -0.031065456383948489 0 -0.020741327472547585 -0.031335419452975855 0 -0.023257908579914673 -0.030300731562182569 0 -0.023644186384588175 -0.031186687105646618 0 -0.023449820254294613 -0.031150403262165813 0 -0.023257908579914673 -0.030300731562182569 0 -0.024026698271670387 -0.030277733909323892 0 -0.023644186384588175 -0.031186687105646618 0 -0.022885199812442476 -0.030281654380952136 0 -0.02312193637685464 -0.032906277387688934 0 -0.021568207911360139 -0.031800576917488964 0 -0.021143697449464333 -0.031445547784815182 0 -0.021829097102903594 -0.031208312491410484 0 -0.025413088990186385 -0.030761400254673069 0 -0.023614455349158764 -0.032972051918367919 0 -0.023614455349158764 -0.032972051918367919 0 -0.023268124965351394 -0.033572084816196328 0 -0.02312193637685464 -0.032906277387688934 0 -0.023268124965351394 -0.033572084816196328 0 -0.023548986521715286 -0.032316008955617703 0 -0.02331611980187177 -0.03227251691555974 0 -0.023404040123021604 -0.032656455989060668 0 -0.02312193637685464 -0.032906277387688934 0 -0.023614455349158764 -0.032972051918367919 0 -0.025049688602488258 -0.03608436371306712 0 -0.024722616207891252 -0.036230539623710055 0 -0.024937141724874427 -0.035639708963941016 0 -0.022757290974701198 -0.033381531758109678 0 -0.022829046056826528 -0.033682480259431116 0 -0.022351940626941971 -0.033709115809001121 0 -0.022782229246358945 -0.033788619497807433 0 -0.022829046056826528 -0.033682480259431116 0 -0.022351940626941971 -0.033709115809001121 0 -0.023304244521148015 -0.034473390511869373 0 -0.023268124965351394 -0.033572084816196328 0 -0.024775024477339203 -0.03568221411605569 0 -0.024928793748207306 -0.035573694268695173 0 -0.02496302545884108 -0.035725811781018739 0 -0.022656923444988868 -0.035243249285994906 0 -0.023268124965351394 -0.033572084816196328 0 -0.022656923444988868 -0.035243249285994906 0 -0.020657371195624313 -0.033614309563861841 0 -0.020206885954892947 -0.036069417770852444 0 -0.020036341058435846 -0.033953316747209784 0 -0.022172031072481287 -0.038216088134710308 0 -0.022965923201926693 -0.038291859431510332 0 -0.022046254612663362 -0.038963331007351762 0 -0.022172031072481287 -0.038216088134710308 0 -0.022046254612663362 -0.038963331007351762 0 -0.02182353816847632 -0.03891712104034057 0 -0.020657371195624313 -0.033614309563861841 0 -0.020036341058435846 -0.033953316747209784 0 -0.020036341058435846 -0.033953316747209784 0 -0.018646977309910912 -0.034356328085150101 0 -0.022046489661993351 -0.038566176365732674 0 -0.021543089966358626 -0.039589366427683875 0 -0.021125820593535551 -0.038889608153185116 0 -0.018682013206739696 -0.033480048415063302 0 -0.018687926612060798 -0.033483383359825578 0 -0.018682149072328083 -0.033470446796825801 0 -0.021543089966358626 -0.039589366427683875 0 -0.021125820593535551 -0.038889608153185116 0 -0.020475392826011907 -0.03939088614488892 0 -0.020377663989982218 -0.038530959787629111 0 -0.021125820593535551 -0.038889608153185116 0 -0.020475392826011907 -0.03939088614488892 0 -0.018646977309910912 -0.034356328085150101 0 -0.016757929354823113 -0.034628919438843407 0 -0.016249803933675311 -0.031207663576092493 0 -0.015697346937998766 -0.031722213118748802 0 -0.015221324993101875 -0.031022471232186315 0 -0.018867906123749577 -0.035583034980726139 0 -0.018646977309910912 -0.034356328085150101 0 -0.020377663989982218 -0.038530959787629111 0 -0.020453879884067664 -0.039451257316508559 0 -0.019142647071138583 -0.039235589480017916 0 -0.016249803933675311 -0.031207663576092493 0 -0.015697346937998766 -0.031722213118748802 0 -0.016355234320295918 -0.032257605607116789 0 -0.018646977309910912 -0.034356328085150101 0 -0.018536129546484613 -0.0315743835506384 0 -0.015697346937998766 -0.031722213118748802 0 -0.015756963713871454 -0.032221520516277226 0 -0.016355234320295918 -0.032257605607116789 0 -0.019315229301478297 -0.031452296546434673 0 -0.019159122567300572 -0.031758224999690061 0 -0.019050772309745313 -0.031658121120963056 0 -0.018687926612060798 -0.033483383359825578 0 -0.018682149072328083 -0.033470446796825801 0 -0.018685556128836121 -0.0334575711737959 0 -0.019653213416381547 -0.03258815466031835 0 -0.018536129546484613 -0.0315743835506384 0 -0.021143697449464333 -0.031445547784815182 0 -0.020741327472547585 -0.031335419452975855 0 -0.020505487703032736 -0.031819008529271706 0 -0.019653213416381547 -0.03258815466031835 0 -0.018963368894745893 -0.030229213298864278 0 -0.020657371195624313 -0.033614309563861841 0 -0.019653213416381547 -0.03258815466031835 0 -0.020036341058435846 -0.033953316747209784 0 -0.019653213416381547 -0.03258815466031835 0 -0.019273848440011072 -0.033233942283855851 0 -0.019411546881794764 -0.0332586890774575 0 -0.019519385053644402 -0.033016889795429202 0 -0.02165221256948572 -0.030151287949761383 0 -0.020281874539268871 -0.029025328514842932 0 -0.020056011650942313 -0.029500218401474276 0 -0.019159122567300572 -0.031758224999690061 0 -0.019059001246395854 -0.031760170676649824 0 -0.019050772309745313 -0.031658121120963056 0 -0.018963368894745893 -0.030229213298864278 0 -0.018230918094796156 -0.030240529572227944 0 -0.01814680706117075 -0.030727486568721034 0 -0.01832589507991636 -0.03033623913808349 0 -0.018363647231974711 -0.030720930413816929 0 -0.018963368894745893 -0.030229213298864278 0 -0.018469530133690622 -0.028809026882553358 0 -0.018469530133690622 -0.028809026882553358 0 -0.018230918094796156 -0.030240529572227944 0 -0.021646314702869953 -0.025504703085697251 0 -0.016637018509516009 -0.024852000878554433 0 -0.022044501207459023 -0.02727856064222987 0 -0.018469530133690622 -0.028809026882553358 0 -0.019801413862906628 -0.026225595617702803 0 -0.018012242253136117 -0.025504827290785657 0 -0.018290948469669294 -0.026243847477448762 0 -0.019550319592095015 -0.026802578817462328 0 -0.018290948469669294 -0.026243847477448762 0 -0.018137398724388208 -0.026779103457562081 0 -0.018012242253136117 -0.025504827290785657 0 -0.018290948469669294 -0.026243847477448762 0 -0.018114799456336927 -0.026597622600250705 0 -0.018469530133690622 -0.028809026882553358 0 -0.016579492552976614 -0.0251349185027369 0 -0.016593272250709182 -0.025161110512641915 0 -0.016579492552976614 -0.0251349185027369 0 -0.018290948469669294 -0.026243847477448762 0 -0.018119891996705641 -0.026593750425222346 0 -0.018137398724388208 -0.026779103457562081 0 -0.016617154066855391 -0.025135765990623872 0 -0.016414941282496532 -0.023019543314085844 0 -0.017627811620586992 -0.023037036153814038 0 -0.016579492552976614 -0.0251349185027369 0 -0.016189222388998691 -0.024836944144530772 0 -0.016579492552976614 -0.0251349185027369 0 -0.016637018509516009 -0.024852000878554433 0 -0.016637018509516009 -0.024852000878554433 0 -0.016189222388998691 -0.024836944144530772 0 -0.015112727841299118 -0.027741703094622969 0 -0.014434958743929652 -0.027132738494960423 0 -0.014011380735333671 -0.027211980199010416 0 -0.016189222388998691 -0.024836944144530772 0 -0.010894080080695956 -0.024321743354135616 0 -0.015112727841299118 -0.027741703094622969 0 -0.014011380735333671 -0.027211980199010416 0 -0.013623735375768827 -0.027710727470096879 0 -0.015196855736971177 -0.027574827607209473 0 -0.015112727841299118 -0.027741703094622969 0 -0.014797841290894563 -0.027223405726111132 0 -0.015112727841299118 -0.027741703094622969 0 -0.014797841290894563 -0.027223405726111132 0 -0.014434958743929652 -0.027132738494960423 0 -0.015126464755868039 -0.026573612931312243 0 -0.015196855736971177 -0.027574827607209473 0 -0.014797841290894563 -0.027223405726111132 0 -0.018469530133690622 -0.028809026882553358 0 -0.018313592241800764 -0.028714431388269894 0 -0.01509733963121843 -0.026595191973853544 0 -0.014797841290894563 -0.027223405726111132 0 -0.014588538581126999 -0.026740984931689835 0 -0.014797841290894563 -0.027223405726111132 0 -0.014434958743929652 -0.027132738494960423 0 -0.014588538581126999 -0.026740984931689835 0 -0.014434958743929652 -0.027132738494960423 0 -0.014203785917475818 -0.026848101904636126 0 -0.014588538581126999 -0.026740984931689835 0 -0.014203785917475818 -0.026848101904636126 0 -0.013822809726558999 -0.02660801260702008 0 -0.014011380735333671 -0.027211980199010416 0 -0.014434958743929652 -0.027132738494960423 0 -0.014203785917475818 -0.026848101904636126 0 -0.014011380735333671 -0.027211980199010416 0 -0.014294957854216337 -0.026493815127773809 0 -0.015055504543593841 -0.026123470197896126 0 -0.013801373761547008 -0.026149032597264303 0 -0.014203785917475818 -0.026848101904636126 0 -0.014294957854216337 -0.026493815127773809 0 -0.013822809726558999 -0.02660801260702008 0 -0.018230918094796156 -0.030240529572227944 0 -0.01449605789735316 -0.029541218362491642 0 -0.016385306185802244 -0.032479492711064387 0 -0.016176890197062095 -0.032404607064910454 0 -0.015402240479515855 -0.032509490965609733 0 -0.014203785917475818 -0.026848101904636126 0 -0.014294957854216337 -0.026493815127773809 0 -0.014588538581126999 -0.026740984931689835 0 -0.014294957854216337 -0.026493815127773809 0 -0.014588538581126999 -0.026740984931689835 0 -0.015055504543593841 -0.026123470197896126 0 -0.01509733963121843 -0.026595191973853544 0 -0.014588538581126999 -0.026740984931689835 0 -0.015055504543593841 -0.026123470197896126 0 -0.015756963713871454 -0.032221520516277226 0 -0.016176890197062095 -0.032404607064910454 0 -0.016355234320295918 -0.032257605607116789 0 -0.016385306185802244 -0.032479492711064387 0 -0.016176890197062095 -0.032404607064910454 0 -0.016369614207530768 -0.032240804529958013 0 -0.018230918094796156 -0.030240529572227944 0 -0.018536129546484613 -0.0315743835506384 0 -0.018474712398793742 -0.031616591168575348 0 -0.018536129546484613 -0.0315743835506384 0 -0.015756963713871454 -0.032221520516277226 0 -0.016176890197062095 -0.032404607064910454 0 -0.015402240479515855 -0.032509490965609733 0 -0.013822809726558999 -0.02660801260702008 0 -0.013311564694702786 -0.027721766534321006 0 -0.012552044235062121 -0.026193571001570569 0 -0.013801373761547008 -0.026149032597264303 0 -0.013822809726558999 -0.02660801260702008 0 -0.012552044235062121 -0.026193571001570569 0 -0.01449605789735316 -0.029541218362491642 0 -0.010608297275681695 -0.028906692258614371 0 -0.015402240479515855 -0.032509490965609733 0 -0.014431678199023579 -0.032532074992987645 0 -0.015018888260184467 -0.031895308321343192 0 -0.014294957854216337 -0.026493815127773809 0 -0.013801373761547008 -0.026149032597264303 0 -0.013822809726558999 -0.02660801260702008 0 -0.013822809726558999 -0.02660801260702008 0 -0.013311564694702786 -0.027721766534321006 0 -0.01359063097732984 -0.027723481864393572 0 -0.011119723131846924 -0.025142219887469678 0 -0.010894080080695956 -0.024321743354135616 0 -0.013822809726558999 -0.02660801260702008 0 -0.014011380735333671 -0.027211980199010416 0 -0.013623735375768827 -0.027710727470096879 0 -0.010090578183362115 -0.024355694062211913 0 -0.010894080080695956 -0.024321743354135616 0 -0.00064993882223743859 -0.023232729455022132 0 -0.0031788845641640404 -0.024883505905650784 0 -0.0029083396411668429 -0.027949075535623973 0 -0.010090578183362115 -0.024355694062211913 0 -0.0081445153619031912 -0.02358376086597708 0 -0.010090578183362115 -0.024355694062211913 0 -0.010608297275681695 -0.028906692258614371 0 -0.00064993882223743859 -0.023232729455022132 0 -0.0031788845641640404 -0.024883505905650784 0 -0.0057818274133485002 -0.02322311530547776 0 -0.0031788845641640404 -0.024883505905650784 0 -0.0047228938231295946 -0.026590039711635559 0 -0.0057818274133485002 -0.02322311530547776 0 -0.0031788845641640404 -0.024883505905650784 0 -0.0047228938231295946 -0.026590039711635559 0 -0.0029083396411668429 -0.027949075535623973 0 -0.0025145037324483741 -0.02879844111739735 0 -0.0041383387097658018 -0.029257015777972177 0 -0.0066921061036029818 -0.028645445888827448 0 -0.010608297275681695 -0.028906692258614371 0 -0.0086163399104424703 -0.028750905669364373 0 -0.0047228938231295946 -0.026590039711635559 0 -0.0029083396411668429 -0.027949075535623973 0 -0.006626867493097854 -0.027991147669868526 0 -0.0025145037324483741 -0.02879844111739735 0 -0.0041383387097658018 -0.029257015777972177 0 -0.003980463219199426 -0.03169846364088421 0 -0.010608297275681695 -0.028906692258614371 0 -0.01097682827245057 -0.031426293597466029 0 -0.014431678199023579 -0.032532074992987645 0 -0.014108082166826698 -0.031874871769891816 0 -0.015018888260184467 -0.031895308321343192 0 -0.014108082166826698 -0.031874871769891816 0 -0.015018888260184467 -0.031895308321343192 0 -0.014636288689668377 -0.031409735481506412 0 -0.0038240957840167773 -0.031833570456059682 0 -0.0041710280075855392 -0.032555842587529131 0 -0.0034049125627479294 -0.03690389428855323 0 -0.0041383387097658018 -0.029257015777972177 0 -0.0038452358777080814 -0.031840054446373847 0 -0.0051182244916734843 -0.03060442599422308 0 -0.0106556657105251 -0.031278103900555215 0 -0.01097682827245057 -0.031426293597466029 0 -0.0038452358777080814 -0.031840054446373847 0 -0.0041710280075855392 -0.032555842587529131 0 -0.0054253374168601572 -0.032429658791431934 0 -0.01097682827245057 -0.031426293597466029 0 -0.010935173202127405 -0.031405134936007335 0 -0.015697346937998766 -0.031722213118748802 0 -0.015018888260184467 -0.031895308321343192 0 -0.015221324993101875 -0.031022471232186315 0 -0.015756963713871454 -0.032221520516277226 0 -0.015402240479515855 -0.032509490965609733 0 -0.015018888260184467 -0.031895308321343192 0 -0.015697346937998766 -0.031722213118748802 0 -0.015756963713871454 -0.032221520516277226 0 -0.015018888260184467 -0.031895308321343192 0 -0.015018888260184467 -0.031895308321343192 0 -0.015221324993101875 -0.031022471232186315 0 -0.014636288689668377 -0.031409735481506412 0 -0.015221324993101875 -0.031022471232186315 0 -0.014636288689668377 -0.031409735481506412 0 -0.014198891880831219 -0.030846489230472562 0 -0.01097682827245057 -0.031426293597466029 0 -0.014070293136563916 -0.034608607614415303 0 -0.016757929354823113 -0.034628919438843407 0 -0.014070293136563916 -0.034608607614415303 0 -0.014108082166826698 -0.031874871769891816 0 -0.014636288689668377 -0.031409735481506412 0 -0.014198891880831219 -0.030846489230472562 0 -0.0041710280075855392 -0.032555842587529131 0 -0.0034049125627479294 -0.03690389428855323 0 -0.0048304533429390506 -0.03417125260225317 0 -0.007214851576863481 -0.017274832261780445 0 -0.0063000614913529479 -0.018322473475346261 0 -0.0075122660341335103 -0.016426083908310886 0 -0.007214851576863481 -0.017274832261780445 0 -0.0076684298947540608 -0.017715611354370525 0 -0.0081094115789032764 -0.016823321604904323 0 -0.007214851576863481 -0.017274832261780445 0 -0.0076961334827147232 -0.016664783623582785 0 -0.0081094115789032764 -0.016823321604904323 0 -0.0076961334827147232 -0.016664783623582785 0 -0.007938024929319297 -0.016222334828728185 0 -0.0081094115789032764 -0.016823321604904323 0 -0.007214851576863481 -0.017274832261780445 0 -0.0076961334827147232 -0.016664783623582785 0 -0.0075122660341335103 -0.016426083908310886 0 -0.0073219067057952499 -0.016717121519148517 0 -0.0071074039850099616 -0.016409846414836716 0 -0.0072932858109696986 -0.016208101113636235 0 -0.0087863920732672591 -0.019486452246756939 0 -0.0084872827381546681 -0.018052582770262761 0 -0.0066723032344265616 -0.017904262979004486 0 -0.0075122660341335103 -0.016426083908310886 0 -0.007552226978254006 -0.016063873860433404 0 -0.0073219067057952499 -0.016717121519148517 0 -0.0072932858109696986 -0.016208101113636235 0 -0.007552226978254006 -0.016063873860433404 0 -0.0068150119578976216 -0.017938164940320175 0 -0.0066723032344265616 -0.017904262979004486 0 -0.0075122660341335103 -0.016426083908310886 0 -0.011831824702110113 -0.020136388512977416 0 -0.010863076250107462 -0.018618459435665074 0 -0.0068150119578976216 -0.017938164940320175 0 -0.0072667213255495919 -0.018618571093833323 0 -0.0075122660341335103 -0.016426083908310886 0 -0.0066651171692879178 -0.017906296866428757 0 -0.0072667213255495919 -0.018618571093833323 0 -0.0059968982928050004 -0.019306807266000117 0 -0.011831824702110113 -0.020136388512977416 0 -0.012747288368370554 -0.022008313183887337 0 -0.0068150119578976216 -0.017938164940320175 0 -0.0066651171692879178 -0.017906296866428757 0 -0.0072667213255495919 -0.018618571093833323 0 -0.011798962454944622 -0.020128238350586216 0 -0.011831824702110113 -0.020136388512977416 0 -0.0063000614913529479 -0.018322473475346261 0 -0.0070982657842916467 -0.017961666341506394 0 -0.0072289715738849143 -0.018636696599872618 0 -0.007214851576863481 -0.017274832261780445 0 -0.0063000614913529479 -0.018322473475346261 0 -0.0070982657842916467 -0.017961666341506394 0 -0.007214851576863481 -0.017274832261780445 0 -0.0070982657842916467 -0.017961666341506394 0 -0.0076684298947540608 -0.017715611354370525 0 -0.0070982657842916467 -0.017961666341506394 0 -0.0076684298947540608 -0.017715611354370525 0 -0.0072289715738849143 -0.018636696599872618 0 -0.0076684298947540608 -0.017715611354370525 0 -0.0072289715738849143 -0.018636696599872618 0 -0.0083068704478127236 -0.018507260973033027 0 -0.0063000614913529479 -0.018322473475346261 0 -0.0072289715738849143 -0.018636696599872618 0 -0.0066593313098989833 -0.019869820385226868 0 -0.0072289715738849143 -0.018636696599872618 0 -0.0076796471158808105 -0.019995736213276712 0 -0.0083068704478127236 -0.018507260973033027 0 -0.0072289715738849143 -0.018636696599872618 0 -0.0066593313098989833 -0.019869820385226868 0 -0.0076796471158808105 -0.019995736213276712 0 -0.0058267043920145747 -0.021753296633045358 0 -0.0067581618594757115 -0.020959358351878413 0 -0.0081009131437603625 -0.021992067885871332 0 -0.0076796471158808105 -0.019995736213276712 0 -0.0067581618594757115 -0.020959358351878413 0 -0.0081009131437603625 -0.021992067885871332 0 -0.0066593313098989833 -0.019869820385226868 0 -0.0076796471158808105 -0.019995736213276712 0 -0.0067581618594757115 -0.020959358351878413 0 -0.010370066106231479 -0.023379788562990216 0 -0.012747288368370554 -0.022008313183887337 0 -0.010728087052902234 -0.025241745228172012 0 -0.01031285353688172 -0.025235289460697276 0 -0.010426023161514327 -0.02461855185617929 0 -0.010894080080695956 -0.024321743354135616 0 -0.010370066106231479 -0.023379788562990216 0 -0.0058267043920145747 -0.021753296633045358 0 -0.0067581618594757115 -0.020959358351878413 0 -0.0055315562573096579 -0.021176029780988922 0 -0.010090578183362115 -0.024355694062211913 0 -0.010370066106231479 -0.023379788562990216 0 -0.0066593313098989833 -0.019869820385226868 0 -0.0067581618594757115 -0.020959358351878413 0 -0.0055315562573096579 -0.021176029780988922 0 -0.0063000614913529479 -0.018322473475346261 0 -0.0066593313098989833 -0.019869820385226868 0 -0.0055315562573096579 -0.021176029780988922 0 -0.0072667213255495919 -0.018618571093833323 0 -0.0068767789059509593 -0.021093226575748504 0 -0.0059968982928050004 -0.019306807266000117 0 -0.0087863920732672591 -0.019486452246756939 0 -0.010370066106231479 -0.023379788562990216 0 -0.015385584805803602 -0.021639224343415562 0 -0.014490769716792985 -0.022126515638879889 0 -0.01512017799084946 -0.021110226446219644 0 -0.012747288368370554 -0.022008313183887337 0 -0.012873922825407617 -0.02202198930795906 0 -0.012699008230435148 -0.024671419794815175 0 -0.013528266105829389 -0.024451343200838853 0 -0.013159325537101869 -0.02367768240617104 0 -0.016189222388998691 -0.024836944144530772 0 -0.012747288368370554 -0.022008313183887337 0 -0.012699008230435148 -0.024671419794815175 0 -0.013486571301887173 -0.024679436429053649 0 -0.013528266105829389 -0.024451343200838853 0 -0.014683476097044288 -0.023174258284096614 0 -0.015385584805803602 -0.021639224343415562 0 -0.014490769716792985 -0.022126515638879889 0 -0.014600619807262372 -0.023173453834051262 0 -0.014683476097044288 -0.023174258284096614 0 -0.014490769716792985 -0.022126515638879889 0 -0.017566622061567547 -0.025508636092622369 0 -0.019268303397791266 -0.025531002932650402 0 -0.018672269341177463 -0.02474921006212789 0 -0.017566622061567547 -0.025508636092622369 0 -0.018672269341177463 -0.02474921006212789 0 -0.018252050694035685 -0.023851994408269211 0 -0.019268303397791266 -0.025531002932650402 0 -0.018672269341177463 -0.02474921006212789 0 -0.019114282381297906 -0.02386334957787754 0 -0.016637018509516009 -0.024852000878554433 0 -0.017118384231111283 -0.022945484597600558 0 -0.018672269341177463 -0.02474921006212789 0 -0.018252050694035685 -0.023851994408269211 0 -0.019114282381297906 -0.02386334957787754 0 -0.020043944375172752 -0.022953084786603795 0 -0.017689580837335846 -0.021005403480718183 0 -0.024722899312648445 -0.022143802052078242 0 -0.024341286452810102 -0.022940499539558304 0 -0.024821397960770611 -0.022705272235147893 0 -0.014490769716792985 -0.022126515638879889 0 -0.014395956813154226 -0.021091477069321695 0 -0.01512017799084946 -0.021110226446219644 0 -0.018252050694035685 -0.023851994408269211 0 -0.019114282381297906 -0.02386334957787754 0 -0.018945733580629634 -0.022179434201455676 0 -0.017118384231111283 -0.022945484597600558 0 -0.017689580837335846 -0.021005403480718183 0 -0.024743924268713496 -0.023071473355166801 0 -0.024341286452810102 -0.022940499539558304 0 -0.024821397960770611 -0.022705272235147893 0 -0.024743924268713496 -0.023071473355166801 0 -0.024341286452810102 -0.022940499539558304 0 -0.024380099564855116 -0.023494422501803745 0 -0.024743924268713496 -0.023071473355166801 0 -0.024643129742456197 -0.023546373273282489 0 -0.024380099564855116 -0.023494422501803745 0 -0.017689580837335846 -0.021005403480718183 0 -0.018059684953811939 -0.019530462317626215 0 -0.018722257643410099 -0.018055858269768861 0 -0.017605820652269812 -0.020677077874936806 0 -0.017331470988018585 -0.017794547200332397 0 -0.016037849741511387 -0.019418501253005829 0 -0.017689580837335846 -0.021005403480718183 0 -0.011831824702110113 -0.020136388512977416 0 -0.016037849741511387 -0.019418501253005829 0 -0.015779415807269034 -0.020696114651746905 0 -0.014666312871367793 -0.020474663885659071 0 -0.01512017799084946 -0.021110226446219644 0 -0.015779415807269034 -0.020696114651746905 0 -0.015346291499130501 -0.021592260841380998 0 -0.01512017799084946 -0.021110226446219644 0 -0.014666312871367793 -0.020474663885659071 0 -0.014395956813154226 -0.021091477069321695 0 -0.01512017799084946 -0.021110226446219644 0 -0.0068189130523137933 -0.016625865403974337 0 -0.0071074039850099616 -0.016409846414836716 0 -0.0069359536516667994 -0.016255124472567974 0 -0.016037849741511387 -0.019418501253005829 0 -0.014436117851524695 -0.018588007531224256 0 -0.0073219067057952499 -0.016717121519148517 0 -0.0068189130523137933 -0.016625865403974337 0 -0.0071074039850099616 -0.016409846414836716 0 -0.0071074039850099616 -0.016409846414836716 0 -0.0069359536516667994 -0.016255124472567974 0 -0.0071086061525105042 -0.016144637591300432 0 -0.0071074039850099616 -0.016409846414836716 0 -0.0071086061525105042 -0.016144637591300432 0 -0.0072932858109696986 -0.016208101113636235 0 -0.025621413319886568 -0.018099119509181364 0 -0.025585809136667904 -0.018141896117212484 0 -0.02554570590194042 -0.018048393171648584 0 -0.01790739685485316 -0.018583120928621719 0 -0.019935507131230178 -0.019295941149948457 0 -0.019935507131230178 -0.019295941149948457 0 -0.018059684953811939 -0.019530462317626215 0 -0.017746269910486563 -0.018714865192760423 0 -0.01613919447661254 -0.020596049259696353 0 -0.0179595796546358 -0.020938539337467074 0 -0.015267975530508023 -0.018919766372994678 0 -0.015372272340115366 -0.018629530667585228 0 -0.015139355230881148 -0.01875934031542285 0 -0.016037849741511387 -0.019418501253005829 0 -0.018059684953811939 -0.019530462317626215 0 -0.015267975530508023 -0.018919766372994678 0 -0.015139355230881148 -0.01875934031542285 0 -0.015154032166111633 -0.018899069964843251 0 -0.01790739685485316 -0.018583120928621719 0 -0.018059684953811939 -0.019530462317626215 0 -0.025585809136667904 -0.018141896117212484 0 -0.02554570590194042 -0.018048393171648584 0 -0.025473402172884969 -0.018113988115759424 0 -0.019935507131230178 -0.019295941149948457 0 -0.026043299646612849 -0.019914316194388187 0 -0.026043299646612849 -0.019914316194388187 0 -0.032772268377287903 -0.02018776709550802 0 -0.025709820223773907 -0.023721695243502313 0 -0.026357883333850508 -0.022734803034595415 0 -0.026726278078545228 -0.023909637520469415 0 -0.025709820223773907 -0.023721695243502313 0 -0.025483654485976677 -0.022664877526019287 0 -0.026357883333850508 -0.022734803034595415 0 -0.024743924268713496 -0.023071473355166801 0 -0.024643129742456197 -0.023546373273282489 0 -0.025483654485976677 -0.022664877526019287 0 -0.019935507131230178 -0.019295941149948457 0 -0.021369687512713845 -0.019958158771509485 0 -0.024710391299497841 -0.023517453084143106 0 -0.025709820223773907 -0.023721695243502313 0 -0.025483654485976677 -0.022664877526019287 0 -0.024743924268713496 -0.023071473355166801 0 -0.024821397960770611 -0.022705272235147893 0 -0.025483654485976677 -0.022664877526019287 0 -0.024722899312648445 -0.022143802052078242 0 -0.024821397960770611 -0.022705272235147893 0 -0.025483654485976677 -0.022664877526019287 0 -0.024722899312648445 -0.022143802052078242 0 -0.025483654485976677 -0.022664877526019287 0 -0.025766563198596066 -0.022240615002500103 0 -0.021646314702869953 -0.025504703085697251 0 -0.020043944375172752 -0.022953084786603795 0 -0.025087091087341924 -0.021355294386416958 0 -0.024722899312648445 -0.022143802052078242 0 -0.025619437532028621 -0.021757270962146143 0 -0.024722899312648445 -0.022143802052078242 0 -0.025619437532028621 -0.021757270962146143 0 -0.025766563198596066 -0.022240615002500103 0 -0.026158461777237643 -0.021384678337512741 0 -0.025087091087341924 -0.021355294386416958 0 -0.025619437532028621 -0.021757270962146143 0 -0.026158461777237643 -0.021384678337512741 0 -0.026212171299780276 -0.021694812232830735 0 -0.025619437532028621 -0.021757270962146143 0 -0.025619437532028621 -0.021757270962146143 0 -0.026246062232898968 -0.022020870038225188 0 -0.025766563198596066 -0.022240615002500103 0 -0.026212171299780276 -0.021694812232830735 0 -0.025619437532028621 -0.021757270962146143 0 -0.026246062232898968 -0.022020870038225188 0 -0.025483654485976677 -0.022664877526019287 0 -0.025766563198596066 -0.022240615002500103 0 -0.026357883333850508 -0.022734803034595415 0 -0.026246062232898968 -0.022020870038225188 0 -0.025766563198596066 -0.022240615002500103 0 -0.026357883333850508 -0.022734803034595415 0 -0.026246062232898968 -0.022020870038225188 0 -0.026357883333850508 -0.022734803034595415 0 -0.026610752572906179 -0.022106885096416229 0 -0.026357883333850508 -0.022734803034595415 0 -0.026975898286587384 -0.022302455618585196 0 -0.027281290418454094 -0.022977279966180056 0 -0.026357883333850508 -0.022734803034595415 0 -0.026975898286587384 -0.022302455618585196 0 -0.026610752572906179 -0.022106885096416229 0 -0.028491854205776903 -0.026022528623905493 0 -0.028344469707361958 -0.026775298761126113 0 -0.026246062232898968 -0.022020870038225188 0 -0.026610752572906179 -0.022106885096416229 0 -0.026634411953269366 -0.021641580470213712 0 -0.032636696107291606 -0.026281812847960221 0 -0.030633038453321555 -0.026257845788209298 0 -0.030546852945083421 -0.026679495742425539 0 -0.026975898286587384 -0.022302455618585196 0 -0.026610752572906179 -0.022106885096416229 0 -0.026634411953269366 -0.021641580470213712 0 -0.026158461777237643 -0.021384678337512741 0 -0.026212171299780276 -0.021694812232830735 0 -0.026557947239405178 -0.021562087741984176 0 -0.026330274818394419 -0.026918679241984742 0 -0.028344469707361958 -0.026775298761126113 0 -0.027701761041965617 -0.026897304857421905 0 -0.02888032715583002 -0.027182449867457846 0 -0.028932316404380879 -0.02740110354590071 0 -0.030633038453321555 -0.026257845788209298 0 -0.030501877534091681 -0.026490215060437982 0 -0.030546852945083421 -0.026679495742425539 0 -0.026212171299780276 -0.021694812232830735 0 -0.026246062232898968 -0.022020870038225188 0 -0.026557947239405178 -0.021562087741984176 0 -0.028786175789548365 -0.027697663223011294 0 -0.028482390375131048 -0.027370380078240549 0 -0.026246062232898968 -0.022020870038225188 0 -0.026634411953269366 -0.021641580470213712 0 -0.026611974114476498 -0.021536638606471089 0 -0.028301281217977522 -0.027624802985493743 0 -0.028482390375131048 -0.027370380078240549 0 -0.028482390375131048 -0.027370380078240549 0 -0.028344469707361958 -0.026775298761126113 0 -0.028331421675965543 -0.02672460469186767 0 -0.028344469707361958 -0.026775298761126113 0 -0.032636696107291606 -0.026281812847960221 0 -0.030546852945083421 -0.026679495742425539 0 -0.033685682996463163 -0.027962022454883335 0 -0.026975898286587384 -0.022302455618585196 0 -0.026634411953269366 -0.021641580470213712 0 -0.027857067765749373 -0.022037541355561695 0 -0.026634411953269366 -0.021641580470213712 0 -0.026609376229859989 -0.021535824280996714 0 -0.027857067765749373 -0.022037541355561695 0 -0.028344469707361958 -0.026775298761126113 0 -0.034291931087643931 -0.024570414829054057 0 -0.033526470097853311 -0.022340123971742617 0 -0.034291931087643931 -0.024570414829054057 0 -0.026975898286587384 -0.022302455618585196 0 -0.027281290418454094 -0.022977279966180056 0 -0.027857067765749373 -0.022037541355561695 0 -0.033526470097853311 -0.022340123971742617 0 -0.032772268377287903 -0.02018776709550802 0 -0.039640248169831152 -0.021576100312577368 0 -0.039908657192345688 -0.021021460586184693 0 -0.039440909584425005 -0.021282860085999444 0 -0.026357883333850508 -0.022734803034595415 0 -0.027281290418454094 -0.022977279966180056 0 -0.026726278078545228 -0.023909637520469415 0 -0.032772268377287903 -0.02018776709550802 0 -0.037878433638606747 -0.020831624076557115 0 -0.039908657192345688 -0.021021460586184693 0 -0.039444003233542815 -0.020922241325148676 0 -0.039440909584425005 -0.021282860085999444 0 -0.040894121594552968 -0.020777259215028199 0 -0.041649363013864169 -0.01988295055451756 0 -0.040454158886731657 -0.019517640506308925 0 -0.04207367423938127 -0.02099145835876538 0 -0.040894121594552968 -0.020777259215028199 0 -0.041649363013864169 -0.01988295055451756 0 -0.04207367423938127 -0.02099145835876538 0 -0.041649363013864169 -0.01988295055451756 0 -0.042921063833375656 -0.019513247515750828 0 -0.032772268377287903 -0.02018776709550802 0 -0.032210675688050555 -0.017968628484502428 0 -0.041649363013864169 -0.01988295055451756 0 -0.041375077013802102 -0.018579285496501487 0 -0.042921063833375656 -0.019513247515750828 0 -0.041649363013864169 -0.01988295055451756 0 -0.041375077013802102 -0.018579285496501487 0 -0.040454158886731657 -0.019517640506308925 0 -0.041375077013802102 -0.018579285496501487 0 -0.041562481854712348 -0.017415470879132994 0 -0.042436939919842778 -0.0178809807577862 0 -0.041375077013802102 -0.018579285496501487 0 -0.041562481854712348 -0.017415470879132994 0 -0.040847172296051212 -0.017455000459386184 0 -0.041562481854712348 -0.017415470879132994 0 -0.041050935406165896 -0.01684394334151635 0 -0.041568851756808405 -0.016651113615763574 0 -0.041562481854712348 -0.017415470879132994 0 -0.040847172296051212 -0.017455000459386184 0 -0.041050935406165896 -0.01684394334151635 0 -0.041562481854712348 -0.017415470879132994 0 -0.042436939919842778 -0.0178809807577862 0 -0.042014562851748441 -0.016746258404865738 0 -0.042436939919842778 -0.0178809807577862 0 -0.042014562851748441 -0.016746258404865738 0 -0.043000638397513155 -0.016894275003940581 0 -0.041375077013802102 -0.018579285496501487 0 -0.042436939919842778 -0.0178809807577862 0 -0.042921063833375656 -0.019513247515750828 0 -0.025507258578735759 -0.017654453436991287 0 -0.02553988132868076 -0.017717082028451268 0 -0.025423318976680629 -0.017893698863493398 0 -0.042436939919842778 -0.0178809807577862 0 -0.043731591578123168 -0.018019865525532447 0 -0.042921063833375656 -0.019513247515750828 0 -0.029527293892284 -0.016392525496834412 0 -0.032210675688050555 -0.017968628484502428 0 -0.029527293892284 -0.016392525496834412 0 -0.033889028975197244 -0.015939096497955239 0 -0.042436939919842778 -0.0178809807577862 0 -0.043731591578123168 -0.018019865525532447 0 -0.043000638397513155 -0.016894275003940581 0 -0.028828601759816212 -0.013284295348652471 0 -0.029345600583938022 -0.013992155447774584 0 -0.028767119566261056 -0.014169737502840309 0 -0.029527293892284 -0.016392525496834412 0 -0.023353478203792296 -0.015973135072180747 0 -0.025456269711299887 -0.017611840407779109 0 -0.025651395979066672 -0.017639306741373387 0 -0.025605044680423537 -0.017272407561912839 0 -0.028828601759816212 -0.013284295348652471 0 -0.028767119566261056 -0.014169737502840309 0 -0.028291740906903385 -0.014153388147545125 0 -0.025456269711299887 -0.017611840407779109 0 -0.02553988132868076 -0.017717082028451268 0 -0.025651395979066672 -0.017639306741373387 0 -0.029527293892284 -0.016392525496834412 0 -0.02933273440411694 -0.016343671573870039 0 -0.02553988132868076 -0.017717082028451268 0 -0.025534822423434259 -0.01789470614302565 0 -0.025635202732566385 -0.017902501076286742 0 -0.02553988132868076 -0.017717082028451268 0 -0.025534822423434259 -0.01789470614302565 0 -0.025423318976680629 -0.017893698863493398 0 -0.02554570590194042 -0.018048393171648584 0 -0.025473402172884969 -0.018113988115759424 0 -0.025423318976680629 -0.017893698863493398 0 -0.025473402172884969 -0.018113988115759424 0 -0.025369193962476468 -0.018091225512796051 0 -0.025423318976680629 -0.017893698863493398 0 -0.02554570590194042 -0.018048393171648584 0 -0.025534822423434259 -0.01789470614302565 0 -0.025423318976680629 -0.017893698863493398 0 -0.02554570590194042 -0.018048393171648584 0 -0.025534822423434259 -0.01789470614302565 0 -0.025635202732566385 -0.017902501076286742 0 -0.01790739685485316 -0.018583120928621719 0 -0.018714063568986729 -0.016305379006445915 0 -0.025621413319886568 -0.018099119509181364 0 -0.02554570590194042 -0.018048393171648584 0 -0.025635202732566385 -0.017902501076286742 0 -0.0096612371871715036 -0.013592191258906075 0 -0.0095634766848538225 -0.013672367410023284 0 -0.0096275460168635425 -0.013759444059195793 0 -0.0095634766848538225 -0.013672367410023284 0 -0.0095206504061013109 -0.013729771177381514 0 -0.0096275460168635425 -0.013759444059195793 0 -0.01790739685485316 -0.018583120928621719 0 -0.013609156175149292 -0.017859689969830103 0 -0.0096612371871715036 -0.013592191258906075 0 -0.0095634766848538225 -0.013672367410023284 0 -0.0094194452617855449 -0.013716245314883288 0 -0.015372272340115366 -0.018629530667585228 0 -0.015139355230881148 -0.01875934031542285 0 -0.015474108942360528 -0.018342016564923735 0 -0.0069359536516667994 -0.016255124472567974 0 -0.0071086061525105042 -0.016144637591300432 0 -0.0070106532216168841 -0.01583644046802735 0 -0.014436117851524695 -0.018588007531224256 0 -0.013609156175149292 -0.017859689969830103 0 -0.0071086061525105042 -0.016144637591300432 0 -0.0070106532216168841 -0.01583644046802735 0 -0.0071870810040392035 -0.015982030686826413 0 -0.0095634766848538225 -0.013672367410023284 0 -0.0094944393826121576 -0.013717273278018327 0 -0.0095206504061013109 -0.013729771177381514 0 -0.0095634766848538225 -0.013672367410023284 0 -0.0094194452617855449 -0.013716245314883288 0 -0.0094944393826121576 -0.013717273278018327 0 -0.0094944393826121576 -0.013717273278018327 0 -0.0095206504061013109 -0.013729771177381514 0 -0.0094672615218818704 -0.013749121952888273 0 -0.0094194452617855449 -0.013716245314883288 0 -0.0094944393826121576 -0.013717273278018327 0 -0.0094672615218818704 -0.013749121952888273 0 -0.0094672615218818704 -0.013749121952888273 0 -0.0094993333276270249 -0.013779953088587014 0 -0.0093898644879240531 -0.013819755397999605 0 -0.0095206504061013109 -0.013729771177381514 0 -0.0094672615218818704 -0.013749121952888273 0 -0.0094993333276270249 -0.013779953088587014 0 -0.0094194452617855449 -0.013716245314883288 0 -0.0094672615218818704 -0.013749121952888273 0 -0.0093898644879240531 -0.013819755397999605 0 -0.0094993333276270249 -0.013779953088587014 0 -0.0093898644879240531 -0.013819755397999605 0 -0.0094834754223642407 -0.013879150253547749 0 -0.0094993333276270249 -0.013779953088587014 0 -0.0096275460168635425 -0.013759444059195793 0 -0.0094834754223642407 -0.013879150253547749 0 -0.0096275460168635425 -0.013759444059195793 0 -0.009624769747984336 -0.013977283860376289 0 -0.0094834754223642407 -0.013879150253547749 0 -0.018714063568986729 -0.016305379006445915 0 -0.020267201045104179 -0.015803408011796947 0 -0.0095206504061013109 -0.013729771177381514 0 -0.0094993333276270249 -0.013779953088587014 0 -0.0096275460168635425 -0.013759444059195793 0 -0.02553988132868076 -0.017717082028451268 0 -0.025635202732566385 -0.017902501076286742 0 -0.025651395979066672 -0.017639306741373387 0 -0.009624769747984336 -0.013977283860376289 0 -0.0094360315036704102 -0.014056737936968187 0 -0.0094834754223642407 -0.013879150253547749 0 -0.020267201045104179 -0.015803408011796947 0 -0.023353478203792296 -0.015973135072180747 0 -0.009624769747984336 -0.013977283860376289 0 -0.0094360315036704102 -0.014056737936968187 0 -0.0096238540561464202 -0.014195758989676286 0 -0.0094360315036704102 -0.014056737936968187 0 -0.0093307525038074067 -0.013953499108587028 0 -0.0091975109792419487 -0.014151656316668683 0 -0.0094360315036704102 -0.014056737936968187 0 -0.0091975109792419487 -0.014151656316668683 0 -0.0094292824811381178 -0.014199519763200004 0 -0.0094360315036704102 -0.014056737936968187 0 -0.0093307525038074067 -0.013953499108587028 0 -0.0094834754223642407 -0.013879150253547749 0 -0.0093898644879240531 -0.013819755397999605 0 -0.0093307525038074067 -0.013953499108587028 0 -0.0094834754223642407 -0.013879150253547749 0 -0.0093307525038074067 -0.013953499108587028 0 -0.0091209533822567673 -0.013883467423188616 0 -0.0091975109792419487 -0.014151656316668683 0 -0.0093898644879240531 -0.013819755397999605 0 -0.0093307525038074067 -0.013953499108587028 0 -0.0091209533822567673 -0.013883467423188616 0 -0.010846659838649899 -0.016356645571206974 0 -0.01023041021096789 -0.015812812676538529 0 -0.0091209533822567673 -0.013883467423188616 0 -0.0091975109792419487 -0.014151656316668683 0 -0.008735836267386235 -0.01424941151851683 0 -0.0076531463560109442 -0.014982825143564579 0 -0.0087019847338183284 -0.014824875659067172 0 -0.008735836267386235 -0.01424941151851683 0 -0.0076531463560109442 -0.014982825143564579 0 -0.0081859818251112763 -0.015522432943533029 0 -0.0087019847338183284 -0.014824875659067172 0 -0.0076531463560109442 -0.014982825143564579 0 -0.0081859818251112763 -0.015522432943533029 0 -0.007711886151518777 -0.015676808624291421 0 -0.0094194452617855449 -0.013716245314883288 0 -0.0093898644879240531 -0.013819755397999605 0 -0.0091209533822567673 -0.013883467423188616 0 -0.013609156175149292 -0.017859689969830103 0 -0.010846659838649899 -0.016356645571206974 0 -0.0076531463560109442 -0.014982825143564579 0 -0.007711886151518777 -0.015676808624291421 0 -0.0073701150122899902 -0.015854685001917893 0 -0.0070106532216168841 -0.01583644046802735 0 -0.0076531463560109442 -0.014982825143564579 0 -0.0073701150122899902 -0.015854685001917893 0 -0.007711886151518777 -0.015676808624291421 0 -0.0073701150122899902 -0.015854685001917893 0 -0.0075128822453878396 -0.015917174575341829 0 -0.0075128822453878396 -0.015917174575341829 0 -0.0073262357228430679 -0.015996448974911367 0 -0.0074186943079799826 -0.016050918219009027 0 -0.0073701150122899902 -0.015854685001917893 0 -0.0075128822453878396 -0.015917174575341829 0 -0.0073262357228430679 -0.015996448974911367 0 -0.0075128822453878396 -0.015917174575341829 0 -0.0074186943079799826 -0.016050918219009027 0 -0.007552226978254006 -0.016063873860433404 0 -0.0070106532216168841 -0.01583644046802735 0 -0.0073701150122899902 -0.015854685001917893 0 -0.0071870810040392035 -0.015982030686826413 0 -0.0073701150122899902 -0.015854685001917893 0 -0.0073262357228430679 -0.015996448974911367 0 -0.0071870810040392035 -0.015982030686826413 0 -0.0071086061525105042 -0.016144637591300432 0 -0.0071870810040392035 -0.015982030686826413 0 -0.0072932858109696986 -0.016208101113636235 0 -0.0073262357228430679 -0.015996448974911367 0 -0.0071870810040392035 -0.015982030686826413 0 -0.0072932858109696986 -0.016208101113636235 0 -0.0073262357228430679 -0.015996448974911367 0 -0.0072932858109696986 -0.016208101113636235 0 -0.0074186943079799826 -0.016050918219009027 0 -0.0072932858109696986 -0.016208101113636235 0 -0.0074186943079799826 -0.016050918219009027 0 -0.007552226978254006 -0.016063873860433404 0 -0.0076961334827147232 -0.016664783623582785 0 -0.0075122660341335103 -0.016426083908310886 0 -0.007938024929319297 -0.016222334828728185 0 -0.0081859818251112763 -0.015522432943533029 0 -0.007711886151518777 -0.015676808624291421 0 -0.007938024929319297 -0.016222334828728185 0 -0.0075122660341335103 -0.016426083908310886 0 -0.007552226978254006 -0.016063873860433404 0 -0.007938024929319297 -0.016222334828728185 0 -0.007711886151518777 -0.015676808624291421 0 -0.0075128822453878396 -0.015917174575341829 0 -0.007552226978254006 -0.016063873860433404 0 -0.007711886151518777 -0.015676808624291421 0 -0.007552226978254006 -0.016063873860433404 0 -0.007938024929319297 -0.016222334828728185 0 -0.036940647621608272 -0.023326673183683477 0 -0.037398220874365118 -0.023131108779712185 0 -0.037471150675409876 -0.023853669935658506 0 -0.036940647621608272 -0.023326673183683477 0 -0.037398220874365118 -0.023131108779712185 0 -0.036588802005192524 -0.022597289826820265 0 -0.036951956736036511 -0.022748275728123685 0 -0.037423578927362137 -0.02347723813551602 0 -0.037398220874365118 -0.023131108779712185 0 -0.037471150675409876 -0.023853669935658506 0 -0.038111775476655584 -0.023493904187846699 0 -0.037268863153816251 -0.021547130540703622 0 -0.037327696437458487 -0.021225437259489253 0 -0.03784676158595527 -0.021126073435940668 0 -0.037268863153816251 -0.021547130540703622 0 -0.037327696437458487 -0.021225437259489253 0 -0.037046940576339234 -0.021121490022234776 0 -0.037327696437458487 -0.021225437259489253 0 -0.037046940576339234 -0.021121490022234776 0 -0.037396611618827715 -0.020674397706800334 0 -0.036951956736036511 -0.022748275728123685 0 -0.036071515402403026 -0.022196508250741105 0 -0.037268863153816251 -0.021547130540703622 0 -0.037046940576339234 -0.021121490022234776 0 -0.036300564020556418 -0.021546958963856108 0 -0.036588802005192524 -0.022597289826820265 0 -0.035807715150166487 -0.022944938169905324 0 -0.036461643362564009 -0.023041772569166747 0 -0.036071515402403026 -0.022196508250741105 0 -0.035000913720240903 -0.021724417079107206 0 -0.035807715150166487 -0.022944938169905324 0 -0.034999958666927018 -0.023371438930098756 0 -0.035000042467401689 -0.02172419089871842 0 -0.036588802005192524 -0.022597289826820265 0 -0.035807715150166487 -0.022944938169905324 0 -0.035000042467401689 -0.02172419089871842 0 -0.035807715150166487 -0.022944938169905324 0 -0.035892634373227338 -0.024032469082373147 0 -0.034999958666927018 -0.023371438930098756 0 -0.036940647621608272 -0.023326673183683477 0 -0.036461643362564009 -0.023041772569166747 0 -0.03671173583385999 -0.023822218550443242 0 -0.035892634373227338 -0.024032469082373147 0 -0.036461643362564009 -0.023041772569166747 0 -0.036931938000116918 -0.024625966999542767 0 -0.035807715150166487 -0.022944938169905324 0 -0.035892634373227338 -0.024032469082373147 0 -0.036461643362564009 -0.023041772569166747 0 -0.036940647621608272 -0.023326673183683477 0 -0.036588802005192524 -0.022597289826820265 0 -0.036461643362564009 -0.023041772569166747 0 -0.036236800215879175 -0.024105319306998614 0 -0.03629967687688021 -0.024790499108783899 0 -0.035892634373227338 -0.024032469082373147 0 -0.036931938000116918 -0.024625966999542767 0 -0.036002741667013199 -0.025185738520866519 0 -0.035892634373227338 -0.024032469082373147 0 -0.034999964705471683 -0.025018896428813654 0 -0.036002741667013199 -0.025185738520866519 0 -0.035892634373227338 -0.024032469082373147 0 -0.034999958666927018 -0.023371438930098756 0 -0.034999964705471683 -0.025018896428813654 0 -0.03500000385256561 -0.026666199695800905 0 -0.034999964705471683 -0.025018896428813654 0 -0.035696727866397979 -0.026066724949399423 0 -0.034999964705471683 -0.025018896428813654 0 -0.036002741667013199 -0.025185738520866519 0 -0.035696727866397979 -0.026066724949399423 0 -0.036931938000116918 -0.024625966999542767 0 -0.036002741667013199 -0.025185738520866519 0 -0.036529638696894268 -0.026183151652555102 0 -0.036931938000116918 -0.024625966999542767 0 -0.036529638696894268 -0.026183151652555102 0 -0.037345239000414573 -0.026195663554464246 0 -0.036002741667013199 -0.025185738520866519 0 -0.035696727866397979 -0.026066724949399423 0 -0.036529638696894268 -0.026183151652555102 0 -0.036426166534545099 -0.026531197606390843 0 -0.036341192323079939 -0.026549555780120325 0 -0.03671173583385999 -0.023822218550443242 0 -0.036911942399051934 -0.024524929703505258 0 -0.037471150675409876 -0.023853669935658506 0 -0.03629967687688021 -0.024790499108783899 0 -0.036341192323079939 -0.026549555780120325 0 -0.036940647621608272 -0.023326673183683477 0 -0.03671173583385999 -0.023822218550443242 0 -0.037471150675409876 -0.023853669935658506 0 -0.036911942399051934 -0.024524929703505258 0 -0.037471150675409876 -0.023853669935658506 0 -0.037837005055735354 -0.024518204736519941 0 -0.036341192323079939 -0.026549555780120325 0 -0.03705718855372106 -0.026467858162229095 0 -0.037471150675409876 -0.023853669935658506 0 -0.037837005055735354 -0.024518204736519941 0 -0.038286903352612374 -0.024096030273867114 0 -0.038712864635525861 -0.0245249977619863 0 -0.037837005055735354 -0.024518204736519941 0 -0.038286903352612374 -0.024096030273867114 0 -0.038712864635525861 -0.0245249977619863 0 -0.038286903352612374 -0.024096030273867114 0 -0.038815429803757469 -0.023816453886739423 0 -0.036884633008067297 -0.026468004712899736 0 -0.03705718855372106 -0.026467858162229095 0 -0.038286903352612374 -0.024096030273867114 0 -0.038815429803757469 -0.023816453886739423 0 -0.038111775476655584 -0.023493904187846699 0 -0.03877476354386708 -0.021849611859040611 0 -0.038761848828187007 -0.021935552584137017 0 -0.038042378710696233 -0.021727206246357426 0 -0.036876060367099187 -0.024491211100577302 0 -0.037423578927362137 -0.02347723813551602 0 -0.037471150675409876 -0.023853669935658506 0 -0.038286903352612374 -0.024096030273867114 0 -0.038111775476655584 -0.023493904187846699 0 -0.035989179436863562 -0.025257405756189556 0 -0.035943040357572335 -0.025327764148131579 0 -0.036079765689569901 -0.025379797510302365 0 -0.034632990696882908 -0.026309939682579019 0 -0.032636696107291606 -0.026281812847960221 0 -0.033685682996463163 -0.027962022454883335 0 -0.035091263665131683 -0.026677910446111255 0 -0.034291931087643931 -0.024570414829054057 0 -0.036096850463730505 -0.025261837705092726 0 -0.035989179436863562 -0.025257405756189556 0 -0.036079765689569901 -0.025379797510302365 0 -0.036884633008067297 -0.026468004712899736 0 -0.036876060367099187 -0.024491211100577302 0 -0.038759150201608798 -0.021921496798253344 0 -0.039171540224546747 -0.021776696613506258 0 -0.038966816787894397 -0.021700418824867909 0 -0.03877476354386708 -0.021849611859040611 0 -0.038759150201608798 -0.021921496798253344 0 -0.038966816787894397 -0.021700418824867909 0 -0.036887489237266764 -0.024450731232978216 0 -0.036876060367099187 -0.024491211100577302 0 -0.039640248169831152 -0.021576100312577368 0 -0.039332172994869172 -0.022147916319407886 0 -0.039171540224546747 -0.021776696613506258 0 -0.034291931087643931 -0.024570414829054057 0 -0.036876060367099187 -0.024491211100577302 0 -0.039332172994869172 -0.022147916319407886 0 -0.038759150201608798 -0.021921496798253344 0 -0.039171540224546747 -0.021776696613506258 0 -0.039640248169831152 -0.021576100312577368 0 -0.039440909584425005 -0.021282860085999444 0 -0.039171540224546747 -0.021776696613506258 0 -0.039440909584425005 -0.021282860085999444 0 -0.039171540224546747 -0.021776696613506258 0 -0.039111004537482806 -0.02131584449603325 0 -0.039171540224546747 -0.021776696613506258 0 -0.039111004537482806 -0.02131584449603325 0 -0.038966816787894397 -0.021700418824867909 0 -0.03877476354386708 -0.021849611859040611 0 -0.038852086039882883 -0.021479544970510099 0 -0.038501508243150226 -0.021348896219475708 0 -0.039111004537482806 -0.02131584449603325 0 -0.038966816787894397 -0.021700418824867909 0 -0.038852086039882883 -0.021479544970510099 0 -0.039111004537482806 -0.02131584449603325 0 -0.038852086039882883 -0.021479544970510099 0 -0.038861221152950085 -0.021150727059224904 0 -0.03877476354386708 -0.021849611859040611 0 -0.038966816787894397 -0.021700418824867909 0 -0.038852086039882883 -0.021479544970510099 0 -0.038852086039882883 -0.021479544970510099 0 -0.038861221152950085 -0.021150727059224904 0 -0.038501508243150226 -0.021348896219475708 0 -0.039111004537482806 -0.02131584449603325 0 -0.038861221152950085 -0.021150727059224904 0 -0.038967628098783264 -0.020764068257572765 0 -0.038861221152950085 -0.021150727059224904 0 -0.038462995020196143 -0.02047624258446569 0 -0.038967628098783264 -0.020764068257572765 0 -0.039444003233542815 -0.020922241325148676 0 -0.039111004537482806 -0.02131584449603325 0 -0.038967628098783264 -0.020764068257572765 0 -0.039444003233542815 -0.020922241325148676 0 -0.039440909584425005 -0.021282860085999444 0 -0.039111004537482806 -0.02131584449603325 0 -0.038042378710696233 -0.021727206246357426 0 -0.038501508243150226 -0.021348896219475708 0 -0.03784676158595527 -0.021126073435940668 0 -0.037268863153816251 -0.021547130540703622 0 -0.038042378710696233 -0.021727206246357426 0 -0.03784676158595527 -0.021126073435940668 0 -0.03877476354386708 -0.021849611859040611 0 -0.038042378710696233 -0.021727206246357426 0 -0.038501508243150226 -0.021348896219475708 0 -0.038501508243150226 -0.021348896219475708 0 -0.03784676158595527 -0.021126073435940668 0 -0.038462995020196143 -0.02047624258446569 0 -0.038861221152950085 -0.021150727059224904 0 -0.038501508243150226 -0.021348896219475708 0 -0.038462995020196143 -0.02047624258446569 0 -0.03784676158595527 -0.021126073435940668 0 -0.038462995020196143 -0.02047624258446569 0 -0.037440760188387767 -0.019959282605523581 0 -0.038462995020196143 -0.02047624258446569 0 -0.038602240517724873 -0.019292062575646276 0 -0.039385919009097013 -0.019743148572144303 0 -0.038462995020196143 -0.02047624258446569 0 -0.038602240517724873 -0.019292062575646276 0 -0.037440760188387767 -0.019959282605523581 0 -0.038602240517724873 -0.019292062575646276 0 -0.037440760188387767 -0.019959282605523581 0 -0.037930508310926189 -0.018339973630760724 0 -0.037821632567745796 -0.019712784853592402 0 -0.038242969322612334 -0.018581392115850467 0 -0.038133890578650929 -0.020087999052795773 0 -0.03865434054350609 -0.018409039612079448 0 -0.037647325643012125 -0.019042114921998258 0 -0.037878433638606747 -0.020831624076557115 0 -0.038748505097855747 -0.020840521316075999 0 -0.040894121594552968 -0.020777259215028199 0 -0.039709743833062416 -0.020597972416682653 0 -0.040454158886731657 -0.019517640506308925 0 -0.038691661954191846 -0.020781728016078974 0 -0.038748505097855747 -0.020840521316075999 0 -0.038462995020196143 -0.02047624258446569 0 -0.039709743833062416 -0.020597972416682653 0 -0.039385919009097013 -0.019743148572144303 0 -0.039709743833062416 -0.020597972416682653 0 -0.039385919009097013 -0.019743148572144303 0 -0.040454158886731657 -0.019517640506308925 0 -0.038602240517724873 -0.019292062575646276 0 -0.039385919009097013 -0.019743148572144303 0 -0.039662483781134385 -0.018855192034581861 0 -0.039385919009097013 -0.019743148572144303 0 -0.040454158886731657 -0.019517640506308925 0 -0.039662483781134385 -0.018855192034581861 0 -0.041375077013802102 -0.018579285496501487 0 -0.040454158886731657 -0.019517640506308925 0 -0.04041522358497443 -0.018136544553096351 0 -0.040454158886731657 -0.019517640506308925 0 -0.04041522358497443 -0.018136544553096351 0 -0.039662483781134385 -0.018855192034581861 0 -0.041375077013802102 -0.018579285496501487 0 -0.04041522358497443 -0.018136544553096351 0 -0.040847172296051212 -0.017455000459386184 0 -0.038602240517724873 -0.019292062575646276 0 -0.039662483781134385 -0.018855192034581861 0 -0.039300554959844775 -0.017758238259088351 0 -0.04041522358497443 -0.018136544553096351 0 -0.039662483781134385 -0.018855192034581861 0 -0.039300554959844775 -0.017758238259088351 0 -0.039300554959844775 -0.017758238259088351 0 -0.040261830402993352 -0.01697904904538149 0 -0.039418324458593078 -0.016561614440804433 0 -0.039300554959844775 -0.017758238259088351 0 -0.038733595969582139 -0.01676138030650608 0 -0.039418324458593078 -0.016561614440804433 0 -0.04041522358497443 -0.018136544553096351 0 -0.039300554959844775 -0.017758238259088351 0 -0.040261830402993352 -0.01697904904538149 0 -0.04041522358497443 -0.018136544553096351 0 -0.040261830402993352 -0.01697904904538149 0 -0.040847172296051212 -0.017455000459386184 0 -0.040261830402993352 -0.01697904904538149 0 -0.040847172296051212 -0.017455000459386184 0 -0.041050935406165896 -0.01684394334151635 0 -0.038602240517724873 -0.019292062575646276 0 -0.039300554959844775 -0.017758238259088351 0 -0.037930508310926189 -0.018339973630760724 0 -0.038242969322612334 -0.018581392115850467 0 -0.03850554762919426 -0.01787444308804019 0 -0.039300554959844775 -0.017758238259088351 0 -0.037930508310926189 -0.018339973630760724 0 -0.038733595969582139 -0.01676138030650608 0 -0.03865434054350609 -0.018409039612079448 0 -0.037673316717324892 -0.017595931841503567 0 -0.038733595969582139 -0.01676138030650608 0 -0.037673316717324892 -0.017595931841503567 0 -0.03670996344315676 -0.019014298166632883 0 -0.036437088914280803 -0.017628514592457973 0 -0.037673316717324892 -0.017595931841503567 0 -0.03670996344315676 -0.019014298166632883 0 -0.037647325643012125 -0.019042114921998258 0 -0.03865434054350609 -0.018409039612079448 0 -0.037673316717324892 -0.017595931841503567 0 -0.037647325643012125 -0.019042114921998258 0 -0.038133890578650929 -0.020087999052795773 0 -0.037647325643012125 -0.019042114921998258 0 -0.036879712109819142 -0.02040239268860192 0 -0.03670996344315676 -0.019014298166632883 0 -0.037647325643012125 -0.019042114921998258 0 -0.036879712109819142 -0.02040239268860192 0 -0.037046940576339234 -0.021121490022234776 0 -0.036879712109819142 -0.02040239268860192 0 -0.037396611618827715 -0.020674397706800334 0 -0.037046940576339234 -0.021121490022234776 0 -0.036300564020556418 -0.021546958963856108 0 -0.036879712109819142 -0.02040239268860192 0 -0.037586040618601192 -0.020320315440228907 0 -0.037821632567745796 -0.019712784853592402 0 -0.037327696437458487 -0.021225437259489253 0 -0.03784676158595527 -0.021126073435940668 0 -0.037440760188387767 -0.019959282605523581 0 -0.037327696437458487 -0.021225437259489253 0 -0.038133890578650929 -0.020087999052795773 0 -0.037396611618827715 -0.020674397706800334 0 -0.038133890578650929 -0.020087999052795773 0 -0.036879712109819142 -0.02040239268860192 0 -0.037396611618827715 -0.020674397706800334 0 -0.036300564020556418 -0.021546958963856108 0 -0.035000002697984083 -0.021722417472217752 0 -0.03597359352766509 -0.020334362498395514 0 -0.036300564020556418 -0.021546958963856108 0 -0.036879712109819142 -0.02040239268860192 0 -0.03597359352766509 -0.020334362498395514 0 -0.03670996344315676 -0.019014298166632883 0 -0.036879712109819142 -0.02040239268860192 0 -0.03597359352766509 -0.020334362498395514 0 -0.03597359352766509 -0.020334362498395514 0 -0.034999743220497953 -0.01977376463240545 0 -0.035820464211943744 -0.018800604121149075 0 -0.035000002697984083 -0.021722417472217752 0 -0.03597359352766509 -0.020334362498395514 0 -0.034999743220497953 -0.01977376463240545 0 -0.034999743220497953 -0.01977376463240545 0 -0.035820464211943744 -0.018800604121149075 0 -0.034999815639438894 -0.017823263169774634 0 -0.03670996344315676 -0.019014298166632883 0 -0.03597359352766509 -0.020334362498395514 0 -0.035820464211943744 -0.018800604121149075 0 -0.03670996344315676 -0.019014298166632883 0 -0.035820464211943744 -0.018800604121149075 0 -0.036437088914280803 -0.017628514592457973 0 -0.035820464211943744 -0.018800604121149075 0 -0.036437088914280803 -0.017628514592457973 0 -0.034999815639438894 -0.017823263169774634 0 -0.034999815639438894 -0.017823263169774634 0 -0.036124637350987893 -0.016181682929664438 0 -0.034999821939020251 -0.015873297885060401 0 -0.036437088914280803 -0.017628514592457973 0 -0.034999815639438894 -0.017823263169774634 0 -0.036124637350987893 -0.016181682929664438 0 -0.036437088914280803 -0.017628514592457973 0 -0.036124637350987893 -0.016181682929664438 0 -0.037109172391148706 -0.016355251483417134 0 -0.036124637350987893 -0.016181682929664438 0 -0.037109172391148706 -0.016355251483417134 0 -0.036450019607942516 -0.014699192888157886 0 -0.036124637350987893 -0.016181682929664438 0 -0.034999821939020251 -0.015873297885060401 0 -0.036450019607942516 -0.014699192888157886 0 -0.037673316717324892 -0.017595931841503567 0 -0.037109172391148706 -0.016355251483417134 0 -0.038124145335326938 -0.016038040576937643 0 -0.037673316717324892 -0.017595931841503567 0 -0.036437088914280803 -0.017628514592457973 0 -0.037109172391148706 -0.016355251483417134 0 -0.037109172391148706 -0.016355251483417134 0 -0.037616832901142171 -0.015255704392874542 0 -0.036450019607942516 -0.014699192888157886 0 -0.037109172391148706 -0.016355251483417134 0 -0.037616832901142171 -0.015255704392874542 0 -0.038124145335326938 -0.016038040576937643 0 -0.037616832901142171 -0.015255704392874542 0 -0.037762815037411551 -0.014084432730960434 0 -0.038462447736779114 -0.015033469072902537 0 -0.037616832901142171 -0.015255704392874542 0 -0.037762815037411551 -0.014084432730960434 0 -0.036450019607942516 -0.014699192888157886 0 -0.037762815037411551 -0.014084432730960434 0 -0.036450019607942516 -0.014699192888157886 0 -0.036745635440133734 -0.012908368647657686 0 -0.034999821939020251 -0.015873297885060401 0 -0.036450019607942516 -0.014699192888157886 0 -0.034999846015870646 -0.013923129889189687 0 -0.036450019607942516 -0.014699192888157886 0 -0.035783958256680855 -0.012898878563149909 0 -0.036745635440133734 -0.012908368647657686 0 -0.036450019607942516 -0.014699192888157886 0 -0.034999846015870646 -0.013923129889189687 0 -0.035783958256680855 -0.012898878563149909 0 -0.034999846015870646 -0.013923129889189687 0 -0.035783958256680855 -0.012898878563149909 0 -0.034999850532249514 -0.011973399598456705 0 -0.035783958256680855 -0.012898878563149909 0 -0.034999850532249514 -0.011973399598456705 0 -0.035524014833701233 -0.01170163590645407 0 -0.034999584453821869 -0.011969978420426332 0 -0.035120834298506091 -0.011225543324054826 0 -0.034999997575231659 -0.011972720763306636 0 -0.035612053678603817 -0.011545590209501966 0 -0.03499999875920258 -0.011133610130466163 0 -0.035580669827357872 -0.011493513716896433 0 -0.034999928770802352 -0.011133361460647759 0 -0.035618548005048441 -0.010789014573950137 0 -0.035120834298506091 -0.011225543324054826 0 -0.035000333627458906 -0.011133877897096326 0 -0.031714294162280512 -0.0096447271530018721 0 -0.033093626570518959 -0.0096638447811517991 0 -0.033238895000336506 -0.01070554640812859 0 -0.031714294162280512 -0.0096447271530018721 0 -0.033093626570518959 -0.0096638447811517991 0 -0.033153977796423907 -0.0086229944394673116 0 -0.035580669827357872 -0.011493513716896433 0 -0.035618548005048441 -0.010789014573950137 0 -0.036917580073310363 -0.010475082813923389 0 -0.035120834298506091 -0.011225543324054826 0 -0.03551172408119193 -0.0099796457166935835 0 -0.035120834298506091 -0.011225543324054826 0 -0.035246630800735611 -0.01179617355506162 0 -0.035783958256680855 -0.012898878563149909 0 -0.035524014833701233 -0.01170163590645407 0 -0.036745635440133734 -0.012908368647657686 0 -0.036279197905013272 -0.01285226338163708 0 -0.035246630800735611 -0.01179617355506162 0 -0.03470889166756945 -0.011849410427454164 0 -0.033238895000336506 -0.01070554640812859 0 -0.034279552373858678 -0.0096838483191403341 0 -0.03470889166756945 -0.011849410427454164 0 -0.034279552373858678 -0.0096838483191403341 0 -0.035718118168197803 -0.010379932298968152 0 -0.034279552373858678 -0.0096838483191403341 0 -0.03569535273955337 -0.0090555177214998242 0 -0.035718118168197803 -0.010379932298968152 0 -0.033093626570518959 -0.0096638447811517991 0 -0.034279552373858678 -0.0096838483191403341 0 -0.033153977796423907 -0.0086229944394673116 0 -0.033093626570518959 -0.0096638447811517991 0 -0.033238895000336506 -0.01070554640812859 0 -0.034279552373858678 -0.0096838483191403341 0 -0.036496592283302202 -0.0087290161970899286 0 -0.03551172408119193 -0.0099796457166935835 0 -0.03817020362294736 -0.0094872799545950934 0 -0.036851521728656265 -0.0093789103948845095 0 -0.036917580073310363 -0.010475082813923389 0 -0.034279552373858678 -0.0096838483191403341 0 -0.034682507097276036 -0.0075826612779329389 0 -0.033153977796423907 -0.0086229944394673116 0 -0.034682507097276036 -0.0075826612779329389 0 -0.035992518585727572 -0.0076962811471646764 0 -0.03569535273955337 -0.0090555177214998242 0 -0.034279552373858678 -0.0096838483191403341 0 -0.034682507097276036 -0.0075826612779329389 0 -0.03569535273955337 -0.0090555177214998242 0 -0.034682507097276036 -0.0075826612779329389 0 -0.035992518585727572 -0.0076962811471646764 0 -0.036220330863595829 -0.0066780140462484412 0 -0.036496592283302202 -0.0087290161970899286 0 -0.037552118703091115 -0.0075511456348261721 0 -0.03817020362294736 -0.0094872799545950934 0 -0.036851521728656265 -0.0093789103948845095 0 -0.037518500680847923 -0.008488188286845182 0 -0.036851521728656265 -0.0093789103948845095 0 -0.035829299149736434 -0.0087795231379169704 0 -0.035717966752226507 -0.010073512739855434 0 -0.036851521728656265 -0.0093789103948845095 0 -0.035829299149736434 -0.0087795231379169704 0 -0.037518500680847923 -0.008488188286845182 0 -0.034999978702185436 -0.0090678034752992645 0 -0.035829299149736434 -0.0087795231379169704 0 -0.035717966752226507 -0.010073512739855434 0 -0.034999928770802352 -0.011133361460647759 0 -0.034999978702185436 -0.0090678034752992645 0 -0.035717966752226507 -0.010073512739855434 0 -0.034999928770802352 -0.011133361460647759 0 -0.035717966752226507 -0.010073512739855434 0 -0.035618548005048441 -0.010789014573950137 0 -0.035717966752226507 -0.010073512739855434 0 -0.035618548005048441 -0.010789014573950137 0 -0.036917580073310363 -0.010475082813923389 0 -0.036851521728656265 -0.0093789103948845095 0 -0.035717966752226507 -0.010073512739855434 0 -0.036917580073310363 -0.010475082813923389 0 -0.037881436033383994 -0.0086100656904450398 0 -0.038862532097333216 -0.0083501257994892768 0 -0.03823877156384909 -0.0077596889543023618 0 -0.038862532097333216 -0.0083501257994892768 0 -0.038859986206955778 -0.0075940300432555128 0 -0.03823877156384909 -0.0077596889543023618 0 -0.037881436033383994 -0.0086100656904450398 0 -0.03823877156384909 -0.0077596889543023618 0 -0.037510648938143487 -0.0077825436019569455 0 -0.038862532097333216 -0.0083501257994892768 0 -0.038859986206955778 -0.0075940300432555128 0 -0.039538006687406979 -0.0076796401413166959 0 -0.038862532097333216 -0.0083501257994892768 0 -0.039558330202014394 -0.008666334419198618 0 -0.039538006687406979 -0.0076796401413166959 0 -0.038859986206955778 -0.0075940300432555128 0 -0.039122887427863649 -0.0070924887905333472 0 -0.039538006687406979 -0.0076796401413166959 0 -0.038859986206955778 -0.0075940300432555128 0 -0.039122887427863649 -0.0070924887905333472 0 -0.038401719684804062 -0.0070893718985514378 0 -0.038859986206955778 -0.0075940300432555128 0 -0.038401719684804062 -0.0070893718985514378 0 -0.03823877156384909 -0.0077596889543023618 0 -0.03823877156384909 -0.0077596889543023618 0 -0.037889174275910528 -0.0071883924144217877 0 -0.037510648938143487 -0.0077825436019569455 0 -0.038401719684804062 -0.0070893718985514378 0 -0.03823877156384909 -0.0077596889543023618 0 -0.037889174275910528 -0.0071883924144217877 0 -0.038401719684804062 -0.0070893718985514378 0 -0.037889174275910528 -0.0071883924144217877 0 -0.037915424969047672 -0.0067654775575793887 0 -0.037889174275910528 -0.0071883924144217877 0 -0.037275450415252223 -0.007171682398831607 0 -0.037549509061670532 -0.0067744004597758214 0 -0.037275450415252223 -0.007171682398831607 0 -0.037059167055697041 -0.0067783721651146194 0 -0.037549509061670532 -0.0067744004597758214 0 -0.037275450415252223 -0.007171682398831607 0 -0.036852331658158655 -0.0076270100602832958 0 -0.036724823906917635 -0.0071185070248673456 0 -0.037275450415252223 -0.007171682398831607 0 -0.036724823906917635 -0.0071185070248673456 0 -0.037059167055697041 -0.0067783721651146194 0 -0.037275450415252223 -0.007171682398831607 0 -0.036852331658158655 -0.0076270100602832958 0 -0.037510648938143487 -0.0077825436019569455 0 -0.037889174275910528 -0.0071883924144217877 0 -0.037275450415252223 -0.007171682398831607 0 -0.037510648938143487 -0.0077825436019569455 0 -0.036724823906917635 -0.0071185070248673456 0 -0.035992518585727572 -0.0076962811471646764 0 -0.036220330863595829 -0.0066780140462484412 0 -0.036852331658158655 -0.0076270100602832958 0 -0.036724823906917635 -0.0071185070248673456 0 -0.035992518585727572 -0.0076962811471646764 0 -0.035992518585727572 -0.0076962811471646764 0 -0.03686090035775718 -0.0084094681268797981 0 -0.03569535273955337 -0.0090555177214998242 0 -0.036852331658158655 -0.0076270100602832958 0 -0.035992518585727572 -0.0076962811471646764 0 -0.03686090035775718 -0.0084094681268797981 0 -0.037881436033383994 -0.0086100656904450398 0 -0.037510648938143487 -0.0077825436019569455 0 -0.03686090035775718 -0.0084094681268797981 0 -0.036852331658158655 -0.0076270100602832958 0 -0.037510648938143487 -0.0077825436019569455 0 -0.03686090035775718 -0.0084094681268797981 0 -0.037881436033383994 -0.0086100656904450398 0 -0.03686090035775718 -0.0084094681268797981 0 -0.037123949644881984 -0.0098702282233343024 0 -0.03686090035775718 -0.0084094681268797981 0 -0.037123949644881984 -0.0098702282233343024 0 -0.03569535273955337 -0.0090555177214998242 0 -0.037123949644881984 -0.0098702282233343024 0 -0.03569535273955337 -0.0090555177214998242 0 -0.035718118168197803 -0.010379932298968152 0 -0.03470889166756945 -0.011849410427454164 0 -0.035718118168197803 -0.010379932298968152 0 -0.036645122322147762 -0.011497187734940051 0 -0.037123949644881984 -0.0098702282233343024 0 -0.035718118168197803 -0.010379932298968152 0 -0.036645122322147762 -0.011497187734940051 0 -0.037123949644881984 -0.0098702282233343024 0 -0.038301824730404291 -0.01108676545132466 0 -0.036645122322147762 -0.011497187734940051 0 -0.038301824730404291 -0.01108676545132466 0 -0.038738142515231395 -0.0095707894796781788 0 -0.039175670881970451 -0.010709504913787898 0 -0.037123949644881984 -0.0098702282233343024 0 -0.038301824730404291 -0.01108676545132466 0 -0.038738142515231395 -0.0095707894796781788 0 -0.038301824730404291 -0.01108676545132466 0 -0.039175670881970451 -0.010709504913787898 0 -0.039231636302260037 -0.011852360834172092 0 -0.037881436033383994 -0.0086100656904450398 0 -0.037123949644881984 -0.0098702282233343024 0 -0.038738142515231395 -0.0095707894796781788 0 -0.037881436033383994 -0.0086100656904450398 0 -0.038862532097333216 -0.0083501257994892768 0 -0.038738142515231395 -0.0095707894796781788 0 -0.039558330202014394 -0.008666334419198618 0 -0.039602282907058105 -0.010047187320478008 0 -0.040057265543722853 -0.0088635800682918976 0 -0.038738142515231395 -0.0095707894796781788 0 -0.039558330202014394 -0.008666334419198618 0 -0.039602282907058105 -0.010047187320478008 0 -0.038862532097333216 -0.0083501257994892768 0 -0.038738142515231395 -0.0095707894796781788 0 -0.039558330202014394 -0.008666334419198618 0 -0.039602282907058105 -0.010047187320478008 0 -0.040057265543722853 -0.0088635800682918976 0 -0.040360249868942523 -0.010988206822302815 0 -0.038738142515231395 -0.0095707894796781788 0 -0.039602282907058105 -0.010047187320478008 0 -0.039175670881970451 -0.010709504913787898 0 -0.039602282907058105 -0.010047187320478008 0 -0.039175670881970451 -0.010709504913787898 0 -0.040075756439228095 -0.011222294652064674 0 -0.039602282907058105 -0.010047187320478008 0 -0.040075756439228095 -0.011222294652064674 0 -0.040360249868942523 -0.010988206822302815 0 -0.038416807875985295 -0.013064455875541848 0 -0.038230130166892223 -0.013225130484923735 0 -0.040075756439228095 -0.011222294652064674 0 -0.040478020270944957 -0.011819988209419388 0 -0.040360249868942523 -0.010988206822302815 0 -0.040075756439228095 -0.011222294652064674 0 -0.040118429471150949 -0.012451428431360882 0 -0.041327908151739624 -0.012787465596079175 0 -0.040118429471150949 -0.012451428431360882 0 -0.040331349285369709 -0.013355137616564459 0 -0.041327908151739624 -0.012787465596079175 0 -0.040118429471150949 -0.012451428431360882 0 -0.039231636302260037 -0.011852360834172092 0 -0.039420485886423079 -0.013240057785119582 0 -0.040075756439228095 -0.011222294652064674 0 -0.040118429471150949 -0.012451428431360882 0 -0.039231636302260037 -0.011852360834172092 0 -0.039175670881970451 -0.010709504913787898 0 -0.040075756439228095 -0.011222294652064674 0 -0.039231636302260037 -0.011852360834172092 0 -0.038301824730404291 -0.01108676545132466 0 -0.039231636302260037 -0.011852360834172092 0 -0.038029717967381305 -0.012710668825761856 0 -0.039231636302260037 -0.011852360834172092 0 -0.039420485886423079 -0.013240057785119582 0 -0.038029717967381305 -0.012710668825761856 0 -0.039420485886423079 -0.013240057785119582 0 -0.039987547064575329 -0.014179519838390268 0 -0.038825910745105524 -0.015269373309615966 0 -0.039420485886423079 -0.013240057785119582 0 -0.038029717967381305 -0.012710668825761856 0 -0.038825910745105524 -0.015269373309615966 0 -0.039987547064575329 -0.014179519838390268 0 -0.040331349285369709 -0.013355137616564459 0 -0.040957436115065325 -0.014035493651970328 0 -0.039987547064575329 -0.014179519838390268 0 -0.040360646402186263 -0.015044292615359101 0 -0.040957436115065325 -0.014035493651970328 0 -0.040331349285369709 -0.013355137616564459 0 -0.041327908151739624 -0.012787465596079175 0 -0.040957436115065325 -0.014035493651970328 0 -0.039420485886423079 -0.013240057785119582 0 -0.039987547064575329 -0.014179519838390268 0 -0.040331349285369709 -0.013355137616564459 0 -0.040118429471150949 -0.012451428431360882 0 -0.039420485886423079 -0.013240057785119582 0 -0.040331349285369709 -0.013355137616564459 0 -0.036279197905013272 -0.01285226338163708 0 -0.037421363607435566 -0.013881310694153522 0 -0.03470889166756945 -0.011849410427454164 0 -0.036645122322147762 -0.011497187734940051 0 -0.036293595519777198 -0.013321938992396259 0 -0.036645122322147762 -0.011497187734940051 0 -0.038029717967381305 -0.012710668825761856 0 -0.036293595519777198 -0.013321938992396259 0 -0.038301824730404291 -0.01108676545132466 0 -0.036645122322147762 -0.011497187734940051 0 -0.038029717967381305 -0.012710668825761856 0 -0.038029717967381305 -0.012710668825761856 0 -0.036293595519777198 -0.013321938992396259 0 -0.038825910745105524 -0.015269373309615966 0 -0.037421363607435566 -0.013881310694153522 0 -0.038113825637297441 -0.014441500102543478 0 -0.037616832901142171 -0.015255704392874542 0 -0.038462447736779114 -0.015033469072902537 0 -0.038124145335326938 -0.016038040576937643 0 -0.038462447736779114 -0.015033469072902537 0 -0.038124145335326938 -0.016038040576937643 0 -0.038825910745105524 -0.015269373309615966 0 -0.038124145335326938 -0.016038040576937643 0 -0.038733595969582139 -0.01676138030650608 0 -0.038825910745105524 -0.015269373309615966 0 -0.037673316717324892 -0.017595931841503567 0 -0.038124145335326938 -0.016038040576937643 0 -0.038733595969582139 -0.01676138030650608 0 -0.040360646402186263 -0.015044292615359101 0 -0.040074742287392238 -0.015949955425926365 0 -0.041068396553218124 -0.015469905536506344 0 -0.040360646402186263 -0.015044292615359101 0 -0.041287835342483592 -0.014815130624479025 0 -0.040957436115065325 -0.014035493651970328 0 -0.040360646402186263 -0.015044292615359101 0 -0.041068396553218124 -0.015469905536506344 0 -0.041287835342483592 -0.014815130624479025 0 -0.038825910745105524 -0.015269373309615966 0 -0.039418324458593078 -0.016561614440804433 0 -0.040074742287392238 -0.015949955425926365 0 -0.039987547064575329 -0.014179519838390268 0 -0.040360646402186263 -0.015044292615359101 0 -0.038825910745105524 -0.015269373309615966 0 -0.040360646402186263 -0.015044292615359101 0 -0.038825910745105524 -0.015269373309615966 0 -0.040074742287392238 -0.015949955425926365 0 -0.038733595969582139 -0.01676138030650608 0 -0.038825910745105524 -0.015269373309615966 0 -0.039418324458593078 -0.016561614440804433 0 -0.040261830402993352 -0.01697904904538149 0 -0.039418324458593078 -0.016561614440804433 0 -0.040074742287392238 -0.015949955425926365 0 -0.040261830402993352 -0.01697904904538149 0 -0.040074742287392238 -0.015949955425926365 0 -0.040732039590972338 -0.016300616954903244 0 -0.040074742287392238 -0.015949955425926365 0 -0.040732039590972338 -0.016300616954903244 0 -0.041068396553218124 -0.015469905536506344 0 -0.040261830402993352 -0.01697904904538149 0 -0.040732039590972338 -0.016300616954903244 0 -0.041050935406165896 -0.01684394334151635 0 -0.041050935406165896 -0.01684394334151635 0 -0.041568851756808405 -0.016651113615763574 0 -0.041297151136909349 -0.016175728611191615 0 -0.040732039590972338 -0.016300616954903244 0 -0.041050935406165896 -0.01684394334151635 0 -0.041297151136909349 -0.016175728611191615 0 -0.041562481854712348 -0.017415470879132994 0 -0.041568851756808405 -0.016651113615763574 0 -0.042014562851748441 -0.016746258404865738 0 -0.041568851756808405 -0.016651113615763574 0 -0.0418066722191913 -0.01645557466263237 0 -0.042014562851748441 -0.016746258404865738 0 -0.041568851756808405 -0.016651113615763574 0 -0.0418066722191913 -0.01645557466263237 0 -0.041636409693831575 -0.01623092063267435 0 -0.0418066722191913 -0.01645557466263237 0 -0.041636409693831575 -0.01623092063267435 0 -0.042094454284883585 -0.016074573992120811 0 -0.041568851756808405 -0.016651113615763574 0 -0.041636409693831575 -0.01623092063267435 0 -0.041297151136909349 -0.016175728611191615 0 -0.041636409693831575 -0.01623092063267435 0 -0.041297151136909349 -0.016175728611191615 0 -0.041713361617257409 -0.015782078422653358 0 -0.041636409693831575 -0.01623092063267435 0 -0.041713361617257409 -0.015782078422653358 0 -0.042094454284883585 -0.016074573992120811 0 -0.040732039590972338 -0.016300616954903244 0 -0.041297151136909349 -0.016175728611191615 0 -0.041068396553218124 -0.015469905536506344 0 -0.041713361617257409 -0.015782078422653358 0 -0.041287835342483592 -0.014815130624479025 0 -0.042049188683416901 -0.014140938644118091 0 -0.041068396553218124 -0.015469905536506344 0 -0.041713361617257409 -0.015782078422653358 0 -0.041287835342483592 -0.014815130624479025 0 -0.037059678402293732 -0.014288181420977295 0 -0.037541122748316613 -0.01358434560136813 0 -0.041297151136909349 -0.016175728611191615 0 -0.041068396553218124 -0.015469905536506344 0 -0.041713361617257409 -0.015782078422653358 0 -0.041713361617257409 -0.015782078422653358 0 -0.042094454284883585 -0.016074573992120811 0 -0.042049188683416901 -0.014140938644118091 0 -0.036228989630373881 -0.014185243802638945 0 -0.035680783528168322 -0.012960040544325519 0 -0.037645236637130257 -0.014087387352295325 0 -0.037437863458605468 -0.014336605881539189 0 -0.037320333309154519 -0.013612911662448681 0 -0.036228989630373881 -0.014185243802638945 0 -0.033806322780543505 -0.013931813881212191 0 -0.036228989630373881 -0.014185243802638945 0 -0.037541122748316613 -0.01358434560136813 0 -0.036228989630373881 -0.014185243802638945 0 -0.037059678402293732 -0.014288181420977295 0 -0.036228989630373881 -0.014185243802638945 0 -0.033889028975197244 -0.015939096497955239 0 -0.042251442837547219 -0.0157957470630679 0 -0.041907989747980427 -0.016222985695752173 0 -0.042014562851748441 -0.016746258404865738 0 -0.042251442837547219 -0.0157957470630679 0 -0.042014562851748441 -0.016746258404865738 0 -0.043000638397513155 -0.016894275003940581 0 -0.037059678402293732 -0.014288181420977295 0 -0.037286452034646575 -0.014650388696522871 0 -0.0418066722191913 -0.01645557466263237 0 -0.042094454284883585 -0.016074573992120811 0 -0.042014562851748441 -0.016746258404865738 0 -0.029911531695647378 -0.014744140393970076 0 -0.029345600583938022 -0.013992155447774584 0 -0.02919882639659039 -0.014613050224550235 0 -0.029345600583938022 -0.013992155447774584 0 -0.028767119566261056 -0.014169737502840309 0 -0.02919882639659039 -0.014613050224550235 0 -0.028567967592258315 -0.014473074915967003 0 -0.028341297882871711 -0.014787848354469876 0 -0.028291740906903385 -0.014153388147545125 0 -0.028767119566261056 -0.014169737502840309 0 -0.028829047120966466 -0.014518919268970231 0 -0.028567967592258315 -0.014473074915967003 0 -0.028767119566261056 -0.014169737502840309 0 -0.028829047120966466 -0.014518919268970231 0 -0.02919882639659039 -0.014613050224550235 0 -0.028767119566261056 -0.014169737502840309 0 -0.028567967592258315 -0.014473074915967003 0 -0.028291740906903385 -0.014153388147545125 0 -0.028341297882871711 -0.014787848354469876 0 -0.028597544532956178 -0.015126651616026197 0 -0.028210190010428061 -0.015444424750606037 0 -0.028567967592258315 -0.014473074915967003 0 -0.028341297882871711 -0.014787848354469876 0 -0.028729547000403418 -0.014776360441626498 0 -0.028829047120966466 -0.014518919268970231 0 -0.028729547000403418 -0.014776360441626498 0 -0.02919882639659039 -0.014613050224550235 0 -0.028829047120966466 -0.014518919268970231 0 -0.028567967592258315 -0.014473074915967003 0 -0.028729547000403418 -0.014776360441626498 0 -0.028729547000403418 -0.014776360441626498 0 -0.028597544532956178 -0.015126651616026197 0 -0.028972339079699334 -0.015020115763182152 0 -0.028341297882871711 -0.014787848354469876 0 -0.028729547000403418 -0.014776360441626498 0 -0.028597544532956178 -0.015126651616026197 0 -0.029911531695647378 -0.014744140393970076 0 -0.02919882639659039 -0.014613050224550235 0 -0.029408640906088804 -0.015103674815793621 0 -0.03490002447435242 -0.013658674848748029 0 -0.035169016832400424 -0.013426851725233524 0 -0.03524575737200572 -0.013176229503591461 0 -0.028729547000403418 -0.014776360441626498 0 -0.02919882639659039 -0.014613050224550235 0 -0.028972339079699334 -0.015020115763182152 0 -0.02919882639659039 -0.014613050224550235 0 -0.028972339079699334 -0.015020115763182152 0 -0.029408640906088804 -0.015103674815793621 0 -0.033806322780543505 -0.013931813881212191 0 -0.032460761997202839 -0.013062269834341595 0 -0.028972339079699334 -0.015020115763182152 0 -0.029408640906088804 -0.015103674815793621 0 -0.028923302049173375 -0.015485179814478488 0 -0.035169016832400424 -0.013426851725233524 0 -0.03524575737200572 -0.013176229503591461 0 -0.035428897136002398 -0.013181588717553839 0 -0.035680783528168322 -0.012960040544325519 0 -0.032460761997202839 -0.013062269834341595 0 -0.026114605899363763 -0.011691132506496046 0 -0.025674014299584748 -0.011646222534500053 0 -0.025546033864832486 -0.012037326771595294 0 -0.032460761997202839 -0.013062269834341595 0 -0.026339350981884519 -0.013670259560501396 0 -0.035080958335061072 -0.013338977300991763 0 -0.036093074711467582 -0.013397909737073652 0 -0.037029163064289376 -0.0112147679033035 0 -0.028597544532956178 -0.015126651616026197 0 -0.028923302049173375 -0.015485179814478488 0 -0.028210190010428061 -0.015444424750606037 0 -0.028597544532956178 -0.015126651616026197 0 -0.028972339079699334 -0.015020115763182152 0 -0.028923302049173375 -0.015485179814478488 0 -0.037247108308942449 -0.01224139440125868 0 -0.037559756108616033 -0.01191961747837722 0 -0.037627919103448121 -0.011883513560762043 0 -0.032460761997202839 -0.013062269834341595 0 -0.031462264205946146 -0.011038256897306984 0 -0.036093074711467582 -0.013397909737073652 0 -0.037029163064289376 -0.0112147679033035 0 -0.038725837639103006 -0.011214740180217432 0 -0.035680783528168322 -0.012960040544325519 0 -0.037427553498379319 -0.011513598329637673 0 -0.037643498910187263 -0.011825977423382024 0 -0.037563258857902619 -0.011743040065822189 0 -0.03765867916911609 -0.011708079717323246 0 -0.037559756108616033 -0.01191961747837722 0 -0.037627919103448121 -0.011883513560762043 0 -0.037833425316619575 -0.01162366661308795 0 -0.037509048626210781 -0.01197206989995326 0 -0.037490045370418203 -0.011823030711001806 0 -0.03737163919300536 -0.011833813358236413 0 -0.037509048626210781 -0.01197206989995326 0 -0.037643498910187263 -0.011825977423382024 0 -0.037490045370418203 -0.011823030711001806 0 -0.035680783528168322 -0.012960040544325519 0 -0.036791927830126692 -0.012026987037878946 0 -0.037643498910187263 -0.011825977423382024 0 -0.037490045370418203 -0.011823030711001806 0 -0.037563258857902619 -0.011743040065822189 0 -0.037490045370418203 -0.011823030711001806 0 -0.037418104557501768 -0.011697430015572699 0 -0.037563258857902619 -0.011743040065822189 0 -0.037490045370418203 -0.011823030711001806 0 -0.03737163919300536 -0.011833813358236413 0 -0.037418104557501768 -0.011697430015572699 0 -0.037701221426171418 -0.01310579990361261 0 -0.038475002564380315 -0.011208687710813424 0 -0.03737163919300536 -0.011833813358236413 0 -0.037262150893107353 -0.011952376883875661 0 -0.037232288603532698 -0.011732774408740675 0 -0.040478020270944957 -0.011819988209419388 0 -0.040697499235830638 -0.010939517401725198 0 -0.040360249868942523 -0.010988206822302815 0 -0.040478020270944957 -0.011819988209419388 0 -0.040878070003958482 -0.01216945426827722 0 -0.040697499235830638 -0.010939517401725198 0 -0.040478020270944957 -0.011819988209419388 0 -0.040878070003958482 -0.01216945426827722 0 -0.040708939064541975 -0.012170300793286092 0 -0.037306536977820978 -0.013296114358114142 0 -0.037284764055507451 -0.013296120826364048 0 -0.03731274708147863 -0.013339986499227061 0 -0.037701221426171418 -0.01310579990361261 0 -0.037865465872222753 -0.013279718602408019 0 -0.041327908151739624 -0.012787465596079175 0 -0.041722377233980527 -0.013508204430733688 0 -0.040957436115065325 -0.014035493651970328 0 -0.038230130166892223 -0.013225130484923735 0 -0.037865465872222753 -0.013279718602408019 0 -0.041722377233980527 -0.013508204430733688 0 -0.040957436115065325 -0.014035493651970328 0 -0.042049188683416901 -0.014140938644118091 0 -0.041287835342483592 -0.014815130624479025 0 -0.040957436115065325 -0.014035493651970328 0 -0.042049188683416901 -0.014140938644118091 0 -0.037701221426171418 -0.01310579990361261 0 -0.037541122748316613 -0.01358434560136813 0 -0.037865465872222753 -0.013279718602408019 0 -0.037541122748316613 -0.01358434560136813 0 -0.037509048626210781 -0.01197206989995326 0 -0.03737163919300536 -0.011833813358236413 0 -0.037262150893107353 -0.011952376883875661 0 -0.035680783528168322 -0.012960040544325519 0 -0.037701221426171418 -0.01310579990361261 0 -0.036383018304136545 -0.013134435184033885 0 -0.036704944350979984 -0.013156517585305741 0 -0.036692034089637386 -0.013086068592835655 0 -0.036570468303427368 -0.012918852667030139 0 -0.036383018304136545 -0.013134435184033885 0 -0.036692034089637386 -0.013086068592835655 0 -0.0090171193390085874 -0.014250914995214302 0 -0.0090849327035843423 -0.014208255743498524 0 -0.008964025386749128 -0.014167833616242088 0 -0.0090171193390085874 -0.014250914995214302 0 -0.0092015641192020724 -0.014355188955520008 0 -0.0090849327035843423 -0.014208255743498524 0 -0.0091975109792419487 -0.014151656316668683 0 -0.0090171193390085874 -0.014250914995214302 0 -0.008735836267386235 -0.01424941151851683 0 -0.0091975109792419487 -0.014151656316668683 0 -0.0090171193390085874 -0.014250914995214302 0 -0.0092876310325165704 -0.014276283028140003 0 -0.0090171193390085874 -0.014250914995214302 0 -0.0092876310325165704 -0.014276283028140003 0 -0.0092015641192020724 -0.014355188955520008 0 -0.0092876310325165704 -0.014276283028140003 0 -0.0094108586301950552 -0.014410606174677832 0 -0.0092015641192020724 -0.014355188955520008 0 -0.0092876310325165704 -0.014276283028140003 0 -0.0094292824811381178 -0.014199519763200004 0 -0.0095086119275379841 -0.014309457797455689 0 -0.0092876310325165704 -0.014276283028140003 0 -0.0095086119275379841 -0.014309457797455689 0 -0.0094108586301950552 -0.014410606174677832 0 -0.0091975109792419487 -0.014151656316668683 0 -0.0092876310325165704 -0.014276283028140003 0 -0.0094292824811381178 -0.014199519763200004 0 -0.023353478203792296 -0.015973135072180747 0 -0.020997451443943414 -0.015256203399830803 0 -0.0094292824811381178 -0.014199519763200004 0 -0.0096238540561464202 -0.014195758989676286 0 -0.0095086119275379841 -0.014309457797455689 0 -0.0094360315036704102 -0.014056737936968187 0 -0.0094292824811381178 -0.014199519763200004 0 -0.0096238540561464202 -0.014195758989676286 0 -0.028341297882871711 -0.014787848354469876 0 -0.028291740906903385 -0.014153388147545125 0 -0.027887994995375576 -0.014761597537486021 0 -0.020997451443943414 -0.015256203399830803 0 -0.01956467194460406 -0.014275883947519019 0 -0.028341297882871711 -0.014787848354469876 0 -0.027887994995375576 -0.014761597537486021 0 -0.028210190010428061 -0.015444424750606037 0 -0.027887994995375576 -0.014761597537486021 0 -0.028210190010428061 -0.015444424750606037 0 -0.027477434183107035 -0.015398842740482992 0 -0.025674014299584748 -0.011646222534500053 0 -0.025546033864832486 -0.012037326771595294 0 -0.025271911694077033 -0.011629050952600868 0 -0.026339350981884519 -0.013670259560501396 0 -0.01956467194460406 -0.014275883947519019 0 -0.025546033864832486 -0.012037326771595294 0 -0.025053488685279724 -0.011982366138117885 0 -0.025271911694077033 -0.011629050952600868 0 -0.009357526603702631 -0.014253389936919174 0 -0.0094871961562103466 -0.014136260927365236 0 -0.0092867442809166211 -0.014139983190206609 0 -0.018922133658315077 -0.013543476339497214 0 -0.01956467194460406 -0.014275883947519019 0 -0.01956467194460406 -0.014275883947519019 0 -0.013137620196713258 -0.014044742825517209 0 -0.013137620196713258 -0.014044742825517209 0 -0.011610599107307277 -0.014000291762026657 0 -0.009357526603702631 -0.014253389936919174 0 -0.0092867442809166211 -0.014139983190206609 0 -0.0091710654798130252 -0.014232270770413875 0 -0.009357526603702631 -0.014253389936919174 0 -0.0091710654798130252 -0.014232270770413875 0 -0.0092808471128012719 -0.014315608899897549 0 -0.0091710654798130252 -0.014232270770413875 0 -0.0090321843778939943 -0.014182444254039346 0 -0.0090872436746128465 -0.014231315449145604 0 -0.0091710654798130252 -0.014232270770413875 0 -0.0091659652681144021 -0.014267758546524505 0 -0.0090872436746128465 -0.014231315449145604 0 -0.0091710654798130252 -0.014232270770413875 0 -0.0090849327035843423 -0.014208255743498524 0 -0.0090321843778939943 -0.014182444254039346 0 -0.0092867442809166211 -0.014139983190206609 0 -0.0091710654798130252 -0.014232270770413875 0 -0.0090849327035843423 -0.014208255743498524 0 -0.0092689436890428488 -0.014306357628664283 0 -0.0092533380660544274 -0.01433096414199389 0 -0.0092808471128012719 -0.014315608899897549 0 -0.0091852793480578249 -0.014388404800975413 0 -0.0092533380660544274 -0.01433096414199389 0 -0.0092460947175612498 -0.014440750513970464 0 -0.0091852793480578249 -0.014388404800975413 0 -0.0092533380660544274 -0.01433096414199389 0 -0.009167182581394321 -0.014333077911055016 0 -0.0091852793480578249 -0.014388404800975413 0 -0.009167182581394321 -0.014333077911055016 0 -0.0091069066938286748 -0.014395418139204263 0 -0.0092689436890428488 -0.014306357628664283 0 -0.0092533380660544274 -0.01433096414199389 0 -0.0093305483303195644 -0.014258341264356201 0 -0.019373204760192487 -0.0093810211236109269 0 -0.019995943448711227 -0.0082590246641942415 0 -0.0092533380660544274 -0.01433096414199389 0 -0.0092168227424166312 -0.014305912314344084 0 -0.0092808471128012719 -0.014315608899897549 0 -0.0092533380660544274 -0.01433096414199389 0 -0.009167182581394321 -0.014333077911055016 0 -0.0092168227424166312 -0.014305912314344084 0 -0.009167182581394321 -0.014333077911055016 0 -0.0091342623801815744 -0.014288474894637986 0 -0.0092168227424166312 -0.014305912314344084 0 -0.0091710654798130252 -0.014232270770413875 0 -0.0091659652681144021 -0.014267758546524505 0 -0.0092808471128012719 -0.014315608899897549 0 -0.0091342623801815744 -0.014288474894637986 0 -0.0091659652681144021 -0.014267758546524505 0 -0.0092168227424166312 -0.014305912314344084 0 -0.0091659652681144021 -0.014267758546524505 0 -0.0092168227424166312 -0.014305912314344084 0 -0.0092808471128012719 -0.014315608899897549 0 -0.0091342623801815744 -0.014288474894637986 0 -0.0091659652681144021 -0.014267758546524505 0 -0.0090872436746128465 -0.014231315449145604 0 -0.025053488685279724 -0.011982366138117885 0 -0.024851148725914367 -0.012254871181434949 0 -0.025057496131693346 -0.012286200524207178 0 -0.018922133658315077 -0.013543476339497214 0 -0.019265106908830314 -0.012381177431949136 0 -0.021819144989732 -0.0084574129945169402 0 -0.029644550952032341 -0.0088979398405673663 0 -0.021819144989732 -0.0084574129945169402 0 -0.019265106908830314 -0.012381177431949136 0 -0.024626529092440008 -0.012452069042644025 0 -0.024851148725914367 -0.012254871181434949 0 -0.025057496131693346 -0.012286200524207178 0 -0.041911449449600013 -0.0078084630788865595 0 -0.041283670985240412 -0.0080420884089349373 0 -0.040991270374841883 -0.0091122636710096704 0 -0.041283670985240412 -0.0080420884089349373 0 -0.040269344118734611 -0.00816606517440676 0 -0.041345971076944169 -0.0075082994350956379 0 -0.041275929501843812 -0.007918395020955404 0 -0.040949492453195159 -0.0079005541074996938 0 -0.041262412363202008 -0.0076079671291831227 0 -0.040269344118734611 -0.00816606517440676 0 -0.040991270374841883 -0.0091122636710096704 0 -0.039946687658943762 -0.0090783449371350852 0 -0.041283670985240412 -0.0080420884089349373 0 -0.040269344118734611 -0.00816606517440676 0 -0.040991270374841883 -0.0091122636710096704 0 -0.025546033864832486 -0.012037326771595294 0 -0.025053488685279724 -0.011982366138117885 0 -0.025057496131693346 -0.012286200524207178 0 -0.038725837639103006 -0.011214740180217432 0 -0.040991270374841883 -0.0091122636710096704 0 -0.039946687658943762 -0.0090783449371350852 0 -0.031462264205946146 -0.011038256897306984 0 -0.029644550952032341 -0.0088979398405673663 0 -0.039404281689417633 -0.0098579312642833455 0 -0.039357026511671618 -0.0098904994739353585 0 -0.037029163064289376 -0.0112147679033035 0 -0.038725837639103006 -0.011214740180217432 0 -0.03889353562527223 -0.0092298417415986374 0 -0.038725837639103006 -0.011214740180217432 0 -0.039946687658943762 -0.0090783449371350852 0 -0.03889353562527223 -0.0092298417415986374 0 -0.037627919103448121 -0.011883513560762043 0 -0.037936832867592772 -0.011551993909512667 0 -0.037833425316619575 -0.01162366661308795 0 -0.037427553498379319 -0.011513598329637673 0 -0.039357026511671618 -0.0098904994739353585 0 -0.040960543168880925 -0.0083509893912308876 0 -0.040949492453195159 -0.0079005541074996938 0 -0.040648917395862301 -0.0081256358520293785 0 -0.041275929501843812 -0.007918395020955404 0 -0.040960543168880925 -0.0083509893912308876 0 -0.040949492453195159 -0.0079005541074996938 0 -0.040243259348384144 -0.0088452741409608682 0 -0.039357026511671618 -0.0098904994739353585 0 -0.040269344118734611 -0.00816606517440676 0 -0.039946687658943762 -0.0090783449371350852 0 -0.039151261286629324 -0.0091899360824578419 0 -0.041024479150368401 -0.007438745790277858 0 -0.040627901950024484 -0.0077525594258273265 0 -0.040641184843188176 -0.007039983780844826 0 -0.040949492453195159 -0.0079005541074996938 0 -0.041024479150368401 -0.007438745790277858 0 -0.040627901950024484 -0.0077525594258273265 0 -0.040949492453195159 -0.0079005541074996938 0 -0.041024479150368401 -0.007438745790277858 0 -0.041262412363202008 -0.0076079671291831227 0 -0.041024479150368401 -0.007438745790277858 0 -0.041106696516237766 -0.0068751305524381379 0 -0.040641184843188176 -0.007039983780844826 0 -0.041106696516237766 -0.0068751305524381379 0 -0.040641184843188176 -0.007039983780844826 0 -0.040833134590964264 -0.0061196303630246945 0 -0.041106696516237766 -0.0068751305524381379 0 -0.041518773064941505 -0.0072187616887398436 0 -0.04150510081778494 -0.0061280908514068852 0 -0.041024479150368401 -0.007438745790277858 0 -0.041106696516237766 -0.0068751305524381379 0 -0.041518773064941505 -0.0072187616887398436 0 -0.041518773064941505 -0.0072187616887398436 0 -0.041262412363202008 -0.0076079671291831227 0 -0.041345971076944169 -0.0075082994350956379 0 -0.041024479150368401 -0.007438745790277858 0 -0.041518773064941505 -0.0072187616887398436 0 -0.041262412363202008 -0.0076079671291831227 0 -0.041275929501843812 -0.007918395020955404 0 -0.041262412363202008 -0.0076079671291831227 0 -0.041345971076944169 -0.0075082994350956379 0 -0.040243259348384144 -0.0088452741409608682 0 -0.040548615991882732 -0.0084923434942740361 0 -0.041911449449600013 -0.0078084630788865595 0 -0.041283670985240412 -0.0080420884089349373 0 -0.041569579234803061 -0.0075613168898945784 0 -0.041283670985240412 -0.0080420884089349373 0 -0.041345971076944169 -0.0075082994350956379 0 -0.041569579234803061 -0.0075613168898945784 0 -0.041911449449600013 -0.0078084630788865595 0 -0.041569579234803061 -0.0075613168898945784 0 -0.041742810375712751 -0.0074733108423229227 0 -0.041569579234803061 -0.0075613168898945784 0 -0.041613107020753201 -0.0073031086185188776 0 -0.041742810375712751 -0.0074733108423229227 0 -0.041569579234803061 -0.0075613168898945784 0 -0.041506963950369478 -0.0073190961922500351 0 -0.041613107020753201 -0.0073031086185188776 0 -0.041345971076944169 -0.0075082994350956379 0 -0.041569579234803061 -0.0075613168898945784 0 -0.041506963950369478 -0.0073190961922500351 0 -0.041518773064941505 -0.0072187616887398436 0 -0.041345971076944169 -0.0075082994350956379 0 -0.041506963950369478 -0.0073190961922500351 0 -0.041518773064941505 -0.0072187616887398436 0 -0.041506963950369478 -0.0073190961922500351 0 -0.041557550382142559 -0.0071904055533493052 0 -0.039953004388888269 -0.0054475826068496212 0 -0.039647629755995402 -0.004879667776170292 0 -0.041518773064941505 -0.0072187616887398436 0 -0.041557550382142559 -0.0071904055533493052 0 -0.041511725165239488 -0.0070479990861979109 0 -0.041557550382142559 -0.0071904055533493052 0 -0.04163942997135326 -0.0072084793302868095 0 -0.041612726010598546 -0.0071225916369011214 0 -0.041557550382142559 -0.0071904055533493052 0 -0.041612726010598546 -0.0071225916369011214 0 -0.041511725165239488 -0.0070479990861979109 0 -0.041557550382142559 -0.0071904055533493052 0 -0.041613107020753201 -0.0073031086185188776 0 -0.04163942997135326 -0.0072084793302868095 0 -0.041506963950369478 -0.0073190961922500351 0 -0.041557550382142559 -0.0071904055533493052 0 -0.041613107020753201 -0.0073031086185188776 0 -0.041613107020753201 -0.0073031086185188776 0 -0.041717429578409029 -0.0072883148720480507 0 -0.04163942997135326 -0.0072084793302868095 0 -0.041717429578409029 -0.0072883148720480507 0 -0.04163942997135326 -0.0072084793302868095 0 -0.041682127843733291 -0.0071645093999587193 0 -0.041612726010598546 -0.0071225916369011214 0 -0.041682127843733291 -0.0071645093999587193 0 -0.041623623892628692 -0.0070453882208603349 0 -0.04163942997135326 -0.0072084793302868095 0 -0.041612726010598546 -0.0071225916369011214 0 -0.041682127843733291 -0.0071645093999587193 0 -0.041682127843733291 -0.0071645093999587193 0 -0.041691332733180153 -0.0071773690708530668 0 -0.041623623892628692 -0.0070453882208603349 0 -0.02412098650892544 -0.0049177631108278169 0 -0.023688846201290279 -0.004779364295460089 0 -0.022704196350776723 -0.0011336842992887193 0 -0.021478424402411041 -0.0068885223769239194 0 -0.024381699153986233 -0.0017876982945463412 0 -0.023688846201290279 -0.004779364295460089 0 -0.021611639848470712 -0.0062675730638898355 0 -0.023688846201290279 -0.004779364295460089 0 -0.020859832113235759 -0.0038799539110393935 0 -0.021611639848470712 -0.0062675730638898355 0 -0.020859832113235759 -0.0038799539110393935 0 -0.041717429578409029 -0.0072883148720480507 0 -0.041744755749474047 -0.0071863107644469714 0 -0.041836404956812026 -0.0074356912162558946 0 -0.041717429578409029 -0.0072883148720480507 0 -0.041682127843733291 -0.0071645093999587193 0 -0.041744755749474047 -0.0071863107644469714 0 -0.019840042346669102 -0.0057986225779761971 0 -0.019704895529537424 -0.0064658998527141213 0 -0.021351144550773908 -0.0050800577498586741 0 -0.041613107020753201 -0.0073031086185188776 0 -0.041717429578409029 -0.0072883148720480507 0 -0.041742810375712751 -0.0074733108423229227 0 -0.041717429578409029 -0.0072883148720480507 0 -0.041836404956812026 -0.0074356912162558946 0 -0.041742810375712751 -0.0074733108423229227 0 -0.021311064474765901 -0.0087834359854710772 0 -0.021813003779694216 -0.0078481238760571351 0 -0.021696587400485065 -0.0084558711054892738 0 -0.041911449449600013 -0.0078084630788865595 0 -0.041836404956812026 -0.0074356912162558946 0 -0.041742810375712751 -0.0074733108423229227 0 -0.021819144989732 -0.0084574129945169402 0 -0.021611639848470712 -0.0062675730638898355 0 -0.021819144989732 -0.0084574129945169402 0 -0.019995943448711227 -0.0082590246641942415 0 -0.0091852793480578249 -0.014388404800975413 0 -0.0092460947175612498 -0.014440750513970464 0 -0.009127561448481666 -0.014457333694728352 0 -0.021611639848470712 -0.0062675730638898355 0 -0.019995943448711227 -0.0082590246641942415 0 -0.03998023527071818 -0.0086011176051170712 0 -0.040069924856442736 -0.0081532548236383923 0 -0.039927841291239302 -0.0082736314640680861 0 -0.03998023527071818 -0.0086011176051170712 0 -0.040069924856442736 -0.0081532548236383923 0 -0.040055023747248751 -0.008615881755882196 0 -0.03998023527071818 -0.0086011176051170712 0 -0.040057265543722853 -0.0088635800682918976 0 -0.039927841291239302 -0.0082736314640680861 0 -0.039558330202014394 -0.008666334419198618 0 -0.040057265543722853 -0.0088635800682918976 0 -0.039927841291239302 -0.0082736314640680861 0 -0.03998023527071818 -0.0086011176051170712 0 -0.040057265543722853 -0.0088635800682918976 0 -0.040006205558632851 -0.0085848602399790086 0 -0.038628367999536402 -0.010540554852913397 0 -0.038475002564380315 -0.011208687710813424 0 -0.040057265543722853 -0.0088635800682918976 0 -0.040962276925671004 -0.010873024916683387 0 -0.040360249868942523 -0.010988206822302815 0 -0.038475002564380315 -0.011208687710813424 0 -0.038611903090921183 -0.011189122600634064 0 -0.038475002564380315 -0.011208687710813424 0 -0.038795811966956639 -0.010619442339105226 0 -0.03737163919300536 -0.011833813358236413 0 -0.037232288603532698 -0.011732774408740675 0 -0.037418104557501768 -0.011697430015572699 0 -0.03998023527071818 -0.0086011176051170712 0 -0.040006205558632851 -0.0085848602399790086 0 -0.040055023747248751 -0.008615881755882196 0 -0.040055023747248751 -0.008615881755882196 0 -0.040440295364328735 -0.0084684711332332595 0 -0.040319199841079296 -0.0081321125644157072 0 -0.038795811966956639 -0.010619442339105226 0 -0.039069010340932589 -0.010222901957884117 0 -0.037418104557501768 -0.011697430015572699 0 -0.037563258857902619 -0.011743040065822189 0 -0.037616012479266776 -0.011635007201102688 0 -0.039357026511671618 -0.0098904994739353585 0 -0.039069010340932589 -0.010222901957884117 0 -0.037936832867592772 -0.011551993909512667 0 -0.037833425316619575 -0.01162366661308795 0 -0.037616012479266776 -0.011635007201102688 0 -0.040960543168880925 -0.0083509893912308876 0 -0.040440295364328735 -0.0084684711332332595 0 -0.040648917395862301 -0.0081256358520293785 0 -0.037643498910187263 -0.011825977423382024 0 -0.037833425316619575 -0.01162366661308795 0 -0.03765867916911609 -0.011708079717323246 0 -0.037833425316619575 -0.01162366661308795 0 -0.03765867916911609 -0.011708079717323246 0 -0.037616012479266776 -0.011635007201102688 0 -0.036791927830126692 -0.012026987037878946 0 -0.03710027675333178 -0.011778808832734064 0 -0.037563258857902619 -0.011743040065822189 0 -0.03765867916911609 -0.011708079717323246 0 -0.037616012479266776 -0.011635007201102688 0 -0.040440295364328735 -0.0084684711332332595 0 -0.040648917395862301 -0.0081256358520293785 0 -0.040319199841079296 -0.0081321125644157072 0 -0.040648917395862301 -0.0081256358520293785 0 -0.040319199841079296 -0.0081321125644157072 0 -0.040627901950024484 -0.0077525594258273265 0 -0.040949492453195159 -0.0079005541074996938 0 -0.040648917395862301 -0.0081256358520293785 0 -0.040627901950024484 -0.0077525594258273265 0 -0.040069924856442736 -0.0081532548236383923 0 -0.040055023747248751 -0.008615881755882196 0 -0.040319199841079296 -0.0081321125644157072 0 -0.040069924856442736 -0.0081532548236383923 0 -0.040319199841079296 -0.0081321125644157072 0 -0.040210700041329678 -0.007627182261938638 0 -0.040210700041329678 -0.007627182261938638 0 -0.040627901950024484 -0.0077525594258273265 0 -0.040641184843188176 -0.007039983780844826 0 -0.040319199841079296 -0.0081321125644157072 0 -0.040210700041329678 -0.007627182261938638 0 -0.040627901950024484 -0.0077525594258273265 0 -0.040210700041329678 -0.007627182261938638 0 -0.040641184843188176 -0.007039983780844826 0 -0.039928844850135634 -0.0069662648712540834 0 -0.040210700041329678 -0.007627182261938638 0 -0.039928844850135634 -0.0069662648712540834 0 -0.039943804542434735 -0.0075815119756294314 0 -0.039928844850135634 -0.0069662648712540834 0 -0.039943804542434735 -0.0075815119756294314 0 -0.03984259257684887 -0.0070193251451713219 0 -0.040069924856442736 -0.0081532548236383923 0 -0.039943804542434735 -0.0075815119756294314 0 -0.039927841291239302 -0.0082736314640680861 0 -0.040069924856442736 -0.0081532548236383923 0 -0.040210700041329678 -0.007627182261938638 0 -0.039943804542434735 -0.0075815119756294314 0 -0.039943804542434735 -0.0075815119756294314 0 -0.039927841291239302 -0.0082736314640680861 0 -0.039538006687406979 -0.0076796401413166959 0 -0.039558330202014394 -0.008666334419198618 0 -0.039927841291239302 -0.0082736314640680861 0 -0.039538006687406979 -0.0076796401413166959 0 -0.039122887427863649 -0.0070924887905333472 0 -0.039538006687406979 -0.0076796401413166959 0 -0.03984259257684887 -0.0070193251451713219 0 -0.039943804542434735 -0.0075815119756294314 0 -0.039538006687406979 -0.0076796401413166959 0 -0.03984259257684887 -0.0070193251451713219 0 -0.039066611569429602 -0.0065835157011389228 0 -0.03842171760248661 -0.0063196846976269197 0 -0.03852829316233302 -0.0064972981421858901 0 -0.038304698596217782 -0.0058818563245146274 0 -0.037461279432825505 -0.0061242976053044323 0 -0.039122887427863649 -0.0070924887905333472 0 -0.03984259257684887 -0.0070193251451713219 0 -0.039102316505133801 -0.0065199885802037869 0 -0.038304698596217782 -0.0058818563245146274 0 -0.038761684192575988 -0.0052472123344617701 0 -0.037552493657825557 -0.005571733668077521 0 -0.039112439912187144 -0.0049456722704311349 0 -0.038366160078645621 -0.0054614664250955099 0 -0.039192398198348757 -0.0040216612946305545 0 -0.038457831728414001 -0.004180657801128038 0 -0.03858279973475643 -0.0036558457429369741 0 -0.038761684192575988 -0.0052472123344617701 0 -0.039298325142160799 -0.0059104304275901104 0 -0.039860385982463227 -0.004879524109870058 0 -0.038304698596217782 -0.0058818563245146274 0 -0.038761684192575988 -0.0052472123344617701 0 -0.039298325142160799 -0.0059104304275901104 0 -0.03852829316233302 -0.0064972981421858901 0 -0.038304698596217782 -0.0058818563245146274 0 -0.039298325142160799 -0.0059104304275901104 0 -0.039928844850135634 -0.0069662648712540834 0 -0.03852829316233302 -0.0064972981421858901 0 -0.039298325142160799 -0.0059104304275901104 0 -0.039442465438736744 -0.0067175592617515212 0 -0.039066611569429602 -0.0065835157011389228 0 -0.039928844850135634 -0.0069662648712540834 0 -0.039298325142160799 -0.0059104304275901104 0 -0.040185623124555335 -0.005976456927510386 0 -0.040641184843188176 -0.007039983780844826 0 -0.039928844850135634 -0.0069662648712540834 0 -0.040185623124555335 -0.005976456927510386 0 -0.040641184843188176 -0.007039983780844826 0 -0.040185623124555335 -0.005976456927510386 0 -0.040833134590964264 -0.0061196303630246945 0 -0.040185623124555335 -0.005976456927510386 0 -0.040578189878204107 -0.0053138464224064264 0 -0.040833134590964264 -0.0061196303630246945 0 -0.040185623124555335 -0.005976456927510386 0 -0.040578189878204107 -0.0053138464224064264 0 -0.039860385982463227 -0.004879524109870058 0 -0.039298325142160799 -0.0059104304275901104 0 -0.040185623124555335 -0.005976456927510386 0 -0.039860385982463227 -0.004879524109870058 0 -0.039112439912187144 -0.0049456722704311349 0 -0.039987113276790762 -0.0045898581943327769 0 -0.039192398198348757 -0.0040216612946305545 0 -0.040019090489903472 -0.0039640117244559847 0 -0.039817735393566853 -0.0032724135374602344 0 -0.039987113276790762 -0.0045898581943327769 0 -0.0404927228037609 -0.0044253842807264031 0 -0.040019090489903472 -0.0039640117244559847 0 -0.039817735393566853 -0.0032724135374602344 0 -0.040899435188452501 -0.0041320303138841236 0 -0.040578189878204107 -0.0053138464224064264 0 -0.039860385982463227 -0.004879524109870058 0 -0.040899435188452501 -0.0041320303138841236 0 -0.039817735393566853 -0.0032724135374602344 0 -0.040899435188452501 -0.0041320303138841236 0 -0.040311876111429341 -0.0027461858741168977 0 -0.039817735393566853 -0.0032724135374602344 0 -0.039085545424187809 -0.0033435069471326865 0 -0.039249944153489418 -0.0028027742848139281 0 -0.039085545424187809 -0.0033435069471326865 0 -0.039249944153489418 -0.0028027742848139281 0 -0.038644601925847205 -0.0029471748002288093 0 -0.039085545424187809 -0.0033435069471326865 0 -0.038644601925847205 -0.0029471748002288093 0 -0.03858279973475643 -0.0036558457429369741 0 -0.039192398198348757 -0.0040216612946305545 0 -0.039085545424187809 -0.0033435069471326865 0 -0.03858279973475643 -0.0036558457429369741 0 -0.039192398198348757 -0.0040216612946305545 0 -0.039817735393566853 -0.0032724135374602344 0 -0.039085545424187809 -0.0033435069471326865 0 -0.038168038856567471 -0.0034935182459787661 0 -0.039647629755995402 -0.004879667776170292 0 -0.041547243387217887 -0.0067906993892730095 0 -0.041623623892628692 -0.0070453882208603349 0 -0.041671878882636369 -0.0069375407330358853 0 -0.041691332733180153 -0.0071773690708530668 0 -0.041623623892628692 -0.0070453882208603349 0 -0.041671878882636369 -0.0069375407330358853 0 -0.041547243387217887 -0.0067906993892730095 0 -0.041623623892628692 -0.0070453882208603349 0 -0.041511725165239488 -0.0070479990861979109 0 -0.023688846201290279 -0.004779364295460089 0 -0.029073985970634184 -0.0034876578213957686 0 -0.041612726010598546 -0.0071225916369011214 0 -0.041623623892628692 -0.0070453882208603349 0 -0.041511725165239488 -0.0070479990861979109 0 -0.043126868597384418 -0.0048507567074623139 0 -0.0424887798231307 -0.006050770480818167 0 -0.042486022395360472 -0.004485876359888662 0 -0.0424887798231307 -0.006050770480818167 0 -0.041874358889411593 -0.0048638378347449921 0 -0.042486022395360472 -0.004485876359888662 0 -0.041874358889411593 -0.0048638378347449921 0 -0.041202303556457077 -0.0053420139527318306 0 -0.040899435188452501 -0.0041320303138841236 0 -0.041874358889411593 -0.0048638378347449921 0 -0.04150510081778494 -0.0061280908514068852 0 -0.041202303556457077 -0.0053420139527318306 0 -0.041518773064941505 -0.0072187616887398436 0 -0.0424887798231307 -0.006050770480818167 0 -0.04150510081778494 -0.0061280908514068852 0 -0.0424887798231307 -0.006050770480818167 0 -0.041874358889411593 -0.0048638378347449921 0 -0.04150510081778494 -0.0061280908514068852 0 -0.04150510081778494 -0.0061280908514068852 0 -0.040833134590964264 -0.0061196303630246945 0 -0.041202303556457077 -0.0053420139527318306 0 -0.041106696516237766 -0.0068751305524381379 0 -0.04150510081778494 -0.0061280908514068852 0 -0.040833134590964264 -0.0061196303630246945 0 -0.040578189878204107 -0.0053138464224064264 0 -0.041202303556457077 -0.0053420139527318306 0 -0.040899435188452501 -0.0041320303138841236 0 -0.040578189878204107 -0.0053138464224064264 0 -0.040833134590964264 -0.0061196303630246945 0 -0.041202303556457077 -0.0053420139527318306 0 -0.040899435188452501 -0.0041320303138841236 0 -0.04111323845293282 -0.003094041670893795 0 -0.041672595352308876 -0.0037706880705170634 0 -0.040899435188452501 -0.0041320303138841236 0 -0.04111323845293282 -0.003094041670893795 0 -0.040311876111429341 -0.0027461858741168977 0 -0.04111323845293282 -0.003094041670893795 0 -0.041672595352308876 -0.0037706880705170634 0 -0.041650784306067778 -0.0026173573331104245 0 -0.041672595352308876 -0.0037706880705170634 0 -0.042305849614686669 -0.0034701268125600041 0 -0.041650784306067778 -0.0026173573331104245 0 -0.041874358889411593 -0.0048638378347449921 0 -0.040899435188452501 -0.0041320303138841236 0 -0.041672595352308876 -0.0037706880705170634 0 -0.041874358889411593 -0.0048638378347449921 0 -0.041672595352308876 -0.0037706880705170634 0 -0.042486022395360472 -0.004485876359888662 0 -0.041672595352308876 -0.0037706880705170634 0 -0.042486022395360472 -0.004485876359888662 0 -0.042305849614686669 -0.0034701268125600041 0 -0.042486022395360472 -0.004485876359888662 0 -0.042305849614686669 -0.0034701268125600041 0 -0.042913137957464785 -0.0039514459036728055 0 -0.042305849614686669 -0.0034701268125600041 0 -0.042909922907401449 -0.0031938342553884474 0 -0.04235404442161142 -0.0025535670005446395 0 -0.042305849614686669 -0.0034701268125600041 0 -0.042909922907401449 -0.0031938342553884474 0 -0.042913137957464785 -0.0039514459036728055 0 -0.042909922907401449 -0.0031938342553884474 0 -0.042913137957464785 -0.0039514459036728055 0 -0.043697502669910904 -0.0037635244669389917 0 -0.042909922907401449 -0.0031938342553884474 0 -0.04339383695701432 -0.0026593751186802504 0 -0.043697502669910904 -0.0037635244669389917 0 -0.043126868597384418 -0.0048507567074623139 0 -0.042913137957464785 -0.0039514459036728055 0 -0.043697502669910904 -0.0037635244669389917 0 -0.043126868597384418 -0.0048507567074623139 0 -0.042486022395360472 -0.004485876359888662 0 -0.042913137957464785 -0.0039514459036728055 0 -0.038168038856567471 -0.0034935182459787661 0 -0.034022715613226819 -0.0017657841756837536 0 -0.032824951410458235 0.002002538340608932 0 -0.032506628321070229 0.0008245956435656164 0 -0.037364606462164489 0.00086722765913303855 0 -0.034885106052454089 -0.00014417403176540723 0 -0.037700057239888313 0.005089159827551387 0 -0.037695484533767927 0.0050103327640959707 0 -0.037627468863707811 0.0048195216723697287 0 -0.033171043456003114 0.0011499201274902931 0 -0.032988992445895003 0.0021214284415770062 0 -0.033370334118972937 0.0005999518162072919 0 -0.042627166962799237 -0.0012394557315866148 0 -0.042735678941522054 -0.0021474394811234589 0 -0.04339383695701432 -0.0026593751186802504 0 -0.037700057239888313 0.005089159827551387 0 -0.037695484533767927 0.0050103327640959707 0 -0.037742789980591926 0.0050707881024799478 0 -0.033923122783118223 0.0015292219577821438 0 -0.032824951410458235 0.002002538340608932 0 -0.042627166962799237 -0.0012394557315866148 0 -0.042249843993209475 -0.0015239380082857344 0 -0.041461348053671722 -0.00029835412835661307 0 -0.042249843993209475 -0.0015239380082857344 0 -0.042735678941522054 -0.0021474394811234589 0 -0.042320088728758386 -0.00205647451358123 0 -0.042627166962799237 -0.0012394557315866148 0 -0.042249843993209475 -0.0015239380082857344 0 -0.042735678941522054 -0.0021474394811234589 0 -0.042836105390539995 -0.0026390273302617168 0 -0.042735678941522054 -0.0021474394811234589 0 -0.04339383695701432 -0.0026593751186802504 0 -0.033923122783118223 0.0015292219577821438 0 -0.034885106052454089 -0.00014417403176540723 0 -0.042909922907401449 -0.0031938342553884474 0 -0.042836105390539995 -0.0026390273302617168 0 -0.04339383695701432 -0.0026593751186802504 0 -0.042909922907401449 -0.0031938342553884474 0 -0.042836105390539995 -0.0026390273302617168 0 -0.04235404442161142 -0.0025535670005446395 0 -0.042836105390539995 -0.0026390273302617168 0 -0.042735678941522054 -0.0021474394811234589 0 -0.04235404442161142 -0.0025535670005446395 0 -0.042735678941522054 -0.0021474394811234589 0 -0.04235404442161142 -0.0025535670005446395 0 -0.042320088728758386 -0.00205647451358123 0 -0.04235404442161142 -0.0025535670005446395 0 -0.041992373701639239 -0.0020174186953534809 0 -0.042320088728758386 -0.00205647451358123 0 -0.04235404442161142 -0.0025535670005446395 0 -0.041992373701639239 -0.0020174186953534809 0 -0.041650784306067778 -0.0026173573331104245 0 -0.042305849614686669 -0.0034701268125600041 0 -0.04235404442161142 -0.0025535670005446395 0 -0.041650784306067778 -0.0026173573331104245 0 -0.041571844113375202 -0.001234965823937075 0 -0.040852514576129081 -0.0011107947209885718 0 -0.042249843993209475 -0.0015239380082857344 0 -0.039618021231222267 -0.00057221856036051785 0 -0.041461348053671722 -0.00029835412835661307 0 -0.042249843993209475 -0.0015239380082857344 0 -0.041992373701639239 -0.0020174186953534809 0 -0.0415798379453379 -0.0017050054226191893 0 -0.042249843993209475 -0.0015239380082857344 0 -0.041992373701639239 -0.0020174186953534809 0 -0.042320088728758386 -0.00205647451358123 0 -0.041992373701639239 -0.0020174186953534809 0 -0.0415798379453379 -0.0017050054226191893 0 -0.041650784306067778 -0.0026173573331104245 0 -0.0415798379453379 -0.0017050054226191893 0 -0.041650784306067778 -0.0026173573331104245 0 -0.041039942092550512 -0.0023076143617863781 0 -0.04111323845293282 -0.003094041670893795 0 -0.041039942092550512 -0.0023076143617863781 0 -0.040311876111429341 -0.0027461858741168977 0 -0.04111323845293282 -0.003094041670893795 0 -0.041650784306067778 -0.0026173573331104245 0 -0.041039942092550512 -0.0023076143617863781 0 -0.0415798379453379 -0.0017050054226191893 0 -0.041039942092550512 -0.0023076143617863781 0 -0.040615249083447026 -0.0014293720193909781 0 -0.040852514576129081 -0.0011107947209885718 0 -0.039951550885644109 -0.00093993219574386121 0 -0.039618021231222267 -0.00057221856036051785 0 -0.039413081767825528 0.0002031125465843404 0 -0.039249638203424315 -0.00012655453747961311 0 -0.039413081767825528 0.0002031125465843404 0 -0.039260611052315895 0.00050355331444122209 0 -0.039249638203424315 -0.00012655453747961311 0 -0.039413081767825528 0.0002031125465843404 0 -0.039260611052315895 0.00050355331444122209 0 -0.03948104285900185 0.00090198532812981976 0 -0.039260611052315895 0.00050355331444122209 0 -0.03948104285900185 0.00090198532812981976 0 -0.039286551939510285 0.0011420002514713711 0 -0.039413081767825528 0.0002031125465843404 0 -0.03948104285900185 0.00090198532812981976 0 -0.040171534377972551 0.00043583510448254266 0 -0.03948104285900185 0.00090198532812981976 0 -0.039839553749918322 0.0014305858483752518 0 -0.039291399139707917 0.0017425703612932784 0 -0.03948104285900185 0.00090198532812981976 0 -0.040171534377972551 0.00043583510448254266 0 -0.039839553749918322 0.0014305858483752518 0 -0.039618021231222267 -0.00057221856036051785 0 -0.039413081767825528 0.0002031125465843404 0 -0.040171534377972551 0.00043583510448254266 0 -0.039618021231222267 -0.00057221856036051785 0 -0.041461348053671722 -0.00029835412835661307 0 -0.040171534377972551 0.00043583510448254266 0 -0.041461348053671722 -0.00029835412835661307 0 -0.040820402043813361 0.00049032012339791443 0 -0.041281069576904084 0.00089416835637690518 0 -0.041461348053671722 -0.00029835412835661307 0 -0.040820402043813361 0.00049032012339791443 0 -0.040171534377972551 0.00043583510448254266 0 -0.040171534377972551 0.00043583510448254266 0 -0.040509759337634038 0.00080683212502315302 0 -0.039839553749918322 0.0014305858483752518 0 -0.03827697981456981 0.001685708941342758 0 -0.038504885916498255 0.0018627061365607445 0 -0.039839553749918322 0.0014305858483752518 0 -0.041281069576904084 0.00089416835637690518 0 -0.03916854488125663 0.0025241024545938633 0 -0.040820402043813361 0.00049032012339791443 0 -0.040171534377972551 0.00043583510448254266 0 -0.040509759337634038 0.00080683212502315302 0 -0.040509759337634038 0.00080683212502315302 0 -0.039839553749918322 0.0014305858483752518 0 -0.041281069576904084 0.00089416835637690518 0 -0.040820402043813361 0.00049032012339791443 0 -0.040509759337634038 0.00080683212502315302 0 -0.041281069576904084 0.00089416835637690518 0 -0.0375700108461599 0.0061165189741991611 0 -0.037351628502819471 0.0051094820248158953 0 -0.03800348406441903 0.0035125300331523765 0 -0.03816077794938779 0.0049488395940243731 0 -0.03782016172966831 0.0049477242223728238 0 -0.03800348406441903 0.0035125300331523765 0 -0.032397894104507774 0.0022517915124509024 0 -0.033090188325379327 0.0026430960856329896 0 -0.037115222799159388 0.0046234728608855894 0 -0.037351628502819471 0.0051094820248158953 0 -0.03800348406441903 0.0035125300331523765 0 -0.036906588155285511 0.005423882938208985 0 -0.036481804234123547 0.0058770121813609549 0 -0.036455956070090521 0.0049859959949124276 0 -0.037115222799159388 0.0046234728608855894 0 -0.036906588155285511 0.005423882938208985 0 -0.036455956070090521 0.0049859959949124276 0 -0.037115222799159388 0.0046234728608855894 0 -0.037351628502819471 0.0051094820248158953 0 -0.036906588155285511 0.005423882938208985 0 -0.037351628502819471 0.0051094820248158953 0 -0.036906588155285511 0.005423882938208985 0 -0.03711170335188612 0.0056936842493588852 0 -0.036906588155285511 0.005423882938208985 0 -0.03711170335188612 0.0056936842493588852 0 -0.036481804234123547 0.0058770121813609549 0 -0.0375700108461599 0.0061165189741991611 0 -0.03711170335188612 0.0056936842493588852 0 -0.036481804234123547 0.0058770121813609549 0 -0.0375700108461599 0.0061165189741991611 0 -0.037351628502819471 0.0051094820248158953 0 -0.03711170335188612 0.0056936842493588852 0 -0.032397894104507774 0.0022517915124509024 0 -0.032824951410458235 0.002002538340608932 0 -0.037700057239888313 0.005089159827551387 0 -0.03816077794938779 0.0049488395940243731 0 -0.037742789980591926 0.0050707881024799478 0 -0.027258100814329809 0.001424164147356923 0 -0.027297167542978798 0.0011875022523979359 0 -0.027590135650666328 0.0012293677545090081 0 -0.042627166962799237 -0.0012394557315866148 0 -0.041461348053671722 -0.00029835412835661307 0 -0.041281069576904084 0.00089416835637690518 0 -0.037364606462164489 0.00086722765913303855 0 -0.03827697981456981 0.001685708941342758 0 -0.03816077794938779 0.0049488395940243731 0 -0.03782016172966831 0.0049477242223728238 0 -0.037742789980591926 0.0050707881024799478 0 -0.038993171101698643 -0.0020386061028926481 0 -0.039709581001858681 -0.0022108655162873807 0 -0.039379664196115882 -0.00085633714573911651 0 -0.038993171101698643 -0.0020386061028926481 0 -0.039379664196115882 -0.00085633714573911651 0 -0.038757628226453407 -0.0011288109048941469 0 -0.038993171101698643 -0.0020386061028926481 0 -0.038757628226453407 -0.0011288109048941469 0 -0.038501855179562519 -0.0021678791597184448 0 -0.038644601925847205 -0.0029471748002288093 0 -0.038993171101698643 -0.0020386061028926481 0 -0.038501855179562519 -0.0021678791597184448 0 -0.039249944153489418 -0.0028027742848139281 0 -0.038644601925847205 -0.0029471748002288093 0 -0.038993171101698643 -0.0020386061028926481 0 -0.039249944153489418 -0.0028027742848139281 0 -0.038993171101698643 -0.0020386061028926481 0 -0.039709581001858681 -0.0022108655162873807 0 -0.039817735393566853 -0.0032724135374602344 0 -0.039249944153489418 -0.0028027742848139281 0 -0.039709581001858681 -0.0022108655162873807 0 -0.039817735393566853 -0.0032724135374602344 0 -0.039709581001858681 -0.0022108655162873807 0 -0.040311876111429341 -0.0027461858741168977 0 -0.039709581001858681 -0.0022108655162873807 0 -0.040311876111429341 -0.0027461858741168977 0 -0.040615249083447026 -0.0014293720193909781 0 -0.041039942092550512 -0.0023076143617863781 0 -0.040311876111429341 -0.0027461858741168977 0 -0.040615249083447026 -0.0014293720193909781 0 -0.039709581001858681 -0.0022108655162873807 0 -0.040615249083447026 -0.0014293720193909781 0 -0.039379664196115882 -0.00085633714573911651 0 -0.039951550885644109 -0.00093993219574386121 0 -0.039512279615835304 -0.0008770060364732096 0 -0.039249638203424315 -0.00012655453747961311 0 -0.039375321100360863 0.00030475683400500925 0 -0.039379664196115882 -0.00085633714573911651 0 -0.039260611052315895 0.00050355331444122209 0 -0.039249638203424315 -0.00012655453747961311 0 -0.039375321100360863 0.00030475683400500925 0 -0.039260611052315895 0.00050355331444122209 0 -0.039375321100360863 0.00030475683400500925 0 -0.03925799095908504 0.0010560093816827636 0 -0.039375321100360863 0.00030475683400500925 0 -0.03911879550364545 -4.8845456793652387e-05 0 -0.039379664196115882 -0.00085633714573911651 0 -0.03911879550364545 -4.8845456793652387e-05 0 -0.039379664196115882 -0.00085633714573911651 0 -0.038757628226453407 -0.0011288109048941469 0 -0.03911879550364545 -4.8845456793652387e-05 0 -0.038757628226453407 -0.0011288109048941469 0 -0.038449541052798547 -0.00044052166247118645 0 -0.038449541052798547 -0.00044052166247118645 0 -0.037753940618545263 -0.00077243768005467897 0 -0.03814500017238897 -0.001403514863145294 0 -0.038449541052798547 -0.00044052166247118645 0 -0.037753940618545263 -0.00077243768005467897 0 -0.038013653459588619 0.00014342420007958546 0 -0.037753940618545263 -0.00077243768005467897 0 -0.03814500017238897 -0.001403514863145294 0 -0.037668625685609726 -0.0017354139658031691 0 -0.038757628226453407 -0.0011288109048941469 0 -0.038449541052798547 -0.00044052166247118645 0 -0.03814500017238897 -0.001403514863145294 0 -0.03814500017238897 -0.001403514863145294 0 -0.038032472899714884 -0.0023813224568697278 0 -0.038501855179562519 -0.0021678791597184448 0 -0.038757628226453407 -0.0011288109048941469 0 -0.03814500017238897 -0.001403514863145294 0 -0.038501855179562519 -0.0021678791597184448 0 -0.03814500017238897 -0.001403514863145294 0 -0.038032472899714884 -0.0023813224568697278 0 -0.037668625685609726 -0.0017354139658031691 0 -0.038032472899714884 -0.0023813224568697278 0 -0.038212732356678596 -0.0030154180429277583 0 -0.037859886247748727 -0.0031268947197785535 0 -0.038032472899714884 -0.0023813224568697278 0 -0.038501855179562519 -0.0021678791597184448 0 -0.038212732356678596 -0.0030154180429277583 0 -0.038644601925847205 -0.0029471748002288093 0 -0.038501855179562519 -0.0021678791597184448 0 -0.038212732356678596 -0.0030154180429277583 0 -0.037334317183955967 -0.0028794555446425324 0 -0.037189310752237019 -0.0022397683260041656 0 -0.037017549352256644 -0.0032050434485019022 0 -0.037334317183955967 -0.0028794555446425324 0 -0.03759360656936217 -0.0025671064544305127 0 -0.037527658089803725 -0.0032927360233010626 0 -0.037334317183955967 -0.0028794555446425324 0 -0.037017549352256644 -0.0032050434485019022 0 -0.037220769981999649 -0.0039244679976927098 0 -0.03759360656936217 -0.0025671064544305127 0 -0.037859886247748727 -0.0031268947197785535 0 -0.037527658089803725 -0.0032927360233010626 0 -0.038032472899714884 -0.0023813224568697278 0 -0.03759360656936217 -0.0025671064544305127 0 -0.037859886247748727 -0.0031268947197785535 0 -0.038032472899714884 -0.0023813224568697278 0 -0.03759360656936217 -0.0025671064544305127 0 -0.037668625685609726 -0.0017354139658031691 0 -0.03759360656936217 -0.0025671064544305127 0 -0.037189310752237019 -0.0022397683260041656 0 -0.037668625685609726 -0.0017354139658031691 0 -0.037334317183955967 -0.0028794555446425324 0 -0.03759360656936217 -0.0025671064544305127 0 -0.037189310752237019 -0.0022397683260041656 0 -0.037189310752237019 -0.0022397683260041656 0 -0.037323315601804241 -0.0013056977075040206 0 -0.036988845145635559 -0.001653450753000222 0 -0.037189310752237019 -0.0022397683260041656 0 -0.037323315601804241 -0.0013056977075040206 0 -0.037668625685609726 -0.0017354139658031691 0 -0.037753940618545263 -0.00077243768005467897 0 -0.037323315601804241 -0.0013056977075040206 0 -0.037668625685609726 -0.0017354139658031691 0 -0.037753940618545263 -0.00077243768005467897 0 -0.037323315601804241 -0.0013056977075040206 0 -0.03742361693460395 -0.00027537881469497533 0 -0.037323315601804241 -0.0013056977075040206 0 -0.036813074716978547 -0.0010779181968726631 0 -0.03742361693460395 -0.00027537881469497533 0 -0.036813074716978547 -0.0010779181968726631 0 -0.036137135837568599 -0.00084323235164596568 0 -0.036288448038020824 -0.0014941116464616347 0 -0.036137135837568599 -0.00084323235164596568 0 -0.036288448038020824 -0.0014941116464616347 0 -0.03575800022587805 -0.0013803295265092978 0 -0.036813074716978547 -0.0010779181968726631 0 -0.036288448038020824 -0.0014941116464616347 0 -0.036634866155025606 -0.0020320173782609396 0 -0.036288448038020824 -0.0014941116464616347 0 -0.036270871675541647 -0.0021916280362848446 0 -0.035858598956551128 -0.0019929770469733826 0 -0.036288448038020824 -0.0014941116464616347 0 -0.036270871675541647 -0.0021916280362848446 0 -0.036634866155025606 -0.0020320173782609396 0 -0.037189310752237019 -0.0022397683260041656 0 -0.036634866155025606 -0.0020320173782609396 0 -0.036988845145635559 -0.001653450753000222 0 -0.037323315601804241 -0.0013056977075040206 0 -0.036813074716978547 -0.0010779181968726631 0 -0.036988845145635559 -0.001653450753000222 0 -0.036813074716978547 -0.0010779181968726631 0 -0.036634866155025606 -0.0020320173782609396 0 -0.036988845145635559 -0.001653450753000222 0 -0.034999983107957974 -0.00080437804368898224 0 -0.035733699517047184 -0.00070962255844421484 0 -0.036036059039526606 0.00089207688410615537 0 -0.035120442421097672 -0.0012729886016221179 0 -0.035558378640942814 -0.00074437418082395565 0 -0.03575800022587805 -0.0013803295265092978 0 -0.035120442421097672 -0.0012729886016221179 0 -0.03575800022587805 -0.0013803295265092978 0 -0.035510463826104288 -0.0018651554259961883 0 -0.036137135837568599 -0.00084323235164596568 0 -0.035558378640942814 -0.00074437418082395565 0 -0.03575800022587805 -0.0013803295265092978 0 -0.036288448038020824 -0.0014941116464616347 0 -0.03575800022587805 -0.0013803295265092978 0 -0.035858598956551128 -0.0019929770469733826 0 -0.035858598956551128 -0.0019929770469733826 0 -0.035510463826104288 -0.0018651554259961883 0 -0.035613699960818132 -0.0023488425870934349 0 -0.03575800022587805 -0.0013803295265092978 0 -0.035858598956551128 -0.0019929770469733826 0 -0.035510463826104288 -0.0018651554259961883 0 -0.034999983107957974 -0.00080437804368898224 0 -0.035733699517047184 -0.00070962255844421484 0 -0.03530525871252637 -0.002345995712741385 0 -0.035120442421097672 -0.0012729886016221179 0 -0.035510463826104288 -0.0018651554259961883 0 -0.03530525871252637 -0.002345995712741385 0 -0.034999983107957974 -0.00080437804368898224 0 -0.034999618182425606 -0.0028701875115988451 0 -0.03530525871252637 -0.002345995712741385 0 -0.035450594129809943 -0.00063025860210911373 0 -0.035359891766936137 -0.0012441165778061469 0 -0.035510463826104288 -0.0018651554259961883 0 -0.03530525871252637 -0.002345995712741385 0 -0.035613699960818132 -0.0023488425870934349 0 -0.034999618182425606 -0.0028701875115988451 0 -0.035487721767352265 -0.0027986180172866141 0 -0.035519440697542877 -0.0037502592336904898 0 -0.034999618182425606 -0.0028701875115988451 0 -0.03530525871252637 -0.002345995712741385 0 -0.035487721767352265 -0.0027986180172866141 0 -0.03530525871252637 -0.002345995712741385 0 -0.035487721767352265 -0.0027986180172866141 0 -0.035613699960818132 -0.0023488425870934349 0 -0.035487721767352265 -0.0027986180172866141 0 -0.035939208910916211 -0.0027448927194784816 0 -0.035519440697542877 -0.0037502592336904898 0 -0.035487721767352265 -0.0027986180172866141 0 -0.035939208910916211 -0.0027448927194784816 0 -0.035613699960818132 -0.0023488425870934349 0 -0.035858598956551128 -0.0019929770469733826 0 -0.035939208910916211 -0.0027448927194784816 0 -0.035613699960818132 -0.0023488425870934349 0 -0.036270871675541647 -0.0021916280362848446 0 -0.035858598956551128 -0.0019929770469733826 0 -0.035939208910916211 -0.0027448927194784816 0 -0.035939208910916211 -0.0027448927194784816 0 -0.036255404753053555 -0.003555465540018028 0 -0.036445797529806201 -0.0027313918042408945 0 -0.035939208910916211 -0.0027448927194784816 0 -0.036255404753053555 -0.003555465540018028 0 -0.035519440697542877 -0.0037502592336904898 0 -0.036255404753053555 -0.003555465540018028 0 -0.035519440697542877 -0.0037502592336904898 0 -0.036082006655398444 -0.0043555772764189114 0 -0.034999618182425606 -0.0028701875115988451 0 -0.035519440697542877 -0.0037502592336904898 0 -0.034999823991922245 -0.004935216024060992 0 -0.037189310752237019 -0.0022397683260041656 0 -0.036634866155025606 -0.0020320173782609396 0 -0.0368123973818235 -0.0026462699150213982 0 -0.037189310752237019 -0.0022397683260041656 0 -0.0368123973818235 -0.0026462699150213982 0 -0.037017549352256644 -0.0032050434485019022 0 -0.036634866155025606 -0.0020320173782609396 0 -0.0368123973818235 -0.0026462699150213982 0 -0.036445797529806201 -0.0027313918042408945 0 -0.036270871675541647 -0.0021916280362848446 0 -0.036634866155025606 -0.0020320173782609396 0 -0.036445797529806201 -0.0027313918042408945 0 -0.036270871675541647 -0.0021916280362848446 0 -0.035939208910916211 -0.0027448927194784816 0 -0.036445797529806201 -0.0027313918042408945 0 -0.0368123973818235 -0.0026462699150213982 0 -0.036445797529806201 -0.0027313918042408945 0 -0.036664659950464945 -0.0033089353237687005 0 -0.036255404753053555 -0.003555465540018028 0 -0.036664659950464945 -0.0033089353237687005 0 -0.036785580271321949 -0.0041430154455848554 0 -0.036255404753053555 -0.003555465540018028 0 -0.036445797529806201 -0.0027313918042408945 0 -0.036664659950464945 -0.0033089353237687005 0 -0.036664659950464945 -0.0033089353237687005 0 -0.037017549352256644 -0.0032050434485019022 0 -0.036785580271321949 -0.0041430154455848554 0 -0.0368123973818235 -0.0026462699150213982 0 -0.036664659950464945 -0.0033089353237687005 0 -0.037017549352256644 -0.0032050434485019022 0 -0.037017549352256644 -0.0032050434485019022 0 -0.036785580271321949 -0.0041430154455848554 0 -0.037220769981999649 -0.0039244679976927098 0 -0.036785580271321949 -0.0041430154455848554 0 -0.03646917436629981 -0.0054268567340915374 0 -0.036906906808586819 -0.004625835616573524 0 -0.037017157614313942 -0.0054323370344299066 0 -0.037514792255314622 -0.0055691032797549334 0 -0.036785580271321949 -0.0041430154455848554 0 -0.036906906808586819 -0.004625835616573524 0 -0.037220769981999649 -0.0039244679976927098 0 -0.036906906808586819 -0.004625835616573524 0 -0.037331271105632773 -0.0043736054559480519 0 -0.037220769981999649 -0.0039244679976927098 0 -0.035519440697542877 -0.0037502592336904898 0 -0.034999823991922245 -0.004935216024060992 0 -0.036082006655398444 -0.0043555772764189114 0 -0.036255404753053555 -0.003555465540018028 0 -0.036785580271321949 -0.0041430154455848554 0 -0.036082006655398444 -0.0043555772764189114 0 -0.036785580271321949 -0.0041430154455848554 0 -0.036082006655398444 -0.0043555772764189114 0 -0.03646917436629981 -0.0054268567340915374 0 -0.034999823991922245 -0.004935216024060992 0 -0.036082006655398444 -0.0043555772764189114 0 -0.03646917436629981 -0.0054268567340915374 0 -0.034999823991922245 -0.004935216024060992 0 -0.03646917436629981 -0.0054268567340915374 0 -0.034999674210907147 -0.0070012936425025941 0 -0.03646917436629981 -0.0054268567340915374 0 -0.034999674210907147 -0.0070012936425025941 0 -0.036414090133012014 -0.0073447086336738505 0 -0.03646917436629981 -0.0054268567340915374 0 -0.036414090133012014 -0.0073447086336738505 0 -0.037481583005143072 -0.0068930873970184971 0 -0.035829299149736434 -0.0087795231379169704 0 -0.036414090133012014 -0.0073447086336738505 0 -0.037670408059201875 -0.0082377586131917209 0 -0.036755276399384001 -0.0081894639722832913 0 -0.037565033527705238 -0.0078898407218567466 0 -0.035829299149736434 -0.0087795231379169704 0 -0.034999674210907147 -0.0070012936425025941 0 -0.036414090133012014 -0.0073447086336738505 0 -0.034999978702185436 -0.0090678034752992645 0 -0.035829299149736434 -0.0087795231379169704 0 -0.034999674210907147 -0.0070012936425025941 0 -0.037514792255314622 -0.0055691032797549334 0 -0.038265496032319851 -0.0058645235723058372 0 -0.038680469297535991 -0.0071293929566659826 0 -0.039629473468726098 -0.0077024107908600656 0 -0.040045633847561629 -0.0067059526640092151 0 -0.038680469297535991 -0.0071293929566659826 0 -0.03844520053059599 -0.006151366502691772 0 -0.040045633847561629 -0.0067059526640092151 0 -0.03646917436629981 -0.0054268567340915374 0 -0.03844520053059599 -0.006151366502691772 0 -0.037481583005143072 -0.0068930873970184971 0 -0.038680469297535991 -0.0071293929566659826 0 -0.03844520053059599 -0.006151366502691772 0 -0.037481583005143072 -0.0068930873970184971 0 -0.036414090133012014 -0.0073447086336738505 0 -0.037481583005143072 -0.0068930873970184971 0 -0.037670408059201875 -0.0082377586131917209 0 -0.038680469297535991 -0.0071293929566659826 0 -0.037481583005143072 -0.0068930873970184971 0 -0.037670408059201875 -0.0082377586131917209 0 -0.03817020362294736 -0.0094872799545950934 0 -0.037518500680847923 -0.008488188286845182 0 -0.039010625409424633 -0.008162665533971011 0 -0.038680469297535991 -0.0071293929566659826 0 -0.037670408059201875 -0.0082377586131917209 0 -0.039629473468726098 -0.0077024107908600656 0 -0.03817020362294736 -0.0094872799545950934 0 -0.039307242381350437 -0.008624282073892528 0 -0.039010625409424633 -0.008162665533971011 0 -0.037565033527705238 -0.0078898407218567466 0 -0.038725620395122458 -0.0072164900515435072 0 -0.039307242381350437 -0.008624282073892528 0 -0.039010625409424633 -0.008162665533971011 0 -0.040386724614173919 -0.0078298086049890699 0 -0.038725620395122458 -0.0072164900515435072 0 -0.03845613682943564 -0.0063417674062157319 0 -0.036724823906917635 -0.0071185070248673456 0 -0.036220330863595829 -0.0066780140462484412 0 -0.037059167055697041 -0.0067783721651146194 0 -0.039629473468726098 -0.0077024107908600656 0 -0.040045633847561629 -0.0067059526640092151 0 -0.041373717342638304 -0.0072597229044106554 0 -0.037331271105632773 -0.0043736054559480519 0 -0.03762903744072589 -0.0041290223112848187 0 -0.037824791041357449 -0.0043931038936558401 0 -0.040045633847561629 -0.0067059526640092151 0 -0.041542069293358595 -0.0071420511817939358 0 -0.041373717342638304 -0.0072597229044106554 0 -0.038265496032319851 -0.0058645235723058372 0 -0.038403209710467699 -0.0061855739326520925 0 -0.03762903744072589 -0.0041290223112848187 0 -0.037824791041357449 -0.0043931038936558401 0 -0.037881234751495699 -0.0040439402240291774 0 -0.037587620885028754 -0.0059592682843731815 0 -0.037758587597073866 -0.0060976570140381598 0 -0.037885015525794971 -0.005914286202106332 0 -0.03845613682943564 -0.0063417674062157319 0 -0.038329432595028495 -0.0061898466101568553 0 -0.038490413288368296 -0.0063638710903210572 0 -0.038454791774478678 -0.0063891204025231588 0 -0.038522761267763495 -0.0063728982856193763 0 -0.038403209710467699 -0.0061855739326520925 0 -0.03845613682943564 -0.0063417674062157319 0 -0.036220330863595829 -0.0066780140462484412 0 -0.037324286521095679 -0.0063978320127057106 0 -0.037059167055697041 -0.0067783721651146194 0 -0.037587620885028754 -0.0059592682843731815 0 -0.037621109709604146 -0.0062002203151966919 0 -0.037324286521095679 -0.0063978320127057106 0 -0.037621109709604146 -0.0062002203151966919 0 -0.037758587597073866 -0.0060976570140381598 0 -0.037812748070743842 -0.0063485285572739561 0 -0.036220330863595829 -0.0066780140462484412 0 -0.037587620885028754 -0.0059592682843731815 0 -0.037324286521095679 -0.0063978320127057106 0 -0.037587620885028754 -0.0059592682843731815 0 -0.037621109709604146 -0.0062002203151966919 0 -0.037758587597073866 -0.0060976570140381598 0 -0.037552118703091115 -0.0075511456348261721 0 -0.03845613682943564 -0.0063417674062157319 0 -0.037621109709604146 -0.0062002203151966919 0 -0.037324286521095679 -0.0063978320127057106 0 -0.037812748070743842 -0.0063485285572739561 0 -0.037549509061670532 -0.0067744004597758214 0 -0.037915424969047672 -0.0067654775575793887 0 -0.037812748070743842 -0.0063485285572739561 0 -0.037324286521095679 -0.0063978320127057106 0 -0.037549509061670532 -0.0067744004597758214 0 -0.037812748070743842 -0.0063485285572739561 0 -0.037324286521095679 -0.0063978320127057106 0 -0.037059167055697041 -0.0067783721651146194 0 -0.037549509061670532 -0.0067744004597758214 0 -0.038401719684804062 -0.0070893718985514378 0 -0.037915424969047672 -0.0067654775575793887 0 -0.038185051872369626 -0.0066320637016122784 0 -0.038208507615129464 -0.0062973828398878769 0 -0.039102316505133801 -0.0065199885802037869 0 -0.037885015525794971 -0.005914286202106332 0 -0.037889174275910528 -0.0071883924144217877 0 -0.037549509061670532 -0.0067744004597758214 0 -0.037915424969047672 -0.0067654775575793887 0 -0.038571859450083949 -0.0066410031588052029 0 -0.038208507615129464 -0.0062973828398878769 0 -0.039102316505133801 -0.0065199885802037869 0 -0.03842171760248661 -0.0063196846976269197 0 -0.038329432595028495 -0.0061898466101568553 0 -0.037915424969047672 -0.0067654775575793887 0 -0.038185051872369626 -0.0066320637016122784 0 -0.037812748070743842 -0.0063485285572739561 0 -0.038401719684804062 -0.0070893718985514378 0 -0.038185051872369626 -0.0066320637016122784 0 -0.038571859450083949 -0.0066410031588052029 0 -0.038185051872369626 -0.0066320637016122784 0 -0.038571859450083949 -0.0066410031588052029 0 -0.038208507615129464 -0.0062973828398878769 0 -0.037758587597073866 -0.0060976570140381598 0 -0.037916668290594688 -0.0061657367408209764 0 -0.037885015525794971 -0.005914286202106332 0 -0.037758587597073866 -0.0060976570140381598 0 -0.037916668290594688 -0.0061657367408209764 0 -0.037812748070743842 -0.0063485285572739561 0 -0.038208507615129464 -0.0062973828398878769 0 -0.037916668290594688 -0.0061657367408209764 0 -0.037812748070743842 -0.0063485285572739561 0 -0.038208507615129464 -0.0062973828398878769 0 -0.037916668290594688 -0.0061657367408209764 0 -0.037885015525794971 -0.005914286202106332 0 -0.038185051872369626 -0.0066320637016122784 0 -0.038208507615129464 -0.0062973828398878769 0 -0.037812748070743842 -0.0063485285572739561 0 -0.039122887427863649 -0.0070924887905333472 0 -0.038571859450083949 -0.0066410031588052029 0 -0.039102316505133801 -0.0065199885802037869 0 -0.039122887427863649 -0.0070924887905333472 0 -0.038401719684804062 -0.0070893718985514378 0 -0.038571859450083949 -0.0066410031588052029 0 -0.037461279432825505 -0.0061242976053044323 0 -0.037552493657825557 -0.005571733668077521 0 -0.036481590109497003 -0.005836182075071937 0 -0.038457831728414001 -0.004180657801128038 0 -0.038098732269118779 -0.0040072650554580499 0 -0.03858279973475643 -0.0036558457429369741 0 -0.038304698596217782 -0.0058818563245146274 0 -0.037461279432825505 -0.0061242976053044323 0 -0.037552493657825557 -0.005571733668077521 0 -0.038457831728414001 -0.004180657801128038 0 -0.037689567266090698 -0.0043802377983445705 0 -0.038098732269118779 -0.0040072650554580499 0 -0.038366160078645621 -0.0054614664250955099 0 -0.038329432595028495 -0.0061898466101568553 0 -0.037617846464339931 -0.0043613263179256602 0 -0.037689567266090698 -0.0043802377983445705 0 -0.038098732269118779 -0.0040072650554580499 0 -0.038403209710467699 -0.0061855739326520925 0 -0.038329432595028495 -0.0061898466101568553 0 -0.038403209710467699 -0.0061855739326520925 0 -0.038648404262614254 -0.0053137634277766318 0 -0.037824791041357449 -0.0043931038936558401 0 -0.038212467395116814 -0.0040561972799731923 0 -0.037881234751495699 -0.0040439402240291774 0 -0.037881234751495699 -0.0040439402240291774 0 -0.038094232468727361 -0.003622778118198164 0 -0.037720307720121318 -0.0037658031854402403 0 -0.038212467395116814 -0.0040561972799731923 0 -0.037881234751495699 -0.0040439402240291774 0 -0.038094232468727361 -0.003622778118198164 0 -0.038212467395116814 -0.0040561972799731923 0 -0.038094232468727361 -0.003622778118198164 0 -0.03858279973475643 -0.0036558457429369741 0 -0.038094232468727361 -0.003622778118198164 0 -0.03858279973475643 -0.0036558457429369741 0 -0.03838277326129623 -0.0033111234984088429 0 -0.038648404262614254 -0.0053137634277766318 0 -0.03877232225601264 -0.0050107719102567751 0 -0.038094232468727361 -0.003622778118198164 0 -0.038212732356678596 -0.0030154180429277583 0 -0.03838277326129623 -0.0033111234984088429 0 -0.038644601925847205 -0.0029471748002288093 0 -0.03858279973475643 -0.0036558457429369741 0 -0.03838277326129623 -0.0033111234984088429 0 -0.038644601925847205 -0.0029471748002288093 0 -0.038212732356678596 -0.0030154180429277583 0 -0.03838277326129623 -0.0033111234984088429 0 -0.038094232468727361 -0.003622778118198164 0 -0.037859886247748727 -0.0031268947197785535 0 -0.037720307720121318 -0.0037658031854402403 0 -0.038094232468727361 -0.003622778118198164 0 -0.038212732356678596 -0.0030154180429277583 0 -0.037859886247748727 -0.0031268947197785535 0 -0.037527658089803725 -0.0032927360233010626 0 -0.037457255692254464 -0.0039634528748045362 0 -0.037720307720121318 -0.0037658031854402403 0 -0.037859886247748727 -0.0031268947197785535 0 -0.037527658089803725 -0.0032927360233010626 0 -0.037720307720121318 -0.0037658031854402403 0 -0.037527658089803725 -0.0032927360233010626 0 -0.037220769981999649 -0.0039244679976927098 0 -0.037457255692254464 -0.0039634528748045362 0 -0.037334317183955967 -0.0028794555446425324 0 -0.037527658089803725 -0.0032927360233010626 0 -0.037220769981999649 -0.0039244679976927098 0 -0.037331271105632773 -0.0043736054559480519 0 -0.037220769981999649 -0.0039244679976927098 0 -0.037457255692254464 -0.0039634528748045362 0 -0.037331271105632773 -0.0043736054559480519 0 -0.03762903744072589 -0.0041290223112848187 0 -0.037457255692254464 -0.0039634528748045362 0 -0.03762903744072589 -0.0041290223112848187 0 -0.037457255692254464 -0.0039634528748045362 0 -0.037720307720121318 -0.0037658031854402403 0 -0.03762903744072589 -0.0041290223112848187 0 -0.037881234751495699 -0.0040439402240291774 0 -0.037720307720121318 -0.0037658031854402403 0 -0.0050524828113970082 0.005062492734430199 0 -0.0049331796587825964 0.0047481277103540226 0 -0.0054911709661155557 0.0044170250846839289 0 -0.0050524828113970082 0.005062492734430199 0 -0.0046058977695887992 0.0049107676615383978 0 -0.0049331796587825964 0.0047481277103540226 0 -0.0065664116155071386 0.0034504131007387301 0 -0.0073669453384010812 0.0040535157317200983 0 -0.0050524828113970082 0.005062492734430199 0 -0.0060034660015452464 0.0049959268360207226 0 -0.0054911709661155557 0.0044170250846839289 0 -0.0060034660015452464 0.0049959268360207226 0 -0.0054911709661155557 0.0044170250846839289 0 -0.0067709875882288459 0.0046777070708081637 0 -0.0050524828113970082 0.005062492734430199 0 -0.0055737381743208537 0.0054208289729718974 0 -0.0060034660015452464 0.0049959268360207226 0 -0.0055737381743208537 0.0054208289729718974 0 -0.0060034660015452464 0.0049959268360207226 0 -0.0059946674582184905 0.0057280450862843184 0 -0.0060034660015452464 0.0049959268360207226 0 -0.0059946674582184905 0.0057280450862843184 0 -0.0068215789134557052 0.0053106852863713319 0 -0.0060034660015452464 0.0049959268360207226 0 -0.0067709875882288459 0.0046777070708081637 0 -0.0068215789134557052 0.0053106852863713319 0 -0.0059946674582184905 0.0057280450862843184 0 -0.0068215789134557052 0.0053106852863713319 0 -0.0065456612539575619 0.0062107321132627777 0 -0.0055737381743208537 0.0054208289729718974 0 -0.0059946674582184905 0.0057280450862843184 0 -0.0052942693521045745 0.0060359936397014046 0 -0.0059946674582184905 0.0057280450862843184 0 -0.0052942693521045745 0.0060359936397014046 0 -0.0058554872780976841 0.0064928985886016479 0 -0.0050524828113970082 0.005062492734430199 0 -0.0052942693521045745 0.0060359936397014046 0 -0.0041550259701149091 0.005815022411093977 0 -0.0050524828113970082 0.005062492734430199 0 -0.0055737381743208537 0.0054208289729718974 0 -0.0052942693521045745 0.0060359936397014046 0 -0.004874511807762506 0.0056591687012149949 0 -0.004391461264075823 0.0056303598740501982 0 -0.0046058977695887992 0.0049107676615383978 0 -0.004874511807762506 0.0056591687012149949 0 -0.004391461264075823 0.0056303598740501982 0 -0.0041099872658861367 0.0063503594105461074 0 -0.0043817847972457726 0.0054460767709236194 0 -0.004391461264075823 0.0056303598740501982 0 -0.0043238944006058558 0.0058070210367557945 0 -0.0043817847972457726 0.0054460767709236194 0 -0.0044761984146773383 0.0051389157210177437 0 -0.0046058977695887992 0.0049107676615383978 0 -0.0043817847972457726 0.0054460767709236194 0 -0.004391461264075823 0.0056303598740501982 0 -0.0046058977695887992 0.0049107676615383978 0 -0.0044401287380820657 0.0063938172959121927 0 -0.0044028802359712379 0.0056804295487740105 0 -0.0050524828113970082 0.005062492734430199 0 -0.0041550259701149091 0.005815022411093977 0 -0.0046058977695887992 0.0049107676615383978 0 -0.0046058977695887992 0.0049107676615383978 0 -0.0045175875877975788 0.0050232144595627956 0 -0.0046745027487053534 0.0047520388543505192 0 -0.0046058977695887992 0.0049107676615383978 0 -0.0046745027487053534 0.0047520388543505192 0 -0.0049331796587825964 0.0047481277103540226 0 -0.0044761984146773383 0.0051389157210177437 0 -0.0046058977695887992 0.0049107676615383978 0 -0.0045175875877975788 0.0050232144595627956 0 -0.0045175875877975788 0.0050232144595627956 0 -0.0046745027487053534 0.0047520388543505192 0 -0.004544244822845077 0.0049725294696112247 0 -0.0055448504866829305 0.0025322088942539866 0 -0.0050490807342116837 0.0015746779976507543 0 -0.0066647347651485117 -0.00085536000281845857 0 -0.00590843332327033 -0.0021930393882538522 0 -0.0053407710961925481 0.00068513464381137412 0 -0.0067598257382903894 0.000734045691418717 0 -0.0054692746317039631 -0.0006528364974645979 0 -0.0053407710961925481 0.00068513464381137412 0 -0.006770457538247435 0.002221766676647073 0 -0.0067598257382903894 0.000734045691418717 0 -0.0055448504866829305 0.0025322088942539866 0 -0.0065664116155071386 0.0034504131007387301 0 -0.0046745027487053534 0.0047520388543505192 0 -0.0049331796587825964 0.0047481277103540226 0 -0.0054911709661155557 0.0044170250846839289 0 -0.006770457538247435 0.002221766676647073 0 -0.0074488392310116001 0.001726893875081306 0 -0.0067598257382903894 0.000734045691418717 0 -0.006770457538247435 0.002221766676647073 0 -0.0074488392310116001 0.001726893875081306 0 -0.0075904599360462899 0.0028558888999091698 0 -0.0074488392310116001 0.001726893875081306 0 -0.0067598257382903894 0.000734045691418717 0 -0.0080400531324655924 0.00056008789812369566 0 -0.0067598257382903894 0.000734045691418717 0 -0.0080400531324655924 0.00056008789812369566 0 -0.007097176495863426 -0.0020849439952978477 0 -0.0068218179000619867 -0.00178323478874097 0 -0.0069084035349780788 -0.0015225446691116296 0 -0.0067815843959972439 -0.0011262899498518234 0 -0.0068218179000619867 -0.00178323478874097 0 -0.0069084035349780788 -0.0015225446691116296 0 -0.0070846645425858262 -0.001914376820604324 0 -0.0066160954425049266 -0.0017887175967879921 0 -0.0061745193097541406 -0.0021935722532127819 0 -0.0053138471147440094 -0.0024146566688112601 0 -0.0070934780270826905 -0.0013031869642518023 0 -0.0069084035349780788 -0.0015225446691116296 0 -0.0070846645425858262 -0.001914376820604324 0 -0.0070934780270826905 -0.0013031869642518023 0 -0.0066160954425049266 -0.0017887175967879921 0 -0.0053138471147440094 -0.0024146566688112601 0 -0.0068587438632417381 -0.0024913785242825517 0 -0.0066897421461494418 -0.0029223300036307991 0 -0.0066160954425049266 -0.0017887175967879921 0 -0.0063801192253802562 -0.002061030068110101 0 -0.0061745193097541406 -0.0021935722532127819 0 -0.0070934780270826905 -0.0013031869642518023 0 -0.0069084035349780788 -0.0015225446691116296 0 -0.0067815843959972439 -0.0011262899498518234 0 -0.0070934780270826905 -0.0013031869642518023 0 -0.0066160954425049266 -0.0017887175967879921 0 -0.0084770453621827828 -0.00019926296275034035 0 -0.0070934780270826905 -0.0013031869642518023 0 -0.0067815843959972439 -0.0011262899498518234 0 -0.0084770453621827828 -0.00019926296275034035 0 -0.0067815843959972439 -0.0011262899498518234 0 -0.0065345245572851823 -0.0002949112654285605 0 -0.0084770453621827828 -0.00019926296275034035 0 -0.0068218179000619867 -0.00178323478874097 0 -0.0067815843959972439 -0.0011262899498518234 0 -0.0065345245572851823 -0.0002949112654285605 0 -0.0074488392310116001 0.001726893875081306 0 -0.0080400531324655924 0.00056008789812369566 0 -0.0080326190579667021 0.0021349685192173853 0 -0.0080400531324655924 0.00056008789812369566 0 -0.0087520172500949282 0.0025522489251238629 0 -0.0080326190579667021 0.0021349685192173853 0 -0.0087520172500949282 0.0025522489251238629 0 -0.0080326190579667021 0.0021349685192173853 0 -0.0082964874673894101 0.0029172986705857076 0 -0.0073385118935402069 -0.00026824581984580904 0 -0.0081248762887065826 0.0010687625977934484 0 -0.0074488392310116001 0.001726893875081306 0 -0.0080326190579667021 0.0021349685192173853 0 -0.0075904599360462899 0.0028558888999091698 0 0.0044140770814393975 0.0032870850026603012 0 0.0047563741346758007 0.0021491863230456419 0 -0.0065017157878061371 -0.0021805017937954986 0 -0.0064450449941614463 -0.001879256976651798 0 -0.0065909099356301643 -0.0017575909707263015 0 -0.0065017157878061371 -0.0021805017937954986 0 -0.0065909099356301643 -0.0017575909707263015 0 -0.0068416002315991207 -0.0022979068053120074 0 -0.0065017157878061371 -0.0021805017937954986 0 -0.0064450449941614463 -0.001879256976651798 0 -0.0063801192253802562 -0.002061030068110101 0 -0.0066160954425049266 -0.0017887175967879921 0 -0.0063801192253802562 -0.002061030068110101 0 -0.0064496685374233536 -0.0018394125001573438 0 -0.0064450449941614463 -0.001879256976651798 0 -0.0063801192253802562 -0.002061030068110101 0 -0.0064496685374233536 -0.0018394125001573438 0 -0.00060941602936640318 0.0018414624202173384 0 0.00035006254987187725 0.002708829336296435 0 -0.0064450449941614463 -0.001879256976651798 0 -0.0063244116618132763 -0.0017354026975736998 0 -0.0065909099356301643 -0.0017575909707263015 0 -0.0066160954425049266 -0.0017887175967879921 0 -0.0064496685374233536 -0.0018394125001573438 0 -0.0063244116618132763 -0.0017354026975736998 0 -0.0064450449941614463 -0.001879256976651798 0 -0.0064496685374233536 -0.0018394125001573438 0 -0.0063244116618132763 -0.0017354026975736998 0 0.017034035597223093 0.0073298249358414455 0 0.016956138525527034 0.0075780842112171762 0 0.017073024967943311 0.0076751306165561226 0 0.0044140770814393975 0.0032870850026603012 0 0.0037642973477457794 0.0052366264486080486 0 0.017034035597223093 0.0073298249358414455 0 0.016956138525527034 0.0075780842112171762 0 0.016846750547751674 0.0075125216080866378 0 0.016956138525527034 0.0075780842112171762 0 0.016940864410335824 0.0077359679068314015 0 0.016878365618251422 0.0076814664656355801 0 0.016956138525527034 0.0075780842112171762 0 0.017073024967943311 0.0076751306165561226 0 0.016940864410335824 0.0077359679068314015 0 0.00035006254987187725 0.002708829336296435 0 0.0037642973477457794 0.0052366264486080486 0 -0.0084770453621827828 -0.00019926296275034035 0 -0.0097770523490895486 0.00366208368870214 0 -0.0094537514057042686 0.0037436086112936154 0 -0.0063244116618132763 -0.0017354026975736998 0 -0.0065909099356301643 -0.0017575909707263015 0 -0.0063648463271778633 -0.0013929310116197202 0 0.016096470267808912 0.0093784476279294531 0 0.015772177846462131 0.0086674335456170051 0 0.016412401774884539 0.008759922971448628 0 0.0037642973477457794 0.0052366264486080486 0 0.00094702378780909093 0.0089423310279945611 0 -0.0094537514057042686 0.0037436086112936154 0 -0.0090192498015632828 0.0040178180174034652 0 -0.0088994409370827081 0.0053577184141700186 0 -0.0097770523490895486 0.00366208368870214 0 -0.0094537514057042686 0.0037436086112936154 0 -0.0088994409370827081 0.0053577184141700186 0 0.0037642973477457794 0.0052366264486080486 0 0.0085767916356320664 0.0058398588754422272 0 0.017073024967943311 0.0076751306165561226 0 0.016940864410335824 0.0077359679068314015 0 0.01694826648010871 0.0079111752185394117 0 0.016940864410335824 0.0077359679068314015 0 0.01694826648010871 0.0079111752185394117 0 0.01683860167211932 0.0078041522480311321 0 0.016940864410335824 0.0077359679068314015 0 0.016878365618251422 0.0076814664656355801 0 0.01683860167211932 0.0078041522480311321 0 -0.006770457538247435 0.002221766676647073 0 -0.0075904599360462899 0.0028558888999091698 0 -0.0078226854816596508 0.0042705019788739172 0 -0.0054911709661155557 0.0044170250846839289 0 -0.0067709875882288459 0.0046777070708081637 0 -0.0078226854816596508 0.0042705019788739172 0 -0.0078722200355500205 0.003432745349045886 0 -0.0075904599360462899 0.0028558888999091698 0 -0.0078226854816596508 0.0042705019788739172 0 -0.0078722200355500205 0.003432745349045886 0 -0.0080613232190237371 0.0038220274633995843 0 -0.0083797702058158331 0.003601864416855758 0 -0.0080613232190237371 0.0038220274633995843 0 -0.0081271347745989313 0.0040278003562644596 0 -0.0083797702058158331 0.003601864416855758 0 -0.0080613232190237371 0.0038220274633995843 0 -0.0081271347745989313 0.0040278003562644596 0 -0.0078226854816596508 0.0042705019788739172 0 -0.0078722200355500205 0.003432745349045886 0 -0.0080613232190237371 0.0038220274633995843 0 -0.0078226854816596508 0.0042705019788739172 0 -0.0078722200355500205 0.003432745349045886 0 -0.0082964874673894101 0.0029172986705857076 0 -0.0083797702058158331 0.003601864416855758 0 -0.0078722200355500205 0.003432745349045886 0 -0.0075904599360462899 0.0028558888999091698 0 -0.0082964874673894101 0.0029172986705857076 0 -0.0080326190579667021 0.0021349685192173853 0 -0.0075904599360462899 0.0028558888999091698 0 -0.0082964874673894101 0.0029172986705857076 0 -0.0087520172500949282 0.0025522489251238629 0 -0.0085889596020717607 0.0031178263115647828 0 -0.0088776200602106222 0.0034457152071871344 0 -0.0065345245572851823 -0.0002949112654285605 0 -0.0084770453621827828 -0.00019926296275034035 0 -0.0094537514057042686 0.0037436086112936154 0 -0.0087520172500949282 0.0025522489251238629 0 -0.0094537514057042686 0.0037436086112936154 0 -0.0088776200602106222 0.0034457152071871344 0 -0.0081248762887065826 0.0010687625977934484 0 -0.0088316251713961586 0.002057649762289792 0 -0.0082964874673894101 0.0029172986705857076 0 -0.0085889596020717607 0.0031178263115647828 0 -0.0083797702058158331 0.003601864416855758 0 -0.0087520172500949282 0.0025522489251238629 0 -0.0082964874673894101 0.0029172986705857076 0 -0.0085889596020717607 0.0031178263115647828 0 -0.0094537514057042686 0.0037436086112936154 0 -0.0088776200602106222 0.0034457152071871344 0 -0.0090192498015632828 0.0040178180174034652 0 -0.0088776200602106222 0.0034457152071871344 0 -0.0083797702058158331 0.003601864416855758 0 -0.0086055924104680871 0.0041843072588845977 0 -0.0085889596020717607 0.0031178263115647828 0 -0.0088776200602106222 0.0034457152071871344 0 -0.0083797702058158331 0.003601864416855758 0 -0.0083797702058158331 0.003601864416855758 0 -0.0083026218380814094 0.0040404683320766285 0 -0.0086055924104680871 0.0041843072588845977 0 -0.0081271347745989313 0.0040278003562644596 0 -0.0083797702058158331 0.003601864416855758 0 -0.0083026218380814094 0.0040404683320766285 0 -0.0017430245234028347 0.0087887160504945133 0 0.00094702378780909093 0.0089423310279945611 0 -0.0083026218380814094 0.0040404683320766285 0 -0.0086055924104680871 0.0041843072588845977 0 -0.0080813951120958447 0.0043537536440878813 0 -0.0086055924104680871 0.0041843072588845977 0 -0.0090192498015632828 0.0040178180174034652 0 -0.0088994409370827081 0.0053577184141700186 0 -0.0080813951120958447 0.0043537536440878813 0 -0.0082621601070468707 0.0060651429257943881 0 -0.0096259289169750503 0.0067719764722741094 0 -0.0086055924104680871 0.0041843072588845977 0 -0.0080813951120958447 0.0043537536440878813 0 -0.0088994409370827081 0.0053577184141700186 0 -0.0088776200602106222 0.0034457152071871344 0 -0.0086055924104680871 0.0041843072588845977 0 -0.0090192498015632828 0.0040178180174034652 0 -0.0076705437151194699 0.0056346469613664674 0 -0.0080813951120958447 0.0043537536440878813 0 -0.0082621601070468707 0.0060651429257943881 0 -0.0076705437151194699 0.0056346469613664674 0 -0.0076677254137341782 0.004824063379596755 0 -0.0073593722444613196 0.0052303869850698227 0 -0.0076705437151194699 0.0056346469613664674 0 -0.0076677254137341782 0.004824063379596755 0 -0.0080813951120958447 0.0043537536440878813 0 -0.0076677254137341782 0.004824063379596755 0 -0.0072839655381681653 0.0048583351233380785 0 -0.0073593722444613196 0.0052303869850698227 0 -0.0076677254137341782 0.004824063379596755 0 -0.0078226854816596508 0.0042705019788739172 0 -0.0072839655381681653 0.0048583351233380785 0 -0.0081271347745989313 0.0040278003562644596 0 -0.0078226854816596508 0.0042705019788739172 0 -0.0080813951120958447 0.0043537536440878813 0 -0.0076677254137341782 0.004824063379596755 0 -0.0078226854816596508 0.0042705019788739172 0 -0.0080813951120958447 0.0043537536440878813 0 -0.0081271347745989313 0.0040278003562644596 0 -0.0083026218380814094 0.0040404683320766285 0 -0.0080813951120958447 0.0043537536440878813 0 -0.0067709875882288459 0.0046777070708081637 0 -0.0072839655381681653 0.0048583351233380785 0 -0.0068215789134557052 0.0053106852863713319 0 -0.0067709875882288459 0.0046777070708081637 0 -0.0078226854816596508 0.0042705019788739172 0 -0.0072839655381681653 0.0048583351233380785 0 -0.0072839655381681653 0.0048583351233380785 0 -0.0068215789134557052 0.0053106852863713319 0 -0.0073593722444613196 0.0052303869850698227 0 -0.0068215789134557052 0.0053106852863713319 0 -0.007150306858422841 0.0058187395519565159 0 -0.0065456612539575619 0.0062107321132627777 0 -0.0068215789134557052 0.0053106852863713319 0 -0.0073593722444613196 0.0052303869850698227 0 -0.007150306858422841 0.0058187395519565159 0 -0.0076705437151194699 0.0056346469613664674 0 -0.0073593722444613196 0.0052303869850698227 0 -0.007150306858422841 0.0058187395519565159 0 -0.007150306858422841 0.0058187395519565159 0 -0.0072995524691737337 0.006644779389901205 0 -0.0065456612539575619 0.0062107321132627777 0 -0.0076705437151194699 0.0056346469613664674 0 -0.007150306858422841 0.0058187395519565159 0 -0.0072995524691737337 0.006644779389901205 0 -0.0072995524691737337 0.006644779389901205 0 -0.0071783547997498753 0.0080517498413638453 0 -0.00631339060688434 0.0072596305601551007 0 -0.0072995524691737337 0.006644779389901205 0 -0.0080599768109317245 0.0072561600586127156 0 -0.0071783547997498753 0.0080517498413638453 0 -0.0072995524691737337 0.006644779389901205 0 -0.0080599768109317245 0.0072561600586127156 0 -0.0082621601070468707 0.0060651429257943881 0 -0.0076705437151194699 0.0056346469613664674 0 -0.0072995524691737337 0.006644779389901205 0 -0.0082621601070468707 0.0060651429257943881 0 -0.0080599768109317245 0.0072561600586127156 0 -0.0082621601070468707 0.0060651429257943881 0 -0.0096259289169750503 0.0067719764722741094 0 -0.0080599768109317245 0.0072561600586127156 0 -0.0096259289169750503 0.0067719764722741094 0 -0.0083958382666371005 0.0089143941416457428 0 0.00094702378780909093 0.0089423310279945611 0 -0.00095058463888384869 0.011894957360000751 0 0.0031525370825134032 0.018872486280960526 0 0.0025798214838292661 0.017870283728675791 0 0.0032586865862041753 0.017831364402680135 0 -0.0080599768109317245 0.0072561600586127156 0 -0.0083958382666371005 0.0089143941416457428 0 -0.0071783547997498753 0.0080517498413638453 0 -0.0083958382666371005 0.0089143941416457428 0 -0.0071783547997498753 0.0080517498413638453 0 -0.0069653027601699509 0.0094059564920895827 0 0.01694826648010871 0.0079111752185394117 0 0.016788241006303516 0.0079117227785967057 0 0.016765379694239739 0.0080391466635919926 0 0.0085767916356320664 0.0058398588754422272 0 0.0099830395678864262 0.0060514267683680805 0 0.01694826648010871 0.0079111752185394117 0 0.01683860167211932 0.0078041522480311321 0 0.016788241006303516 0.0079117227785967057 0 0.015772177846462131 0.0086674335456170051 0 0.016412401774884539 0.008759922971448628 0 0.016390007404092022 0.0081011680247282999 0 0.0031525370825134032 0.018872486280960526 0 0.0038570042188334611 0.018069408027537742 0 0.0032586865862041753 0.017831364402680135 0 0.00094702378780909093 0.0089423310279945611 0 0.0061322811305288471 0.010548098924476357 0 0.016412401774884539 0.008759922971448628 0 0.016390007404092022 0.0081011680247282999 0 0.01674910322535424 0.0081406106543483268 0 0.01694826648010871 0.0079111752185394117 0 0.01674910322535424 0.0081406106543483268 0 0.016765379694239739 0.0080391466635919926 0 0.016390007404092022 0.0081011680247282999 0 0.01674910322535424 0.0081406106543483268 0 0.016698198383728265 0.0081096206708444873 0 0.01674910322535424 0.0081406106543483268 0 0.01675983871368909 0.0081181625022004808 0 0.016698198383728265 0.0081096206708444873 0 0.01674910322535424 0.0081406106543483268 0 0.01675983871368909 0.0081181625022004808 0 0.016765691650037221 0.0081069754941139448 0 0.01674910322535424 0.0081406106543483268 0 0.016765691650037221 0.0081069754941139448 0 0.016765379694239739 0.0080391466635919926 0 0.0038570042188334611 0.018069408027537742 0 0.0047187269770502466 0.017285433142457226 0 0.0046318944665145641 0.017318769738426786 0 0.016390007404092022 0.0081011680247282999 0 0.016775447681664685 0.0080950591345388782 0 0.016698198383728265 0.0081096206708444873 0 0.0038570042188334611 0.018069408027537742 0 0.0046318944665145641 0.017318769738426786 0 0.0037633124364757349 0.017315499983843508 0 0.0061322811305288471 0.010548098924476357 0 0.0089841117992291199 0.011425559792526425 0 0.0047428556134852893 0.017299462727062516 0 0.0046318944665145641 0.017318769738426786 0 0.0046883794469756036 0.017104115229083405 0 0.0089841117992291199 0.011425559792526425 0 0.0089574218099675515 0.011444446619276351 0 0.016775447681664685 0.0080950591345388782 0 0.016752730671369259 0.0081104811601175331 0 0.016773779000267931 0.0081335897065000409 0 0.016752730671369259 0.0081104811601175331 0 0.01675983871368909 0.0081181625022004808 0 0.016773779000267931 0.0081335897065000409 0 0.016775447681664685 0.0080950591345388782 0 0.016752730671369259 0.0081104811601175331 0 0.016698198383728265 0.0081096206708444873 0 0.016752730671369259 0.0081104811601175331 0 0.01675983871368909 0.0081181625022004808 0 0.016698198383728265 0.0081096206708444873 0 0.0046318944665145641 0.017318769738426786 0 0.0037633124364757349 0.017315499983843508 0 0.0043875500829896209 0.016935813278905507 0 0.0038570042188334611 0.018069408027537742 0 0.0037633124364757349 0.017315499983843508 0 0.0032586865862041753 0.017831364402680135 0 0.0037633124364757349 0.017315499983843508 0 0.0032586865862041753 0.017831364402680135 0 0.0029781573734845605 0.017095689320353737 0 0.0036741937694242566 0.016693857033458756 0 0.0041897711586022278 0.016333609245654031 0 0.0030999353085186167 0.016198797840122601 0 0.0036741937694242566 0.016693857033458756 0 0.0029781573734845605 0.017095689320353737 0 0.0030999353085186167 0.016198797840122601 0 0.0037633124364757349 0.017315499983843508 0 0.0036741937694242566 0.016693857033458756 0 0.0029781573734845605 0.017095689320353737 0 0.0037633124364757349 0.017315499983843508 0 0.0036741937694242566 0.016693857033458756 0 0.0043875500829896209 0.016935813278905507 0 0.0043875500829896209 0.016935813278905507 0 0.0041897711586022278 0.016333609245654031 0 0.0048667815516937503 0.016756447621792164 0 0.0036741937694242566 0.016693857033458756 0 0.0043875500829896209 0.016935813278905507 0 0.0041897711586022278 0.016333609245654031 0 0.0041897711586022278 0.016333609245654031 0 0.0048667815516937503 0.016756447621792164 0 0.0051024144960446927 0.016226423957286327 0 0.0048667815516937503 0.016756447621792164 0 0.0046883794469756036 0.017104115229083405 0 0.0049966566521385406 0.01716934142469621 0 0.0043875500829896209 0.016935813278905507 0 0.0048667815516937503 0.016756447621792164 0 0.0046883794469756036 0.017104115229083405 0 0.0046318944665145641 0.017318769738426786 0 0.0043875500829896209 0.016935813278905507 0 0.0046883794469756036 0.017104115229083405 0 0.0047428556134852893 0.017299462727062516 0 0.0046883794469756036 0.017104115229083405 0 0.0049966566521385406 0.01716934142469621 0 0.0089841117992291199 0.011425559792526425 0 0.0088402967884043254 0.011619249638548297 0 -0.00095058463888384869 0.011894957360000751 0 -0.0021814999711069227 0.013085597871911497 0 -0.0083958382666371005 0.0089143941416457428 0 -0.0069653027601699509 0.0094059564920895827 0 -0.0072906026665651201 0.011038417737937832 0 0.0025798214838292661 0.017870283728675791 0 0.0032586865862041753 0.017831364402680135 0 0.0029781573734845605 0.017095689320353737 0 0.0025798214838292661 0.017870283728675791 0 0.0029781573734845605 0.017095689320353737 0 0.0019498063287650077 0.016755511084363753 0 -0.0021814999711069227 0.013085597871911497 0 0.00085139109936037784 0.014077461895309271 0 0.0029781573734845605 0.017095689320353737 0 0.0019498063287650077 0.016755511084363753 0 0.0030999353085186167 0.016198797840122601 0 -0.0014316804719322741 0.017967500830566158 0 0.0015293344917676741 0.016598188538546103 0 -0.00073313848641836786 0.01578879026955957 0 -0.0021814999711069227 0.013085597871911497 0 -0.0026012755199125545 0.013180948617468664 0 -0.0056413763310196648 0.01090901361008751 0 -0.0047773880576008759 0.011195949503563897 0 -0.0050663742359358249 0.011846109241944869 0 -0.0047773880576008759 0.011195949503563897 0 -0.0042842624582693188 0.010873335328730279 0 -0.0049669137946397766 0.010490688164992802 0 -0.0021814999711069227 0.013085597871911497 0 -0.0033224027549213593 0.012629552210419226 0 -0.0056413763310196648 0.01090901361008751 0 -0.0047773880576008759 0.011195949503563897 0 -0.0049669137946397766 0.010490688164992802 0 -0.0042842624582693188 0.010873335328730279 0 -0.0037149598868194108 0.011259713903979396 0 -0.0041035553076424723 0.011762043891449339 0 -0.0047773880576008759 0.011195949503563897 0 -0.0042842624582693188 0.010873335328730279 0 -0.0041035553076424723 0.011762043891449339 0 -0.0046208887061669124 0.0092612727491937375 0 -0.0045513828846293295 0.0081253410727899177 0 -0.0042842624582693188 0.010873335328730279 0 -0.004560007972813823 0.0097415844669915871 0 -0.0049669137946397766 0.010490688164992802 0 -0.0042842624582693188 0.010873335328730279 0 -0.004560007972813823 0.0097415844669915871 0 -0.0039715448951669566 0.0083887932871711066 0 -0.0034599158595114863 0.012373881606450953 0 -0.0033224027549213593 0.012629552210419226 0 -0.004560007972813823 0.0097415844669915871 0 -0.0059577218227151625 0.010398818064886965 0 -0.005989470566611952 0.0086298163342980773 0 -0.0069653027601699509 0.0094059564920895827 0 -0.0059577218227151625 0.010398818064886965 0 -0.005989470566611952 0.0086298163342980773 0 -0.0069653027601699509 0.0094059564920895827 0 -0.0072906026665651201 0.011038417737937832 0 -0.0059577218227151625 0.010398818064886965 0 -0.0071783547997498753 0.0080517498413638453 0 -0.0069653027601699509 0.0094059564920895827 0 -0.005989470566611952 0.0086298163342980773 0 -0.0071783547997498753 0.0080517498413638453 0 -0.005989470566611952 0.0086298163342980773 0 -0.00631339060688434 0.0072596305601551007 0 -0.005989470566611952 0.0086298163342980773 0 -0.0051625467986739617 0.0073109959840403551 0 -0.00631339060688434 0.0072596305601551007 0 -0.004560007972813823 0.0097415844669915871 0 -0.005989470566611952 0.0086298163342980773 0 -0.004915003045194986 0.0085156135992114305 0 -0.004560007972813823 0.0097415844669915871 0 -0.004915003045194986 0.0085156135992114305 0 -0.0039715448951669566 0.0083887932871711066 0 -0.004915003045194986 0.0085156135992114305 0 -0.0051625467986739617 0.0073109959840403551 0 -0.0039715448951669566 0.0083887932871711066 0 -0.005989470566611952 0.0086298163342980773 0 -0.004915003045194986 0.0085156135992114305 0 -0.0051625467986739617 0.0073109959840403551 0 -0.0052942693521045745 0.0060359936397014046 0 -0.0041550259701149091 0.005815022411093977 0 -0.0051625467986739617 0.0073109959840403551 0 -0.0041550259701149091 0.005815022411093977 0 -0.0051625467986739617 0.0073109959840403551 0 -0.0039715448951669566 0.0083887932871711066 0 -0.0052942693521045745 0.0060359936397014046 0 -0.0051625467986739617 0.0073109959840403551 0 -0.0058554872780976841 0.0064928985886016479 0 -0.0072995524691737337 0.006644779389901205 0 -0.0065456612539575619 0.0062107321132627777 0 -0.00631339060688434 0.0072596305601551007 0 -0.0058554872780976841 0.0064928985886016479 0 -0.0065456612539575619 0.0062107321132627777 0 -0.00631339060688434 0.0072596305601551007 0 -0.0059946674582184905 0.0057280450862843184 0 -0.0058554872780976841 0.0064928985886016479 0 -0.0065456612539575619 0.0062107321132627777 0 -0.0051625467986739617 0.0073109959840403551 0 -0.0058554872780976841 0.0064928985886016479 0 -0.00631339060688434 0.0072596305601551007 0 -0.004391461264075823 0.0056303598740501982 0 -0.0041099872658861367 0.0063503594105461074 0 -0.0043238944006058558 0.0058070210367557945 0 -0.0041099872658861367 0.0063503594105461074 0 -0.0043238944006058558 0.0058070210367557945 0 -0.0043686007436782694 0.0055705959069976899 0 -0.004874511807762506 0.0056591687012149949 0 -0.0041099872658861367 0.0063503594105461074 0 -0.0051155492866584449 0.0083329316456232216 0 -0.0044401287380820657 0.0063938172959121927 0 -0.0045513828846293295 0.0081253410727899177 0 -0.0041099872658861367 0.0063503594105461074 0 -0.0051155492866584449 0.0083329316456232216 0 -0.0037778529691674346 0.0085454904745674229 0 -0.0048391379566940602 0.0075367609527851815 0 -0.0049415386575407229 0.008142912896772752 0 -0.0041099872658861367 0.0063503594105461074 0 -0.0037778529691674346 0.0085454904745674229 0 -0.0023244557545491003 0.0090690072854205904 0 -0.0035158716838401168 0.010178949436833003 0 -0.0026696050005630052 0.010435093691452331 0 -0.0023244557545491003 0.0090690072854205904 0 -0.0037778529691674346 0.0085454904745674229 0 -0.0035158716838401168 0.010178949436833003 0 -0.0023244557545491003 0.0090690072854205904 0 -0.0042842624582693188 0.010873335328730279 0 -0.0051155492866584449 0.0083329316456232216 0 -0.0035158716838401168 0.010178949436833003 0 -0.0051155492866584449 0.0083329316456232216 0 -0.0037778529691674346 0.0085454904745674229 0 -0.0035158716838401168 0.010178949436833003 0 -0.0035158716838401168 0.010178949436833003 0 -0.0037149598868194108 0.011259713903979396 0 -0.0032241737696465638 0.011403422436464201 0 -0.0042842624582693188 0.010873335328730279 0 -0.0035158716838401168 0.010178949436833003 0 -0.0037149598868194108 0.011259713903979396 0 -0.0035158716838401168 0.010178949436833003 0 -0.0026696050005630052 0.010435093691452331 0 -0.0032241737696465638 0.011403422436464201 0 -0.0026696050005630052 0.010435093691452331 0 -0.0026378909191682948 0.011173940052392441 0 -0.0032241737696465638 0.011403422436464201 0 -0.0045570027980376508 0.0054142411736530054 0 -0.0046281182667097884 0.0054999256426321247 0 -0.0043686007436782694 0.0055705959069976899 0 -0.0026696050005630052 0.010435093691452331 0 -0.0020217905707789908 0.010614926712850569 0 -0.0026378909191682948 0.011173940052392441 0 -0.0064243384749820016 0.009031778260386248 0 -0.0049415386575407229 0.008142912896772752 0 -0.0026696050005630052 0.010435093691452331 0 -0.0020217905707789908 0.010614926712850569 0 -0.0023244557545491003 0.0090690072854205904 0 -0.0064243384749820016 0.009031778260386248 0 -0.012989335502680679 0.0074929057638341663 0 -0.0045570027980376508 0.0054142411736530054 0 -0.0047304405453076053 0.0054091619895479523 0 -0.0047074910435044763 0.0053374632378020105 0 -0.029872864286466197 0.0061357934814047941 0 -0.031125647737773456 0.0057066100789863461 0 -0.030764397436709345 0.0076183523675636966 0 -0.029872864286466197 0.0061357934814047941 0 -0.031125647737773456 0.0057066100789863461 0 -0.029811252053737101 0.0052068193053716998 0 -0.015413868000390201 0.0067344783994596714 0 -0.01706029941567519 0.0062615101707304364 0 -0.0047304405453076053 0.0054091619895479523 0 -0.0046281182667097884 0.0054999256426321247 0 -0.0047482019988726379 0.0054564929020764824 0 -0.0045570027980376508 0.0054142411736530054 0 -0.0047304405453076053 0.0054091619895479523 0 -0.0046281182667097884 0.0054999256426321247 0 -0.0046281182667097884 0.0054999256426321247 0 -0.0046893052954159803 0.005478382906210718 0 -0.0047482019988726379 0.0054564929020764824 0 -0.0046281182667097884 0.0054999256426321247 0 -0.0046893052954159803 0.005478382906210718 0 -0.0046116865493188979 0.0054547637895597956 0 -0.0046893052954159803 0.005478382906210718 0 -0.0046116865493188979 0.0054547637895597956 0 -0.0047964344526746951 0.0054935334782935793 0 -0.0094340098541924756 0.00760724219064105 0 -0.017986353792130986 0.004888388154674417 0 -0.0046281182667097884 0.0054999256426321247 0 -0.0046116865493188979 0.0054547637895597956 0 -0.0045022436734671236 0.0055932778229044831 0 -0.0046116865493188979 0.0054547637895597956 0 -0.0045022436734671236 0.0055932778229044831 0 -0.0044549937864255627 0.0054712212091242276 0 -0.0045022436734671236 0.0055932778229044831 0 -0.0043238944006058558 0.0058070210367557945 0 -0.0044549937864255627 0.0054712212091242276 0 -0.0046281182667097884 0.0054999256426321247 0 -0.0045022436734671236 0.0055932778229044831 0 -0.0043686007436782694 0.0055705959069976899 0 -0.0045022436734671236 0.0055932778229044831 0 -0.0043238944006058558 0.0058070210367557945 0 -0.0043686007436782694 0.0055705959069976899 0 -0.027297167542978798 0.0011875022523979359 0 -0.027590135650666328 0.0012293677545090081 0 -0.027490342440279054 0.00097583907337555058 0 -0.032397894104507774 0.0022517915124509024 0 -0.030305427929881109 0.0028038871624575614 0 -0.0375700108461599 0.0061165189741991611 0 -0.035395873147248152 0.0072446545896469048 0 -0.036481804234123547 0.0058770121813609549 0 -0.035395873147248152 0.0072446545896469048 0 -0.035593524122310351 0.0055155860514363901 0 -0.034632539326440802 0.0058423733191689765 0 -0.035395873147248152 0.0072446545896469048 0 -0.036481804234123547 0.0058770121813609549 0 -0.035593524122310351 0.0055155860514363901 0 -0.036481804234123547 0.0058770121813609549 0 -0.036455956070090521 0.0049859959949124276 0 -0.035593524122310351 0.0055155860514363901 0 -0.036455956070090521 0.0049859959949124276 0 -0.035593524122310351 0.0055155860514363901 0 -0.035929484063953084 0.0045120257906124785 0 -0.035593524122310351 0.0055155860514363901 0 -0.035929484063953084 0.0045120257906124785 0 -0.035038732374743281 0.0047719205337198225 0 -0.035593524122310351 0.0055155860514363901 0 -0.034632539326440802 0.0058423733191689765 0 -0.035038732374743281 0.0047719205337198225 0 -0.034632539326440802 0.0058423733191689765 0 -0.033730013931197678 0.0052071449547161242 0 -0.033621971897317735 0.0067868017036325692 0 -0.034632539326440802 0.0058423733191689765 0 -0.033730013931197678 0.0052071449547161242 0 -0.035038732374743281 0.0047719205337198225 0 -0.035395873147248152 0.0072446545896469048 0 -0.034632539326440802 0.0058423733191689765 0 -0.033621971897317735 0.0067868017036325692 0 -0.035395873147248152 0.0072446545896469048 0 -0.033621971897317735 0.0067868017036325692 0 -0.033486056867664156 0.0082681713980196931 0 -0.030305427929881109 0.0028038871624575614 0 -0.027028203323796667 0.0030709972910778673 0 -0.033621971897317735 0.0067868017036325692 0 -0.032264091925076809 0.0076016310985505091 0 -0.033486056867664156 0.0082681713980196931 0 -0.033621971897317735 0.0067868017036325692 0 -0.032264091925076809 0.0076016310985505091 0 -0.032388902943749444 0.0062049017384701892 0 -0.033730013931197678 0.0052071449547161242 0 -0.033621971897317735 0.0067868017036325692 0 -0.032388902943749444 0.0062049017384701892 0 -0.033730013931197678 0.0052071449547161242 0 -0.032388902943749444 0.0062049017384701892 0 -0.032806977177243429 0.0044297796743752779 0 -0.032388902943749444 0.0062049017384701892 0 -0.031125647737773456 0.0057066100789863461 0 -0.032806977177243429 0.0044297796743752779 0 -0.032388902943749444 0.0062049017384701892 0 -0.031125647737773456 0.0057066100789863461 0 -0.030764397436709345 0.0076183523675636966 0 -0.032264091925076809 0.0076016310985505091 0 -0.032388902943749444 0.0062049017384701892 0 -0.030764397436709345 0.0076183523675636966 0 -0.0046893052954159803 0.005478382906210718 0 -0.0047482019988726379 0.0054564929020764824 0 -0.0047964344526746951 0.0054935334782935793 0 -0.01706029941567519 0.0062615101707304364 0 -0.017986353792130986 0.004888388154674417 0 -0.032264091925076809 0.0076016310985505091 0 -0.030764397436709345 0.0076183523675636966 0 -0.031645787469268889 0.0092144919719732068 0 -0.0047213766243771743 0.005371098969876021 0 -0.0046320586814066565 0.0053678515847896653 0 -0.0046687241829625713 0.0053771649564921349 0 -0.0046116865493188979 0.0054547637895597956 0 -0.0047213766243771743 0.005371098969876021 0 -0.0046687241829625713 0.0053771649564921349 0 -0.017986353792130986 0.004888388154674417 0 -0.017236968652387233 0.0026745284157168388 0 -0.028422386186003838 0.00082172313768755678 0 -0.027951133386192685 0.00059007731203411344 0 -0.028194219684870951 0.0002312352044277362 0 -0.028422386186003838 0.00082172313768755678 0 -0.027982001675677506 0.0010384519895234726 0 -0.027951133386192685 0.00059007731203411344 0 -0.017986353792130986 0.004888388154674417 0 -0.027028203323796667 0.0030709972910778673 0 -0.032264091925076809 0.0076016310985505091 0 -0.031645787469268889 0.0092144919719732068 0 -0.033486056867664156 0.0082681713980196931 0 -0.027982001675677506 0.0010384519895234726 0 -0.027686036615176317 0.0008178583173940972 0 -0.027951133386192685 0.00059007731203411344 0 -0.027590135650666328 0.0012293677545090081 0 -0.027982001675677506 0.0010384519895234726 0 -0.027686036615176317 0.0008178583173940972 0 -0.027686036615176317 0.0008178583173940972 0 -0.027951133386192685 0.00059007731203411344 0 -0.027628482945715363 0.00042256054763531247 0 -0.027628482945715363 0.00042256054763531247 0 -0.027367800770662924 0.00067524350765459996 0 -0.027475320239169179 0.00023923517376376178 0 -0.032506628321070229 0.0008245956435656164 0 -0.033364121381595092 -0.00076335028713446929 0 -0.033351637887241103 0.00017813700372096479 0 -0.033370334118972937 0.0005999518162072919 0 -0.033696308893196976 -0.00073867263789419363 0 -0.027686036615176317 0.0008178583173940972 0 -0.027628482945715363 0.00042256054763531247 0 -0.027367800770662924 0.00067524350765459996 0 -0.033171043456003114 0.0011499201274902931 0 -0.033351637887241103 0.00017813700372096479 0 -0.033370334118972937 0.0005999518162072919 0 -0.027686036615176317 0.0008178583173940972 0 -0.027367800770662924 0.00067524350765459996 0 -0.027490342440279054 0.00097583907337555058 0 -0.027590135650666328 0.0012293677545090081 0 -0.027686036615176317 0.0008178583173940972 0 -0.027490342440279054 0.00097583907337555058 0 -0.027297167542978798 0.0011875022523979359 0 -0.027367800770662924 0.00067524350765459996 0 -0.027490342440279054 0.00097583907337555058 0 -0.041547243387217887 -0.0067906993892730095 0 -0.041681557125773747 -0.0066338223656148415 0 -0.041634047227941465 -0.0065000365643022463 0 -0.027123172929133993 -0.00054989271681887234 0 -0.027280961182677105 -0.00056470261542180958 0 -0.02715934386284282 -0.0011736214131026479 0 -0.027280961182677105 -0.00056470261542180958 0 -0.027206252280767517 -3.4109005840512659e-05 0 -0.027743178678146282 7.7622738757418751e-06 0 -0.032744665813173715 -0.00075446653668132272 0 -0.033293788985177278 -0.001222554135356877 0 -0.027280961182677105 -0.00056470261542180958 0 -0.027090104276443698 -0.00021084277137710706 0 -0.027182631288162354 -9.0686252651700266e-05 0 -0.027123172929133993 -0.00054989271681887234 0 -0.027280961182677105 -0.00056470261542180958 0 -0.027090104276443698 -0.00021084277137710706 0 -0.032072600241050291 -0.0021121071379080719 0 -0.034022715613226819 -0.0017657841756837536 0 -0.034523633929539936 -0.00033365122647230821 0 -0.034675539250260637 -0.001155819984308287 0 -0.034741145815579202 -0.00090703776062501867 0 -0.034885106052454089 -0.00014417403176540723 0 -0.034022715613226819 -0.0017657841756837536 0 -0.034675539250260637 -0.001155819984308287 0 -0.034741145815579202 -0.00090703776062501867 0 -0.034769836567059391 -0.0010222078732851755 0 -0.034022715613226819 -0.0017657841756837536 0 -0.033293788985177278 -0.001222554135356877 0 -0.033364121381595092 -0.00076335028713446929 0 -0.033293788985177278 -0.001222554135356877 0 -0.034885106052454089 -0.00014417403176540723 0 -0.033364121381595092 -0.00076335028713446929 0 -0.027628482945715363 0.00042256054763531247 0 -0.027475320239169179 0.00023923517376376178 0 -0.027493928251451864 0.00018728844594678671 0 -0.032450392934209753 -0.0014703107047051461 0 -0.033293788985177278 -0.001222554135356877 0 -0.027743178678146282 7.7622738757418751e-06 0 -0.027900174320048408 -0.00060140032524534789 0 -0.028194219684870951 0.0002312352044277362 0 -0.027951133386192685 0.00059007731203411344 0 -0.027628482945715363 0.00042256054763531247 0 -0.027743178678146282 7.7622738757418751e-06 0 -0.027951133386192685 0.00059007731203411344 0 -0.027743178678146282 7.7622738757418751e-06 0 -0.028194219684870951 0.0002312352044277362 0 -0.027628482945715363 0.00042256054763531247 0 -0.027206252280767517 -3.4109005840512659e-05 0 -0.027743178678146282 7.7622738757418751e-06 0 -0.027280961182677105 -0.00056470261542180958 0 -0.027743178678146282 7.7622738757418751e-06 0 -0.027900174320048408 -0.00060140032524534789 0 -0.027280961182677105 -0.00056470261542180958 0 -0.027900174320048408 -0.00060140032524534789 0 -0.02715934386284282 -0.0011736214131026479 0 -0.017482990892870011 0.0013264839623172112 0 -0.017236968652387233 0.0026745284157168388 0 -0.0043648260782766244 0.0051393630093187889 0 -0.0046270069691743635 0.0052225346288427427 0 -0.0047747680445301569 0.0050516891889953114 0 -0.0043648260782766244 0.0051393630093187889 0 -0.0046270069691743635 0.0052225346288427427 0 -0.0046320586814066565 0.0053678515847896653 0 -0.0046270069691743635 0.0052225346288427427 0 -0.0046320586814066565 0.0053678515847896653 0 -0.0046672203304239986 0.0052648714116868729 0 -0.0046320586814066565 0.0053678515847896653 0 -0.0046687241829625713 0.0053771649564921349 0 -0.0046672203304239986 0.0052648714116868729 0 -0.0046672203304239986 0.0052648714116868729 0 -0.0047747680445301569 0.0050516891889953114 0 -0.0045619085866983504 0.0052476686432318094 0 -0.0046270069691743635 0.0052225346288427427 0 -0.0046672203304239986 0.0052648714116868729 0 -0.0047747680445301569 0.0050516891889953114 0 -0.0045503190139994359 0.0042695571581887887 0 -0.0046219878794110016 0.0039393527541074043 0 -0.0047882812337566912 0.0042021648399817755 0 -0.0056268444314371471 0.0043917000387142663 0 -0.0053943444241871287 0.0036704355086897376 0 -0.0047747680445301569 0.0050516891889953114 0 -0.0047882812337566912 0.0042021648399817755 0 -0.0056268444314371471 0.0043917000387142663 0 -0.0047882812337566912 0.0042021648399817755 0 -0.004432746382858295 0.0046747243681387017 0 -0.0043435696785023683 0.0042313765909204951 0 -0.0047882812337566912 0.0042021648399817755 0 -0.0043435696785023683 0.0042313765909204951 0 -0.0044614897213474712 0.0038526685923333959 0 -0.0043648260782766244 0.0051393630093187889 0 -0.0047747680445301569 0.0050516891889953114 0 -0.004432746382858295 0.0046747243681387017 0 -0.0047747680445301569 0.0050516891889953114 0 -0.0047882812337566912 0.0042021648399817755 0 -0.004432746382858295 0.0046747243681387017 0 -0.027900174320048408 -0.00060140032524534789 0 -0.027359860508499992 -0.0017889181894635304 0 -0.02715934386284282 -0.0011736214131026479 0 -0.017482990892870011 0.0013264839623172112 0 -0.018490438585160356 -0.00054316377405470406 0 -0.0043648260782766244 0.0051393630093187889 0 -0.004432746382858295 0.0046747243681387017 0 -0.0039496260836573106 0.0044841193916094922 0 -0.0043435696785023683 0.0042313765909204951 0 -0.0039496260836573106 0.0044841193916094922 0 -0.0041203611005526421 0.0039510886883640664 0 -0.004432746382858295 0.0046747243681387017 0 -0.0043435696785023683 0.0042313765909204951 0 -0.0039496260836573106 0.0044841193916094922 0 -0.026275453796399513 -0.0031564370630637203 0 -0.026709814543030331 -0.0024747741908306749 0 -0.026650131458888299 -0.0016988627877084737 0 -0.018490438585160356 -0.00054316377405470406 0 -0.020859832113235759 -0.0038799539110393935 0 -0.027359860508499992 -0.0017889181894635304 0 -0.026709814543030331 -0.0024747741908306749 0 -0.02654791435971271 -0.0032638396861723938 0 -0.0039496260836573106 0.0044841193916094922 0 -0.0036208293667336286 0.003726779364544232 0 -0.0041203611005526421 0.0039510886883640664 0 -0.027359860508499992 -0.0017889181894635304 0 -0.026709814543030331 -0.0024747741908306749 0 -0.026650131458888299 -0.0016988627877084737 0 -0.041547243387217887 -0.0067906993892730095 0 -0.041681557125773747 -0.0066338223656148415 0 -0.041671878882636369 -0.0069375407330358853 0 -0.027059764793093348 -0.00043852694498259078 0 -0.026650131458888299 -0.0016988627877084737 0 -0.02715934386284282 -0.0011736214131026479 0 -0.032072600241050291 -0.0021121071379080719 0 -0.029073985970634184 -0.0034876578213957686 0 -0.027359860508499992 -0.0017889181894635304 0 -0.026650131458888299 -0.0016988627877084737 0 -0.02715934386284282 -0.0011736214131026479 0 -0.032072600241050291 -0.0021121071379080719 0 -0.03166530638218347 -0.0016806149209875531 0 -0.0044549937864255627 0.0054712212091242276 0 -0.0045619085866983504 0.0052476686432318094 0 -0.0044593275686651661 0.0052069453813694709 0 -0.0043817847972457726 0.0054460767709236194 0 -0.0044761984146773383 0.0051389157210177437 0 -0.0044593275686651661 0.0052069453813694709 0 -0.0043817847972457726 0.0054460767709236194 0 -0.0044549937864255627 0.0054712212091242276 0 -0.0044593275686651661 0.0052069453813694709 0 -0.0043817847972457726 0.0054460767709236194 0 -0.0043238944006058558 0.0058070210367557945 0 -0.0044549937864255627 0.0054712212091242276 0 -0.0046116865493188979 0.0054547637895597956 0 -0.0044549937864255627 0.0054712212091242276 0 -0.0045619085866983504 0.0052476686432318094 0 -0.0046116865493188979 0.0054547637895597956 0 -0.0046672203304239986 0.0052648714116868729 0 -0.0045619085866983504 0.0052476686432318094 0 -0.0046116865493188979 0.0054547637895597956 0 -0.0046687241829625713 0.0053771649564921349 0 -0.0046672203304239986 0.0052648714116868729 0 -0.0045619085866983504 0.0052476686432318094 0 -0.0045138958192504769 0.0051650913598470594 0 -0.0044593275686651661 0.0052069453813694709 0 -0.0047747680445301569 0.0050516891889953114 0 -0.0045619085866983504 0.0052476686432318094 0 -0.0045685768185953967 0.0051836889496527077 0 -0.0045619085866983504 0.0052476686432318094 0 -0.0045685768185953967 0.0051836889496527077 0 -0.0045138958192504769 0.0051650913598470594 0 -0.0046219878794110016 0.0039393527541074043 0 -0.0047320115701738434 0.0028979085054575706 0 -0.0045685768185953967 0.0051836889496527077 0 -0.0045138958192504769 0.0051650913598470594 0 -0.00450835966168676 0.005089151597551236 0 -0.0045138958192504769 0.0051650913598470594 0 -0.0045128200892958145 0.005067824896736798 0 -0.00450835966168676 0.005089151597551236 0 -0.0045138958192504769 0.0051650913598470594 0 -0.0045128200892958145 0.005067824896736798 0 -0.0044593275686651661 0.0052069453813694709 0 -0.0045175875877975788 0.0050232144595627956 0 -0.0045128200892958145 0.005067824896736798 0 -0.0044593275686651661 0.0052069453813694709 0 -0.0044761984146773383 0.0051389157210177437 0 -0.0045175875877975788 0.0050232144595627956 0 -0.0044593275686651661 0.0052069453813694709 0 -0.0045175875877975788 0.0050232144595627956 0 -0.0045128200892958145 0.005067824896736798 0 -0.004544244822845077 0.0049725294696112247 0 -0.0045128200892958145 0.005067824896736798 0 -0.0045200934576147475 0.0050069711678520879 0 -0.004544244822845077 0.0049725294696112247 0 -0.0053368962960858119 0.00026815308813228763 0 -0.0050490807342116837 0.0015746779976507543 0 -0.0031387978251987592 -0.001549101998501603 0 -0.0030309139363526574 -0.0014531678875633512 0 -0.0041247960166527322 -0.00046661140206304065 0 -0.0037650518055677602 -0.0017171307206419199 0 -0.0031387978251987592 -0.001549101998501603 0 -0.0041247960166527322 -0.00046661140206304065 0 -0.0037650518055677602 -0.0017171307206419199 0 -0.0031387978251987592 -0.001549101998501603 0 -0.0032766451820714858 -0.0018433000469489256 0 -0.0030155235291292708 -0.0017469050812903761 0 -0.0030479103586523552 -0.0014732150601251453 0 -0.0027327234768778561 -0.001973462064188507 0 -0.0031190132791730969 -0.0017854366903017722 0 -0.0031387978251987592 -0.001549101998501603 0 -0.0032766451820714858 -0.0018433000469489256 0 -0.0030155235291292708 -0.0017469050812903761 0 -0.0031190132791730969 -0.0017854366903017722 0 -0.0031387978251987592 -0.001549101998501603 0 -0.0030155235291292708 -0.0017469050812903761 0 -0.0031387978251987592 -0.001549101998501603 0 -0.0030479103586523552 -0.0014732150601251453 0 -0.0053256443924756163 0.00026538460235993501 0 -0.0053368962960858119 0.00026815308813228763 0 -0.0045128200892958145 0.005067824896736798 0 -0.0045200934576147475 0.0050069711678520879 0 -0.00450835966168676 0.005089151597551236 0 -0.0053368962960858119 0.00026815308813228763 0 -0.0047320115701738434 0.0028979085054575706 0 -0.0063161236905800687 0.0037586483601080244 0 -0.0058506044734429842 0.003194263481881445 0 -0.0053943444241871287 0.0036704355086897376 0 -0.0056268444314371471 0.0043917000387142663 0 -0.0063161236905800687 0.0037586483601080244 0 -0.0053943444241871287 0.0036704355086897376 0 -0.0058506044734429842 0.003194263481881445 0 -0.0061825171962024868 0.0025130169436438422 0 -0.0052167871087070924 0.0029411598399302166 0 -0.0058506044734429842 0.003194263481881445 0 -0.0053943444241871287 0.0036704355086897376 0 -0.0052167871087070924 0.0029411598399302166 0 -0.0058506044734429842 0.003194263481881445 0 -0.0063137856249457685 0.0031451229246393479 0 -0.0061825171962024868 0.0025130169436438422 0 -0.0069883578642834718 0.0031398528676050337 0 -0.0063161236905800687 0.0037586483601080244 0 -0.0063137856249457685 0.0031451229246393479 0 -0.0069883578642834718 0.0031398528676050337 0 -0.0063137856249457685 0.0031451229246393479 0 -0.0061825171962024868 0.0025130169436438422 0 -0.0063161236905800687 0.0037586483601080244 0 -0.0058506044734429842 0.003194263481881445 0 -0.0063137856249457685 0.0031451229246393479 0 -0.0058880922153579608 -0.005852236519978138 0 -0.0056309632267925501 -0.0074733037225883682 0 -0.0020626449814152574 -0.0023024308109859427 0 -0.0027327234768778561 -0.001973462064188507 0 -0.0027510755794655627 -0.0025694429106636386 0 -0.0080204599313510403 -0.014326656099636056 0 -0.0082025182212220327 -0.014230612689591577 0 -0.0083824984005601635 -0.014329611258807697 0 -0.0080204599313510403 -0.014326656099636056 0 -0.0084164011380324592 -0.014495370070357564 0 -0.0083824984005601635 -0.014329611258807697 0 -0.0058880922153579608 -0.005852236519978138 0 -0.0072646795951404998 -0.0052544985936633423 0 -0.0058880922153579608 -0.005852236519978138 0 -0.0055018039697629717 -0.0071758527027088572 0 -0.0082025182212220327 -0.014230612689591577 0 -0.0080815671645052926 -0.014163759080618227 0 -0.0082249019851693642 -0.014138893857220131 0 -0.0080952837906928359 -0.0142552535992054 0 -0.0082025182212220327 -0.014230612689591577 0 -0.0080815671645052926 -0.014163759080618227 0 -0.0080952837906928359 -0.0142552535992054 0 -0.0080815671645052926 -0.014163759080618227 0 -0.007997078803464128 -0.014203871834104065 0 -0.0080815671645052926 -0.014163759080618227 0 -0.007997078803464128 -0.014203871834104065 0 -0.0079778841957624629 -0.014087596728095099 0 -0.0078884253995182667 -0.014148038251617933 0 -0.007997078803464128 -0.014203871834104065 0 -0.0079778841957624629 -0.014087596728095099 0 -0.0053514248166219467 -0.0088483009104316467 0 -0.0056309632267925501 -0.0074733037225883682 0 -0.0053514248166219467 -0.0088483009104316467 0 -0.0052802825613067596 -0.0096858331758574254 0 -0.0078653811180238817 -0.014099384141850201 0 -0.0078715396853413343 -0.013992884738119882 0 -0.0075925053570398259 -0.013866892594505196 0 -0.0053514248166219467 -0.0088483009104316467 0 -0.0056945775439948276 -0.010302353188370189 0 -0.0037650518055677602 -0.0017171307206419199 0 -0.0033300069191420545 -0.0022054191386919326 0 -0.0044217351678045563 -0.0018214072520261859 0 -0.0034702249731234547 -0.0028771942277402429 0 -0.0033300069191420545 -0.0022054191386919326 0 -0.0044217351678045563 -0.0018214072520261859 0 -0.0053514248166219467 -0.0088483009104316467 0 -0.0048734411561150862 -0.005063196123905489 0 -0.0037650518055677602 -0.0017171307206419199 0 -0.0033300069191420545 -0.0022054191386919326 0 -0.0032766451820714858 -0.0018433000469489256 0 -0.0033300069191420545 -0.0022054191386919326 0 -0.0032766451820714858 -0.0018433000469489256 0 -0.0030443245573670338 -0.0020002109784915023 0 -0.0053368962960858119 0.00026815308813228763 0 -0.0058880922153579608 -0.005852236519978138 0 -0.0030479103586523552 -0.0014732150601251453 0 -0.0020626449814152574 -0.0023024308109859427 0 -0.0027327234768778561 -0.001973462064188507 0 -0.0031190132791730969 -0.0017854366903017722 0 -0.0032766451820714858 -0.0018433000469489256 0 -0.0030443245573670338 -0.0020002109784915023 0 -0.0030155235291292708 -0.0017469050812903761 0 -0.0031190132791730969 -0.0017854366903017722 0 -0.0030443245573670338 -0.0020002109784915023 0 -0.0030155235291292708 -0.0017469050812903761 0 -0.0030443245573670338 -0.0020002109784915023 0 -0.0027327234768778561 -0.001973462064188507 0 -0.0030443245573670338 -0.0020002109784915023 0 -0.0027327234768778561 -0.001973462064188507 0 -0.0027510755794655627 -0.0025694429106636386 0 -0.0034702249731234547 -0.0028771942277402429 0 -0.0033300069191420545 -0.0022054191386919326 0 -0.0027510755794655627 -0.0025694429106636386 0 -0.0033300069191420545 -0.0022054191386919326 0 -0.0030443245573670338 -0.0020002109784915023 0 -0.0027510755794655627 -0.0025694429106636386 0 -0.0092460947175612498 -0.014440750513970464 0 -0.009127561448481666 -0.014457333694728352 0 -0.0090444618981999608 -0.014599674274189206 0 -0.019995943448711227 -0.0082590246641942415 0 -0.015096868492223145 -0.0049135803566624173 0 -0.0090408016393887878 -0.014462730288786276 0 -0.0090444618981999608 -0.014599674274189206 0 -0.0089069400292800232 -0.014471525850867081 0 -0.009127561448481666 -0.014457333694728352 0 -0.0090408016393887878 -0.014462730288786276 0 -0.0091069066938286748 -0.014395418139204263 0 -0.009127561448481666 -0.014457333694728352 0 -0.0090408016393887878 -0.014462730288786276 0 -0.0090444618981999608 -0.014599674274189206 0 -0.019840042346669102 -0.0057986225779761971 0 -0.020435492579497859 -0.004721849692839235 0 -0.021351144550773908 -0.0050800577498586741 0 -0.0036208293667336286 0.003726779364544232 0 -0.0039064769784127613 0.0036157663164552113 0 -0.0041203611005526421 0.0039510886883640664 0 -0.020859832113235759 -0.0038799539110393935 0 -0.015096868492223145 -0.0049135803566624173 0 -0.026275453796399513 -0.0031564370630637203 0 -0.026709814543030331 -0.0024747741908306749 0 -0.02654791435971271 -0.0032638396861723938 0 -0.0041203611005526421 0.0039510886883640664 0 -0.0043456364696057943 0.0033934121521005177 0 -0.0044614897213474712 0.0038526685923333959 0 -0.0039064769784127613 0.0036157663164552113 0 -0.0041203611005526421 0.0039510886883640664 0 -0.0043456364696057943 0.0033934121521005177 0 -0.0043435696785023683 0.0042313765909204951 0 -0.0041203611005526421 0.0039510886883640664 0 -0.0044614897213474712 0.0038526685923333959 0 -0.015096868492223145 -0.0049135803566624173 0 -0.0098126788093346896 -0.0045867589741425321 0 -0.0088307252957576885 -0.01457329173460252 0 -0.0089069400292800232 -0.014471525850867081 0 -0.0087254006876857255 -0.014393226132574811 0 -0.0090444618981999608 -0.014599674274189206 0 -0.0088307252957576885 -0.01457329173460252 0 -0.0089069400292800232 -0.014471525850867081 0 -0.0098126788093346896 -0.0045867589741425321 0 -0.0072646795951404998 -0.0052544985936633423 0 -0.0043456364696057943 0.0033934121521005177 0 -0.0048309809392911608 0.0036084313247229322 0 -0.0052167871087070924 0.0029411598399302166 0 -0.0088307252957576885 -0.01457329173460252 0 -0.0084164011380324592 -0.014495370070357564 0 -0.0087254006876857255 -0.014393226132574811 0 -0.0043456364696057943 0.0033934121521005177 0 -0.0048309809392911608 0.0036084313247229322 0 -0.0044614897213474712 0.0038526685923333959 0 -0.0047882812337566912 0.0042021648399817755 0 -0.0048309809392911608 0.0036084313247229322 0 -0.0044614897213474712 0.0038526685923333959 0 -0.0047882812337566912 0.0042021648399817755 0 -0.0048309809392911608 0.0036084313247229322 0 -0.0053943444241871287 0.0036704355086897376 0 -0.0048309809392911608 0.0036084313247229322 0 -0.0053943444241871287 0.0036704355086897376 0 -0.0052167871087070924 0.0029411598399302166 0 -0.0083824984005601635 -0.014329611258807697 0 -0.0084894615096126509 -0.014243040683873845 0 -0.0087254006876857255 -0.014393226132574811 0 -0.0084164011380324592 -0.014495370070357564 0 -0.0083824984005601635 -0.014329611258807697 0 -0.0087254006876857255 -0.014393226132574811 0 -0.0082025182212220327 -0.014230612689591577 0 -0.0083824984005601635 -0.014329611258807697 0 -0.0084894615096126509 -0.014243040683873845 0 -0.0082025182212220327 -0.014230612689591577 0 -0.0084894615096126509 -0.014243040683873845 0 -0.0082249019851693642 -0.014138893857220131 0 -0.0084894615096126509 -0.014243040683873845 0 -0.0087589725414368245 -0.014269330218436599 0 -0.0087254006876857255 -0.014393226132574811 0 -0.0084894615096126509 -0.014243040683873845 0 -0.0086016201830659972 -0.014168758882544239 0 -0.0084160717662931702 -0.01412883936339579 0 -0.0084894615096126509 -0.014243040683873845 0 -0.0087589725414368245 -0.014269330218436599 0 -0.0086016201830659972 -0.014168758882544239 0 -0.0087589725414368245 -0.014269330218436599 0 -0.0088581693707077396 -0.014145930625954083 0 -0.0086016201830659972 -0.014168758882544239 0 -0.0089069400292800232 -0.014471525850867081 0 -0.0087254006876857255 -0.014393226132574811 0 -0.0088723437376325674 -0.014346519976315242 0 -0.0089069400292800232 -0.014471525850867081 0 -0.0088723437376325674 -0.014346519976315242 0 -0.0089974741214031446 -0.014383696540610773 0 -0.0090408016393887878 -0.014462730288786276 0 -0.0089069400292800232 -0.014471525850867081 0 -0.0089974741214031446 -0.014383696540610773 0 -0.0088723437376325674 -0.014346519976315242 0 -0.0089468681899173494 -0.014270903561994595 0 -0.0089974741214031446 -0.014383696540610773 0 -0.0087589725414368245 -0.014269330218436599 0 -0.0087254006876857255 -0.014393226132574811 0 -0.0088723437376325674 -0.014346519976315242 0 -0.0087589725414368245 -0.014269330218436599 0 -0.0088723437376325674 -0.014346519976315242 0 -0.0089468681899173494 -0.014270903561994595 0 -0.0087589725414368245 -0.014269330218436599 0 -0.0089468681899173494 -0.014270903561994595 0 -0.0088581693707077396 -0.014145930625954083 0 -0.0089468681899173494 -0.014270903561994595 0 -0.0090467214259544581 -0.014261990959078636 0 -0.0089765477667931443 -0.014176384073581566 0 -0.0089468681899173494 -0.014270903561994595 0 -0.0090467214259544581 -0.014261990959078636 0 -0.0090746116219795302 -0.014328573641441203 0 -0.0091342623801815744 -0.014288474894637986 0 -0.0090467214259544581 -0.014261990959078636 0 -0.0090872436746128465 -0.014231315449145604 0 -0.0091342623801815744 -0.014288474894637986 0 -0.0090467214259544581 -0.014261990959078636 0 -0.0090746116219795302 -0.014328573641441203 0 -0.009167182581394321 -0.014333077911055016 0 -0.0091342623801815744 -0.014288474894637986 0 -0.0090746116219795302 -0.014328573641441203 0 -0.009167182581394321 -0.014333077911055016 0 -0.0090746116219795302 -0.014328573641441203 0 -0.0091069066938286748 -0.014395418139204263 0 -0.0089468681899173494 -0.014270903561994595 0 -0.0090746116219795302 -0.014328573641441203 0 -0.0089974741214031446 -0.014383696540610773 0 -0.0090746116219795302 -0.014328573641441203 0 -0.0089974741214031446 -0.014383696540610773 0 -0.0091069066938286748 -0.014395418139204263 0 -0.0090408016393887878 -0.014462730288786276 0 -0.0089974741214031446 -0.014383696540610773 0 -0.0091069066938286748 -0.014395418139204263 0 -0.0091852793480578249 -0.014388404800975413 0 -0.009127561448481666 -0.014457333694728352 0 -0.0091069066938286748 -0.014395418139204263 0 -0.0090321843778939943 -0.014182444254039346 0 -0.0089765477667931443 -0.014176384073581566 0 -0.0089745165729169813 -0.014152911690077957 0 -0.0090849327035843423 -0.014208255743498524 0 -0.0090321843778939943 -0.014182444254039346 0 -0.008964025386749128 -0.014167833616242088 0 -0.0090321843778939943 -0.014182444254039346 0 -0.0089745165729169813 -0.014152911690077957 0 -0.008964025386749128 -0.014167833616242088 0 -0.0090321843778939943 -0.014182444254039346 0 -0.0090872436746128465 -0.014231315449145604 0 -0.0089765477667931443 -0.014176384073581566 0 -0.0090467214259544581 -0.014261990959078636 0 -0.0090872436746128465 -0.014231315449145604 0 -0.0089765477667931443 -0.014176384073581566 0 -0.0089468681899173494 -0.014270903561994595 0 -0.0089765477667931443 -0.014176384073581566 0 -0.0088581693707077396 -0.014145930625954083 0 -0.0089765477667931443 -0.014176384073581566 0 -0.0088581693707077396 -0.014145930625954083 0 -0.0089405371131559414 -0.014147079434909426 0 -0.0089745165729169813 -0.014152911690077957 0 -0.0089405371131559414 -0.014147079434909426 0 -0.0090495168454235806 -0.01417505433233464 0 -0.0089765477667931443 -0.014176384073581566 0 -0.0089745165729169813 -0.014152911690077957 0 -0.0089405371131559414 -0.014147079434909426 0 -0.0089936321638391711 -0.015319845497904461 0 -0.0089396433224128193 -0.015285427875093091 0 -0.0090096114779460792 -0.015233147747207236 0 -0.0087370258768329993 -0.014534806250512747 0 -0.0088984815676470975 -0.014721816931298913 0 -0.0089405371131559414 -0.014147079434909426 0 -0.0089563013306723019 -0.014144565500455297 0 -0.0090495168454235806 -0.01417505433233464 0 -0.0088581693707077396 -0.014145930625954083 0 -0.0089405371131559414 -0.014147079434909426 0 -0.0089563013306723019 -0.014144565500455297 0 -0.0087266453861374483 -0.014482815831832118 0 -0.0087370258768329993 -0.014534806250512747 0 -0.0088581693707077396 -0.014145930625954083 0 -0.0086016201830659972 -0.014168758882544239 0 -0.0085259253777530703 -0.013999804197516825 0 -0.0086016201830659972 -0.014168758882544239 0 -0.0085259253777530703 -0.013999804197516825 0 -0.0084160717662931702 -0.01412883936339579 0 -0.0084894615096126509 -0.014243040683873845 0 -0.0084160717662931702 -0.01412883936339579 0 -0.0082249019851693642 -0.014138893857220131 0 -0.0085259253777530703 -0.013999804197516825 0 -0.0084160717662931702 -0.01412883936339579 0 -0.0083159857164407953 -0.014063027508207329 0 -0.0084160717662931702 -0.01412883936339579 0 -0.0083159857164407953 -0.014063027508207329 0 -0.0082249019851693642 -0.014138893857220131 0 -0.0087370258768329993 -0.014534806250512747 0 -0.0086611008569489559 -0.014646057810473144 0 -0.0083159857164407953 -0.014063027508207329 0 -0.0081743177078072073 -0.014043122803756268 0 -0.0081631501875965504 -0.014085677444014592 0 -0.0085259253777530703 -0.013999804197516825 0 -0.0083159857164407953 -0.014063027508207329 0 -0.0081743177078072073 -0.014043122803756268 0 -0.0089396433224128193 -0.015285427875093091 0 -0.0089813668639301281 -0.015207950951485551 0 -0.0090096114779460792 -0.015233147747207236 0 -0.0089813668639301281 -0.015207950951485551 0 -0.0089900508175860122 -0.015209699285986518 0 -0.0090105650967428237 -0.015159357875230373 0 -0.0088984815676470975 -0.014721816931298913 0 -0.0089916576431671291 -0.014890092690037224 0 -0.0089813668639301281 -0.015207950951485551 0 -0.0090096114779460792 -0.015233147747207236 0 -0.0089900508175860122 -0.015209699285986518 0 -0.0089745165729169813 -0.014152911690077957 0 -0.0090495168454235806 -0.01417505433233464 0 -0.008964025386749128 -0.014167833616242088 0 -0.0090495168454235806 -0.01417505433233464 0 -0.008964025386749128 -0.014167833616242088 0 -0.0091759723031898648 -0.014279605453295784 0 -0.008964025386749128 -0.014167833616242088 0 -0.008735836267386235 -0.01424941151851683 0 -0.0091759723031898648 -0.014279605453295784 0 -0.0090171193390085874 -0.014250914995214302 0 -0.008964025386749128 -0.014167833616242088 0 -0.008735836267386235 -0.01424941151851683 0 -0.0080547302943917484 -0.014107637530501248 0 -0.0081739036932186159 -0.014341699084767543 0 -0.0080185007592356323 -0.014166248362536323 0 -0.0080547302943917484 -0.014107637530501248 0 -0.0078715396853413343 -0.013992884738119882 0 -0.0080185007592356323 -0.014166248362536323 0 -0.0078715396853413343 -0.013992884738119882 0 -0.0080185007592356323 -0.014166248362536323 0 -0.0076347542523175901 -0.013837263131442843 0 -0.0078653811180238817 -0.014099384141850201 0 -0.0078715396853413343 -0.013992884738119882 0 -0.0079778841957624629 -0.014087596728095099 0 -0.0080547302943917484 -0.014107637530501248 0 -0.0079778841957624629 -0.014087596728095099 0 -0.0080503740208089872 -0.014107240127785388 0 -0.0080547302943917484 -0.014107637530501248 0 -0.0078715396853413343 -0.013992884738119882 0 -0.0079778841957624629 -0.014087596728095099 0 -0.0080547302943917484 -0.014107637530501248 0 -0.0080503740208089872 -0.014107240127785388 0 -0.0080969487535584393 -0.014103360529377324 0 -0.0080815671645052926 -0.014163759080618227 0 -0.0079778841957624629 -0.014087596728095099 0 -0.0080503740208089872 -0.014107240127785388 0 -0.0080815671645052926 -0.014163759080618227 0 -0.0080503740208089872 -0.014107240127785388 0 -0.0080969487535584393 -0.014103360529377324 0 -0.0080815671645052926 -0.014163759080618227 0 -0.0080969487535584393 -0.014103360529377324 0 -0.0082249019851693642 -0.014138893857220131 0 -0.0080969487535584393 -0.014103360529377324 0 -0.0082249019851693642 -0.014138893857220131 0 -0.0081631501875965504 -0.014085677444014592 0 -0.0083159857164407953 -0.014063027508207329 0 -0.0082249019851693642 -0.014138893857220131 0 -0.0081631501875965504 -0.014085677444014592 0 -0.0081743177078072073 -0.014043122803756268 0 -0.0081631501875965504 -0.014085677444014592 0 -0.0080685980381843981 -0.014134311437762037 0 -0.0080969487535584393 -0.014103360529377324 0 -0.0081631501875965504 -0.014085677444014592 0 -0.0080685980381843981 -0.014134311437762037 0 -0.0080547302943917484 -0.014107637530501248 0 -0.0080685980381843981 -0.014134311437762037 0 -0.0081739036932186159 -0.014341699084767543 0 -0.0080547302943917484 -0.014107637530501248 0 -0.0080969487535584393 -0.014103360529377324 0 -0.0080685980381843981 -0.014134311437762037 0 -0.0080084374755333976 -0.014295145252647449 0 -0.0083468295363801071 -0.014859002937302534 0 -0.0081739036932186159 -0.014341699084767543 0 -0.0080685980381843981 -0.014134311437762037 0 -0.0080084374755333976 -0.014295145252647449 0 -0.0081739036932186159 -0.014341699084767543 0 -0.0081743177078072073 -0.014043122803756268 0 -0.0080685980381843981 -0.014134311437762037 0 -0.0080084374755333976 -0.014295145252647449 0 -0.0086611008569489559 -0.014646057810473144 0 -0.008574064420964287 -0.014701766746315808 0 -0.0089396433224128193 -0.015285427875093091 0 -0.0089813668639301281 -0.015207950951485551 0 -0.0088143739147177099 -0.015227680446147323 0 -0.0089813668639301281 -0.015207950951485551 0 -0.0088143739147177099 -0.015227680446147323 0 -0.0090105650967428237 -0.015159357875230373 0 -0.0088143739147177099 -0.015227680446147323 0 -0.0090105650967428237 -0.015159357875230373 0 -0.0087812309121876372 -0.01502889781578798 0 -0.008574064420964287 -0.014701766746315808 0 -0.0085410895026683878 -0.014725546413170332 0 -0.0088143739147177099 -0.015227680446147323 0 -0.0083468295363801071 -0.014859002937302534 0 -0.0087812309121876372 -0.01502889781578798 0 -0.0083468295363801071 -0.014859002937302534 0 -0.0081739036932186159 -0.014341699084767543 0 -0.0082037458978260654 -0.014613950375687128 0 -0.0081739036932186159 -0.014341699084767543 0 -0.0080185007592356323 -0.014166248362536323 0 -0.0082037458978260654 -0.014613950375687128 0 -0.0080185007592356323 -0.014166248362536323 0 -0.0082037458978260654 -0.014613950375687128 0 -0.0080258788830333168 -0.014292581649114395 0 -0.0082037458978260654 -0.014613950375687128 0 -0.008213540331418287 -0.01458138804074067 0 -0.0080258788830333168 -0.014292581649114395 0 -0.008213540331418287 -0.01458138804074067 0 -0.0080453663644336638 -0.014254825132513787 0 -0.0080258788830333168 -0.014292581649114395 0 -0.0082101804027638944 -0.014422633649573545 0 -0.0083015401019400827 -0.014538746915948728 0 -0.008213540331418287 -0.01458138804074067 0 -0.0080453663644336638 -0.014254825132513787 0 -0.0085676615228040889 -0.014632585719657953 0 -0.0080453663644336638 -0.014254825132513787 0 -0.0076347542523175901 -0.013837263131442843 0 -0.0077801587005743014 -0.014003813987960856 0 -0.0080453663644336638 -0.014254825132513787 0 -0.0080163547813821238 -0.014147125270780036 0 -0.0077801587005743014 -0.014003813987960856 0 -0.0080453663644336638 -0.014254825132513787 0 -0.0080258788830333168 -0.014292581649114395 0 -0.0076347542523175901 -0.013837263131442843 0 -0.0080185007592356323 -0.014166248362536323 0 -0.0080258788830333168 -0.014292581649114395 0 -0.0076347542523175901 -0.013837263131442843 0 -0.0080889010098135414 -0.014217335840741332 0 -0.008265746117477631 -0.014269863880380611 0 -0.0081949658137449588 -0.014398812939647749 0 -0.0080889010098135414 -0.014217335840741332 0 -0.0081949658137449588 -0.014398812939647749 0 -0.0080550634394771711 -0.014337360014341423 0 -0.0080453663644336638 -0.014254825132513787 0 -0.0080889010098135414 -0.014217335840741332 0 -0.0080550634394771711 -0.014337360014341423 0 -0.0080453663644336638 -0.014254825132513787 0 -0.0080163547813821238 -0.014147125270780036 0 -0.0080889010098135414 -0.014217335840741332 0 -0.0080163547813821238 -0.014147125270780036 0 -0.0080889010098135414 -0.014217335840741332 0 -0.008094542035029401 -0.014129760900012531 0 -0.0080889010098135414 -0.014217335840741332 0 -0.0081597634568472237 -0.014087720861945709 0 -0.008265746117477631 -0.014269863880380611 0 -0.0044117755053990895 -0.0096825126024470513 0 -0.004620220127758326 -0.011383657097113434 0 -0.0080889010098135414 -0.014217335840741332 0 -0.008094542035029401 -0.014129760900012531 0 -0.0081597634568472237 -0.014087720861945709 0 -0.0045403726647641187 -0.0088404136719493504 0 -0.0055136786967205295 -0.0093816365595756884 0 -0.0044117755053990895 -0.0096825126024470513 0 -0.0055136786967205295 -0.0093816365595756884 0 -0.0043571105287519476 -0.0096814957847986081 0 -0.0042681742005331851 -0.0092749624651293754 0 -0.0050220820333655158 -0.0094483406522507737 0 -0.008094542035029401 -0.014129760900012531 0 -0.0081597634568472237 -0.014087720861945709 0 -0.0080479969268330478 -0.014107856083617785 0 -0.0045403726647641187 -0.0088404136719493504 0 -0.0044117755053990895 -0.0096825126024470513 0 0.0013487473946402406 -0.0075880669624988377 0 0.001175689834949254 -0.0085283431073367635 0 0.00050083297370869656 -0.0077764530446452441 0 -0.010271799944503906 -0.013799826284057388 0 -0.0080479969268330478 -0.014107856083617785 0 -0.008210986220296217 -0.013204542755616592 0 -0.0080163547813821238 -0.014147125270780036 0 -0.008094542035029401 -0.014129760900012531 0 -0.0080479969268330478 -0.014107856083617785 0 -0.0080163547813821238 -0.014147125270780036 0 -0.0080479969268330478 -0.014107856083617785 0 -0.0077801587005743014 -0.014003813987960856 0 -0.0080479969268330478 -0.014107856083617785 0 -0.008210986220296217 -0.013204542755616592 0 -0.0075198063924187273 -0.01370986623217408 0 -0.0080479969268330478 -0.014107856083617785 0 -0.0077801587005743014 -0.014003813987960856 0 -0.0075198063924187273 -0.01370986623217408 0 -0.008210986220296217 -0.013204542755616592 0 -0.0076376806480048052 -0.010508799545358292 0 -0.010069487752551315 -0.011000939691143099 0 -0.008210986220296217 -0.013204542755616592 0 -0.0068212726512324236 -0.013017449360732347 0 -0.0076376806480048052 -0.010508799545358292 0 -0.008210986220296217 -0.013204542755616592 0 -0.0075198063924187273 -0.01370986623217408 0 -0.0068212726512324236 -0.013017449360732347 0 -0.010271799944503906 -0.013799826284057388 0 -0.008210986220296217 -0.013204542755616592 0 -0.010069487752551315 -0.011000939691143099 0 -0.0046871411209456863 -0.0047788709029350698 0 -0.0045627799455906573 -0.0042115830485099986 0 -0.0049746486025044534 -0.0043010861540697404 0 -0.0045403726647641187 -0.0088404136719493504 0 -0.0058330387816135452 -0.007369119712580645 0 -0.0076347542523175901 -0.013837263131442843 0 -0.0077801587005743014 -0.014003813987960856 0 -0.0075198063924187273 -0.01370986623217408 0 -0.0076347542523175901 -0.013837263131442843 0 -0.0075198063924187273 -0.01370986623217408 0 -0.0068212726512324236 -0.013017449360732347 0 -0.0062249876847963494 -0.010882403093107196 0 -0.0056945775439948276 -0.010302353188370189 0 -0.0076347542523175901 -0.013837263131442843 0 -0.0068212726512324236 -0.013017449360732347 0 -0.0075925053570398259 -0.013866892594505196 0 -0.0078715396853413343 -0.013992884738119882 0 -0.0076347542523175901 -0.013837263131442843 0 -0.0075925053570398259 -0.013866892594505196 0 -0.0019869278874122924 -0.011217533715522216 0 -0.0049262566808806049 -0.008874187342513877 0 -0.0021070963698674801 -0.0051985564665619965 0 0.0019352950838422882 -0.0096517771125458063 0 -0.0019869278874122924 -0.011217533715522216 0 -0.0021070963698674801 -0.0051985564665619965 0 -0.0048071484377575479 -0.0061149878428682783 0 -0.0049262566808806049 -0.008874187342513877 0 -0.0021070963698674801 -0.0051985564665619965 0 -0.0048071484377575479 -0.0061149878428682783 0 -0.0065767394634083133 -0.0075323578292016352 0 -0.0064349388759725725 -0.0053546295046529606 0 -0.0048071484377575479 -0.0061149878428682783 0 -0.0049262566808806049 -0.008874187342513877 0 -0.0065767394634083133 -0.0075323578292016352 0 -0.0049262566808806049 -0.008874187342513877 0 -0.0076376806480048052 -0.010508799545358292 0 -0.0065767394634083133 -0.0075323578292016352 0 -0.0068212726512324236 -0.013017449360732347 0 -0.0019869278874122924 -0.011217533715522216 0 -0.0049262566808806049 -0.008874187342513877 0 -0.0068212726512324236 -0.013017449360732347 0 -0.0049262566808806049 -0.008874187342513877 0 -0.0076376806480048052 -0.010508799545358292 0 -0.0076376806480048052 -0.010508799545358292 0 -0.010069487752551315 -0.011000939691143099 0 -0.0085183891338873521 -0.0080207272363300181 0 -0.0076376806480048052 -0.010508799545358292 0 -0.0065767394634083133 -0.0075323578292016352 0 -0.0085183891338873521 -0.0080207272363300181 0 -0.0045627799455906573 -0.0042115830485099986 0 -0.0046912138230006404 -0.0038145682944321943 0 -0.0044226389914491055 -0.003634362272033822 0 -0.010069487752551315 -0.011000939691143099 0 -0.0093761034400113574 -0.0069700621055947872 0 -0.0085183891338873521 -0.0080207272363300181 0 -0.0045627799455906573 -0.0042115830485099986 0 -0.0049721930062066521 -0.0038626322749240071 0 -0.0049746486025044534 -0.0043010861540697404 0 -0.0058330387816135452 -0.007369119712580645 0 -0.0065006295235376091 -0.005396733555310184 0 -0.0045627799455906573 -0.0042115830485099986 0 -0.0046912138230006404 -0.0038145682944321943 0 -0.0049721930062066521 -0.0038626322749240071 0 -0.0044226389914491055 -0.003634362272033822 0 -0.0048105056371416655 -0.0035426104291700704 0 -0.0048240713684190003 -0.0030661618011828019 0 -0.0046912138230006404 -0.0038145682944321943 0 -0.0048105056371416655 -0.0035426104291700704 0 -0.0049721930062066521 -0.0038626322749240071 0 -0.0046912138230006404 -0.0038145682944321943 0 -0.0044226389914491055 -0.003634362272033822 0 -0.0048105056371416655 -0.0035426104291700704 0 -0.0092444772907423166 -0.0067590152816610254 0 -0.0076287430649629234 -0.0061615135386582981 0 -0.0073032805660933151 -0.0033458050974063047 0 -0.0065767394634083133 -0.0075323578292016352 0 -0.0085183891338873521 -0.0080207272363300181 0 -0.0076287430649629234 -0.0061615135386582981 0 -0.0092444772907423166 -0.0067590152816610254 0 -0.0085183891338873521 -0.0080207272363300181 0 -0.0076287430649629234 -0.0061615135386582981 0 -0.0065006295235376091 -0.005396733555310184 0 -0.0065238482227832238 -0.0054629979413380377 0 -0.0065767394634083133 -0.0075323578292016352 0 -0.0076287430649629234 -0.0061615135386582981 0 -0.0064349388759725725 -0.0053546295046529606 0 -0.0065006295235376091 -0.005396733555310184 0 -0.0065855423587265309 -0.0051329385042785313 0 -0.0073032805660933151 -0.0033458050974063047 0 -0.007097176495863426 -0.0020849439952978477 0 -0.0057232232051709414 -0.0038666315080361099 0 -0.0064349388759725725 -0.0053546295046529606 0 -0.0073032805660933151 -0.0033458050974063047 0 -0.0057232232051709414 -0.0038666315080361099 0 -0.0076287430649629234 -0.0061615135386582981 0 -0.0064349388759725725 -0.0053546295046529606 0 -0.0073032805660933151 -0.0033458050974063047 0 -0.0073312781653238198 -0.0034939493884361275 0 -0.0073032805660933151 -0.0033458050974063047 0 -0.0074468327945802111 -0.0027815407605329486 0 -0.0065006295235376091 -0.005396733555310184 0 -0.0066011081989998388 -0.0038063724239337242 0 -0.0073032805660933151 -0.0033458050974063047 0 -0.007097176495863426 -0.0020849439952978477 0 -0.0074468327945802111 -0.0027815407605329486 0 -0.0073385118935402069 -0.00026824581984580904 0 -0.006940939205585632 -0.00096582793311126864 0 -0.0068218179000619867 -0.00178323478874097 0 -0.007097176495863426 -0.0020849439952978477 0 -0.0071092125230714717 -0.0020970468023515706 0 -0.007097176495863426 -0.0020849439952978477 0 -0.0071092125230714717 -0.0020970468023515706 0 -0.0074468327945802111 -0.0027815407605329486 0 -0.0067598257382903894 0.000734045691418717 0 -0.007097176495863426 -0.0020849439952978477 0 -0.0052925313078445819 -0.001953674819109694 0 -0.007097176495863426 -0.0020849439952978477 0 -0.0052925313078445819 -0.001953674819109694 0 -0.0057232232051709414 -0.0038666315080361099 0 -0.0053407710961925481 0.00068513464381137412 0 -0.0054692746317039631 -0.0006528364974645979 0 -0.0041247960166527322 -0.00046661140206304065 0 -0.0054692746317039631 -0.0006528364974645979 0 -0.0041247960166527322 -0.00046661140206304065 0 -0.0044217351678045563 -0.0018214072520261859 0 -0.0037650518055677602 -0.0017171307206419199 0 -0.0041247960166527322 -0.00046661140206304065 0 -0.0044217351678045563 -0.0018214072520261859 0 -0.0052925313078445819 -0.001953674819109694 0 -0.0021070963698674801 -0.0051985564665619965 0 -0.0057232232051709414 -0.0038666315080361099 0 -0.0048071484377575479 -0.0061149878428682783 0 -0.0021070963698674801 -0.0051985564665619965 0 -0.0057232232051709414 -0.0038666315080361099 0 -0.00590843332327033 -0.0021930393882538522 0 -0.0048734411561150862 -0.005063196123905489 0 -0.0048071484377575479 -0.0061149878428682783 0 -0.0064349388759725725 -0.0053546295046529606 0 -0.0057232232051709414 -0.0038666315080361099 0 -0.0061618162101040822 -0.0029331913001201331 0 -0.0058063349982784614 -0.0032107469479402948 0 -0.0058871312206213652 -0.003543793330612716 0 -0.0061618162101040822 -0.0029331913001201331 0 -0.0060697303455954843 -0.0025828624797471929 0 -0.0058063349982784614 -0.0032107469479402948 0 -0.0061618162101040822 -0.0029331913001201331 0 -0.0062512738713072918 -0.003209285718047003 0 -0.0058871312206213652 -0.003543793330612716 0 -0.0065145143436321747 -0.0027636679921557716 0 -0.0065230227200106655 -0.0033455672229943958 0 -0.006778210614648443 -0.0029970700729498676 0 -0.0062512738713072918 -0.003209285718047003 0 -0.0065145143436321747 -0.0027636679921557716 0 -0.0065230227200106655 -0.0033455672229943958 0 -0.0061618162101040822 -0.0029331913001201331 0 -0.0062512738713072918 -0.003209285718047003 0 -0.0065145143436321747 -0.0027636679921557716 0 -0.0065017157878061371 -0.0021805017937954986 0 -0.0065145143436321747 -0.0027636679921557716 0 -0.0068416002315991207 -0.0022979068053120074 0 -0.0065145143436321747 -0.0027636679921557716 0 -0.0068416002315991207 -0.0022979068053120074 0 -0.006778210614648443 -0.0029970700729498676 0 -0.0065017157878061371 -0.0021805017937954986 0 -0.0065145143436321747 -0.0027636679921557716 0 -0.0063102033397690943 -0.0025313933247173431 0 -0.0065017157878061371 -0.0021805017937954986 0 -0.0063801192253802562 -0.002061030068110101 0 -0.0063102033397690943 -0.0025313933247173431 0 -0.0061618162101040822 -0.0029331913001201331 0 -0.0065145143436321747 -0.0027636679921557716 0 -0.0063102033397690943 -0.0025313933247173431 0 -0.0061618162101040822 -0.0029331913001201331 0 -0.0063102033397690943 -0.0025313933247173431 0 -0.0060697303455954843 -0.0025828624797471929 0 -0.0063801192253802562 -0.002061030068110101 0 -0.0061745193097541406 -0.0021935722532127819 0 -0.0060697303455954843 -0.0025828624797471929 0 -0.0063801192253802562 -0.002061030068110101 0 -0.0063102033397690943 -0.0025313933247173431 0 -0.0060697303455954843 -0.0025828624797471929 0 -0.0061745193097541406 -0.0021935722532127819 0 -0.0060697303455954843 -0.0025828624797471929 0 -0.0053138471147440094 -0.0024146566688112601 0 -0.0060697303455954843 -0.0025828624797471929 0 -0.0053138471147440094 -0.0024146566688112601 0 -0.0054804047457698915 -0.0030623881167019325 0 -0.0066897421461494418 -0.0029223300036307991 0 -0.0066011081989998388 -0.0038063724239337242 0 -0.0053138471147440094 -0.0024146566688112601 0 -0.0048240713684190003 -0.0030661618011828019 0 -0.0054804047457698915 -0.0030623881167019325 0 -0.0071092125230714717 -0.0020970468023515706 0 -0.0070846645425858262 -0.001914376820604324 0 -0.0074468327945802111 -0.0027815407605329486 0 -0.0068218179000619867 -0.00178323478874097 0 -0.0071092125230714717 -0.0020970468023515706 0 -0.0070846645425858262 -0.001914376820604324 0 -0.0048240713684190003 -0.0030661618011828019 0 -0.0054804047457698915 -0.0030623881167019325 0 -0.0051360417901790646 -0.0034202231921468995 0 -0.0048105056371416655 -0.0035426104291700704 0 -0.0048240713684190003 -0.0030661618011828019 0 -0.0051360417901790646 -0.0034202231921468995 0 -0.0058063349982784614 -0.0032107469479402948 0 -0.0054804047457698915 -0.0030623881167019325 0 -0.005453714603638935 -0.0036407236503497617 0 -0.0060697303455954843 -0.0025828624797471929 0 -0.0058063349982784614 -0.0032107469479402948 0 -0.0054804047457698915 -0.0030623881167019325 0 -0.0054804047457698915 -0.0030623881167019325 0 -0.005453714603638935 -0.0036407236503497617 0 -0.0051360417901790646 -0.0034202231921468995 0 -0.0058063349982784614 -0.0032107469479402948 0 -0.005453714603638935 -0.0036407236503497617 0 -0.0058871312206213652 -0.003543793330612716 0 -0.005453714603638935 -0.0036407236503497617 0 -0.0056746147548882159 -0.0039601837532653276 0 -0.0058871312206213652 -0.003543793330612716 0 -0.005453714603638935 -0.0036407236503497617 0 -0.0051360417901790646 -0.0034202231921468995 0 -0.0049721930062066521 -0.0038626322749240071 0 -0.0048105056371416655 -0.0035426104291700704 0 -0.0051360417901790646 -0.0034202231921468995 0 -0.0049721930062066521 -0.0038626322749240071 0 -0.005453714603638935 -0.0036407236503497617 0 -0.0049721930062066521 -0.0038626322749240071 0 -0.0053590794211526294 -0.0041265738763363643 0 -0.0049721930062066521 -0.0038626322749240071 0 -0.0053590794211526294 -0.0041265738763363643 0 -0.0049746486025044534 -0.0043010861540697404 0 -0.0053590794211526294 -0.0041265738763363643 0 -0.0056746147548882159 -0.0039601837532653276 0 -0.0057569588361615943 -0.0042719139837305489 0 -0.005453714603638935 -0.0036407236503497617 0 -0.0053590794211526294 -0.0041265738763363643 0 -0.0056746147548882159 -0.0039601837532653276 0 -0.0056746147548882159 -0.0039601837532653276 0 -0.0058478603434097458 -0.0041084393160586673 0 -0.0057569588361615943 -0.0042719139837305489 0 -0.0058871312206213652 -0.003543793330612716 0 -0.0061525433799176068 -0.003587254438577504 0 -0.0058478603434097458 -0.0041084393160586673 0 -0.0056746147548882159 -0.0039601837532653276 0 -0.0058871312206213652 -0.003543793330612716 0 -0.0058478603434097458 -0.0041084393160586673 0 -0.0062512738713072918 -0.003209285718047003 0 -0.0058871312206213652 -0.003543793330612716 0 -0.0061525433799176068 -0.003587254438577504 0 -0.0065230227200106655 -0.0033455672229943958 0 -0.0064683439343243285 -0.0036907209696668917 0 -0.0068475254948855164 -0.0034861355072890858 0 -0.0065230227200106655 -0.0033455672229943958 0 -0.0061525433799176068 -0.003587254438577504 0 -0.0064683439343243285 -0.0036907209696668917 0 -0.0062512738713072918 -0.003209285718047003 0 -0.0065230227200106655 -0.0033455672229943958 0 -0.0061525433799176068 -0.003587254438577504 0 -0.0061525433799176068 -0.003587254438577504 0 -0.0064683439343243285 -0.0036907209696668917 0 -0.0058478603434097458 -0.0041084393160586673 0 -0.0058478603434097458 -0.0041084393160586673 0 -0.0058613393564076683 -0.0044023782857025504 0 -0.0057569588361615943 -0.0042719139837305489 0 -0.0051069068005997059 -0.0057597731533082846 0 -0.0045417345482128635 -0.0062099829307393816 0 -0.0048834831776810306 -0.0029800699859261442 0 -0.0036133180121093482 -0.0027323849679760249 0 -0.0058478603434097458 -0.0041084393160586673 0 -0.0058613393564076683 -0.0044023782857025504 0 -0.0064586438343284544 -0.0041345230209429281 0 -0.0064683439343243285 -0.0036907209696668917 0 -0.0058478603434097458 -0.0041084393160586673 0 -0.0068702148124237189 -0.0039968930941191895 0 -0.0058613393564076683 -0.0044023782857025504 0 -0.0055012747575198129 -0.0056721750496400375 0 -0.0024007337484240349 -0.0056444173390336532 0 -0.0058613393564076683 -0.0044023782857025504 0 -0.0055012747575198129 -0.0056721750496400375 0 -0.0065761852309175178 -0.0052397255395612227 0 -0.0055012747575198129 -0.0056721750496400375 0 -0.0048481478126963327 -0.0067696859111102394 0 -0.0024007337484240349 -0.0056444173390336532 0 -0.0055012747575198129 -0.0056721750496400375 0 -0.0048481478126963327 -0.0067696859111102394 0 -0.0069498169886191572 -0.006394789269608861 0 -0.0048481478126963327 -0.0067696859111102394 0 -0.0031962821130223952 -0.0070806135453474056 0 -0.0042052961237548448 -0.0077898584778442123 0 -0.0024007337484240349 -0.0056444173390336532 0 -0.0031962821130223952 -0.0070806135453474056 0 -0.0017920410138631702 -0.0083272038003687522 0 -0.0048481478126963327 -0.0067696859111102394 0 -0.0024007337484240349 -0.0056444173390336532 0 -0.0031962821130223952 -0.0070806135453474056 0 -0.0031962821130223952 -0.0070806135453474056 0 -0.0017920410138631702 -0.0083272038003687522 0 -0.0042052961237548448 -0.0077898584778442123 0 -0.0017920410138631702 -0.0083272038003687522 0 -0.0013321932161636759 -0.009103473192797808 0 -0.0015429279890210711 -0.0087859792963386786 0 -0.0022370619686623255 -0.0084667731162028723 0 -0.0025398078023496449 -0.0085290143852634458 0 -0.0017920410138631702 -0.0083272038003687522 0 -0.0012505300229122738 -0.0089435868104838154 0 -0.0015429279890210711 -0.0087859792963386786 0 -0.0017920410138631702 -0.0083272038003687522 0 -0.0052414049368784714 -0.0090326546290680557 0 -0.0042052961237548448 -0.0077898584778442123 0 -0.0048481478126963327 -0.0067696859111102394 0 -0.0042052961237548448 -0.0077898584778442123 0 -0.0057781257383642884 -0.0077597029448419688 0 -0.0052414049368784714 -0.0090326546290680557 0 -0.0042052961237548448 -0.0077898584778442123 0 -0.0057781257383642884 -0.0077597029448419688 0 -0.0045403726647641187 -0.0088404136719493504 0 -0.003913544410378003 -0.00729170646370275 0 -0.0046871411209456863 -0.0047788709029350698 0 -0.0049746486025044534 -0.0043010861540697404 0 -0.0052728922133693512 -0.0045293150676723555 0 0.0013487473946402406 -0.0075880669624988377 0 -0.000248297371520054 -0.0068732375530586431 0 0.00050083297370869656 -0.0077764530446452441 0 -0.0053590794211526294 -0.0041265738763363643 0 -0.0049746486025044534 -0.0043010861540697404 0 -0.0052728922133693512 -0.0045293150676723555 0 -0.0053590794211526294 -0.0041265738763363643 0 -0.0057569588361615943 -0.0042719139837305489 0 -0.0052728922133693512 -0.0045293150676723555 0 -0.0045417345482128635 -0.0062099829307393816 0 -0.003913544410378003 -0.00729170646370275 0 -0.0024007337484240349 -0.0056444173390336532 0 -0.0017920410138631702 -0.0083272038003687522 0 -0.000248297371520054 -0.0068732375530586431 0 -0.0017920410138631702 -0.0083272038003687522 0 -0.00027542627647216087 -0.0081398430814919806 0 -0.0012505300229122738 -0.0089435868104838154 0 -0.0017920410138631702 -0.0083272038003687522 0 -0.000248297371520054 -0.0068732375530586431 0 -0.00027542627647216087 -0.0081398430814919806 0 0.001175689834949254 -0.0085283431073367635 0 -0.00027542627647216087 -0.0081398430814919806 0 -0.0012505300229122738 -0.0089435868104838154 0 0.001175689834949254 -0.0085283431073367635 0 -0.00027542627647216087 -0.0081398430814919806 0 0.00050083297370869656 -0.0077764530446452441 0 -0.000248297371520054 -0.0068732375530586431 0 -0.00027542627647216087 -0.0081398430814919806 0 0.00050083297370869656 -0.0077764530446452441 0 -0.0019572539548810912 -0.009080888324783749 0 -0.0018036376509445692 -0.0089331314651155298 0 -0.0018645285407752061 -0.0087507486452787411 0 -0.0019572539548810912 -0.009080888324783749 0 -0.0018036376509445692 -0.0089331314651155298 0 -0.0016117543647451453 -0.0089827648661625278 0 -0.0044117755053990895 -0.0096825126024470513 0 -0.0017250774873271144 -0.009041634490568818 0 -0.0018036376509445692 -0.0089331314651155298 0 -0.0016117543647451453 -0.0089827648661625278 0 -0.0016742432924622493 -0.0088159575795904374 0 -0.0016117543647451453 -0.0089827648661625278 0 -0.0016742432924622493 -0.0088159575795904374 0 -0.0015090105305445205 -0.0087989421049514318 0 -0.0016742432924622493 -0.0088159575795904374 0 -0.0015090105305445205 -0.0087989421049514318 0 -0.0016034000770774005 -0.0085906936006804359 0 -0.0016742432924622493 -0.0088159575795904374 0 -0.0018645285407752061 -0.0087507486452787411 0 -0.0016034000770774005 -0.0085906936006804359 0 -0.0018036376509445692 -0.0089331314651155298 0 -0.0016742432924622493 -0.0088159575795904374 0 -0.0018645285407752061 -0.0087507486452787411 0 -0.0014183527356506562 -0.0089432824910652096 0 -0.0010971547506922967 -0.009072439085071167 0 -0.0011413558517201158 -0.008874286584771204 0 -0.0013321932161636759 -0.009103473192797808 0 -0.0014183527356506562 -0.0089432824910652096 0 -0.0010971547506922967 -0.009072439085071167 0 -0.0013321932161636759 -0.009103473192797808 0 -0.0014183527356506562 -0.0089432824910652096 0 -0.0015429279890210711 -0.0087859792963386786 0 -0.0012505300229122738 -0.0089435868104838154 0 -0.0014183527356506562 -0.0089432824910652096 0 -0.0015429279890210711 -0.0087859792963386786 0 -0.0017250774873271144 -0.009041634490568818 0 -0.0014998165380602816 -0.0089826036139504725 0 -0.0016117543647451453 -0.0089827648661625278 0 -0.0014183527356506562 -0.0089432824910652096 0 -0.0015090105305445205 -0.0087989421049514318 0 -0.0014183527356506562 -0.0089432824910652096 0 -0.0015090105305445205 -0.0087989421049514318 0 -0.0013527747364165908 -0.0087778734199494141 0 -0.0015090105305445205 -0.0087989421049514318 0 -0.0013527747364165908 -0.0087778734199494141 0 -0.0013847508835770647 -0.0085380883698899339 0 -0.0014183527356506562 -0.0089432824910652096 0 -0.0013527747364165908 -0.0087778734199494141 0 -0.0011413558517201158 -0.008874286584771204 0 -0.0013527747364165908 -0.0087778734199494141 0 -0.0011625346896379752 -0.0086146625030677337 0 -0.0011413558517201158 -0.008874286584771204 0 -0.0011625346896379752 -0.0086146625030677337 0 -0.0013847508835770647 -0.0085380883698899339 0 -0.001095616173273277 -0.0083266017688623309 0 -0.0013527747364165908 -0.0087778734199494141 0 -0.0011625346896379752 -0.0086146625030677337 0 -0.0013847508835770647 -0.0085380883698899339 0 -0.0013847508835770647 -0.0085380883698899339 0 -0.001446023610406279 -0.0083999672616237586 0 -0.0016034000770774005 -0.0085906936006804359 0 -0.0015090105305445205 -0.0087989421049514318 0 -0.0013847508835770647 -0.0085380883698899339 0 -0.0016034000770774005 -0.0085906936006804359 0 -0.0013847508835770647 -0.0085380883698899339 0 -0.001446023610406279 -0.0083999672616237586 0 -0.0013092373942798373 -0.0083056375942819512 0 -0.001446023610406279 -0.0083999672616237586 0 -0.0013092373942798373 -0.0083056375942819512 0 -0.0014705473013622539 -0.0083077832189923633 0 -0.0013092373942798373 -0.0083056375942819512 0 -0.001095616173273277 -0.0083266017688623309 0 -0.0011430521471323385 -0.0081548659496038685 0 -0.0013847508835770647 -0.0085380883698899339 0 -0.0013092373942798373 -0.0083056375942819512 0 -0.001095616173273277 -0.0083266017688623309 0 -0.0013092373942798373 -0.0083056375942819512 0 -0.0011430521471323385 -0.0081548659496038685 0 -0.0013628496256475071 -0.0082277014926887392 0 -0.0013092373942798373 -0.0083056375942819512 0 -0.0013628496256475071 -0.0082277014926887392 0 -0.0014705473013622539 -0.0083077832189923633 0 -0.0013628496256475071 -0.0082277014926887392 0 -0.0014586122525030503 -0.008231957330695077 0 -0.0014705473013622539 -0.0083077832189923633 0 -0.0013628496256475071 -0.0082277014926887392 0 -0.0014121969722788415 -0.0082112478221105564 0 -0.0014586122525030503 -0.008231957330695077 0 -0.0014121969722788415 -0.0082112478221105564 0 -0.0014685231303197526 -0.0082354763298053378 0 -0.0014586122525030503 -0.008231957330695077 0 0.010185476614609449 -0.024521735459815557 0 0.0085611530415623336 -0.023093918221867318 0 0.010618734949185738 -0.023079366998455288 0 -0.0011430521471323385 -0.0081548659496038685 0 -0.0013628496256475071 -0.0082277014926887392 0 -0.0014121969722788415 -0.0082112478221105564 0 0.003880856061017414 -0.016934886722007384 0 0.0018505746543159584 -0.017273444641560741 0 -0.0085964778484992083 -0.015042672410386737 0 -0.0086333464069829578 -0.015067010591191853 0 -0.0085675618540193114 -0.015000580957010699 0 -0.0086257133073725165 -0.015019162812741448 0 -0.0086120114831940171 -0.015044188746696011 0 -0.0086379226649003753 -0.015046858731581006 0 -0.0085964778484992083 -0.015042672410386737 0 -0.0086257133073725165 -0.015019162812741448 0 -0.0086120114831940171 -0.015044188746696011 0 -0.0085964778484992083 -0.015042672410386737 0 -0.0085675618540193114 -0.015000580957010699 0 -0.0086257133073725165 -0.015019162812741448 0 -0.0086120114831940171 -0.015044188746696011 0 -0.0086379226649003753 -0.015046858731581006 0 -0.0086087963942217977 -0.015049374122594134 0 -0.0085964778484992083 -0.015042672410386737 0 -0.0086333464069829578 -0.015067010591191853 0 -0.0086065115004895967 -0.015057796683011937 0 -0.0086120114831940171 -0.015044188746696011 0 -0.0086065115004895967 -0.015057796683011937 0 -0.0086087963942217977 -0.015049374122594134 0 -0.0085964778484992083 -0.015042672410386737 0 -0.0086120114831940171 -0.015044188746696011 0 -0.0086065115004895967 -0.015057796683011937 0 -0.0015254165222401987 -0.0082300865266135836 0 -0.0014685231303197526 -0.0082354763298053378 0 -0.0014586122525030503 -0.008231957330695077 0 -0.0015254165222401987 -0.0082300865266135836 0 -0.0014586122525030503 -0.008231957330695077 0 -0.0015157072835591731 -0.008277342698791091 0 -0.0014586122525030503 -0.008231957330695077 0 -0.0015157072835591731 -0.008277342698791091 0 -0.0014705473013622539 -0.0083077832189923633 0 -0.0015254165222401987 -0.0082300865266135836 0 -0.0015157072835591731 -0.008277342698791091 0 -0.001576477511113353 -0.0083323847372417364 0 -0.0015157072835591731 -0.008277342698791091 0 -0.0014705473013622539 -0.0083077832189923633 0 -0.001576477511113353 -0.0083323847372417364 0 -0.0015254165222401987 -0.0082300865266135836 0 -0.001576477511113353 -0.0083323847372417364 0 -0.0017240308995213004 -0.0084173770958576744 0 -0.0032433097353750111 -0.012893366508727508 0 -0.0042310517173414454 -0.011844825168406551 0 -0.0085675618540193114 -0.015000580957010699 0 -0.0084608643396084822 -0.014583025404285299 0 -0.0082059028286412799 -0.014609474702348475 0 -0.0084935444380584545 -0.014825441400678888 0 -0.0084277030082295038 -0.014722796871988948 0 -0.0086333464069829578 -0.015067010591191853 0 -0.0085675618540193114 -0.015000580957010699 0 -0.0084608643396084822 -0.014583025404285299 0 -0.0085675618540193114 -0.015000580957010699 0 -0.0086257133073725165 -0.015019162812741448 0 -0.0087206550517859929 -0.014936336100255469 0 -0.001446023610406279 -0.0083999672616237586 0 -0.0015689276858193988 -0.0084093043058260184 0 -0.0016034000770774005 -0.0085906936006804359 0 -0.0017240308995213004 -0.0084173770958576744 0 -0.0015689276858193988 -0.0084093043058260184 0 -0.0016034000770774005 -0.0085906936006804359 0 -0.0014705473013622539 -0.0083077832189923633 0 -0.001576477511113353 -0.0083323847372417364 0 -0.0015689276858193988 -0.0084093043058260184 0 -0.001446023610406279 -0.0083999672616237586 0 -0.0014705473013622539 -0.0083077832189923633 0 -0.0015689276858193988 -0.0084093043058260184 0 -0.001576477511113353 -0.0083323847372417364 0 -0.0017240308995213004 -0.0084173770958576744 0 -0.0015689276858193988 -0.0084093043058260184 0 -0.008265746117477631 -0.014269863880380611 0 -0.0084608643396084822 -0.014583025404285299 0 -0.0081949658137449588 -0.014398812939647749 0 -0.004620220127758326 -0.011383657097113434 0 -0.0042310517173414454 -0.011844825168406551 0 -0.0018645285407752061 -0.0087507486452787411 0 -0.0017240308995213004 -0.0084173770958576744 0 -0.0016034000770774005 -0.0085906936006804359 0 -0.0081949658137449588 -0.014398812939647749 0 -0.0080550634394771711 -0.014337360014341423 0 -0.0082059028286412799 -0.014609474702348475 0 -0.0083015401019400827 -0.014538746915948728 0 -0.0084277030082295038 -0.014722796871988948 0 -0.0085676615228040889 -0.014632585719657953 0 -0.0085982854222510369 -0.014874207307612431 0 -0.0084261860167630116 -0.014813460688131568 0 -0.0085982854222510369 -0.014874207307612431 0 -0.0084261860167630116 -0.014813460688131568 0 -0.0085899461366081443 -0.014946509359097077 0 -0.0085676615228040889 -0.014632585719657953 0 -0.0085982854222510369 -0.014874207307612431 0 -0.0087206550517859929 -0.014936336100255469 0 -0.0084608643396084822 -0.014583025404285299 0 -0.0081949658137449588 -0.014398812939647749 0 -0.0082059028286412799 -0.014609474702348475 0 -0.0085982854222510369 -0.014874207307612431 0 -0.0087206550517859929 -0.014936336100255469 0 -0.0086672401444295149 -0.014976653895833485 0 -0.0082037458978260654 -0.014613950375687128 0 -0.008213540331418287 -0.01458138804074067 0 -0.0082813776033670537 -0.014788850180762002 0 -0.008213540331418287 -0.01458138804074067 0 -0.0082813776033670537 -0.014788850180762002 0 -0.0084261860167630116 -0.014813460688131568 0 -0.008213540331418287 -0.01458138804074067 0 -0.0085676615228040889 -0.014632585719657953 0 -0.0084261860167630116 -0.014813460688131568 0 -0.0084261860167630116 -0.014813460688131568 0 -0.0084198059913451178 -0.01491813545511822 0 -0.0085899461366081443 -0.014946509359097077 0 -0.0082813776033670537 -0.014788850180762002 0 -0.0084198059913451178 -0.01491813545511822 0 -0.0083279694611957701 -0.014873598913226611 0 -0.0082813776033670537 -0.014788850180762002 0 -0.0084261860167630116 -0.014813460688131568 0 -0.0084198059913451178 -0.01491813545511822 0 -0.0084198059913451178 -0.01491813545511822 0 -0.0083279694611957701 -0.014873598913226611 0 -0.0082805284843502098 -0.015031024506041808 0 -0.0084198059913451178 -0.01491813545511822 0 -0.0086222077941050263 -0.015019597079276213 0 -0.0085899461366081443 -0.014946509359097077 0 -0.0085345010894772189 -0.015109005963215209 0 -0.0086222077941050263 -0.015019597079276213 0 -0.0088102002994741753 -0.015122802134231898 0 -0.0085345010894772189 -0.015109005963215209 0 -0.0088102002994741753 -0.015122802134231898 0 -0.0089582228106740696 -0.015375341861693089 0 -0.0084198059913451178 -0.01491813545511822 0 -0.0085345010894772189 -0.015109005963215209 0 -0.0086222077941050263 -0.015019597079276213 0 -0.0084198059913451178 -0.01491813545511822 0 -0.0085345010894772189 -0.015109005963215209 0 -0.0082805284843502098 -0.015031024506041808 0 -0.0086257133073725165 -0.015019162812741448 0 -0.0087206550517859929 -0.014936336100255469 0 -0.0086724075853688316 -0.015023301567361353 0 -0.0087206550517859929 -0.014936336100255469 0 -0.0086724075853688316 -0.015023301567361353 0 -0.0086672401444295149 -0.014976653895833485 0 -0.0086724075853688316 -0.015023301567361353 0 -0.0086672401444295149 -0.014976653895833485 0 -0.0087095025571301866 -0.01505069248933809 0 -0.0085982854222510369 -0.014874207307612431 0 -0.0086672401444295149 -0.014976653895833485 0 -0.0085899461366081443 -0.014946509359097077 0 -0.0086222077941050263 -0.015019597079276213 0 -0.0085899461366081443 -0.014946509359097077 0 -0.0087095025571301866 -0.01505069248933809 0 -0.0086672401444295149 -0.014976653895833485 0 -0.0085899461366081443 -0.014946509359097077 0 -0.0087095025571301866 -0.01505069248933809 0 -0.0087095025571301866 -0.01505069248933809 0 -0.0088102002994741753 -0.015122802134231898 0 -0.0086840104819096136 -0.015066259030916677 0 -0.0086222077941050263 -0.015019597079276213 0 -0.0087095025571301866 -0.01505069248933809 0 -0.0088102002994741753 -0.015122802134231898 0 -0.0088102002994741753 -0.015122802134231898 0 -0.0086840104819096136 -0.015066259030916677 0 -0.0086906496797148122 -0.015048770763376315 0 -0.0086840104819096136 -0.015066259030916677 0 -0.0086541211675263355 -0.015048547583864855 0 -0.0086906496797148122 -0.015048770763376315 0 -0.0086724075853688316 -0.015023301567361353 0 -0.0087095025571301866 -0.01505069248933809 0 -0.0086840104819096136 -0.015066259030916677 0 -0.0086724075853688316 -0.015023301567361353 0 -0.0086840104819096136 -0.015066259030916677 0 -0.0086379226649003753 -0.015046858731581006 0 -0.0086257133073725165 -0.015019162812741448 0 -0.0086724075853688316 -0.015023301567361353 0 -0.0086379226649003753 -0.015046858731581006 0 -0.0086840104819096136 -0.015066259030916677 0 -0.0086379226649003753 -0.015046858731581006 0 -0.0086541211675263355 -0.015048547583864855 0 -0.0086379226649003753 -0.015046858731581006 0 -0.0086266816475378764 -0.015045137785829487 0 -0.0086541211675263355 -0.015048547583864855 0 -0.0086266816475378764 -0.015045137785829487 0 -0.0086541211675263355 -0.015048547583864855 0 -0.0086396435240889621 -0.015027287396429822 0 -0.0086266816475378764 -0.015045137785829487 0 -0.0086396435240889621 -0.015027287396429822 0 -0.0086008155915666025 -0.015032440494614295 0 -0.0086396435240889621 -0.015027287396429822 0 -0.0086732245623206763 -0.015017110249769957 0 -0.0086906496797148122 -0.015048770763376315 0 -0.0086541211675263355 -0.015048547583864855 0 -0.0086396435240889621 -0.015027287396429822 0 -0.0086906496797148122 -0.015048770763376315 0 -0.0065777113245778307 -0.017112679332707433 0 -0.0063758653953177617 -0.018078698556981757 0 -0.0088102002994741753 -0.015122802134231898 0 -0.0089582228106740696 -0.015375341861693089 0 -0.0091091294029418558 -0.015497524145470938 0 -0.0088102002994741753 -0.015122802134231898 0 -0.0086906496797148122 -0.015048770763376315 0 -0.0087232618591693185 -0.015005850451817002 0 -0.0065010083803441147 -0.018006021557493351 0 -0.0063758653953177617 -0.018078698556981757 0 -0.0086732245623206763 -0.015017110249769957 0 -0.0086906496797148122 -0.015048770763376315 0 -0.0087232618591693185 -0.015005850451817002 0 -0.0089582228106740696 -0.015375341861693089 0 -0.0094943758316711983 -0.01573870516896899 0 -0.0095072662870709784 -0.01641920150683529 0 -0.0094943758316711983 -0.01573870516896899 0 -0.0095072662870709784 -0.01641920150683529 0 -0.0097327331266711253 -0.016646494976337776 0 -0.0059268896975946724 -0.01924537245514836 0 -0.0064731061945985718 -0.019738561588688641 0 -0.0060599531996906337 -0.020160083487354829 0 -0.0063758653953177617 -0.018078698556981757 0 -0.0064992041962386718 -0.019478527022224735 0 -0.0086414445034727304 -0.014994655074750002 0 -0.0085824075391086503 -0.014979935390567944 0 -0.0085923480224685787 -0.015006480410483821 0 -0.0057575582084213785 -0.019229952630766448 0 -0.0046033604834866872 -0.020768815471752872 0 -0.0086396435240889621 -0.015027287396429822 0 -0.0086414445034727304 -0.014994655074750002 0 -0.0085923480224685787 -0.015006480410483821 0 -0.0086732245623206763 -0.015017110249769957 0 -0.0087232618591693185 -0.015005850451817002 0 -0.0086414445034727304 -0.014994655074750002 0 -0.0063758653953177617 -0.018078698556981757 0 -0.0057575582084213785 -0.019229952630766448 0 -0.0086396435240889621 -0.015027287396429822 0 -0.0086732245623206763 -0.015017110249769957 0 -0.0086414445034727304 -0.014994655074750002 0 -0.0092435173037665463 -0.015936342524384712 0 -0.0091332154794370162 -0.015697854151827288 0 -0.0085345010894772189 -0.015109005963215209 0 -0.0084124497685438993 -0.015497216889661341 0 -0.0082805284843502098 -0.015031024506041808 0 -0.0097851188232445062 -0.016558811574176477 0 -0.0097985794713233362 -0.016554748258126729 0 -0.0099356206193789171 -0.016346876037350567 0 -0.0085345010894772189 -0.015109005963215209 0 -0.0089582228106740696 -0.015375341861693089 0 -0.0084124497685438993 -0.015497216889661341 0 -0.0095072662870709784 -0.01641920150683529 0 -0.0097851188232445062 -0.016558811574176477 0 -0.0097023092088669091 -0.016529564857524173 0 -0.0089582228106740696 -0.015375341861693089 0 -0.0095072662870709784 -0.01641920150683529 0 -0.0084124497685438993 -0.015497216889661341 0 -0.0093784711517473814 -0.016097374385490953 0 -0.0092435173037665463 -0.015936342524384712 0 -0.0097851188232445062 -0.016558811574176477 0 -0.0097023092088669091 -0.016529564857524173 0 -0.0097985794713233362 -0.016554748258126729 0 -0.0097985794713233362 -0.016554748258126729 0 -0.009720805136082639 -0.016616603592947685 0 -0.0098364326897716521 -0.016561230925803732 0 -0.0097023092088669091 -0.016529564857524173 0 -0.009720805136082639 -0.016616603592947685 0 -0.0096996435319966507 -0.016645721320759799 0 -0.0097023092088669091 -0.016529564857524173 0 -0.0097985794713233362 -0.016554748258126729 0 -0.009720805136082639 -0.016616603592947685 0 -0.0097023092088669091 -0.016529564857524173 0 -0.0096996435319966507 -0.016645721320759799 0 -0.009644141358526228 -0.016585983284398104 0 -0.0095072662870709784 -0.01641920150683529 0 -0.0097023092088669091 -0.016529564857524173 0 -0.009644141358526228 -0.016585983284398104 0 -0.0096996435319966507 -0.016645721320759799 0 -0.009644141358526228 -0.016585983284398104 0 -0.0097138880916363916 -0.01668121188750198 0 -0.0096996435319966507 -0.016645721320759799 0 -0.0097210561963477458 -0.01675987480184166 0 -0.0096822225591776181 -0.016751086415750075 0 -0.0096996435319966507 -0.016645721320759799 0 -0.0097210561963477458 -0.01675987480184166 0 -0.0097138880916363916 -0.01668121188750198 0 -0.009720805136082639 -0.016616603592947685 0 -0.0096822225591776181 -0.016751086415750075 0 -0.0096400985382144692 -0.016749422107685943 0 -0.009720805136082639 -0.016616603592947685 0 -0.0096996435319966507 -0.016645721320759799 0 -0.0096822225591776181 -0.016751086415750075 0 -0.0064352874378871897 -0.02029877237824192 0 -0.0060599531996906337 -0.020160083487354829 0 -0.0061955915044387229 -0.021070226284076302 0 -0.0062831077330722969 -0.022760765787057047 0 -0.0046033604834866872 -0.020768815471752872 0 -0.0064352874378871897 -0.02029877237824192 0 -0.0061955915044387229 -0.021070226284076302 0 -0.0070124791590083771 -0.020226059318931178 0 -0.0064731061945985718 -0.019738561588688641 0 -0.0064352874378871897 -0.02029877237824192 0 -0.0070124791590083771 -0.020226059318931178 0 -0.0064731061945985718 -0.019738561588688641 0 -0.0064352874378871897 -0.02029877237824192 0 -0.0060599531996906337 -0.020160083487354829 0 -0.0064992041962386718 -0.019478527022224735 0 -0.0062831077330722969 -0.022760765787057047 0 -0.0097327331266711253 -0.016646494976337776 0 -0.0097138880916363916 -0.01668121188750198 0 -0.0097699563087757721 -0.01673607104477343 0 -0.0095072662870709784 -0.01641920150683529 0 -0.0097327331266711253 -0.016646494976337776 0 -0.009644141358526228 -0.016585983284398104 0 -0.0097327331266711253 -0.016646494976337776 0 -0.009644141358526228 -0.016585983284398104 0 -0.0097138880916363916 -0.01668121188750198 0 -0.0097210561963477458 -0.01675987480184166 0 -0.0097138880916363916 -0.01668121188750198 0 -0.0097699563087757721 -0.01673607104477343 0 -0.0024732978420697401 -0.027729381207258742 0 -0.0025892119965482906 -0.027734123739359937 0 -0.0025902022035916281 -0.027562160214642698 0 -0.0024732978420697401 -0.027729381207258742 0 -0.0025892119965482906 -0.027734123739359937 0 -0.0025342251734263893 -0.027810626172391981 0 -0.0025892119965482906 -0.027734123739359937 0 -0.0025902022035916281 -0.027562160214642698 0 -0.0026800730472071022 -0.027664208492056547 0 -0.0025892119965482906 -0.027734123739359937 0 -0.0026705469394300227 -0.027785182968280628 0 -0.0026063254740379843 -0.027862413261035078 0 -0.0025892119965482906 -0.027734123739359937 0 -0.0026800730472071022 -0.027664208492056547 0 -0.0026705469394300227 -0.027785182968280628 0 -0.0046033604834866872 -0.020768815471752872 0 -0.0038063427338710519 -0.022858317275367721 0 -0.0015630027718978284 -0.021429853769964501 0 -0.0022744519019910871 -0.021203746770526513 0 -0.0023346051429166455 -0.022126371985954889 0 -0.0011774268237390779 -0.024226952774106459 0 -0.0018463004176835264 -0.024363943031045512 0 -0.00094905977506760508 -0.023142846138787657 0 -0.0022744519019910871 -0.021203746770526513 0 -0.0028670164695684774 -0.021675052466707732 0 -0.0026159513023635509 -0.020530048641120874 0 -0.0022744519019910871 -0.021203746770526513 0 -0.0028670164695684774 -0.021675052466707732 0 -0.0023346051429166455 -0.022126371985954889 0 -0.0038063427338710519 -0.022858317275367721 0 -0.0030842587569419296 -0.024182658133352939 0 -0.0023519559684007912 -0.022160001899806429 0 -0.0030842587569419296 -0.024182658133352939 0 -0.0028670164695684774 -0.021675052466707732 0 -0.0023346051429166455 -0.022126371985954889 0 -0.0031159378576171583 -0.022831328047817963 0 -0.0026800730472071022 -0.027664208492056547 0 -0.0026705469394300227 -0.027785182968280628 0 -0.0027835260131135707 -0.027773085956975262 0 -0.001431402226010881 -0.025264431092812342 0 -0.0018376456711453248 -0.025339777325509016 0 -0.0020294043886179168 -0.025026125264344706 0 -0.001431402226010881 -0.025264431092812342 0 -0.0020294043886179168 -0.025026125264344706 0 -0.0018463004176835264 -0.024363943031045512 0 -0.0020294043886179168 -0.025026125264344706 0 -0.0025333799695153873 -0.024571114996467244 0 -0.0021681284201880346 -0.025787158583349984 0 -0.0011774268237390779 -0.024226952774106459 0 -0.001431402226010881 -0.025264431092812342 0 -0.0018463004176835264 -0.024363943031045512 0 -0.0018376456711453248 -0.025339777325509016 0 -0.0020294043886179168 -0.025026125264344706 0 -0.0021681284201880346 -0.025787158583349984 0 -0.0020294043886179168 -0.025026125264344706 0 -0.0025333799695153873 -0.024571114996467244 0 -0.0018463004176835264 -0.024363943031045512 0 -0.0026059593135185715 -0.025427086054745928 0 -0.0025237815210008932 -0.026026350907034191 0 -0.0027183752309897133 -0.025418009203347351 0 -0.0025333799695153873 -0.024571114996467244 0 -0.0022373977729138335 -0.026020520489273332 0 -0.00302447336697895 -0.025531514784376139 0 -0.0027183752309897133 -0.025418009203347351 0 -0.0030944982575043505 -0.024852613800702104 0 -0.0027183752309897133 -0.025418009203347351 0 -0.0030944982575043505 -0.024852613800702104 0 -0.0025333799695153873 -0.024571114996467244 0 -0.0030944982575043505 -0.024852613800702104 0 -0.0023586584358227724 -0.023921495369089638 0 -0.0038184559307345742 -0.024725274975555888 0 -0.0030944982575043505 -0.024852613800702104 0 -0.0025333799695153873 -0.024571114996467244 0 -0.0023586584358227724 -0.023921495369089638 0 0.0028938588285221997 -0.022104021981473942 0 0.005436199599194916 -0.02590039121340634 0 -0.0023586584358227724 -0.023921495369089638 0 -0.0018463004176835264 -0.024363943031045512 0 -0.00094905977506760508 -0.023142846138787657 0 -0.0025333799695153873 -0.024571114996467244 0 -0.0023586584358227724 -0.023921495369089638 0 -0.0018463004176835264 -0.024363943031045512 0 0.0091080130839168456 -0.020426528551301486 0 0.0083075428982458642 -0.021672570283211959 0 0.0070413782937843866 -0.021401531808137673 0 0.0028938588285221997 -0.022104021981473942 0 -0.0015432955647065654 -0.01902540227486579 0 0.0091080130839168456 -0.020426528551301486 0 0.0098100084148799414 -0.021842083799983557 0 0.010612853497272923 -0.020944786620693649 0 0.0091080130839168456 -0.020426528551301486 0 0.0083075428982458642 -0.021672570283211959 0 0.0098100084148799414 -0.021842083799983557 0 0.0085611530415623336 -0.023093918221867318 0 0.0098100084148799414 -0.021842083799983557 0 0.010618734949185738 -0.023079366998455288 0 0.0018505746543159584 -0.017273444641560741 0 -0.0015957073066227884 -0.018506648831225644 0 0.0085611530415623336 -0.023093918221867318 0 0.0083075428982458642 -0.021672570283211959 0 0.0098100084148799414 -0.021842083799983557 0 0.0085611530415623336 -0.023093918221867318 0 0.0083075428982458642 -0.021672570283211959 0 0.0069973377933157267 -0.021599341517271275 0 -0.0015254165222401987 -0.0082300865266135836 0 -0.0014685231303197526 -0.0082354763298053378 0 -0.0014717588835559646 -0.008286904225863154 0 -0.0086333464069829578 -0.015067010591191853 0 -0.0086065115004895967 -0.015057796683011937 0 -0.008509610541755086 -0.015034040619713033 0 -0.0032433097353750111 -0.012893366508727508 0 -0.0015957073066227884 -0.018506648831225644 0 -0.0014121969722788415 -0.0082112478221105564 0 -0.0014685231303197526 -0.0082354763298053378 0 -0.0014717588835559646 -0.008286904225863154 0 -0.0086065115004895967 -0.015057796683011937 0 -0.00858619227725573 -0.015048390502317105 0 -0.008509610541755086 -0.015034040619713033 0 -0.0086065115004895967 -0.015057796683011937 0 -0.00858619227725573 -0.015048390502317105 0 -0.0086087963942217977 -0.015049374122594134 0 -0.00858619227725573 -0.015048390502317105 0 -0.0086087963942217977 -0.015049374122594134 0 -0.0085958222928839076 -0.015044075531196313 0 -0.0086266816475378764 -0.015045137785829487 0 -0.0085958222928839076 -0.015044075531196313 0 -0.0086008155915666025 -0.015032440494614295 0 -0.0086379226649003753 -0.015046858731581006 0 -0.0086266816475378764 -0.015045137785829487 0 -0.0086087963942217977 -0.015049374122594134 0 -0.0086266816475378764 -0.015045137785829487 0 -0.0086087963942217977 -0.015049374122594134 0 -0.0085958222928839076 -0.015044075531196313 0 -0.00858619227725573 -0.015048390502317105 0 -0.008572384500773916 -0.015037855881842961 0 -0.008509610541755086 -0.015034040619713033 0 -0.0085958222928839076 -0.015044075531196313 0 -0.0086008155915666025 -0.015032440494614295 0 -0.008572384500773916 -0.015037855881842961 0 -0.00858619227725573 -0.015048390502317105 0 -0.0085958222928839076 -0.015044075531196313 0 -0.008572384500773916 -0.015037855881842961 0 -0.0086008155915666025 -0.015032440494614295 0 -0.0085775436964788312 -0.015030096171051511 0 -0.008572384500773916 -0.015037855881842961 0 -0.0085775436964788312 -0.015030096171051511 0 -0.008572384500773916 -0.015037855881842961 0 -0.0085501572738699485 -0.015029091511752872 0 -0.0015630027718978284 -0.021429853769964501 0 -0.0022744519019910871 -0.021203746770526513 0 -0.0024969497184397144 -0.020468920365355525 0 -0.0085501572738699485 -0.015029091511752872 0 -0.0085923480224685787 -0.015006480410483821 0 -0.0085217147544490706 -0.015025621502000821 0 -0.0046033604834866872 -0.020768815471752872 0 -0.001845646065395518 -0.018820758118529898 0 -0.0085775436964788312 -0.015030096171051511 0 -0.0085501572738699485 -0.015029091511752872 0 -0.0085923480224685787 -0.015006480410483821 0 -0.0085824075391086503 -0.014979935390567944 0 -0.0085923480224685787 -0.015006480410483821 0 -0.0085217147544490706 -0.015025621502000821 0 -0.0086396435240889621 -0.015027287396429822 0 -0.0086008155915666025 -0.015032440494614295 0 -0.0085923480224685787 -0.015006480410483821 0 -0.0086008155915666025 -0.015032440494614295 0 -0.0085775436964788312 -0.015030096171051511 0 -0.0085923480224685787 -0.015006480410483821 0 -0.0022744519019910871 -0.021203746770526513 0 -0.0026159513023635509 -0.020530048641120874 0 -0.0024969497184397144 -0.020468920365355525 0 0.0083075428982458642 -0.021672570283211959 0 0.0069973377933157267 -0.021599341517271275 0 0.0070413782937843866 -0.021401531808137673 0 -0.0023519559684007912 -0.022160001899806429 0 -0.0015432955647065654 -0.01902540227486579 0 -0.008572384500773916 -0.015037855881842961 0 -0.0085501572738699485 -0.015029091511752872 0 -0.008509610541755086 -0.015034040619713033 0 -0.0015957073066227884 -0.018506648831225644 0 -0.001845646065395518 -0.018820758118529898 0 -0.0021373539945479803 -0.018849778638419242 0 -0.001845646065395518 -0.018820758118529898 0 -0.0085501572738699485 -0.015029091511752872 0 -0.008509610541755086 -0.015034040619713033 0 -0.0085152618268183149 -0.015026337979282383 0 -0.0015957073066227884 -0.018506648831225644 0 -0.0015432955647065654 -0.01902540227486579 0 -0.00024872174543699098 -0.019995355348933996 0 -4.2791462420075759e-05 -0.019046741263937555 0 -0.00080426048004455153 -0.019434653544274944 0 -0.0015432955647065654 -0.01902540227486579 0 -0.001845646065395518 -0.018820758118529898 0 -0.0081859818251112763 -0.015522432943533029 0 -0.007938024929319297 -0.016222334828728185 0 -0.0084640096821985509 -0.016176069082274164 0 -0.0084640096821985509 -0.016176069082274164 0 -0.0090780835992368414 -0.015917924343979935 0 -0.0089570647554635119 -0.016744071573406464 0 -0.0081859818251112763 -0.015522432943533029 0 -0.0084640096821985509 -0.016176069082274164 0 -0.0090780835992368414 -0.015917924343979935 0 -0.007938024929319297 -0.016222334828728185 0 -0.0084640096821985509 -0.016176069082274164 0 -0.0081094115789032764 -0.016823321604904323 0 -0.0090015329935609154 -0.015463185381530475 0 -0.009015083274599954 -0.015211027082808588 0 -0.0090780835992368414 -0.015917924343979935 0 -0.0087019847338183284 -0.014824875659067172 0 -0.0092287364354606636 -0.014945799168469769 0 -0.0090780835992368414 -0.015917924343979935 0 -0.0089869986161975231 -0.01546667314133755 0 -0.0092553877462163703 -0.015827996592621643 0 -0.0081859818251112763 -0.015522432943533029 0 -0.0090780835992368414 -0.015917924343979935 0 -0.0087019847338183284 -0.014824875659067172 0 -0.0087019847338183284 -0.014824875659067172 0 -0.008735836267386235 -0.01424941151851683 0 -0.0091759723031898648 -0.014279605453295784 0 -0.009015083274599954 -0.015211027082808588 0 -0.0089916576431671291 -0.014890092690037224 0 -0.0087019847338183284 -0.014824875659067172 0 -0.0092287364354606636 -0.014945799168469769 0 -0.0091759723031898648 -0.014279605453295784 0 -0.0089869986161975231 -0.01546667314133755 0 -0.0089900508175860122 -0.015209699285986518 0 -0.0091447315112056071 -0.015424638995238152 0 -0.0089900508175860122 -0.015209699285986518 0 -0.0090105650967428237 -0.015159357875230373 0 -0.0091447315112056071 -0.015424638995238152 0 -0.0091447315112056071 -0.015424638995238152 0 -0.0092553877462163703 -0.015827996592621643 0 -0.0093741948796038504 -0.016010859361427588 0 -0.0092553877462163703 -0.015827996592621643 0 -0.0093741948796038504 -0.016010859361427588 0 -0.0098549962352706549 -0.016751389040290741 0 -0.0090780835992368414 -0.015917924343979935 0 -0.0092553877462163703 -0.015827996592621643 0 -0.0098549962352706549 -0.016751389040290741 0 -0.0089869986161975231 -0.01546667314133755 0 -0.0091447315112056071 -0.015424638995238152 0 -0.0092553877462163703 -0.015827996592621643 0 -0.0093741948796038504 -0.016010859361427588 0 -0.0095708347883878067 -0.016163448723847222 0 -0.0095355743485939365 -0.016426731347030661 0 -0.0095708347883878067 -0.016163448723847222 0 -0.0098544650318001647 -0.015901209975102519 0 -0.0097986788045412946 -0.016414545239423272 0 -0.0090538088990131192 -0.015412977234235303 0 -0.0090801132309522407 -0.015497941516735541 0 -0.0095708347883878067 -0.016163448723847222 0 -0.0091175484688518719 -0.015205444469832923 0 -0.0098544650318001647 -0.015901209975102519 0 -0.0091447315112056071 -0.015424638995238152 0 -0.0093741948796038504 -0.016010859361427588 0 -0.0091175484688518719 -0.015205444469832923 0 -0.0093741948796038504 -0.016010859361427588 0 -0.0095708347883878067 -0.016163448723847222 0 -0.0091175484688518719 -0.015205444469832923 0 -0.0090105650967428237 -0.015159357875230373 0 -0.0091447315112056071 -0.015424638995238152 0 -0.0091175484688518719 -0.015205444469832923 0 -0.0090105650967428237 -0.015159357875230373 0 -0.0087812309121876372 -0.01502889781578798 0 -0.0091175484688518719 -0.015205444469832923 0 -0.0083468295363801071 -0.014859002937302534 0 -0.0087812309121876372 -0.01502889781578798 0 -0.0084442386500006589 -0.014964491930670905 0 -0.0091175484688518719 -0.015205444469832923 0 -0.0084442386500006589 -0.014964491930670905 0 -0.0084529745958315614 -0.014814843046620443 0 -0.0087812309121876372 -0.01502889781578798 0 -0.0091175484688518719 -0.015205444469832923 0 -0.0084442386500006589 -0.014964491930670905 0 -0.0083468295363801071 -0.014859002937302534 0 -0.0082037458978260654 -0.014613950375687128 0 -0.0084442386500006589 -0.014964491930670905 0 -0.0082037458978260654 -0.014613950375687128 0 -0.0082813776033670537 -0.014788850180762002 0 -0.0084442386500006589 -0.014964491930670905 0 -0.0082813776033670537 -0.014788850180762002 0 -0.0084442386500006589 -0.014964491930670905 0 -0.0083279694611957701 -0.014873598913226611 0 -0.0083279694611957701 -0.014873598913226611 0 -0.0084529745958315614 -0.014814843046620443 0 -0.0082805284843502098 -0.015031024506041808 0 -0.0084442386500006589 -0.014964491930670905 0 -0.0083279694611957701 -0.014873598913226611 0 -0.0084529745958315614 -0.014814843046620443 0 -0.0098544650318001647 -0.015901209975102519 0 -0.0099356206193789171 -0.016346876037350567 0 -0.0097986788045412946 -0.016414545239423272 0 -0.0090801132309522407 -0.015497941516735541 0 -0.0091332154794370162 -0.015697854151827288 0 -0.0097985794713233362 -0.016554748258126729 0 -0.0099356206193789171 -0.016346876037350567 0 -0.0098364326897716521 -0.016561230925803732 0 -0.0099356206193789171 -0.016346876037350567 0 -0.0097986788045412946 -0.016414545239423272 0 -0.0098364326897716521 -0.016561230925803732 0 -0.0097986788045412946 -0.016414545239423272 0 -0.0098364326897716521 -0.016561230925803732 0 -0.0098014755795893509 -0.016649315694773712 0 -0.010737518981451168 -0.017875886935510645 0 -0.010755128245452376 -0.018998967911570044 0 -0.009720805136082639 -0.016616603592947685 0 -0.0098364326897716521 -0.016561230925803732 0 -0.0096303283672680914 -0.016669255763438091 0 -0.009720805136082639 -0.016616603592947685 0 -0.0096303283672680914 -0.016669255763438091 0 -0.0096400985382144692 -0.016749422107685943 0 -0.0096303283672680914 -0.016669255763438091 0 -0.0096400985382144692 -0.016749422107685943 0 -0.0095364833811526478 -0.016847171916613977 0 -0.010755128245452376 -0.018998967911570044 0 -0.010306264468417245 -0.0240177803558233 0 -0.0099411217362015657 -0.016819708157713449 0 -0.0098522451240002622 -0.01690754707875592 0 -0.0099235642580672665 -0.017038056025356289 0 -0.0092152626200294324 -0.021787821022044008 0 -0.010306264468417245 -0.0240177803558233 0 -0.0098522451240002622 -0.01690754707875592 0 -0.0098650466345378534 -0.017122091240265962 0 -0.010092372366379491 -0.017175090119844309 0 -0.0098364326897716521 -0.016561230925803732 0 -0.0099411217362015657 -0.016819708157713449 0 -0.0098014755795893509 -0.016649315694773712 0 -0.0099411217362015657 -0.016819708157713449 0 -0.0098014755795893509 -0.016649315694773712 0 -0.0098522451240002622 -0.01690754707875592 0 -0.0098014755795893509 -0.016649315694773712 0 -0.0097285792263650302 -0.016755789557683247 0 -0.0098522451240002622 -0.01690754707875592 0 -0.0098522451240002622 -0.01690754707875592 0 -0.0097017266145122717 -0.017037645499758797 0 -0.0098650466345378534 -0.017122091240265962 0 -0.0097285792263650302 -0.016755789557683247 0 -0.0098522451240002622 -0.01690754707875592 0 -0.0097017266145122717 -0.017037645499758797 0 -0.0097017266145122717 -0.017037645499758797 0 -0.0095938981620624711 -0.016739206641222363 0 -0.0095119887141251851 -0.016954182848433665 0 -0.0097285792263650302 -0.016755789557683247 0 -0.0097017266145122717 -0.017037645499758797 0 -0.0095938981620624711 -0.016739206641222363 0 -0.0097285792263650302 -0.016755789557683247 0 -0.0095938981620624711 -0.016739206641222363 0 -0.0096496914369794962 -0.016557773812437098 0 -0.0095938981620624711 -0.016739206641222363 0 -0.0096496914369794962 -0.016557773812437098 0 -0.009567063514917741 -0.016596759338310185 0 -0.0096496914369794962 -0.016557773812437098 0 -0.0095355743485939365 -0.016426731347030661 0 -0.009567063514917741 -0.016596759338310185 0 -0.0097986788045412946 -0.016414545239423272 0 -0.0098014755795893509 -0.016649315694773712 0 -0.0096496914369794962 -0.016557773812437098 0 -0.0098014755795893509 -0.016649315694773712 0 -0.0097285792263650302 -0.016755789557683247 0 -0.0096496914369794962 -0.016557773812437098 0 -0.0095708347883878067 -0.016163448723847222 0 -0.0097986788045412946 -0.016414545239423272 0 -0.0096496914369794962 -0.016557773812437098 0 -0.0095708347883878067 -0.016163448723847222 0 -0.0096496914369794962 -0.016557773812437098 0 -0.0095355743485939365 -0.016426731347030661 0 -0.0093741948796038504 -0.016010859361427588 0 -0.0095355743485939365 -0.016426731347030661 0 -0.0098549962352706549 -0.016751389040290741 0 -0.010318198327440272 -0.018128805725482457 0 -0.010415672259483132 -0.018825560544078117 0 -0.0098549962352706549 -0.016751389040290741 0 -0.009567063514917741 -0.016596759338310185 0 -0.009489745918493912 -0.016681063097266424 0 -0.0098549962352706549 -0.016751389040290741 0 -0.011559048152376107 -0.018891636172758016 0 -0.0094031969148073921 -0.017771103577137008 0 -0.0095355743485939365 -0.016426731347030661 0 -0.0098549962352706549 -0.016751389040290741 0 -0.009567063514917741 -0.016596759338310185 0 -0.0095938981620624711 -0.016739206641222363 0 -0.0095119887141251851 -0.016954182848433665 0 -0.009489745918493912 -0.016681063097266424 0 -0.0095938981620624711 -0.016739206641222363 0 -0.009567063514917741 -0.016596759338310185 0 -0.009489745918493912 -0.016681063097266424 0 -0.0095119887141251851 -0.016954182848433665 0 -0.0093119451292012073 -0.017035156229477402 0 -0.009489745918493912 -0.016681063097266424 0 -0.010515300101345342 -0.020653058262442157 0 -0.010415672259483132 -0.018825560544078117 0 -0.013241409297205077 -0.02204526904596198 0 -0.011559048152376107 -0.018891636172758016 0 -0.011063447515814237 -0.020912148723762354 0 -0.013241409297205077 -0.02204526904596198 0 -0.011063447515814237 -0.020912148723762354 0 -0.011210330827214846 -0.022880323961598125 0 -0.011559048152376107 -0.018891636172758016 0 -0.0094533999629089951 -0.019909551768264616 0 -0.0094031969148073921 -0.017771103577137008 0 -0.011559048152376107 -0.018891636172758016 0 -0.0094533999629089951 -0.019909551768264616 0 -0.011063447515814237 -0.020912148723762354 0 -0.0094533999629089951 -0.019909551768264616 0 -0.011063447515814237 -0.020912148723762354 0 -0.0099161173289980288 -0.021409347797376663 0 -0.011063447515814237 -0.020912148723762354 0 -0.0099161173289980288 -0.021409347797376663 0 -0.011210330827214846 -0.022880323961598125 0 -0.0094533999629089951 -0.019909551768264616 0 -0.0099161173289980288 -0.021409347797376663 0 -0.0081009131437603625 -0.021992067885871332 0 -0.0076796471158808105 -0.019995736213276712 0 -0.0094533999629089951 -0.019909551768264616 0 -0.0081009131437603625 -0.021992067885871332 0 -0.0094533999629089951 -0.019909551768264616 0 -0.0083068704478127236 -0.018507260973033027 0 -0.0094031969148073921 -0.017771103577137008 0 -0.0076796471158808105 -0.019995736213276712 0 -0.0094533999629089951 -0.019909551768264616 0 -0.0083068704478127236 -0.018507260973033027 0 -0.0076684298947540608 -0.017715611354370525 0 -0.0083068704478127236 -0.018507260973033027 0 -0.0085267800752732124 -0.017471985539245855 0 -0.0076684298947540608 -0.017715611354370525 0 -0.0085267800752732124 -0.017471985539245855 0 -0.0081094115789032764 -0.016823321604904323 0 -0.0083068704478127236 -0.018507260973033027 0 -0.0085267800752732124 -0.017471985539245855 0 -0.0094031969148073921 -0.017771103577137008 0 -0.0098549962352706549 -0.016751389040290741 0 -0.0094031969148073921 -0.017771103577137008 0 -0.0089570647554635119 -0.016744071573406464 0 -0.0085267800752732124 -0.017471985539245855 0 -0.0094031969148073921 -0.017771103577137008 0 -0.0089570647554635119 -0.016744071573406464 0 -0.0090780835992368414 -0.015917924343979935 0 -0.0098549962352706549 -0.016751389040290741 0 -0.0089570647554635119 -0.016744071573406464 0 -0.0084640096821985509 -0.016176069082274164 0 -0.0089570647554635119 -0.016744071573406464 0 -0.0081094115789032764 -0.016823321604904323 0 -0.0085267800752732124 -0.017471985539245855 0 -0.0089570647554635119 -0.016744071573406464 0 -0.0081094115789032764 -0.016823321604904323 0 -0.014070293136563916 -0.034608607614415303 0 -0.012860575973131278 -0.035621560703504883 0 -0.0034049125627479294 -0.03690389428855323 0 -0.006312544911987389 -0.034802423803095971 0 -0.0082248638834861061 -0.037826286214586821 0 -0.006312544911987389 -0.034802423803095971 0 -0.0085750909008005128 -0.034729444553692625 0 -0.0072215775721651589 -0.032610219236319238 0 -0.0034049125627479294 -0.03690389428855323 0 -0.006312544911987389 -0.034802423803095971 0 -0.0048304533429390506 -0.03417125260225317 0 -0.006312544911987389 -0.034802423803095971 0 -0.0085750909008005128 -0.034729444553692625 0 -0.0082248638834861061 -0.037826286214586821 0 -0.010232684803888932 -0.036193203036983937 0 -0.0085750909008005128 -0.034729444553692625 0 -0.0082248638834861061 -0.037826286214586821 0 -0.010232684803888932 -0.036193203036983937 0 -0.012938158111382417 -0.037958797540099773 0 -0.0082248638834861061 -0.037826286214586821 0 -0.010232684803888932 -0.036193203036983937 0 -0.012014982084034056 -0.036517122562009272 0 -0.012938158111382417 -0.037958797540099773 0 -0.012014982084034056 -0.036517122562009272 0 -0.010594502253922297 -0.034249597015037124 0 -0.012056602088776736 -0.034267888733240104 0 -0.010232684803888932 -0.036193203036983937 0 -0.012014982084034056 -0.036517122562009272 0 -0.010594502253922297 -0.034249597015037124 0 -0.010232684803888932 -0.036193203036983937 0 -0.010594502253922297 -0.034249597015037124 0 -0.0085750909008005128 -0.034729444553692625 0 -0.010594502253922297 -0.034249597015037124 0 -0.0085750909008005128 -0.034729444553692625 0 -0.0090191143249763895 -0.03270536823979988 0 -0.010594502253922297 -0.034249597015037124 0 -0.0090191143249763895 -0.03270536823979988 0 -0.010454393880692898 -0.031402856638417784 0 -0.0090191143249763895 -0.03270536823979988 0 -0.0085414419695799722 -0.030394765292629022 0 -0.0072215775721651589 -0.032610219236319238 0 -0.010594502253922297 -0.034249597015037124 0 -0.010454393880692898 -0.031402856638417784 0 -0.012269801918890896 -0.032594895685073386 0 -0.010594502253922297 -0.034249597015037124 0 -0.012269801918890896 -0.032594895685073386 0 -0.012056602088776736 -0.034267888733240104 0 -0.010454393880692898 -0.031402856638417784 0 -0.0085414419695799722 -0.030394765292629022 0 -0.010864647584015487 -0.028186986154356993 0 -0.010454393880692898 -0.031402856638417784 0 -0.01251131329846651 -0.030320376215259216 0 -0.012269801918890896 -0.032594895685073386 0 -0.010454393880692898 -0.031402856638417784 0 -0.010864647584015487 -0.028186986154356993 0 -0.01251131329846651 -0.030320376215259216 0 -0.0090191143249763895 -0.03270536823979988 0 -0.010454393880692898 -0.031402856638417784 0 -0.0085414419695799722 -0.030394765292629022 0 -0.0085414419695799722 -0.030394765292629022 0 -0.0066284798694591415 -0.030867688351504875 0 -0.0072215775721651589 -0.032610219236319238 0 -0.0085750909008005128 -0.034729444553692625 0 -0.0090191143249763895 -0.03270536823979988 0 -0.0072215775721651589 -0.032610219236319238 0 -0.0066284798694591415 -0.030867688351504875 0 -0.0072215775721651589 -0.032610219236319238 0 -0.0054253374168601572 -0.032429658791431934 0 -0.006312544911987389 -0.034802423803095971 0 -0.0048304533429390506 -0.03417125260225317 0 -0.0054253374168601572 -0.032429658791431934 0 -0.006312544911987389 -0.034802423803095971 0 -0.0072215775721651589 -0.032610219236319238 0 -0.0054253374168601572 -0.032429658791431934 0 -0.0041710280075855392 -0.032555842587529131 0 -0.0048304533429390506 -0.03417125260225317 0 -0.0054253374168601572 -0.032429658791431934 0 -0.0038452358777080814 -0.031840054446373847 0 -0.0054253374168601572 -0.032429658791431934 0 -0.0051182244916734843 -0.03060442599422308 0 -0.0066284798694591415 -0.030867688351504875 0 -0.0054253374168601572 -0.032429658791431934 0 -0.0051182244916734843 -0.03060442599422308 0 -0.0041383387097658018 -0.029257015777972177 0 -0.0051182244916734843 -0.03060442599422308 0 -0.0066921061036029818 -0.028645445888827448 0 -0.0066284798694591415 -0.030867688351504875 0 -0.0051182244916734843 -0.03060442599422308 0 -0.0066921061036029818 -0.028645445888827448 0 -0.0085414419695799722 -0.030394765292629022 0 -0.0066284798694591415 -0.030867688351504875 0 -0.0066921061036029818 -0.028645445888827448 0 -0.006626867493097854 -0.027991147669868526 0 -0.0065910226026065499 -0.025869324022863963 0 -0.0086174807870343217 -0.025257000325142186 0 -0.0047228938231295946 -0.026590039711635559 0 -0.006626867493097854 -0.027991147669868526 0 -0.0065910226026065499 -0.025869324022863963 0 -0.0047228938231295946 -0.026590039711635559 0 -0.0065910226026065499 -0.025869324022863963 0 -0.0057818274133485002 -0.02322311530547776 0 -0.0065910226026065499 -0.025869324022863963 0 -0.0057818274133485002 -0.02322311530547776 0 -0.0086174807870343217 -0.025257000325142186 0 -0.0081445153619031912 -0.02358376086597708 0 -0.0093642755744315371 -0.023413714772293294 0 -0.0057818274133485002 -0.02322311530547776 0 -0.011210330827214846 -0.022880323961598125 0 -0.0086174807870343217 -0.025257000325142186 0 -0.0099161173289980288 -0.021409347797376663 0 -0.0081009131437603625 -0.021992067885871332 0 -0.011210330827214846 -0.022880323961598125 0 -0.011210330827214846 -0.022880323961598125 0 -0.0086174807870343217 -0.025257000325142186 0 -0.01192934979433434 -0.025258672956808149 0 -0.0085414419695799722 -0.030394765292629022 0 -0.0066921061036029818 -0.028645445888827448 0 -0.010864647584015487 -0.028186986154356993 0 -0.0086163399104424703 -0.028750905669364373 0 -0.0090548181554984362 -0.028675304795656061 0 -0.0086174807870343217 -0.025257000325142186 0 -0.010864647584015487 -0.028186986154356993 0 -0.01192934979433434 -0.025258672956808149 0 -0.006626867493097854 -0.027991147669868526 0 -0.0086174807870343217 -0.025257000325142186 0 -0.010864647584015487 -0.028186986154356993 0 -0.010864647584015487 -0.028186986154356993 0 -0.014782033893399455 -0.027515455053994713 0 -0.01251131329846651 -0.030320376215259216 0 -0.010864647584015487 -0.028186986154356993 0 -0.014782033893399455 -0.027515455053994713 0 -0.01192934979433434 -0.025258672956808149 0 -0.014782033893399455 -0.027515455053994713 0 -0.013816770605799751 -0.031583713981511781 0 -0.01251131329846651 -0.030320376215259216 0 -0.0093119451292012073 -0.017035156229477402 0 -0.0092266612966249526 -0.017482191240096541 0 -0.0094200239455827749 -0.017211764508896246 0 -0.013241409297205077 -0.02204526904596198 0 -0.014782033893399455 -0.027515455053994713 0 -0.01192934979433434 -0.025258672956808149 0 -0.010515300101345342 -0.020653058262442157 0 -0.010320906374539692 -0.02370886257201885 0 -0.013241409297205077 -0.02204526904596198 0 -0.011210330827214846 -0.022880323961598125 0 -0.01192934979433434 -0.025258672956808149 0 -0.0095119887141251851 -0.016954182848433665 0 -0.0094200239455827749 -0.017211764508896246 0 -0.0095531570295904582 -0.017199739841662572 0 -0.0095119887141251851 -0.016954182848433665 0 -0.0093119451292012073 -0.017035156229477402 0 -0.0094200239455827749 -0.017211764508896246 0 -0.0094200239455827749 -0.017211764508896246 0 -0.0094810259443405646 -0.017435182772175515 0 -0.0095531570295904582 -0.017199739841662572 0 -0.0092266612966249526 -0.017482191240096541 0 -0.0094200239455827749 -0.017211764508896246 0 -0.0094810259443405646 -0.017435182772175515 0 -0.0092266612966249526 -0.017482191240096541 0 -0.0094810259443405646 -0.017435182772175515 0 -0.0093954214112984338 -0.017654782758819289 0 -0.0094810259443405646 -0.017435182772175515 0 -0.0093954214112984338 -0.017654782758819289 0 -0.0096189010306419968 -0.017669039509245022 0 -0.0092266612966249526 -0.017482191240096541 0 -0.0093954214112984338 -0.017654782758819289 0 -0.0092447009527560822 -0.018029487852981068 0 -0.01187950474908977 -0.037193164830727973 0 -0.012306373520688847 -0.037278235648925025 0 -0.011452313642732571 -0.037486630604104426 0 -0.0094702411918923604 -0.028830415045460946 0 -0.010118208179995095 -0.027379923224855073 0 -0.0093954214112984338 -0.017654782758819289 0 -0.0092447009527560822 -0.018029487852981068 0 -0.0096189010306419968 -0.017669039509245022 0 -0.014782033893399455 -0.027515455053994713 0 -0.013816770605799751 -0.031583713981511781 0 -0.015741897929910133 -0.03353770691645646 0 -0.010320906374539692 -0.02370886257201885 0 -0.0094702411918923604 -0.028830415045460946 0 -0.013816770605799751 -0.031583713981511781 0 -0.01251131329846651 -0.030320376215259216 0 -0.012269801918890896 -0.032594895685073386 0 -0.013816770605799751 -0.031583713981511781 0 -0.012269801918890896 -0.032594895685073386 0 -0.013357663055819575 -0.033772496770952197 0 -0.012269801918890896 -0.032594895685073386 0 -0.013357663055819575 -0.033772496770952197 0 -0.012056602088776736 -0.034267888733240104 0 -0.013816770605799751 -0.031583713981511781 0 -0.013357663055819575 -0.033772496770952197 0 -0.015741897929910133 -0.03353770691645646 0 -0.012319216235509039 -0.037221264994526208 0 -0.01250259142469505 -0.037304942032642299 0 -0.012400034488705773 -0.037548660646794234 0 -0.0094702411918923604 -0.028830415045460946 0 -0.0095095620653834444 -0.029089939819884881 0 -0.012014982084034056 -0.036517122562009272 0 -0.012336027723609425 -0.037255287089281289 0 -0.012319216235509039 -0.037221264994526208 0 -0.012014982084034056 -0.036517122562009272 0 -0.012319216235509039 -0.037221264994526208 0 -0.01250259142469505 -0.037304942032642299 0 -0.012014982084034056 -0.036517122562009272 0 -0.013357663055819575 -0.033772496770952197 0 -0.012056602088776736 -0.034267888733240104 0 -0.0094151019446716382 -0.030096571405606187 0 -0.0094702411918923604 -0.028830415045460946 0 -0.012014982084034056 -0.036517122562009272 0 -0.013357663055819575 -0.033772496770952197 0 -0.015741897929910133 -0.03353770691645646 0 -0.012014982084034056 -0.036517122562009272 0 -0.01250259142469505 -0.037304942032642299 0 -0.012938158111382417 -0.037958797540099773 0 -0.012550506254867535 -0.037340845100846953 0 -0.012829023333211087 -0.037075149663522329 0 -0.01187950474908977 -0.037193164830727973 0 -0.011418848553391755 -0.036912445173082446 0 -0.01165017348066464 -0.036725948844632317 0 -0.01187950474908977 -0.037193164830727973 0 -0.012319216235509039 -0.037221264994526208 0 -0.012400034488705773 -0.037548660646794234 0 -0.01187950474908977 -0.037193164830727973 0 -0.01165017348066464 -0.036725948844632317 0 -0.011944293231282812 -0.036632427728153984 0 -0.01187950474908977 -0.037193164830727973 0 -0.012306373520688847 -0.037278235648925025 0 -0.012319216235509039 -0.037221264994526208 0 -0.011127148768037234 -0.037049034530154984 0 -0.011418848553391755 -0.036912445173082446 0 -0.011396982118436172 -0.037224821744153674 0 -0.01187950474908977 -0.037193164830727973 0 -0.011418848553391755 -0.036912445173082446 0 -0.011396982118436172 -0.037224821744153674 0 -0.011418848553391755 -0.036912445173082446 0 -0.011126778486294201 -0.03683591261347869 0 -0.011342847637154803 -0.036580073224640991 0 -0.011127148768037234 -0.037049034530154984 0 -0.011418848553391755 -0.036912445173082446 0 -0.011126778486294201 -0.03683591261347869 0 -0.011127148768037234 -0.037049034530154984 0 -0.011126778486294201 -0.03683591261347869 0 -0.010927837305667799 -0.036917979137266702 0 -0.011126778486294201 -0.03683591261347869 0 -0.010927837305667799 -0.036917979137266702 0 -0.010854189009761725 -0.036694781193059571 0 -0.010927837305667799 -0.036917979137266702 0 -0.010695084534219159 -0.036926790620708402 0 -0.010854189009761725 -0.036694781193059571 0 -0.010927837305667799 -0.036917979137266702 0 -0.010874887684236341 -0.037121813208396678 0 -0.010695084534219159 -0.036926790620708402 0 -0.011127148768037234 -0.037049034530154984 0 -0.010927837305667799 -0.036917979137266702 0 -0.010874887684236341 -0.037121813208396678 0 -0.011127148768037234 -0.037049034530154984 0 -0.010874887684236341 -0.037121813208396678 0 -0.011002009168448108 -0.037324682879417488 0 -0.010874887684236341 -0.037121813208396678 0 -0.011002009168448108 -0.037324682879417488 0 -0.010728370985273067 -0.037362370928140036 0 -0.011002009168448108 -0.037324682879417488 0 -0.011396982118436172 -0.037224821744153674 0 -0.011452313642732571 -0.037486630604104426 0 -0.011127148768037234 -0.037049034530154984 0 -0.011002009168448108 -0.037324682879417488 0 -0.011396982118436172 -0.037224821744153674 0 -0.01187950474908977 -0.037193164830727973 0 -0.011396982118436172 -0.037224821744153674 0 -0.011452313642732571 -0.037486630604104426 0 -0.0094810259443405646 -0.017435182772175515 0 -0.0096189010306419968 -0.017669039509245022 0 -0.0096595077233808582 -0.01737248076847582 0 -0.0096189010306419968 -0.017669039509245022 0 -0.0096595077233808582 -0.01737248076847582 0 -0.0098393969243868815 -0.017379073107598605 0 -0.010118208179995095 -0.027379923224855073 0 -0.010016017058699452 -0.026205280077066323 0 -0.0097017266145122717 -0.017037645499758797 0 -0.0095119887141251851 -0.016954182848433665 0 -0.0095531570295904582 -0.017199739841662572 0 -0.0097017266145122717 -0.017037645499758797 0 -0.0096595077233808582 -0.01737248076847582 0 -0.0095531570295904582 -0.017199739841662572 0 -0.0097017266145122717 -0.017037645499758797 0 -0.0096595077233808582 -0.01737248076847582 0 -0.0098393969243868815 -0.017379073107598605 0 -0.0094810259443405646 -0.017435182772175515 0 -0.0096595077233808582 -0.01737248076847582 0 -0.0095531570295904582 -0.017199739841662572 0 -0.0097017266145122717 -0.017037645499758797 0 -0.0098650466345378534 -0.017122091240265962 0 -0.0098393969243868815 -0.017379073107598605 0 -0.0098650466345378534 -0.017122091240265962 0 -0.0098393969243868815 -0.017379073107598605 0 -0.010092372366379491 -0.017175090119844309 0 -0.011002009168448108 -0.037324682879417488 0 -0.010931283631854577 -0.037521475526431702 0 -0.010728370985273067 -0.037362370928140036 0 -0.011002009168448108 -0.037324682879417488 0 -0.011452313642732571 -0.037486630604104426 0 -0.010931283631854577 -0.037521475526431702 0 -0.010931283631854577 -0.037521475526431702 0 -0.010718792239962279 -0.037528091256567926 0 -0.010728370985273067 -0.037362370928140036 0 -0.010746814072768148 -0.030120629839883263 0 -0.012025100682108419 -0.031758473871688432 0 -0.01030288230792948 -0.032806937267881538 0 -0.010306264468417245 -0.0240177803558233 0 -0.0098330006950196544 -0.033021718425474703 0 -0.010016017058699452 -0.026205280077066323 0 -0.010306264468417245 -0.0240177803558233 0 -0.0095364833811526478 -0.016847171916613977 0 -0.009623765308833453 -0.016848836132009565 0 -0.0095941262171586866 -0.016964442871793734 0 -0.010306264468417245 -0.0240177803558233 0 -0.0094757671050554621 -0.026157685699852284 0 -0.0096822225591776181 -0.016751086415750075 0 -0.0096400985382144692 -0.016749422107685943 0 -0.009623765308833453 -0.016848836132009565 0 -0.0096400985382144692 -0.016749422107685943 0 -0.0095364833811526478 -0.016847171916613977 0 -0.009623765308833453 -0.016848836132009565 0 -0.009623765308833453 -0.016848836132009565 0 -0.0095941262171586866 -0.016964442871793734 0 -0.0096725621459009588 -0.01690092634007645 0 -0.012025100682108419 -0.031758473871688432 0 -0.012096582904293196 -0.032926844634527171 0 -0.01030288230792948 -0.032806937267881538 0 -0.012025100682108419 -0.031758473871688432 0 -0.012096582904293196 -0.032926844634527171 0 -0.013153434849961353 -0.033207937528307481 0 -0.0094757671050554621 -0.026157685699852284 0 -0.0087182383533370069 -0.029199674276239873 0 -0.012096582904293196 -0.032926844634527171 0 -0.01238497770716802 -0.033995815707459118 0 -0.013153434849961353 -0.033207937528307481 0 -0.01238497770716802 -0.033995815707459118 0 -0.011286713144129301 -0.033626315251233448 0 -0.010833852901240464 -0.034793383963922855 0 -0.012096582904293196 -0.032926844634527171 0 -0.011286713144129301 -0.033626315251233448 0 -0.01030288230792948 -0.032806937267881538 0 -0.012096582904293196 -0.032926844634527171 0 -0.01238497770716802 -0.033995815707459118 0 -0.011286713144129301 -0.033626315251233448 0 -0.0098330006950196544 -0.033021718425474703 0 -0.0099001553129550533 -0.035156980446457563 0 -0.010874887684236341 -0.037121813208396678 0 -0.010728370985273067 -0.037362370928140036 0 -0.010695084534219159 -0.036926790620708402 0 -0.011286713144129301 -0.033626315251233448 0 -0.01030288230792948 -0.032806937267881538 0 -0.010833852901240464 -0.034793383963922855 0 -0.01030288230792948 -0.032806937267881538 0 -0.010833852901240464 -0.034793383963922855 0 -0.0099833598291861909 -0.035227566149955536 0 -0.0099833598291861909 -0.035227566149955536 0 -0.010820345080046909 -0.035377785428543265 0 -0.010314942754054894 -0.035864910689529274 0 -0.010833852901240464 -0.034793383963922855 0 -0.0099833598291861909 -0.035227566149955536 0 -0.010820345080046909 -0.035377785428543265 0 -0.0090070674671573047 -0.030539470854230671 0 -0.008989384640167377 -0.031737989443596418 0 -0.012021343276545519 -0.034158584095695069 0 -0.010833852901240464 -0.034793383963922855 0 -0.010820345080046909 -0.035377785428543265 0 -0.0090070674671573047 -0.030539470854230671 0 -0.00934282792619201 -0.030991572793972109 0 -0.011634202885550433 -0.034435378404944365 0 -0.010820345080046909 -0.035377785428543265 0 -0.011327887220151987 -0.035284884382573697 0 -0.011634202885550433 -0.034435378404944365 0 -0.011327887220151987 -0.035284884382573697 0 -0.012209952171120305 -0.034161769145552245 0 -0.0086083293121184748 -0.033676352492488619 0 -0.008477504603122351 -0.03015981414870304 0 -0.0096216299355474395 -0.037171697818441284 0 -0.0089588356250604427 -0.037257418675436076 0 -0.0091780502536356039 -0.036883392335349256 0 -0.0096216299355474395 -0.037171697818441284 0 -0.0095968908270027773 -0.036569273057266836 0 -0.010351948310273092 -0.036329841681891586 0 -0.0095968908270027773 -0.036569273057266836 0 -0.0092668141162187308 -0.03613634819604182 0 -0.0089876331334274723 -0.036499197948677224 0 -0.0095968908270027773 -0.036569273057266836 0 -0.0089876331334274723 -0.036499197948677224 0 -0.0091780502536356039 -0.036883392335349256 0 -0.0096216299355474395 -0.037171697818441284 0 -0.0095968908270027773 -0.036569273057266836 0 -0.0091780502536356039 -0.036883392335349256 0 -0.010820345080046909 -0.035377785428543265 0 -0.011327887220151987 -0.035284884382573697 0 -0.010351948310273092 -0.036329841681891586 0 -0.010820345080046909 -0.035377785428543265 0 -0.010314942754054894 -0.035864910689529274 0 -0.010351948310273092 -0.036329841681891586 0 -0.0095968908270027773 -0.036569273057266836 0 -0.010351948310273092 -0.036329841681891586 0 -0.0099387524708658293 -0.036319048571918054 0 -0.0086083293121184748 -0.033676352492488619 0 -0.0088107389070696644 -0.034477690704831941 0 -0.010314942754054894 -0.035864910689529274 0 -0.010351948310273092 -0.036329841681891586 0 -0.010437102515690595 -0.036376283634337161 0 -0.010351948310273092 -0.036329841681891586 0 -0.0099387524708658293 -0.036319048571918054 0 -0.010141253084651086 -0.036142055742197178 0 -0.010351948310273092 -0.036329841681891586 0 -0.010141253084651086 -0.036142055742197178 0 -0.010437102515690595 -0.036376283634337161 0 -0.0099387524708658293 -0.036319048571918054 0 -0.010141253084651086 -0.036142055742197178 0 -0.0096958591924214133 -0.036111516018801561 0 -0.0099387524708658293 -0.036319048571918054 0 -0.0096958591924214133 -0.036111516018801561 0 -0.0088111616800478233 -0.036161710674453632 0 -0.0099387524708658293 -0.036319048571918054 0 -0.0092668141162187308 -0.03613634819604182 0 -0.0090751866387666514 -0.035272251929262317 0 -0.0089892949789862567 -0.036065223989549429 0 -0.0084229242129601374 -0.035678836549603014 0 -0.0095968908270027773 -0.036569273057266836 0 -0.0099387524708658293 -0.036319048571918054 0 -0.0092668141162187308 -0.03613634819604182 0 -0.0096958591924214133 -0.036111516018801561 0 -0.0098344104486412891 -0.035731322555882288 0 -0.0088111616800478233 -0.036161710674453632 0 -0.0088544549542888054 -0.034999634788537563 0 -0.0098344104486412891 -0.035731322555882288 0 -0.010530366026586798 -0.034999874984515456 0 -0.0088544549542888054 -0.034999634788537563 0 -0.0098344104486412891 -0.035731322555882288 0 -0.0088111616800478233 -0.036161710674453632 0 -0.0098344104486412891 -0.035731322555882288 0 -0.010530366026586798 -0.034999874984515456 0 -0.011165868673563627 -0.036272403271914243 0 -0.010141253084651086 -0.036142055742197178 0 -0.0096958591924214133 -0.036111516018801561 0 -0.0098344104486412891 -0.035731322555882288 0 -0.010785952430421434 -0.035780188684483898 0 -0.011171863125211859 -0.035865651342565176 0 -0.010141253084651086 -0.036142055742197178 0 -0.0098344104486412891 -0.035731322555882288 0 -0.010417254942797287 -0.035762984207999907 0 -0.010417254942797287 -0.035762984207999907 0 -0.010758305363841893 -0.036119780160225108 0 -0.010435516155703995 -0.036101022945026671 0 -0.010141253084651086 -0.036142055742197178 0 -0.010417254942797287 -0.035762984207999907 0 -0.010435516155703995 -0.036101022945026671 0 -0.010417254942797287 -0.035762984207999907 0 -0.011005879546396244 -0.03586660389038631 0 -0.010758305363841893 -0.036119780160225108 0 -0.011171863125211859 -0.035865651342565176 0 -0.011977168707773911 -0.035999779010913863 0 -0.010530366026586798 -0.034999874984515456 0 -0.011165868673563627 -0.036272403271914243 0 -0.012206862563845747 -0.034999992483006954 0 -0.011165868673563627 -0.036272403271914243 0 -0.012206862563845747 -0.034999992483006954 0 -0.012431685383309406 -0.03668899552870606 0 -0.012206427146030924 -0.035001261963402239 0 -0.011977168707773911 -0.035999779010913863 0 -0.012207000757718096 -0.035000058798241161 0 -0.012505055230643514 -0.036736504983990455 0 -0.013396016055336205 -0.035986161360079656 0 -0.011977168707773911 -0.035999779010913863 0 -0.012787905815763527 -0.036235192963072371 0 -0.011238523852268201 -0.03569175662442494 0 -0.011300802117905398 -0.036127290370918289 0 -0.01173933800620109 -0.035855158911417467 0 -0.011121800073763458 -0.036261651716012824 0 -0.010758305363841893 -0.036119780160225108 0 -0.010897958915326217 -0.036430700365017145 0 -0.011977168707773911 -0.035999779010913863 0 -0.011829827467735489 -0.036131230007478782 0 -0.011005879546396244 -0.03586660389038631 0 -0.011121800073763458 -0.036261651716012824 0 -0.010758305363841893 -0.036119780160225108 0 -0.010758305363841893 -0.036119780160225108 0 -0.010435516155703995 -0.036101022945026671 0 -0.010437102515690595 -0.036376283634337161 0 -0.010141253084651086 -0.036142055742197178 0 -0.010435516155703995 -0.036101022945026671 0 -0.010437102515690595 -0.036376283634337161 0 -0.010758305363841893 -0.036119780160225108 0 -0.010437102515690595 -0.036376283634337161 0 -0.010897958915326217 -0.036430700365017145 0 -0.010437102515690595 -0.036376283634337161 0 -0.010897958915326217 -0.036430700365017145 0 -0.010854189009761725 -0.036694781193059571 0 -0.010695084534219159 -0.036926790620708402 0 -0.010437102515690595 -0.036376283634337161 0 -0.010854189009761725 -0.036694781193059571 0 -0.0099001553129550533 -0.035156980446457563 0 -0.0099628701684094656 -0.035626096423878741 0 -0.0099833598291861909 -0.035227566149955536 0 -0.010314942754054894 -0.035864910689529274 0 -0.010437102515690595 -0.036376283634337161 0 -0.011126778486294201 -0.03683591261347869 0 -0.010854189009761725 -0.036694781193059571 0 -0.011342847637154803 -0.036580073224640991 0 -0.011418848553391755 -0.036912445173082446 0 -0.011342847637154803 -0.036580073224640991 0 -0.01165017348066464 -0.036725948844632317 0 -0.011300802117905398 -0.036127290370918289 0 -0.011342847637154803 -0.036580073224640991 0 -0.011709835021522411 -0.036290650869939808 0 -0.011829827467735489 -0.036131230007478782 0 -0.011795121057888417 -0.036231102789174151 0 -0.011121800073763458 -0.036261651716012824 0 -0.010897958915326217 -0.036430700365017145 0 -0.011342847637154803 -0.036580073224640991 0 -0.010897958915326217 -0.036430700365017145 0 -0.010854189009761725 -0.036694781193059571 0 -0.011342847637154803 -0.036580073224640991 0 -0.011342847637154803 -0.036580073224640991 0 -0.01165017348066464 -0.036725948844632317 0 -0.011709835021522411 -0.036290650869939808 0 -0.01165017348066464 -0.036725948844632317 0 -0.011944293231282812 -0.036632427728153984 0 -0.011709835021522411 -0.036290650869939808 0 -0.011944293231282812 -0.036632427728153984 0 -0.012231283112891018 -0.036020952915429186 0 -0.011709835021522411 -0.036290650869939808 0 -0.012400034488705773 -0.037548660646794234 0 -0.012927173823760931 -0.036131192817934601 0 -0.013599263092094116 -0.037070708000038602 0 -0.01250259142469505 -0.037304942032642299 0 -0.012400034488705773 -0.037548660646794234 0 -0.012938158111382417 -0.037958797540099773 0 -0.012400034488705773 -0.037548660646794234 0 -0.012938158111382417 -0.037958797540099773 0 -0.013599263092094116 -0.037070708000038602 0 -0.012829023333211087 -0.037075149663522329 0 -0.013627406555214687 -0.036406805048149429 0 -0.013627406555214687 -0.036406805048149429 0 -0.012787905815763527 -0.036235192963072371 0 -0.012231283112891018 -0.036020952915429186 0 -0.011709835021522411 -0.036290650869939808 0 -0.01173933800620109 -0.035855158911417467 0 -0.011300802117905398 -0.036127290370918289 0 -0.011709835021522411 -0.036290650869939808 0 -0.01173933800620109 -0.035855158911417467 0 -0.012505055230643514 -0.036736504983990455 0 -0.013667523127031381 -0.037109936291756039 0 -0.013396016055336205 -0.035986161360079656 0 -0.013667523127031381 -0.037109936291756039 0 -0.013396016055336205 -0.035986161360079656 0 -0.014283252088410997 -0.036364515024160313 0 -0.014127481570073827 -0.034999816479280306 0 -0.013396016055336205 -0.035986161360079656 0 -0.014283252088410997 -0.036364515024160313 0 -0.012207000757718096 -0.035000058798241161 0 -0.014127481570073827 -0.034999816479280306 0 -0.013396016055336205 -0.035986161360079656 0 -0.014127481570073827 -0.034999816479280306 0 -0.015397935230581588 -0.036254539919176453 0 -0.015983631454456523 -0.034925907966717046 0 -0.014127481570073827 -0.034999816479280306 0 -0.014283252088410997 -0.036364515024160313 0 -0.015397935230581588 -0.036254539919176453 0 -0.013627406555214687 -0.036406805048149429 0 -0.014375849108425185 -0.035878550831192318 0 -0.014832229364106468 -0.037488124548150745 0 -0.014283252088410997 -0.036364515024160313 0 -0.015397935230581588 -0.036254539919176453 0 -0.014832229364106468 -0.037488124548150745 0 -0.013667523127031381 -0.037109936291756039 0 -0.014283252088410997 -0.036364515024160313 0 -0.015002790377721106 -0.036630938933251395 0 -0.015316498073297371 -0.035916533188873688 0 -0.015407296717085878 -0.036462738664853861 0 -0.015316498073297371 -0.035916533188873688 0 -0.016083646223743617 -0.035548708821580371 0 -0.016239671140124118 -0.036332211183981999 0 -0.015316498073297371 -0.035916533188873688 0 -0.016239671140124118 -0.036332211183981999 0 -0.015407296717085878 -0.036462738664853861 0 -0.015316498073297371 -0.035916533188873688 0 -0.016083646223743617 -0.035548708821580371 0 -0.015983371569633961 -0.034925614282667848 0 -0.014375849108425185 -0.035878550831192318 0 -0.014690396402038794 -0.035533279161249376 0 -0.016083646223743617 -0.035548708821580371 0 -0.015983371569633961 -0.034925614282667848 0 -0.016820416299204482 -0.035586017922007093 0 -0.017968493990861614 -0.034999578934376802 0 -0.015983371569633961 -0.034925614282667848 0 -0.016820416299204482 -0.035586017922007093 0 -0.016083646223743617 -0.035548708821580371 0 -0.016820416299204482 -0.035586017922007093 0 -0.016239671140124118 -0.036332211183981999 0 -0.017885187929603499 -0.036122762418838043 0 -0.016820416299204482 -0.035586017922007093 0 -0.016239671140124118 -0.036332211183981999 0 -0.01742690084628773 -0.037205466198572727 0 -0.016239671140124118 -0.036332211183981999 0 -0.016406514437815232 -0.037565599490455584 0 -0.016239671140124118 -0.036332211183981999 0 -0.015310012046114449 -0.036840465099832305 0 -0.016406514437815232 -0.037565599490455584 0 -0.015002790377721106 -0.036630938933251395 0 -0.015407296717085878 -0.036462738664853861 0 -0.015310012046114449 -0.036840465099832305 0 -0.013627406555214687 -0.036406805048149429 0 -0.014163996571521347 -0.036566256959847075 0 -0.016239671140124118 -0.036332211183981999 0 -0.015407296717085878 -0.036462738664853861 0 -0.015310012046114449 -0.036840465099832305 0 -0.012927173823760931 -0.036131192817934601 0 -0.013599263092094116 -0.037070708000038602 0 -0.015310012046114449 -0.036840465099832305 0 -0.013599263092094116 -0.037070708000038602 0 -0.015310012046114449 -0.036840465099832305 0 -0.015609513279155742 -0.038675850417261778 0 -0.012807895989681852 -0.03596115697735159 0 -0.012860575973131278 -0.035621560703504883 0 -0.012938158111382417 -0.037958797540099773 0 -0.013599263092094116 -0.037070708000038602 0 -0.015609513279155742 -0.038675850417261778 0 -0.015310012046114449 -0.036840465099832305 0 -0.016406514437815232 -0.037565599490455584 0 -0.015609513279155742 -0.038675850417261778 0 -0.017321761059032999 -0.038889419487189845 0 -0.016406514437815232 -0.037565599490455584 0 -0.015609513279155742 -0.038675850417261778 0 -0.002651730144251642 -0.028200036759823618 0 -0.0025465741755319794 -0.028186622836333414 0 -0.0025749853261587607 -0.028291785018658727 0 -0.002651730144251642 -0.028200036759823618 0 -0.0025465741755319794 -0.028186622836333414 0 -0.0026284044060099149 -0.028072320530799829 0 -0.002651730144251642 -0.028200036759823618 0 -0.0027957787603670181 -0.028143422219046255 0 -0.0027212514253158412 -0.028075195668783436 0 -0.0025465741755319794 -0.028186622836333414 0 -0.002507558154503999 -0.028294328580623727 0 -0.0024839683399014182 -0.028226240551040449 0 -0.0025465741755319794 -0.028186622836333414 0 -0.002507558154503999 -0.028294328580623727 0 -0.0025749853261587607 -0.028291785018658727 0 -0.002507558154503999 -0.028294328580623727 0 -0.0025749853261587607 -0.028291785018658727 0 -0.0025156555516247059 -0.028393181705516416 0 -0.002507558154503999 -0.028294328580623727 0 -0.0025156555516247059 -0.028393181705516416 0 -0.0024959325212011276 -0.028412018734478253 0 -0.002651730144251642 -0.028200036759823618 0 -0.0025749853261587607 -0.028291785018658727 0 -0.0026534047676197536 -0.028339156651596302 0 -0.0025749853261587607 -0.028291785018658727 0 -0.0026534047676197536 -0.028339156651596302 0 -0.0025156555516247059 -0.028393181705516416 0 0.0020237671964255708 -0.027893635435889491 0 0.0014462924204478775 -0.028484882594854294 0 0.0055321385336051668 -0.028664789356087819 0 0.0055061435813137972 -0.029024795163885345 0 0.005069758191806494 -0.028319832943664226 0 -0.0021912084541128511 -0.027995587862625241 0 -0.002304175024507975 -0.027626837378250401 0 -0.0023552740179531234 -0.028207712912346999 0 -0.0025754546547471393 -0.02751720806051897 0 -0.002304175024507975 -0.027626837378250401 0 -0.0023552740179531234 -0.028207712912346999 0 0.0054361549150438362 -0.028365550935014631 0 0.0055321385336051668 -0.028664789356087819 0 0.005069758191806494 -0.028319832943664226 0 0.0012701930630611212 -0.033805084587246764 0 0.0033510251382428608 -0.032612325080628758 0 0.00019853372449929582 -0.031504799283490016 0 0.00051957155785606118 -0.030741223032176485 0 0.0020679144381625511 -0.032830137377981183 0 0.0054361549150438362 -0.028365550935014631 0 0.0055321385336051668 -0.028664789356087819 0 0.0058947400135645218 -0.028702714508993844 0 0.0023879242981525496 -0.03059387547479607 0 0.0033510251382428608 -0.032612325080628758 0 0.0055321385336051668 -0.028664789356087819 0 0.0057185196947428518 -0.028902643440615664 0 0.0058947400135645218 -0.028702714508993844 0 0.0055321385336051668 -0.028664789356087819 0 0.0057185196947428518 -0.028902643440615664 0 0.0055061435813137972 -0.029024795163885345 0 0.0057185196947428518 -0.028902643440615664 0 0.0055061435813137972 -0.029024795163885345 0 0.0057456148255356438 -0.029122520898184342 0 0.0057185196947428518 -0.028902643440615664 0 0.0057456148255356438 -0.029122520898184342 0 0.0059015161950036841 -0.029050140293972185 0 -0.0024072834495187045 -0.027777359048664168 0 -0.0025369193084385632 -0.026985508883700493 0 -0.002651730144251642 -0.028200036759823618 0 -0.0026534047676197536 -0.028339156651596302 0 -0.0027957787603670181 -0.028143422219046255 0 -0.0021912084541128511 -0.027995587862625241 0 -0.002304175024507975 -0.027626837378250401 0 -0.0022203506944677822 -0.027379815543317032 0 -0.0025754546547471393 -0.02751720806051897 0 -0.002304175024507975 -0.027626837378250401 0 -0.0020943129948364616 -0.027264885154860835 0 -0.0025347460655203219 -0.02703994164205957 0 -0.0025369193084385632 -0.026985508883700493 0 -0.0025369193084385632 -0.026985508883700493 0 -0.0028143016803407993 -0.026085919530615041 0 -0.0018590199900149103 -0.026897838708144151 0 -0.0016825086382791733 -0.026099273472799254 0 -0.0021681284201880346 -0.025787158583349984 0 -0.0027957787603670181 -0.028143422219046255 0 -0.0027995254800832537 -0.027958862785328019 0 -0.0027212514253158412 -0.028075195668783436 0 -0.0020943129948364616 -0.027264885154860835 0 -0.0025414591505608596 -0.026668456087596073 0 -0.0022373977729138335 -0.026020520489273332 0 -0.0025369193084385632 -0.026985508883700493 0 -0.0025237815210008932 -0.026026350907034191 0 -0.0025754546547471393 -0.02751720806051897 0 -0.0020943129948364616 -0.027264885154860835 0 -0.0025414591505608596 -0.026668456087596073 0 0.0055061435813137972 -0.029024795163885345 0 0.0057456148255356438 -0.029122520898184342 0 0.005943460355368857 -0.029497927369705166 0 -0.0025754546547471393 -0.02751720806051897 0 -0.0025414591505608596 -0.026668456087596073 0 -0.0031531852533129368 -0.026218499911178646 0 0.0020237671964255708 -0.027893635435889491 0 0.0030351819682677625 -0.027046812671776284 0 0.0057456148255356438 -0.029122520898184342 0 0.005943460355368857 -0.029497927369705166 0 0.0058799598965568502 -0.029227228216488765 0 -0.0025414591505608596 -0.026668456087596073 0 -0.0027160055893273626 -0.026117847879938871 0 -0.0031531852533129368 -0.026218499911178646 0 -0.0025414591505608596 -0.026668456087596073 0 -0.0027160055893273626 -0.026117847879938871 0 -0.0022373977729138335 -0.026020520489273332 0 -0.0027160055893273626 -0.026117847879938871 0 -0.0026757104891005547 -0.025841174494685093 0 -0.0022373977729138335 -0.026020520489273332 0 -0.0027183752309897133 -0.025418009203347351 0 -0.0026757104891005547 -0.025841174494685093 0 -0.0022373977729138335 -0.026020520489273332 0 -0.00302447336697895 -0.025531514784376139 0 -0.0027160055893273626 -0.026117847879938871 0 -0.0031531852533129368 -0.026218499911178646 0 -0.00302447336697895 -0.025531514784376139 0 -0.0027160055893273626 -0.026117847879938871 0 -0.0026757104891005547 -0.025841174494685093 0 -0.00302447336697895 -0.025531514784376139 0 -0.0027183752309897133 -0.025418009203347351 0 -0.0026757104891005547 -0.025841174494685093 0 -0.0015114768932509147 -0.025291744634485233 0 -0.0016825086382791733 -0.026099273472799254 0 -0.0018898708087497413 -0.025638440827611523 0 -0.0030842587569419296 -0.024182658133352939 0 -0.0028143016803407993 -0.026085919530615041 0 -0.0016825086382791733 -0.026099273472799254 0 -0.0021681284201880346 -0.025787158583349984 0 -0.0018898708087497413 -0.025638440827611523 0 -0.0018376456711453248 -0.025339777325509016 0 -0.0021681284201880346 -0.025787158583349984 0 -0.0018898708087497413 -0.025638440827611523 0 -0.001431402226010881 -0.025264431092812342 0 -0.0018376456711453248 -0.025339777325509016 0 -0.0018898708087497413 -0.025638440827611523 0 -0.0030842587569419296 -0.024182658133352939 0 -0.0030031972442166903 -0.024237392431380365 0 -0.0027076465008086903 -0.027902362718356079 0 -0.0026284044060099149 -0.028072320530799829 0 -0.0026063254740379843 -0.027862413261035078 0 -0.0026705469394300227 -0.027785182968280628 0 -0.0027835260131135707 -0.027773085956975262 0 -0.0027076465008086903 -0.027902362718356079 0 -0.0027835260131135707 -0.027773085956975262 0 -0.0027995254800832537 -0.027958862785328019 0 -0.0027076465008086903 -0.027902362718356079 0 -0.0026705469394300227 -0.027785182968280628 0 -0.0027076465008086903 -0.027902362718356079 0 -0.0026063254740379843 -0.027862413261035078 0 -0.0027076465008086903 -0.027902362718356079 0 -0.0026284044060099149 -0.028072320530799829 0 -0.0027212514253158412 -0.028075195668783436 0 -0.0027995254800832537 -0.027958862785328019 0 -0.0027076465008086903 -0.027902362718356079 0 -0.0027212514253158412 -0.028075195668783436 0 -0.002651730144251642 -0.028200036759823618 0 -0.0026284044060099149 -0.028072320530799829 0 -0.0027212514253158412 -0.028075195668783436 0 -0.0026284044060099149 -0.028072320530799829 0 -0.0025282006782933338 -0.028066293149428542 0 -0.0026063254740379843 -0.027862413261035078 0 -0.0025465741755319794 -0.028186622836333414 0 -0.0025282006782933338 -0.028066293149428542 0 -0.0024903381902788252 -0.028159557400632664 0 -0.0025465741755319794 -0.028186622836333414 0 -0.0026284044060099149 -0.028072320530799829 0 -0.0025282006782933338 -0.028066293149428542 0 -0.0025892119965482906 -0.027734123739359937 0 -0.0026063254740379843 -0.027862413261035078 0 -0.0025342251734263893 -0.027810626172391981 0 -0.0026063254740379843 -0.027862413261035078 0 -0.0025342251734263893 -0.027810626172391981 0 -0.0025105517049030628 -0.027871028701991891 0 -0.0062831077330722969 -0.022760765787057047 0 -0.0049620110802609998 -0.026997119986371776 0 -0.0025282006782933338 -0.028066293149428542 0 -0.0026063254740379843 -0.027862413261035078 0 -0.0024244807980527716 -0.028056817335862849 0 -0.003602732814655341 -0.027613033027766624 0 -0.0049620110802609998 -0.026997119986371776 0 -0.0024732978420697401 -0.027729381207258742 0 -0.0025342251734263893 -0.027810626172391981 0 -0.0025105517049030628 -0.027871028701991891 0 -0.0077224352588216513 -0.02650608842144913 0 -0.0078137325308717288 -0.027103057507725254 0 -0.0072495357471848666 -0.027055840611228198 0 -0.0062831077330722969 -0.022760765787057047 0 -0.0088938164564706258 -0.023710522136104941 0 -0.0097210561963477458 -0.01675987480184166 0 -0.0097699563087757721 -0.01673607104477343 0 -0.0097513116540656371 -0.016883254908841853 0 -0.0078137325308717288 -0.027103057507725254 0 -0.0072495357471848666 -0.027055840611228198 0 -0.0072553274646022514 -0.027174530810698535 0 -0.0049620110802609998 -0.026997119986371776 0 -0.0058475223926356774 -0.0284979856309092 0 -0.0078137325308717288 -0.027103057507725254 0 -0.0072553274646022514 -0.027174530810698535 0 -0.0073535268726640192 -0.027366524682511783 0 -0.0024554285191762575 -0.02816743940470556 0 -0.002455933581543408 -0.028131793382845025 0 -0.0024554829812601779 -0.028165976600565204 0 -0.0024554285191762575 -0.02816743940470556 0 -0.0024481150173670673 -0.028128902905023099 0 -0.0024620959977200586 -0.02818042398835632 0 -0.0024481150173670673 -0.028128902905023099 0 -0.0024903381902788252 -0.028159557400632664 0 -0.0024620959977200586 -0.02818042398835632 0 -0.0025282006782933338 -0.028066293149428542 0 -0.0024481150173670673 -0.028128902905023099 0 -0.0024903381902788252 -0.028159557400632664 0 -0.0025282006782933338 -0.028066293149428542 0 -0.0024481150173670673 -0.028128902905023099 0 -0.0024244807980527716 -0.028056817335862849 0 -0.0024554285191762575 -0.02816743940470556 0 -0.0024481150173670673 -0.028128902905023099 0 -0.002455933581543408 -0.028131793382845025 0 -0.0049289303068748196 -0.027044252760633356 0 -0.0049620110802609998 -0.026997119986371776 0 -0.0096822225591776181 -0.016751086415750075 0 -0.009623765308833453 -0.016848836132009565 0 -0.0096725621459009588 -0.01690092634007645 0 -0.0097210561963477458 -0.01675987480184166 0 -0.0096822225591776181 -0.016751086415750075 0 -0.0096725621459009588 -0.01690092634007645 0 -0.0097210561963477458 -0.01675987480184166 0 -0.0096725621459009588 -0.01690092634007645 0 -0.0097513116540656371 -0.016883254908841853 0 -0.0072553274646022514 -0.027174530810698535 0 -0.0073535268726640192 -0.027366524682511783 0 -0.0068520676888740644 -0.027662847389623015 0 -0.0072495357471848666 -0.027055840611228198 0 -0.0072553274646022514 -0.027174530810698535 0 -0.0068768868775058965 -0.027565054789075522 0 -0.0082089217910903504 -0.029014050284901838 0 -0.0080988104047321225 -0.029852119724100581 0 -0.0095941262171586866 -0.016964442871793734 0 -0.0096725621459009588 -0.01690092634007645 0 -0.0096598944395646386 -0.017095989202100183 0 -0.0088938164564706258 -0.023710522136104941 0 -0.0087182383533370069 -0.029199674276239873 0 -0.0096725621459009588 -0.01690092634007645 0 -0.0097513116540656371 -0.016883254908841853 0 -0.0096598944395646386 -0.017095989202100183 0 -0.0072553274646022514 -0.027174530810698535 0 -0.0068768868775058965 -0.027565054789075522 0 -0.0069714774592895311 -0.027594627110088723 0 -0.0095569052179716278 -0.030459002820029175 0 -0.0086911416694671773 -0.031329764977564595 0 -0.0083673205924141465 -0.030929301796172464 0 -0.0090070674671573047 -0.030539470854230671 0 -0.0087182383533370069 -0.029199674276239873 0 -0.0090070674671573047 -0.030539470854230671 0 -0.008477504603122351 -0.03015981414870304 0 -0.0068768868775058965 -0.027565054789075522 0 -0.0069714774592895311 -0.027594627110088723 0 -0.0069367074154258494 -0.027636144479813947 0 -0.0087182383533370069 -0.029199674276239873 0 -0.008477504603122351 -0.03015981414870304 0 -0.0080988104047321225 -0.029852119724100581 0 -0.008477504603122351 -0.03015981414870304 0 -0.0020803539226617422 -0.028275236225619078 0 -0.0020042460226088734 -0.02833683270175533 0 -0.0023506715947836016 -0.028323781567338373 0 -0.0058475223926356774 -0.0284979856309092 0 -0.0080988104047321225 -0.029852119724100581 0 -0.0020042460226088734 -0.02833683270175533 0 -0.0023506715947836016 -0.028323781567338373 0 -0.0023699861209925516 -0.029074925466147268 0 -0.0024554829812601779 -0.028165976600565204 0 -0.0020803539226617422 -0.028275236225619078 0 -0.0023506715947836016 -0.028323781567338373 0 -0.0023506715947836016 -0.028323781567338373 0 -0.0024365577013915674 -0.028251855213267268 0 -0.0024402365908494832 -0.028307197252737292 0 -0.0024554829812601779 -0.028165976600565204 0 -0.0023506715947836016 -0.028323781567338373 0 -0.0024365577013915674 -0.028251855213267268 0 -0.0023699861209925516 -0.029074925466147268 0 -0.0032658298498811252 -0.029078254343232784 0 -0.00303274670557178 -0.029994674294478406 0 -0.0023506715947836016 -0.028323781567338373 0 -0.0023699861209925516 -0.029074925466147268 0 -0.0032658298498811252 -0.029078254343232784 0 -0.0024283429899365329 -0.029117720335610161 0 -0.0026827730666433404 -0.029526124958356732 0 -0.0088789865822791261 -0.037925683567892644 0 -0.0083342543824761785 -0.03729710046221394 0 -0.0089588356250604427 -0.037257418675436076 0 -0.008477504603122351 -0.03015981414870304 0 -0.0069427527985908861 -0.03176264261280274 0 -0.0096216299355474395 -0.037171697818441284 0 -0.0088789865822791261 -0.037925683567892644 0 -0.0089588356250604427 -0.037257418675436076 0 -0.0083342543824761785 -0.03729710046221394 0 -0.0089588356250604427 -0.037257418675436076 0 -0.0087204932629133536 -0.036908972310342972 0 -0.0089588356250604427 -0.037257418675436076 0 -0.0091780502536356039 -0.036883392335349256 0 -0.0087204932629133536 -0.036908972310342972 0 -0.0024839683399014182 -0.028226240551040449 0 -0.0024551650038978101 -0.028241173668148049 0 -0.0024732920199290564 -0.028289229331929251 0 -0.002507558154503999 -0.028294328580623727 0 -0.0024839683399014182 -0.028226240551040449 0 -0.0024732920199290564 -0.028289229331929251 0 -0.0025465741755319794 -0.028186622836333414 0 -0.0024903381902788252 -0.028159557400632664 0 -0.0024839683399014182 -0.028226240551040449 0 -0.0024903381902788252 -0.028159557400632664 0 -0.0024839683399014182 -0.028226240551040449 0 -0.0024620959977200586 -0.02818042398835632 0 -0.0024839683399014182 -0.028226240551040449 0 -0.0024620959977200586 -0.02818042398835632 0 -0.0024551650038978101 -0.028241173668148049 0 -0.0024365577013915674 -0.028251855213267268 0 -0.0024551650038978101 -0.028241173668148049 0 -0.0024402365908494832 -0.028307197252737292 0 -0.0024554285191762575 -0.02816743940470556 0 -0.0024365577013915674 -0.028251855213267268 0 -0.0024551650038978101 -0.028241173668148049 0 -0.0024554285191762575 -0.02816743940470556 0 -0.0024620959977200586 -0.02818042398835632 0 -0.0024551650038978101 -0.028241173668148049 0 -0.0024554285191762575 -0.02816743940470556 0 -0.0024554829812601779 -0.028165976600565204 0 -0.0024365577013915674 -0.028251855213267268 0 -0.0024551650038978101 -0.028241173668148049 0 -0.0024402365908494832 -0.028307197252737292 0 -0.0024732920199290564 -0.028289229331929251 0 -0.0035784330095535782 -0.029766990656377293 0 -0.0034590873814863169 -0.030864312428752178 0 -0.0024402365908494832 -0.028307197252737292 0 -0.0024732920199290564 -0.028289229331929251 0 -0.0024867294488945574 -0.028356092125462834 0 -0.002507558154503999 -0.028294328580623727 0 -0.0024732920199290564 -0.028289229331929251 0 -0.0024867294488945574 -0.028356092125462834 0 -0.0034590873814863169 -0.030864312428752178 0 -0.0028090153101531169 -0.031981860274304226 0 -0.0042461714183569662 -0.029985305627988061 0 -0.00303274670557178 -0.029994674294478406 0 -0.0037572360782041131 -0.030916222796944691 0 -0.0026827730666433404 -0.029526124958356732 0 -0.0034590873814863169 -0.030864312428752178 0 -0.0032658298498811252 -0.029078254343232784 0 -0.0042461714183569662 -0.029985305627988061 0 -0.00303274670557178 -0.029994674294478406 0 -0.0077537507643181368 -0.03663571826829453 0 -0.0077294046254532288 -0.035759066964452788 0 -0.0071767806876496653 -0.035944516591784659 0 -0.0058087478826836124 -0.032703853136975158 0 -0.0046328693374352086 -0.033210402526797814 0 -0.0077294046254532288 -0.035759066964452788 0 -0.0071767806876496653 -0.035944516591784659 0 -0.0075339307873347021 -0.035283885580629379 0 -0.0036402939002061646 -0.033346647257153528 0 -0.0036866173063487542 -0.033271456688849989 0 -0.0035641040359803765 -0.033288536810049958 0 -0.0036866173063487542 -0.033271456688849989 0 -0.0036306029183809274 -0.03320846503981173 0 -0.0035641040359803765 -0.033288536810049958 0 -0.0046328693374352086 -0.033210402526797814 0 -0.004461888802173822 -0.033792100592030666 0 -0.0034590873814863169 -0.030864312428752178 0 -0.0046328693374352086 -0.033210402526797814 0 -0.0089876331334274723 -0.036499197948677224 0 -0.0091780502536356039 -0.036883392335349256 0 -0.0087204932629133536 -0.036908972310342972 0 -0.0089876331334274723 -0.036499197948677224 0 -0.0087204932629133536 -0.036908972310342972 0 -0.0083365594239381505 -0.036513917330171043 0 -0.0069427527985908861 -0.03176264261280274 0 -0.0058087478826836124 -0.032703853136975158 0 -0.0083342543824761785 -0.03729710046221394 0 -0.0077537507643181368 -0.03663571826829453 0 -0.0083365594239381505 -0.036513917330171043 0 -0.0083342543824761785 -0.03729710046221394 0 -0.0087204932629133536 -0.036908972310342972 0 -0.0083365594239381505 -0.036513917330171043 0 -0.0077537507643181368 -0.03663571826829453 0 -0.0083365594239381505 -0.036513917330171043 0 -0.0082020796999609565 -0.035978457333067038 0 -0.0077537507643181368 -0.03663571826829453 0 -0.0077294046254532288 -0.035759066964452788 0 -0.0082020796999609565 -0.035978457333067038 0 -0.0077294046254532288 -0.035759066964452788 0 -0.0082020796999609565 -0.035978457333067038 0 -0.0080398708240582185 -0.035553233411641162 0 -0.0082020796999609565 -0.035978457333067038 0 -0.0087238861758425768 -0.035964616471685334 0 -0.0083881096957490586 -0.035413031446762132 0 -0.0083365594239381505 -0.036513917330171043 0 -0.0082020796999609565 -0.035978457333067038 0 -0.0087238861758425768 -0.035964616471685334 0 -0.0092668141162187308 -0.03613634819604182 0 -0.0087238861758425768 -0.035964616471685334 0 -0.0090751866387666514 -0.035272251929262317 0 -0.0089876331334274723 -0.036499197948677224 0 -0.0083365594239381505 -0.036513917330171043 0 -0.0087238861758425768 -0.035964616471685334 0 -0.0092668141162187308 -0.03613634819604182 0 -0.0089876331334274723 -0.036499197948677224 0 -0.0087238861758425768 -0.035964616471685334 0 -0.0090751866387666514 -0.035272251929262317 0 -0.0083881096957490586 -0.035413031446762132 0 -0.0081488347403743909 -0.034855641062370442 0 -0.0087238861758425768 -0.035964616471685334 0 -0.0090751866387666514 -0.035272251929262317 0 -0.0083881096957490586 -0.035413031446762132 0 -0.0083881096957490586 -0.035413031446762132 0 -0.0080944255316866415 -0.035270010138118119 0 -0.0081488347403743909 -0.034855641062370442 0 -0.0082020796999609565 -0.035978457333067038 0 -0.0083881096957490586 -0.035413031446762132 0 -0.0080398708240582185 -0.035553233411641162 0 -0.0077294046254532288 -0.035759066964452788 0 -0.0080398708240582185 -0.035553233411641162 0 -0.0078008866557620713 -0.035256482198544291 0 -0.0083881096957490586 -0.035413031446762132 0 -0.0080398708240582185 -0.035553233411641162 0 -0.0080944255316866415 -0.035270010138118119 0 -0.0080398708240582185 -0.035553233411641162 0 -0.0080944255316866415 -0.035270010138118119 0 -0.0078008866557620713 -0.035256482198544291 0 -0.0080944255316866415 -0.035270010138118119 0 -0.0081488347403743909 -0.034855641062370442 0 -0.0078008866557620713 -0.035256482198544291 0 -0.0081488347403743909 -0.034855641062370442 0 -0.0078008866557620713 -0.035256482198544291 0 -0.0075278814308654806 -0.035286097420163233 0 -0.0090751866387666514 -0.035272251929262317 0 -0.0081488347403743909 -0.034855641062370442 0 -0.0081921062428929031 -0.034324988807145414 0 -0.0081488347403743909 -0.034855641062370442 0 -0.008038669866265764 -0.034334035816487966 0 -0.0075278814308654806 -0.035286097420163233 0 -0.0081488347403743909 -0.034855641062370442 0 -0.008038669866265764 -0.034334035816487966 0 -0.0081921062428929031 -0.034324988807145414 0 -0.0069638948762555846 -0.034999725188467397 0 -0.0069307651351182033 -0.035060782067545995 0 -0.0071452312260427923 -0.034903530333841214 0 -0.0068776966653882636 -0.034881623732296481 0 -0.0071364564005845111 -0.034925028417712084 0 -0.0069610056880412118 -0.034997537970040626 0 -0.0068776966653882636 -0.034881623732296481 0 -0.0088544549542888054 -0.034999634788537563 0 -0.0088111616800478233 -0.036161710674453632 0 -0.0071456457516471195 -0.034903603619765106 0 -0.0084229242129601374 -0.035678836549603014 0 -0.0071364564005845111 -0.034925028417712084 0 -0.0045938292425586492 -0.034802136191999775 0 -0.0052241119366184469 -0.034733469727568723 0 -0.0048445171357251087 -0.034472435583952535 0 -0.004461888802173822 -0.033792100592030666 0 -0.0054761211760528125 -0.034005483719497638 0 -0.0044623203727601323 -0.034641143652803921 0 -0.0048445171357251087 -0.034472435583952535 0 -0.0044432613359138388 -0.03436617761876385 0 -0.0044623203727601323 -0.034641143652803921 0 -0.0045938292425586492 -0.034802136191999775 0 -0.0048445171357251087 -0.034472435583952535 0 -0.0044821669180670036 -0.033829810505494849 0 -0.004461888802173822 -0.033792100592030666 0 -0.0046328693374352086 -0.033210402526797814 0 -0.0054761211760528125 -0.034005483719497638 0 -0.0048940817484992563 -0.034069261965288672 0 -0.004846642645198445 -0.034013488469055601 0 -0.0049322633155879239 -0.03400435662163713 0 -0.0077294046254532288 -0.035759066964452788 0 -0.0078008866557620713 -0.035256482198544291 0 -0.0075339307873347021 -0.035283885580629379 0 -0.0055967930175682655 -0.034014097893128939 0 -0.0054761211760528125 -0.034005483719497638 0 -0.0056167946369441151 -0.034020946022863104 0 -0.0048388398571309619 -0.034060319829794732 0 -0.0048445171357251087 -0.034472435583952535 0 -0.0069637481893249122 -0.034999995549397575 0 -0.0069044850043250049 -0.035109747635377463 0 -0.0054621252407163739 -0.034999996782251921 0 -0.0068776966653882636 -0.034881623732296481 0 -0.0052276301597914332 -0.034832223055882586 0 -0.0069044850043250049 -0.035109747635377463 0 -0.0054621252407163739 -0.034999996782251921 0 -0.0053019100159391701 -0.035199985966426206 0 -0.0056167946369441151 -0.034020946022863104 0 -0.0052241119366184469 -0.034733469727568723 0 -0.0048445171357251087 -0.034472435583952535 0 -0.0068776966653882636 -0.034881623732296481 0 -0.0054761211760528125 -0.034005483719497638 0 -0.0054621252407163739 -0.034999996782251921 0 -0.0053019100159391701 -0.035199985966426206 0 -0.0039605103795218111 -0.034999992326638446 0 -0.0052276301597914332 -0.034832223055882586 0 -0.0039240804749000593 -0.034858552809648238 0 -0.0048388398571309619 -0.034060319829794732 0 -0.0044432613359138388 -0.03436617761876385 0 -0.0040623944460746056 -0.034102299950284298 0 -0.0048388398571309619 -0.034060319829794732 0 -0.0048445171357251087 -0.034472435583952535 0 -0.0044432613359138388 -0.03436617761876385 0 -0.0053019100159391701 -0.035199985966426206 0 -0.0039605103795218111 -0.034999992326638446 0 -0.0036997904213370045 -0.035289704151775729 0 -0.0040623944460746056 -0.034102299950284298 0 -0.0035067788759816569 -0.034713855944908729 0 -0.0040099705129546465 -0.034554507023303246 0 -0.0039599334727353714 -0.034999031738638012 0 -0.0039240804749000593 -0.034858552809648238 0 -0.0039603736448649415 -0.035000030061915467 0 -0.0037493214061140195 -0.034999961252626166 0 -0.0037134594021170668 -0.035206799401992034 0 -0.0044432613359138388 -0.03436617761876385 0 -0.0040623944460746056 -0.034102299950284298 0 -0.0040099705129546465 -0.034554507023303246 0 -0.0037493214061140195 -0.034999961252626166 0 -0.0037134594021170668 -0.035206799401992034 0 -0.0024642971235149212 -0.035678688216877821 0 -0.0037134594021170668 -0.035206799401992034 0 -0.0029092012024025736 -0.036088257676579048 0 -0.0024642971235149212 -0.035678688216877821 0 -0.0037476241231701461 -0.034999834500882766 0 -0.0022600582640555631 -0.035118720412790523 0 -0.0037491852343400191 -0.035000004119144473 0 -0.0019043237113350049 -0.035966587638961017 0 -0.0017612780184808215 -0.034999975803954531 0 -0.0039240804749000593 -0.034858552809648238 0 -0.0025096600917847512 -0.03452420240047932 0 -0.0025096600917847512 -0.03452420240047932 0 -0.0022600582640555631 -0.035118720412790523 0 -0.0035067788759816569 -0.034713855944908729 0 -0.0037075577981047288 -0.034898445570749323 0 -0.0040099705129546465 -0.034554507023303246 0 -0.0025096600917847512 -0.03452420240047932 0 -0.0026353618513932707 -0.033954356058069374 0 -0.002481542938861255 -0.033898847749712101 0 -0.0024797825099207513 -0.033895343808739077 0 -0.0024821521580908447 -0.033896880076588948 0 -0.0024899545593943724 -0.028253666762413955 0 -0.0023303735327414809 -0.028429553846740119 0 -0.0018157095680329243 -0.028079465690520042 0 -0.0026353618513932707 -0.033954356058069374 0 -0.001860045019342694 -0.034501063727597758 0 -0.0025096600917847512 -0.03452420240047932 0 -0.001860045019342694 -0.034501063727597758 0 -0.0021838575332888076 -0.035130738608514463 0 -0.0018786494399929464 -0.035472100027841777 0 -0.0018038414376061701 -0.035133527268412776 0 -0.0044623203727601323 -0.034641143652803921 0 -0.0045909817301699211 -0.03479848675590147 0 -0.0037075577981047288 -0.034898445570749323 0 -0.0044623203727601323 -0.034641143652803921 0 -0.0037075577981047288 -0.034898445570749323 0 -0.0040099705129546465 -0.034554507023303246 0 -0.004461888802173822 -0.033792100592030666 0 -0.0026353618513932707 -0.033954356058069374 0 -0.0044623203727601323 -0.034641143652803921 0 -0.0044432613359138388 -0.03436617761876385 0 -0.0040099705129546465 -0.034554507023303246 0 -0.0036306029183809274 -0.03320846503981173 0 -0.0034866542831361136 -0.033229185328063807 0 -0.0035641040359803765 -0.033288536810049958 0 -0.0025079592741122352 -0.028430662748869923 0 -0.0024569446190503786 -0.028433911181965536 0 -0.0024959325212011276 -0.028412018734478253 0 -0.0024899545593943724 -0.028253666762413955 0 -0.0025079592741122352 -0.028430662748869923 0 -0.0024569446190503786 -0.028433911181965536 0 -0.0026353618513932707 -0.033954356058069374 0 -0.0028090153101531169 -0.031981860274304226 0 0.00069083015307402473 -0.028408482356340779 0 0.0013018512757454559 -0.02879714729950664 0 -0.0023303735327414809 -0.028429553846740119 0 -0.0024103449844503294 -0.028421362686344504 0 -0.0024139073779169146 -0.02837180987085431 0 -0.0023303735327414809 -0.028429553846740119 0 -0.0016319967944764971 -0.030200323488299593 0 -0.0016780740371251095 -0.028821495095301498 0 -0.0024899545593943724 -0.028253666762413955 0 -0.0023303735327414809 -0.028429553846740119 0 -0.0024569446190503786 -0.028433911181965536 0 -0.0023303735327414809 -0.028429553846740119 0 -0.0016780740371251095 -0.028821495095301498 0 -0.0018157095680329243 -0.028079465690520042 0 -0.0023303735327414809 -0.028429553846740119 0 -0.0024569446190503786 -0.028433911181965536 0 -0.0024103449844503294 -0.028421362686344504 0 -0.0024072834495187045 -0.027777359048664168 0 -0.0023782900800709758 -0.027991839249129496 0 -0.0024569446190503786 -0.028433911181965536 0 -0.0024103449844503294 -0.028421362686344504 0 -0.0025156555516247059 -0.028393181705516416 0 -0.0026534047676197536 -0.028339156651596302 0 -0.0024103449844503294 -0.028421362686344504 0 -0.0025156555516247059 -0.028393181705516416 0 -0.0024569446190503786 -0.028433911181965536 0 -0.0025156555516247059 -0.028393181705516416 0 -0.0024959325212011276 -0.028412018734478253 0 -0.002507558154503999 -0.028294328580623727 0 -0.002448479763737901 -0.028419644291471254 0 -0.0024959325212011276 -0.028412018734478253 0 -0.002448479763737901 -0.028419644291471254 0 -0.0025079592741122352 -0.028430662748869923 0 -0.0024959325212011276 -0.028412018734478253 0 0.00076655817041119934 -0.038238694911988648 0 0.0012883108800445769 -0.037648527240547347 0 0.0016664706220852008 -0.038087155161760505 0 0.00076655817041119934 -0.038238694911988648 0 0.00030350461706303198 -0.037563716710716108 0 0.00077548781481308641 -0.037609746341395613 0 0.00076655817041119934 -0.038238694911988648 0 0.00077548781481308641 -0.037609746341395613 0 0.0012883108800445769 -0.037648527240547347 0 0.00019853372449929582 -0.031504799283490016 0 0.00051957155785606118 -0.030741223032176485 0 -0.0016319967944764971 -0.030200323488299593 0 -0.0021912084541128511 -0.027995587862625241 0 -0.0024103449844503294 -0.028421362686344504 0 -0.0023552740179531234 -0.028207712912346999 0 0.00051957155785606118 -0.030741223032176485 0 -0.0016319967944764971 -0.030200323488299593 0 -0.00099078774111393186 -0.028748771287070634 0 0.0023879242981525496 -0.03059387547479607 0 0.0013018512757454559 -0.02879714729950664 0 0.0054361549150438362 -0.028365550935014631 0 0.005069758191806494 -0.028319832943664226 0 0.0049127468872998525 -0.028032273725647316 0 0.0014462924204478775 -0.028484882594854294 0 0.0013018512757454559 -0.02879714729950664 0 -0.0024103449844503294 -0.028421362686344504 0 -0.0023552740179531234 -0.028207712912346999 0 -0.0024139073779169146 -0.02837180987085431 0 0.0012701930630611212 -0.033805084587246764 0 -0.00074016234696209853 -0.034409304240658328 0 2.7145574491175099e-05 -0.037266177957195605 0 0.00074106247546701788 -0.036978863632647456 0 -0.00036383877829112313 -0.036823047416771636 0 0.00076655817041119934 -0.038238694911988648 0 0.00030350461706303198 -0.037563716710716108 0 2.1745368363327426e-05 -0.037270908812965686 0 -0.00059706513144837392 -0.034612019462368492 0 -0.00074016234696209853 -0.034409304240658328 0 -0.0016319967944764971 -0.030200323488299593 0 -0.0016780740371251095 -0.028821495095301498 0 -0.00099078774111393186 -0.028748771287070634 0 -0.00074016234696209853 -0.034409304240658328 0 -0.001860045019342694 -0.034501063727597758 0 -0.0016780740371251095 -0.028821495095301498 0 -0.00099078774111393186 -0.028748771287070634 0 -0.0018157095680329243 -0.028079465690520042 0 0.00030350461706303198 -0.037563716710716108 0 2.7145574491175099e-05 -0.037266177957195605 0 0.00074106247546701788 -0.036978863632647456 0 0.00030350461706303198 -0.037563716710716108 0 0.00074106247546701788 -0.036978863632647456 0 0.00077548781481308641 -0.037609746341395613 0 0.00074106247546701788 -0.036978863632647456 0 0.00077548781481308641 -0.037609746341395613 0 0.0012883108800445769 -0.037648527240547347 0 -0.00087303834929829398 -0.035594566117685779 0 -0.00079983862127282494 -0.035210514982029761 0 0.0001467724598243452 -0.035717718992362632 0 -0.00087303834929829398 -0.035594566117685779 0 -0.00079983862127282494 -0.035210514982029761 0 -0.001417335550425625 -0.035216981620169806 0 -0.00056628712311201077 -0.036639319273914138 0 -0.00071433812873396057 -0.035728777046904928 0 0.00017863125168249332 -0.03628605671783313 0 -0.00079983862127282494 -0.035210514982029761 0 -0.001417335550425625 -0.035216981620169806 0 -0.0017341742746360986 -0.034714204952498141 0 -0.00075039214073423959 -0.035744747580281726 0 -0.0022600582640555631 -0.035118720412790523 0 -0.00087303834929829398 -0.035594566117685779 0 -0.0018786494399929464 -0.035472100027841777 0 -0.001417335550425625 -0.035216981620169806 0 -0.00056628712311201077 -0.036639319273914138 0 -0.0019014983015317685 -0.035964814953000773 0 -0.0016485392958191394 -0.035731910574545181 0 -0.00035759114918784018 -0.035518120628513998 0 -0.001860045019342694 -0.034501063727597758 0 -0.0018786494399929464 -0.035472100027841777 0 -0.001417335550425625 -0.035216981620169806 0 -0.0018038414376061701 -0.035133527268412776 0 -0.001417335550425625 -0.035216981620169806 0 -0.0018038414376061701 -0.035133527268412776 0 -0.0017341742746360986 -0.034714204952498141 0 -0.0021838575332888076 -0.035130738608514463 0 -0.0018038414376061701 -0.035133527268412776 0 -0.0017341742746360986 -0.034714204952498141 0 -0.0019043237113350049 -0.035966587638961017 0 -0.0016485392958191394 -0.035731910574545181 0 -0.0017612780184808215 -0.034999975803954531 0 -0.0022600582640555631 -0.035118720412790523 0 -0.0022566711513611597 -0.035127009438211634 0 -0.0016485392958191394 -0.035731910574545181 0 -0.0017612780184808215 -0.034999975803954531 0 -0.00071433812873396057 -0.035728777046904928 0 -0.00071433812873396057 -0.035728777046904928 0 0.00022668067511232202 -0.034999941749939346 0 0.00017863125168249332 -0.03628605671783313 0 -0.0017612780184808215 -0.034999975803954531 0 -0.00071433812873396057 -0.035728777046904928 0 0.00022668067511232202 -0.034999941749939346 0 -0.00056628712311201077 -0.036639319273914138 0 -0.0016485392958191394 -0.035731910574545181 0 -0.00071433812873396057 -0.035728777046904928 0 0.00022668067511232202 -0.034999941749939346 0 0.0010803130976640234 -0.035925790842704593 0 0.00017863125168249332 -0.03628605671783313 0 0.0010803130976640234 -0.035925790842704593 0 0.0019089586792425861 -0.036613967472279664 0 0.0022146726616503764 -0.034999931683836284 0 0.00022668067511232202 -0.034999941749939346 0 0.0010803130976640234 -0.035925790842704593 0 0.0022146726616503764 -0.034999931683836284 0 0.0010803130976640234 -0.035925790842704593 0 0.0019089586792425861 -0.036613967472279664 0 0.0010433614259551171 -0.036728320689944055 0 0.0019089586792425861 -0.036613967472279664 0 0.0013886567770460705 -0.03701233323832346 0 0.0010433614259551171 -0.036728320689944055 0 -0.00056628712311201077 -0.036639319273914138 0 0.00017863125168249332 -0.03628605671783313 0 0.00081693643031141181 -0.037294036868447886 0 0.0010433614259551171 -0.036728320689944055 0 0.00017863125168249332 -0.03628605671783313 0 0.00081693643031141181 -0.037294036868447886 0 0.0013886567770460705 -0.03701233323832346 0 0.0010433614259551171 -0.036728320689944055 0 0.00081693643031141181 -0.037294036868447886 0 -0.00075039214073423959 -0.035744747580281726 0 0.00055874594720206996 -0.036209580639564524 0 0.0010803130976640234 -0.035925790842704593 0 0.0010433614259551171 -0.036728320689944055 0 0.00017863125168249332 -0.03628605671783313 0 0.0042023917291749979 -0.034999990661946249 0 0.0031700999540117342 -0.036439228117269976 0 0.0044516919286638288 -0.036288991959292145 0 0.0019089586792425861 -0.036613967472279664 0 0.0022146726616503764 -0.034999931683836284 0 0.0031700999540117342 -0.036439228117269976 0 0.0042023917291749979 -0.034999990661946249 0 0.0022146726616503764 -0.034999931683836284 0 0.0031700999540117342 -0.036439228117269976 0 0.0019089586792425861 -0.036613967472279664 0 0.0031700999540117342 -0.036439228117269976 0 0.0027751395312958531 -0.037293582255074037 0 0.0031700999540117342 -0.036439228117269976 0 0.0036115341286308434 -0.037478498780494481 0 0.0044516919286638288 -0.036288991959292145 0 0.0036115341286308434 -0.037478498780494481 0 0.0044567470873204092 -0.037503588478501132 0 0.0044516919286638288 -0.036288991959292145 0 0.0036115341286308434 -0.037478498780494481 0 0.0035159496854133697 -0.038351544195417392 0 0.0044567470873204092 -0.037503588478501132 0 0.0031700999540117342 -0.036439228117269976 0 0.0036115341286308434 -0.037478498780494481 0 0.0027751395312958531 -0.037293582255074037 0 0.0036115341286308434 -0.037478498780494481 0 0.0027751395312958531 -0.037293582255074037 0 0.0030828615772515089 -0.038013020010374189 0 0.0027751395312958531 -0.037293582255074037 0 0.0030828615772515089 -0.038013020010374189 0 0.0019239524605684627 -0.037729207200216892 0 0.0019615939852452085 -0.037121375374759798 0 0.0015771734610967713 -0.03688078458288014 0 0.0036115341286308434 -0.037478498780494481 0 0.0030828615772515089 -0.038013020010374189 0 0.0035159496854133697 -0.038351544195417392 0 0.0030828615772515089 -0.038013020010374189 0 0.003017498941668605 -0.038453054708398937 0 0.0024419255461268531 -0.03818037812398712 0 0.0030828615772515089 -0.038013020010374189 0 0.003017498941668605 -0.038453054708398937 0 0.0035159496854133697 -0.038351544195417392 0 0.003017498941668605 -0.038453054708398937 0 0.0035159496854133697 -0.038351544195417392 0 0.0035627668590334873 -0.038885036061475399 0 0.0035159496854133697 -0.038351544195417392 0 0.0046382834847168864 -0.038324390584705118 0 0.0048099406838241817 -0.037241107431912085 0 0.0035159496854133697 -0.038351544195417392 0 0.0046382834847168864 -0.038324390584705118 0 0.0043259675812360784 -0.038923132068245728 0 0.0042322573793625098 -0.037778778590641771 0 0.0047902824342492371 -0.037269834251922193 0 0.00074106247546701788 -0.036978863632647456 0 0.0012883108800445769 -0.037648527240547347 0 0.0017872933578855737 -0.037147876282247222 0 -0.00035759114918784018 -0.035518120628513998 0 0.00055874594720206996 -0.036209580639564524 0 0.0019796545225063667 -0.037664623738562511 0 0.0012883108800445769 -0.037648527240547347 0 0.0017872933578855737 -0.037147876282247222 0 0.0013886567770460705 -0.03701233323832346 0 0.00081693643031141181 -0.037294036868447886 0 0.0019239524605684627 -0.037729207200216892 0 0.00055874594720206996 -0.036209580639564524 0 0.0015771734610967713 -0.03688078458288014 0 0.0019089586792425861 -0.036613967472279664 0 0.0013886567770460705 -0.03701233323832346 0 0.0019239524605684627 -0.037729207200216892 0 0.0019089586792425861 -0.036613967472279664 0 0.0027751395312958531 -0.037293582255074037 0 0.0019239524605684627 -0.037729207200216892 0 0.0019796545225063667 -0.037664623738562511 0 0.0017872933578855737 -0.037147876282247222 0 0.0024811332078442405 -0.037585061112169631 0 0.0019796545225063667 -0.037664623738562511 0 0.0024811332078442405 -0.037585061112169631 0 0.0024419255461268531 -0.03818037812398712 0 0.0030828615772515089 -0.038013020010374189 0 0.0024811332078442405 -0.037585061112169631 0 0.0024419255461268531 -0.03818037812398712 0 0.003017498941668605 -0.038453054708398937 0 0.0024419255461268531 -0.03818037812398712 0 0.0025627841452916917 -0.038676349281877485 0 0.0024419255461268531 -0.03818037812398712 0 0.0017944308806579 -0.038649873238044995 0 0.0025627841452916917 -0.038676349281877485 0 0.00076655817041119934 -0.038238694911988648 0 0.0016664706220852008 -0.038087155161760505 0 0.0017944308806579 -0.038649873238044995 0 0.0024419255461268531 -0.03818037812398712 0 0.0016664706220852008 -0.038087155161760505 0 0.0017944308806579 -0.038649873238044995 0 0.0019796545225063667 -0.037664623738562511 0 0.0024419255461268531 -0.03818037812398712 0 0.0016664706220852008 -0.038087155161760505 0 0.0019796545225063667 -0.037664623738562511 0 0.0012883108800445769 -0.037648527240547347 0 0.0016664706220852008 -0.038087155161760505 0 0.00076655817041119934 -0.038238694911988648 0 0.0017944308806579 -0.038649873238044995 0 0.0014718888314107998 -0.03912366050556345 0 0.0014718888314107998 -0.03912366050556345 0 0.002108084588172336 -0.039507526074766409 0 0.0022256436485526177 -0.039008135326035476 0 0.0017944308806579 -0.038649873238044995 0 0.0014718888314107998 -0.03912366050556345 0 0.0022256436485526177 -0.039008135326035476 0 0.0057185196947428518 -0.028902643440615664 0 0.0058947400135645218 -0.028702714508993844 0 0.0059015161950036841 -0.029050140293972185 0 0.0064865455122640166 -0.029897400174530148 0 0.0064045971147177238 -0.029665202377873158 0 0.0063850051822356988 -0.029758003463645263 0 0.0058947400135645218 -0.028702714508993844 0 0.0061637029841538878 -0.029113843689568045 0 0.0059015161950036841 -0.029050140293972185 0 0.0033510251382428608 -0.032612325080628758 0 0.0041873587347774441 -0.031204693477432228 0 0.0033510251382428608 -0.032612325080628758 0 0.0041265208732687002 -0.034227293565254314 0 0.0061637029841538878 -0.029113843689568045 0 0.0059015161950036841 -0.029050140293972185 0 0.0060296217561261484 -0.029227635619097268 0 0.0057456148255356438 -0.029122520898184342 0 0.0059015161950036841 -0.029050140293972185 0 0.0058799598965568502 -0.029227228216488765 0 0.0026506959678426981 -0.039861153124446581 0 0.002108084588172336 -0.039507526074766409 0 0.0022256436485526177 -0.039008135326035476 0 0.0046687845570131921 -0.035602781974446981 0 0.0045915602113564069 -0.03719252128554329 0 0.0028417595586330111 -0.040218510848108457 0 0.0028657987153608028 -0.03950343215358585 0 0.0022256436485526177 -0.039008135326035476 0 0.0064045971147177238 -0.029665202377873158 0 0.0063012156054943948 -0.029621076088596803 0 0.0063850051822356988 -0.029758003463645263 0 0.0046687845570131921 -0.035602781974446981 0 0.0041265208732687002 -0.034227293565254314 0 0.0028657987153608028 -0.03950343215358585 0 0.0027692468674502526 -0.039049200123885561 0 0.0022256436485526177 -0.039008135326035476 0 0.0017944308806579 -0.038649873238044995 0 0.0022256436485526177 -0.039008135326035476 0 0.0025627841452916917 -0.038676349281877485 0 0.0027692468674502526 -0.039049200123885561 0 0.0022256436485526177 -0.039008135326035476 0 0.0025627841452916917 -0.038676349281877485 0 0.0027692468674502526 -0.039049200123885561 0 0.0025627841452916917 -0.038676349281877485 0 0.0029873705430981459 -0.038845532119985968 0 0.003017498941668605 -0.038453054708398937 0 0.0029873705430981459 -0.038845532119985968 0 0.0035627668590334873 -0.038885036061475399 0 0.0029873705430981459 -0.038845532119985968 0 0.0035627668590334873 -0.038885036061475399 0 0.003209523072846518 -0.039230519944944739 0 0.003017498941668605 -0.038453054708398937 0 0.0025627841452916917 -0.038676349281877485 0 0.0029873705430981459 -0.038845532119985968 0 0.0035627668590334873 -0.038885036061475399 0 0.003209523072846518 -0.039230519944944739 0 0.0037225124929371458 -0.039506382703742599 0 0.0027692468674502526 -0.039049200123885561 0 0.0029873705430981459 -0.038845532119985968 0 0.003209523072846518 -0.039230519944944739 0 0.0028657987153608028 -0.03950343215358585 0 0.0027692468674502526 -0.039049200123885561 0 0.003209523072846518 -0.039230519944944739 0 0.0035627668590334873 -0.038885036061475399 0 0.0043259675812360784 -0.038923132068245728 0 0.0040159677311840626 -0.039233414822957224 0 0.0035159496854133697 -0.038351544195417392 0 0.0035627668590334873 -0.038885036061475399 0 0.0043259675812360784 -0.038923132068245728 0 0.0035627668590334873 -0.038885036061475399 0 0.0040159677311840626 -0.039233414822957224 0 0.0037225124929371458 -0.039506382703742599 0 0.0043259675812360784 -0.038923132068245728 0 0.0044438904263755397 -0.039605181028948069 0 0.0051593396053700629 -0.038950648894563428 0 0.0043259675812360784 -0.038923132068245728 0 0.0040159677311840626 -0.039233414822957224 0 0.0044438904263755397 -0.039605181028948069 0 0.0044438904263755397 -0.039605181028948069 0 0.0038888953149560849 -0.040136733801116008 0 0.0046100435685555918 -0.040583784613170908 0 0.0040159677311840626 -0.039233414822957224 0 0.0044438904263755397 -0.039605181028948069 0 0.0037225124929371458 -0.039506382703742599 0 0.0044438904263755397 -0.039605181028948069 0 0.0038888953149560849 -0.040136733801116008 0 0.0037225124929371458 -0.039506382703742599 0 0.0028657987153608028 -0.03950343215358585 0 0.003209523072846518 -0.039230519944944739 0 0.0032908760149283692 -0.0399209036515644 0 0.003209523072846518 -0.039230519944944739 0 0.0037225124929371458 -0.039506382703742599 0 0.0032908760149283692 -0.0399209036515644 0 0.0038888953149560849 -0.040136733801116008 0 0.0032908760149283692 -0.0399209036515644 0 0.0035167419016804754 -0.040266176942750934 0 0.0038888953149560849 -0.040136733801116008 0 0.0037225124929371458 -0.039506382703742599 0 0.0032908760149283692 -0.0399209036515644 0 0.0032908760149283692 -0.0399209036515644 0 0.003166856556737643 -0.0404192570812777 0 0.0035167419016804754 -0.040266176942750934 0 0.0028417595586330111 -0.040218510848108457 0 0.0032908760149283692 -0.0399209036515644 0 0.003166856556737643 -0.0404192570812777 0 0.0028417595586330111 -0.040218510848108457 0 0.0028657987153608028 -0.03950343215358585 0 0.0032908760149283692 -0.0399209036515644 0 0.0046687845570131921 -0.035602781974446981 0 0.0046996386626590109 -0.035727743708662947 0 0.0046687845570131921 -0.035602781974446981 0 0.0063123892846077131 -0.033980444693736046 0 0.0063012156054943948 -0.029621076088596803 0 0.0063732630825655738 -0.029493196865510708 0 0.0063394040437332903 -0.029481051246017641 0 0.0028711752425565661 -0.04021385435928973 0 0.003166856556737643 -0.0404192570812777 0 0.0033831052344292351 -0.041149861923234221 0 0.003166856556737643 -0.0404192570812777 0 0.0035167419016804754 -0.040266176942750934 0 0.0037323326121446445 -0.040685351371879758 0 0.0038888953149560849 -0.040136733801116008 0 0.0035167419016804754 -0.040266176942750934 0 0.0037323326121446445 -0.040685351371879758 0 0.003166856556737643 -0.0404192570812777 0 0.0037323326121446445 -0.040685351371879758 0 0.0033831052344292351 -0.041149861923234221 0 0.0038888953149560849 -0.040136733801116008 0 0.0037323326121446445 -0.040685351371879758 0 0.0046100435685555918 -0.040583784613170908 0 0.0037323326121446445 -0.040685351371879758 0 0.0046100435685555918 -0.040583784613170908 0 0.0041917655593027084 -0.041353028152027807 0 0.0046100435685555918 -0.040583784613170908 0 0.0041917655593027084 -0.041353028152027807 0 0.0049335649071756598 -0.041335228836083315 0 0.0041917655593027084 -0.041353028152027807 0 0.0038810364829620463 -0.042076093141530581 0 0.0045024498306920693 -0.042106301471227486 0 0.0041917655593027084 -0.041353028152027807 0 0.0049335649071756598 -0.041335228836083315 0 0.0045024498306920693 -0.042106301471227486 0 0.0063732630825655738 -0.029493196865510708 0 0.0064055357976806815 -0.029583124267436797 0 0.0065104610405566556 -0.029663264937954452 0 0.0063123892846077131 -0.033980444693736046 0 0.0080904720996591989 -0.031154941317488416 0 0.0041917655593027084 -0.041353028152027807 0 0.0033831052344292351 -0.041149861923234221 0 0.0038810364829620463 -0.042076093141530581 0 0.0063732630825655738 -0.029493196865510708 0 0.0063641007447223065 -0.029535636070559881 0 0.0063394040437332903 -0.029481051246017641 0 0.0063732630825655738 -0.029493196865510708 0 0.0063641007447223065 -0.029535636070559881 0 0.0064055357976806815 -0.029583124267436797 0 0.0037323326121446445 -0.040685351371879758 0 0.0041917655593027084 -0.041353028152027807 0 0.0033831052344292351 -0.041149861923234221 0 0.0064055357976806815 -0.029583124267436797 0 0.0063645867715306894 -0.029607542638794462 0 0.0065104610405566556 -0.029663264937954452 0 0.0063641007447223065 -0.029535636070559881 0 0.0063645867715306894 -0.029607542638794462 0 0.0063200459003937542 -0.02954662778249894 0 0.0063641007447223065 -0.029535636070559881 0 0.0064055357976806815 -0.029583124267436797 0 0.0063645867715306894 -0.029607542638794462 0 0.0063645867715306894 -0.029607542638794462 0 0.0063200459003937542 -0.02954662778249894 0 0.0062500849513960734 -0.029558679958345463 0 0.0062500849513960734 -0.029558679958345463 0 0.0060138609941920215 -0.029491302559729874 0 0.0063279215086761674 -0.02967308245639743 0 0.0063645867715306894 -0.029607542638794462 0 0.0062500849513960734 -0.029558679958345463 0 0.0063279215086761674 -0.02967308245639743 0 0.0063200459003937542 -0.02954662778249894 0 0.0062577920234560581 -0.029507890505552546 0 0.0062500849513960734 -0.029558679958345463 0 0.0063200459003937542 -0.02954662778249894 0 0.0062577920234560581 -0.029507890505552546 0 0.0063394040437332903 -0.029481051246017641 0 0.0063641007447223065 -0.029535636070559881 0 0.0063200459003937542 -0.02954662778249894 0 0.0063394040437332903 -0.029481051246017641 0 0.0061892292371123012 -0.029440382152149145 0 0.0062577920234560581 -0.029507890505552546 0 0.0063394040437332903 -0.029481051246017641 0 0.0062577920234560581 -0.029507890505552546 0 0.0061689626730793579 -0.029505482262667505 0 0.0062500849513960734 -0.029558679958345463 0 0.0061892292371123012 -0.029440382152149145 0 0.0062577920234560581 -0.029507890505552546 0 0.0061689626730793579 -0.029505482262667505 0 0.0061689626730793579 -0.029505482262667505 0 0.0062500849513960734 -0.029558679958345463 0 0.0060138609941920215 -0.029491302559729874 0 0.0060138609941920215 -0.029491302559729874 0 0.005943460355368857 -0.029497927369705166 0 0.0061330369191375479 -0.029465151947139619 0 0.0060138609941920215 -0.029491302559729874 0 0.005943460355368857 -0.029497927369705166 0 0.0060145884439491981 -0.029451609791591886 0 0.005943460355368857 -0.029497927369705166 0 0.0060145884439491981 -0.029451609791591886 0 0.0059870187462439141 -0.029359924599763779 0 0.0060138609941920215 -0.029491302559729874 0 0.0060145884439491981 -0.029451609791591886 0 0.0060931609495431709 -0.029463296134526785 0 0.0061689626730793579 -0.029505482262667505 0 0.0060138609941920215 -0.029491302559729874 0 0.0060931609495431709 -0.029463296134526785 0 0.0060145884439491981 -0.029451609791591886 0 0.0060931609495431709 -0.029463296134526785 0 0.006081008178544919 -0.029377000871827173 0 0.0061892292371123012 -0.029440382152149145 0 0.0061689626730793579 -0.029505482262667505 0 0.0060931609495431709 -0.029463296134526785 0 0.0061892292371123012 -0.029440382152149145 0 0.006081008178544919 -0.029377000871827173 0 0.0061626743531194208 -0.029331163222251756 0 0.0061892292371123012 -0.029440382152149145 0 0.0060931609495431709 -0.029463296134526785 0 0.006081008178544919 -0.029377000871827173 0 0.006081008178544919 -0.029377000871827173 0 0.0059870187462439141 -0.029359924599763779 0 0.0060296217561261484 -0.029227635619097268 0 0.006081008178544919 -0.029377000871827173 0 0.0060296217561261484 -0.029227635619097268 0 0.0061626743531194208 -0.029331163222251756 0 0.005943460355368857 -0.029497927369705166 0 0.0059870187462439141 -0.029359924599763779 0 0.0058799598965568502 -0.029227228216488765 0 0.0060145884439491981 -0.029451609791591886 0 0.006081008178544919 -0.029377000871827173 0 0.0059870187462439141 -0.029359924599763779 0 0.0059015161950036841 -0.029050140293972185 0 0.0058799598965568502 -0.029227228216488765 0 0.0060296217561261484 -0.029227635619097268 0 0.0059870187462439141 -0.029359924599763779 0 0.0058799598965568502 -0.029227228216488765 0 0.0060296217561261484 -0.029227635619097268 0 0.0061637029841538878 -0.029113843689568045 0 0.0060296217561261484 -0.029227635619097268 0 0.0061626743531194208 -0.029331163222251756 0 0.0041873587347774441 -0.031204693477432228 0 0.004485111817789789 -0.030859271142483734 0 0.0064045971147177238 -0.029665202377873158 0 0.0063012156054943948 -0.029621076088596803 0 0.0063394040437332903 -0.029481051246017641 0 0.0061637029841538878 -0.029113843689568045 0 0.0063394040437332903 -0.029481051246017641 0 0.0061626743531194208 -0.029331163222251756 0 0.0061892292371123012 -0.029440382152149145 0 0.0063394040437332903 -0.029481051246017641 0 0.0061626743531194208 -0.029331163222251756 0 0.016840252827070412 -0.030024299886779078 0 0.016715990523343095 -0.030016527427310338 0 0.01683886288518173 -0.029970665154121928 0 0.016840252827070412 -0.030024299886779078 0 0.016738804056709362 -0.030172303527441758 0 0.016715990523343095 -0.030016527427310338 0 0.014666184683633142 -0.029708033275056549 0 0.016180393242792523 -0.029436362122291865 0 0.016591189729776586 -0.029366046177151689 0 0.016796317690228019 -0.029371577617019938 0 0.016747840456577529 -0.029430850504918865 0 0.016948193390382348 -0.029481921082874438 0 0.017047632115198989 -0.029318462678465003 0 0.016796317690228019 -0.029371577617019938 0 0.015832365138470781 -0.029407184077352561 0 0.014666184683633142 -0.029708033275056549 0 0.016738804056709362 -0.030172303527441758 0 0.016715990523343095 -0.030016527427310338 0 0.01655831248631278 -0.030212052826348167 0 0.0054588431906757813 -0.040819753124025679 0 0.0063903196663358426 -0.040518598576398883 0 0.0058358118827003067 -0.041855801240222305 0 0.014666184683633142 -0.029708033275056549 0 0.010771472871907125 -0.031599084463822036 0 0.011012702907623559 -0.034409330810490017 0 0.010771472871907125 -0.031599084463822036 0 0.0049335649071756598 -0.041335228836083315 0 0.0045024498306920693 -0.042106301471227486 0 0.0058358118827003067 -0.041855801240222305 0 0.0049335649071756598 -0.041335228836083315 0 0.0054588431906757813 -0.040819753124025679 0 0.0058358118827003067 -0.041855801240222305 0 0.0046100435685555918 -0.040583784613170908 0 0.0054588431906757813 -0.040819753124025679 0 0.0053914110417653269 -0.039899734395189283 0 0.0046100435685555918 -0.040583784613170908 0 0.0049335649071756598 -0.041335228836083315 0 0.0054588431906757813 -0.040819753124025679 0 0.0054588431906757813 -0.040819753124025679 0 0.0063903196663358426 -0.040518598576398883 0 0.0053914110417653269 -0.039899734395189283 0 0.0063903196663358426 -0.040518598576398883 0 0.0053914110417653269 -0.039899734395189283 0 0.0060538260633419012 -0.039045692161285075 0 0.0044438904263755397 -0.039605181028948069 0 0.0053914110417653269 -0.039899734395189283 0 0.0051593396053700629 -0.038950648894563428 0 0.0044438904263755397 -0.039605181028948069 0 0.0046100435685555918 -0.040583784613170908 0 0.0053914110417653269 -0.039899734395189283 0 0.0051593396053700629 -0.038950648894563428 0 0.0060538260633419012 -0.039045692161285075 0 0.0053355985940227802 -0.038081440495832071 0 0.0053914110417653269 -0.039899734395189283 0 0.0051593396053700629 -0.038950648894563428 0 0.0060538260633419012 -0.039045692161285075 0 0.0046382834847168864 -0.038324390584705118 0 0.0043259675812360784 -0.038923132068245728 0 0.0051593396053700629 -0.038950648894563428 0 0.0060538260633419012 -0.039045692161285075 0 0.0070252514116230635 -0.039156037679895339 0 0.0067948040599172697 -0.03830739554702773 0 0.016715990523343095 -0.030016527427310338 0 0.016914639477480817 -0.030046970736959853 0 0.01683886288518173 -0.029970665154121928 0 0.011012702907623559 -0.034409330810490017 0 0.011692416717415801 -0.034397398239010932 0 0.0063903196663358426 -0.040518598576398883 0 0.0060538260633419012 -0.039045692161285075 0 0.0070252514116230635 -0.039156037679895339 0 0.016840252827070412 -0.030024299886779078 0 0.01683886288518173 -0.029970665154121928 0 0.016784005216003102 -0.029857542726381157 0 0.015832365138470781 -0.029407184077352561 0 0.016071138229030561 -0.029444488249811492 0 0.01683886288518173 -0.029970665154121928 0 0.016820969331200208 -0.030039513050922947 0 0.016784005216003102 -0.029857542726381157 0 0.016914639477480817 -0.030046970736959853 0 0.01683886288518173 -0.029970665154121928 0 0.016820969331200208 -0.030039513050922947 0 0.016914639477480817 -0.030046970736959853 0 0.016820969331200208 -0.030039513050922947 0 0.016814895528725029 -0.03023595025531638 0 0.016820969331200208 -0.030039513050922947 0 0.016814895528725029 -0.03023595025531638 0 0.016682301691647965 -0.030164850693829359 0 0.016814895528725029 -0.03023595025531638 0 0.016938046502142156 -0.030513691978862834 0 0.01664986793973609 -0.03045391794946338 0 0.016914639477480817 -0.030046970736959853 0 0.016814895528725029 -0.03023595025531638 0 0.016938046502142156 -0.030513691978862834 0 0.012280493672625542 -0.033781380462693321 0 0.012361527402939242 -0.033736177005506678 0 0.0070252514116230635 -0.039156037679895339 0 0.0075739145897249453 -0.037847278754811961 0 0.0067948040599172697 -0.03830739554702773 0 0.0070252514116230635 -0.039156037679895339 0 0.0075739145897249453 -0.037847278754811961 0 0.0077439672703257132 -0.037776670684972986 0 0.011692416717415801 -0.034397398239010932 0 0.012361527402939242 -0.033736177005506678 0 0.0067948040599172697 -0.03830739554702773 0 0.0067261910740023271 -0.037900627475720934 0 0.0071513802442618049 -0.037796762217827441 0 0.0067948040599172697 -0.03830739554702773 0 0.0067261910740023271 -0.037900627475720934 0 0.0062494669040951021 -0.038081180648300565 0 0.0075739145897249453 -0.037847278754811961 0 0.0067948040599172697 -0.03830739554702773 0 0.0071513802442618049 -0.037796762217827441 0 0.0075739145897249453 -0.037847278754811961 0 0.0071513802442618049 -0.037796762217827441 0 0.0075872566244616557 -0.037630915013809454 0 0.0071513802442618049 -0.037796762217827441 0 0.0073062078439016485 -0.037366992129066731 0 0.0075872566244616557 -0.037630915013809454 0 0.0071513802442618049 -0.037796762217827441 0 0.0073062078439016485 -0.037366992129066731 0 0.0069422283224286341 -0.037509068656440783 0 0.0073062078439016485 -0.037366992129066731 0 0.0078089858074697135 -0.037235848215432722 0 0.0075872566244616557 -0.037630915013809454 0 0.0069422283224286341 -0.037509068656440783 0 0.0068811366646485276 -0.03697155942717769 0 0.0064738662850132604 -0.037603377889060985 0 0.0067261910740023271 -0.037900627475720934 0 0.0069422283224286341 -0.037509068656440783 0 0.0064738662850132604 -0.037603377889060985 0 0.0067261910740023271 -0.037900627475720934 0 0.0071513802442618049 -0.037796762217827441 0 0.0069422283224286341 -0.037509068656440783 0 0.0073062078439016485 -0.037366992129066731 0 0.0069422283224286341 -0.037509068656440783 0 0.0068811366646485276 -0.03697155942717769 0 0.0073062078439016485 -0.037366992129066731 0 0.0068811366646485276 -0.03697155942717769 0 0.0074863840069988429 -0.037019579157386108 0 0.0073062078439016485 -0.037366992129066731 0 0.0074863840069988429 -0.037019579157386108 0 0.0078089858074697135 -0.037235848215432722 0 0.012361527402939242 -0.033736177005506678 0 0.012945707697774081 -0.033845991353466463 0 0.0078089858074697135 -0.037235848215432722 0 0.007887776069628016 -0.037655793648706699 0 0.0083700158576132597 -0.036898777657166593 0 0.0074863840069988429 -0.037019579157386108 0 0.0078089858074697135 -0.037235848215432722 0 0.0079212965590117236 -0.036824866178661868 0 0.0078089858074697135 -0.037235848215432722 0 0.0083700158576132597 -0.036898777657166593 0 0.0079212965590117236 -0.036824866178661868 0 0.007887776069628016 -0.037655793648706699 0 0.0078068926753778363 -0.03784640934806574 0 0.0094152056860667584 -0.037295170745747099 0 0.007887776069628016 -0.037655793648706699 0 0.0083700158576132597 -0.036898777657166593 0 0.0094152056860667584 -0.037295170745747099 0 0.0075739145897249453 -0.037847278754811961 0 0.0075872566244616557 -0.037630915013809454 0 0.0077814030543680241 -0.037801646486521782 0 0.007887776069628016 -0.037655793648706699 0 0.0075872566244616557 -0.037630915013809454 0 0.0077814030543680241 -0.037801646486521782 0 0.012319960560744676 -0.033813240139117864 0 0.012361527402939242 -0.033736177005506678 0 0.0078089858074697135 -0.037235848215432722 0 0.007887776069628016 -0.037655793648706699 0 0.0075872566244616557 -0.037630915013809454 0 0.0046382834847168864 -0.038324390584705118 0 0.0053355985940227802 -0.038081440495832071 0 0.0048099406838241817 -0.037241107431912085 0 0.0046382834847168864 -0.038324390584705118 0 0.0051593396053700629 -0.038950648894563428 0 0.0053355985940227802 -0.038081440495832071 0 0.0060538260633419012 -0.039045692161285075 0 0.0067948040599172697 -0.03830739554702773 0 0.0062494669040951021 -0.038081180648300565 0 0.0060538260633419012 -0.039045692161285075 0 0.0053355985940227802 -0.038081440495832071 0 0.0062494669040951021 -0.038081180648300565 0 0.0053355985940227802 -0.038081440495832071 0 0.0062494669040951021 -0.038081180648300565 0 0.0059293803125010473 -0.037322135193868906 0 0.0067261910740023271 -0.037900627475720934 0 0.0062494669040951021 -0.038081180648300565 0 0.0064738662850132604 -0.037603377889060985 0 0.0062494669040951021 -0.038081180648300565 0 0.0064738662850132604 -0.037603377889060985 0 0.0059293803125010473 -0.037322135193868906 0 0.0068811366646485276 -0.03697155942717769 0 0.0064738662850132604 -0.037603377889060985 0 0.0059293803125010473 -0.037322135193868906 0 0.0059293803125010473 -0.037322135193868906 0 0.0048099406838241817 -0.037241107431912085 0 0.0059888747277943638 -0.036242585063199204 0 0.0053355985940227802 -0.038081440495832071 0 0.0059293803125010473 -0.037322135193868906 0 0.0048099406838241817 -0.037241107431912085 0 0.0044567470873204092 -0.037503588478501132 0 0.0044516919286638288 -0.036288991959292145 0 0.0057890602180343453 -0.036398984696501373 0 0.0047902824342492371 -0.037269834251922193 0 0.0057697895247807848 -0.03638041065263322 0 0.0068811366646485276 -0.03697155942717769 0 0.0059293803125010473 -0.037322135193868906 0 0.0059888747277943638 -0.036242585063199204 0 0.0044516919286638288 -0.036288991959292145 0 0.0057890602180343453 -0.036398984696501373 0 0.006190246958322221 -0.034999965965441276 0 0.0057697895247807848 -0.03638041065263322 0 0.00636673944166856 -0.035832346207166667 0 0.0057890602180343453 -0.036398984696501373 0 0.006190246958322221 -0.034999965965441276 0 0.0071585683367044444 -0.035173804741388079 0 0.0042023917291749979 -0.034999990661946249 0 0.0044516919286638288 -0.036288991959292145 0 0.006190246958322221 -0.034999965965441276 0 0.0081317969782028279 -0.036351716512950112 0 0.0078098322960560677 -0.035726762995053257 0 0.0090774219222714628 -0.03599882930006594 0 0.0081317969782028279 -0.036351716512950112 0 0.0075391875447501436 -0.036526736011150258 0 0.0078098322960560677 -0.035726762995053257 0 0.0081317969782028279 -0.036351716512950112 0 0.0083700158576132597 -0.036898777657166593 0 0.0090774219222714628 -0.03599882930006594 0 0.0081317969782028279 -0.036351716512950112 0 0.0079212965590117236 -0.036824866178661868 0 0.0075391875447501436 -0.036526736011150258 0 0.0074863840069988429 -0.037019579157386108 0 0.0079212965590117236 -0.036824866178661868 0 0.0075391875447501436 -0.036526736011150258 0 0.0081317969782028279 -0.036351716512950112 0 0.0083700158576132597 -0.036898777657166593 0 0.0079212965590117236 -0.036824866178661868 0 0.0068811366646485276 -0.03697155942717769 0 0.0075391875447501436 -0.036526736011150258 0 0.0070646111753381417 -0.036121735825598571 0 0.0068811366646485276 -0.03697155942717769 0 0.0059888747277943638 -0.036242585063199204 0 0.0070646111753381417 -0.036121735825598571 0 0.0068811366646485276 -0.03697155942717769 0 0.0074863840069988429 -0.037019579157386108 0 0.0075391875447501436 -0.036526736011150258 0 0.0075391875447501436 -0.036526736011150258 0 0.0070646111753381417 -0.036121735825598571 0 0.0078098322960560677 -0.035726762995053257 0 0.0070646111753381417 -0.036121735825598571 0 0.0071585683367044444 -0.035173804741388079 0 0.0078098322960560677 -0.035726762995053257 0 0.0059888747277943638 -0.036242585063199204 0 0.0070646111753381417 -0.036121735825598571 0 0.0071585683367044444 -0.035173804741388079 0 0.006190246958322221 -0.034999965965441276 0 0.0071585683367044444 -0.035173804741388079 0 0.0081781652372924316 -0.034999910660143241 0 0.0071585683367044444 -0.035173804741388079 0 0.0081781652372924316 -0.034999910660143241 0 0.0078098322960560677 -0.035726762995053257 0 0.0081781652372924316 -0.034999910660143241 0 0.0078098322960560677 -0.035726762995053257 0 0.0090774219222714628 -0.03599882930006594 0 0.0081781652372924316 -0.034999910660143241 0 0.0090774219222714628 -0.03599882930006594 0 0.010165990204581843 -0.034999898208903375 0 0.0083700158576132597 -0.036898777657166593 0 0.0090774219222714628 -0.03599882930006594 0 0.0094152056860667584 -0.037295170745747099 0 0.0090774219222714628 -0.03599882930006594 0 0.011009993389351753 -0.036658498098739771 0 0.0094152056860667584 -0.037295170745747099 0 0.013686012280849086 -0.033768036468807563 0 0.012945707697774081 -0.033845991353466463 0 0.0090774219222714628 -0.03599882930006594 0 0.010165990204581843 -0.034999898208903375 0 0.011009993389351753 -0.036658498098739771 0 0.010165990204581843 -0.034999898208903375 0 0.01215390381295115 -0.035000005461290715 0 0.011009993389351753 -0.036658498098739771 0 0.012154848183509636 -0.035000387786386533 0 0.013686012280849086 -0.033768036468807563 0 0.012154116729101168 -0.035000048239216992 0 0.012224011207871715 -0.035477147910826505 0 0.011334817911779579 -0.036438153766801012 0 0.014286312933523983 -0.034206484883181718 0 0.01453949065505708 -0.034719684190122557 0 0.012800612611717572 -0.035404506451583585 0 0.012154116729101168 -0.035000048239216992 0 0.013495056344611858 -0.034999932191164582 0 0.012800612611717572 -0.035404506451583585 0 0.012359986252179737 -0.03607811133331186 0 0.013586030936105498 -0.035561317321719937 0 0.012800612611717572 -0.035404506451583585 0 0.012154116729101168 -0.035000048239216992 0 0.012224011207871715 -0.035477147910826505 0 0.014243025224655327 -0.03433044734742096 0 0.014286312933523983 -0.034206484883181718 0 0.012800612611717572 -0.035404506451583585 0 0.012224011207871715 -0.035477147910826505 0 0.012359986252179737 -0.03607811133331186 0 0.016189347881479493 -0.035048586717096201 0 0.016194400601804854 -0.034462540495720312 0 0.015889525721004317 -0.034838063220307844 0 0.014286312933523983 -0.034206484883181718 0 0.015372403881233943 -0.032753058147167488 0 0.012224011207871715 -0.035477147910826505 0 0.012339364654797765 -0.035949599487324617 0 0.011334817911779579 -0.036438153766801012 0 0.014286312933523983 -0.034206484883181718 0 0.013686012280849086 -0.033768036468807563 0 0.015500857328008185 -0.031718094733024255 0 0.016047496199175844 -0.031452705399722419 0 0.015878649078761999 -0.030922255398140426 0 0.015500857328008185 -0.031718094733024255 0 0.015878649078761999 -0.030922255398140426 0 0.01533551940200018 -0.030891504977474067 0 0.01533551940200018 -0.030891504977474067 0 0.015593272344405286 -0.030425916522425527 0 0.015174026704631501 -0.030101718741047199 0 0.015372403881233943 -0.032753058147167488 0 0.016192197720158296 -0.031402772690608267 0 0.015878649078761999 -0.030922255398140426 0 0.01533551940200018 -0.030891504977474067 0 0.015593272344405286 -0.030425916522425527 0 0.015878649078761999 -0.030922255398140426 0 0.015593272344405286 -0.030425916522425527 0 0.016019034583402803 -0.030389132193521226 0 0.016019034583402803 -0.030389132193521226 0 0.016403158365875439 -0.030342346527026276 0 0.016426994670143032 -0.030800339639973969 0 0.015878649078761999 -0.030922255398140426 0 0.016019034583402803 -0.030389132193521226 0 0.016426994670143032 -0.030800339639973969 0 0.015574011496682237 -0.03124847574507526 0 0.016025378865625783 -0.030669317102579186 0 0.016814895528725029 -0.03023595025531638 0 0.01664986793973609 -0.03045391794946338 0 0.016682301691647965 -0.030164850693829359 0 0.016403158365875439 -0.030342346527026276 0 0.016426994670143032 -0.030800339639973969 0 0.016682301691647965 -0.030164850693829359 0 0.01664986793973609 -0.03045391794946338 0 0.016273036687428237 -0.030561848412660846 0 0.016682301691647965 -0.030164850693829359 0 0.016938046502142156 -0.030513691978862834 0 0.01664986793973609 -0.03045391794946338 0 0.016512888391644595 -0.030830224318391827 0 0.01664986793973609 -0.03045391794946338 0 0.016512888391644595 -0.030830224318391827 0 0.016273036687428237 -0.030561848412660846 0 0.016047496199175844 -0.031452705399722419 0 0.015878649078761999 -0.030922255398140426 0 0.016426994670143032 -0.030800339639973969 0 0.015877241941989265 -0.031174970845169892 0 0.016512888391644595 -0.030830224318391827 0 0.016273036687428237 -0.030561848412660846 0 0.013686012280849086 -0.033768036468807563 0 0.015574011496682237 -0.03124847574507526 0 0.015685788687686077 -0.035078840957163945 0 0.015722800954956231 -0.0350670426498483 0 0.015678254643806684 -0.034860919295848621 0 0.015636995402306491 -0.035035491523060742 0 0.015722800954956231 -0.0350670426498483 0 0.015828321608587732 -0.035141276916197506 0 0.015636995402306491 -0.035035491523060742 0 0.015685788687686077 -0.035078840957163945 0 0.015722800954956231 -0.0350670426498483 0 0.016616172990211932 -0.035301597071120079 0 0.017256859986457089 -0.035331415413887984 0 0.016665818631229408 -0.034999387543120063 0 0.015785269403109616 -0.035303442545819727 0 0.017812659106903887 -0.03575225082015674 0 0.015685788687686077 -0.035078840957163945 0 0.015785269403109616 -0.035303442545819727 0 0.015678254643806684 -0.034860919295848621 0 0.016665818631229408 -0.034999387543120063 0 0.015785269403109616 -0.035303442545819727 0 0.014838935655265771 -0.035000360003883166 0 0.015785269403109616 -0.035303442545819727 0 0.01557197489227569 -0.035100049004026336 0 0.015300089413972984 -0.035132124518496746 0 0.015685788687686077 -0.035078840957163945 0 0.015785269403109616 -0.035303442545819727 0 0.01557197489227569 -0.035100049004026336 0 0.015636995402306491 -0.035035491523060742 0 0.015685788687686077 -0.035078840957163945 0 0.01557197489227569 -0.035100049004026336 0 0.015636995402306491 -0.035035491523060742 0 0.01557197489227569 -0.035100049004026336 0 0.015530528273676134 -0.034920755325743506 0 0.01557197489227569 -0.035100049004026336 0 0.015563370951659557 -0.034923162183852614 0 0.015530528273676134 -0.034920755325743506 0 0.015563370951659557 -0.034923162183852614 0 0.015300089413972984 -0.035132124518496746 0 0.015693975259755896 -0.035186406368612907 0 0.01557197489227569 -0.035100049004026336 0 0.015563370951659557 -0.034923162183852614 0 0.015300089413972984 -0.035132124518496746 0 0.015785269403109616 -0.035303442545819727 0 0.014838935655265771 -0.035000360003883166 0 0.015300089413972984 -0.035132124518496746 0 0.014838935655265771 -0.035000360003883166 0 0.015300089413972984 -0.035132124518496746 0 0.015693975259755896 -0.035186406368612907 0 0.014835811743366376 -0.034999244426916813 0 0.01453949065505708 -0.034719684190122557 0 0.014836293511453004 -0.035000029614175525 0 0.013495056344611858 -0.034999932191164582 0 0.013586030936105498 -0.035561317321719937 0 0.012800612611717572 -0.035404506451583585 0 0.013495056344611858 -0.034999932191164582 0 0.013586030936105498 -0.035561317321719937 0 0.016189347881479493 -0.035048586717096201 0 0.015693975259755896 -0.035186406368612907 0 0.015889525721004317 -0.034838063220307844 0 0.015563370951659557 -0.034923162183852614 0 0.015693975259755896 -0.035186406368612907 0 0.015889525721004317 -0.034838063220307844 0 0.015563370951659557 -0.034923162183852614 0 0.015889525721004317 -0.034838063220307844 0 0.015816249013849464 -0.034539152349032064 0 0.016194400601804854 -0.034462540495720312 0 0.015889525721004317 -0.034838063220307844 0 0.015816249013849464 -0.034539152349032064 0 0.016194400601804854 -0.034462540495720312 0 0.015857308211678911 -0.033940994717766855 0 0.016156791858647448 -0.033833919139792272 0 0.016194400601804854 -0.034462540495720312 0 0.015816249013849464 -0.034539152349032064 0 0.015857308211678911 -0.033940994717766855 0 0.015620680929444681 -0.032392829971779211 0 0.015868176506683953 -0.032117793552303965 0 0.015723463107134326 -0.0342902479364715 0 0.015524555376407897 -0.033662265228073147 0 0.015857308211678911 -0.033940994717766855 0 0.015723463107134326 -0.0342902479364715 0 0.015816249013849464 -0.034539152349032064 0 0.015857308211678911 -0.033940994717766855 0 0.015723463107134326 -0.0342902479364715 0 0.015612565084808764 -0.03472907490505471 0 0.01543981260080745 -0.034776612609025717 0 0.015723463107134326 -0.0342902479364715 0 0.015816249013849464 -0.034539152349032064 0 0.015612565084808764 -0.03472907490505471 0 0.015563370951659557 -0.034923162183852614 0 0.015816249013849464 -0.034539152349032064 0 0.015612565084808764 -0.03472907490505471 0 0.015563370951659557 -0.034923162183852614 0 0.015612565084808764 -0.03472907490505471 0 0.015530528273676134 -0.034920755325743506 0 0.015636995402306491 -0.035035491523060742 0 0.015530528273676134 -0.034920755325743506 0 0.015677691572764101 -0.035015361348321845 0 0.015530528273676134 -0.034920755325743506 0 0.01543981260080745 -0.034776612609025717 0 0.015677691572764101 -0.035015361348321845 0 0.015612565084808764 -0.03472907490505471 0 0.015530528273676134 -0.034920755325743506 0 0.01543981260080745 -0.034776612609025717 0 0.015723463107134326 -0.0342902479364715 0 0.01543981260080745 -0.034776612609025717 0 0.015524555376407897 -0.033662265228073147 0 0.015524555376407897 -0.033662265228073147 0 0.014220989632189861 -0.033290776063597087 0 0.014989202440724015 -0.032598632259102207 0 0.015423544448721649 -0.03420403127448484 0 0.015237292032550897 -0.033911401433421431 0 0.01543981260080745 -0.034776612609025717 0 0.015524555376407897 -0.033662265228073147 0 0.014220989632189861 -0.033290776063597087 0 0.015742679549842483 -0.035256740927622252 0 0.01581278206693602 -0.035175942720585406 0 0.015878368597821997 -0.035224611194770182 0 0.015742679549842483 -0.035256740927622252 0 0.01581278206693602 -0.035175942720585406 0 0.015677691572764101 -0.035015361348321845 0 0.01543981260080745 -0.034776612609025717 0 0.015742679549842483 -0.035256740927622252 0 0.015677691572764101 -0.035015361348321845 0 0.01581278206693602 -0.035175942720585406 0 0.015677691572764101 -0.035015361348321845 0 0.015891125710895244 -0.035176855457079631 0 0.015677691572764101 -0.035015361348321845 0 0.015828321608587732 -0.035141276916197506 0 0.015891125710895244 -0.035176855457079631 0 0.015636995402306491 -0.035035491523060742 0 0.015677691572764101 -0.035015361348321845 0 0.015828321608587732 -0.035141276916197506 0 0.014498247514995434 -0.031582107526391352 0 0.01454667944083622 -0.030220534874714551 0 0.013613348816527544 -0.030486053868382879 0 0.014498247514995434 -0.031582107526391352 0 0.015423201723154067 -0.030554473184958665 0 0.01454667944083622 -0.030220534874714551 0 0.014220989632189861 -0.033290776063597087 0 0.014498247514995434 -0.031582107526391352 0 0.01333329024027817 -0.031844954181281131 0 0.014220989632189861 -0.033290776063597087 0 0.014498247514995434 -0.031582107526391352 0 0.014989202440724015 -0.032598632259102207 0 0.014498247514995434 -0.031582107526391352 0 0.014989202440724015 -0.032598632259102207 0 0.015757808472876382 -0.031924909804085071 0 0.015524555376407897 -0.033662265228073147 0 0.014989202440724015 -0.032598632259102207 0 0.015757808472876382 -0.031924909804085071 0 0.014498247514995434 -0.031582107526391352 0 0.015757808472876382 -0.031924909804085071 0 0.015423201723154067 -0.030554473184958665 0 0.015757808472876382 -0.031924909804085071 0 0.016473690698280873 -0.030662905521527263 0 0.015423201723154067 -0.030554473184958665 0 0.015757808472876382 -0.031924909804085071 0 0.016473690698280873 -0.030662905521527263 0 0.01701171100844362 -0.031728068596516328 0 0.015524555376407897 -0.033662265228073147 0 0.015757808472876382 -0.031924909804085071 0 0.016810288704850015 -0.032841979412505384 0 0.015757808472876382 -0.031924909804085071 0 0.016810288704850015 -0.032841979412505384 0 0.01701171100844362 -0.031728068596516328 0 0.016810288704850015 -0.032841979412505384 0 0.017977725486196385 -0.032267842285417694 0 0.01701171100844362 -0.031728068596516328 0 0.015868176506683953 -0.032117793552303965 0 0.016192197720158296 -0.031402772690608267 0 0.016192197720158296 -0.031402772690608267 0 0.016418346777610195 -0.030643013355637988 0 0.017977725486196385 -0.032267842285417694 0 0.01701171100844362 -0.031728068596516328 0 0.01754474043579448 -0.030833992271519586 0 0.016473690698280873 -0.030662905521527263 0 0.01701171100844362 -0.031728068596516328 0 0.01754474043579448 -0.030833992271519586 0 0.016473690698280873 -0.030662905521527263 0 0.01754474043579448 -0.030833992271519586 0 0.016865665858205963 -0.029469736518526989 0 0.016418346777610195 -0.030643013355637988 0 0.016454749843886448 -0.030321710877605809 0 0.016870775465184052 -0.029439520989578027 0 0.016865665858205963 -0.029469736518526989 0 0.016864742985184648 -0.0294415655751449 0 0.016128994335326833 -0.029641634247547982 0 0.015315861538600472 -0.029231159969804611 0 0.016447640980593654 -0.028483457363408085 0 0.016865665858205963 -0.029469736518526989 0 0.016128994335326833 -0.029641634247547982 0 0.016447640980593654 -0.028483457363408085 0 0.016473690698280873 -0.030662905521527263 0 0.016128994335326833 -0.029641634247547982 0 0.015423201723154067 -0.030554473184958665 0 0.016473690698280873 -0.030662905521527263 0 0.016865665858205963 -0.029469736518526989 0 0.016128994335326833 -0.029641634247547982 0 0.015423201723154067 -0.030554473184958665 0 0.015315861538600472 -0.029231159969804611 0 0.01454667944083622 -0.030220534874714551 0 0.016128994335326833 -0.029641634247547982 0 0.015423201723154067 -0.030554473184958665 0 0.015315861538600472 -0.029231159969804611 0 0.014590127534716153 -0.028666789635709653 0 0.014076040226826908 -0.029350575020510181 0 0.01402875213245436 -0.027921321732188559 0 0.015315861538600472 -0.029231159969804611 0 0.014590127534716153 -0.028666789635709653 0 0.014076040226826908 -0.029350575020510181 0 0.015315861538600472 -0.029231159969804611 0 0.014076040226826908 -0.029350575020510181 0 0.01454667944083622 -0.030220534874714551 0 0.014076040226826908 -0.029350575020510181 0 0.01454667944083622 -0.030220534874714551 0 0.013613348816527544 -0.030486053868382879 0 0.016654471991723326 -0.029577610191481574 0 0.016438802124534725 -0.030040942231282841 0 0.01587117357781612 -0.029826942716963126 0 0.01667661658416288 -0.030235390188068392 0 0.016544422672253908 -0.030494905697766903 0 0.016654471991723326 -0.029577610191481574 0 0.016820677466467201 -0.029416901630956713 0 0.016793551649188592 -0.029460673157128546 0 0.016654471991723326 -0.029577610191481574 0 0.016784005216003102 -0.029857542726381157 0 0.01676878634009224 -0.029499874194677637 0 0.016654471991723326 -0.029577610191481574 0 0.016784005216003102 -0.029857542726381157 0 0.016438802124534725 -0.030040942231282841 0 0.016784005216003102 -0.029857542726381157 0 0.016682301691647965 -0.030164850693829359 0 0.016438802124534725 -0.030040942231282841 0 0.016820969331200208 -0.030039513050922947 0 0.016784005216003102 -0.029857542726381157 0 0.016682301691647965 -0.030164850693829359 0 0.016403158365875439 -0.030342346527026276 0 0.016682301691647965 -0.030164850693829359 0 0.016438802124534725 -0.030040942231282841 0 0.016019034583402803 -0.030389132193521226 0 0.016403158365875439 -0.030342346527026276 0 0.016438802124534725 -0.030040942231282841 0 0.016019034583402803 -0.030389132193521226 0 0.016438802124534725 -0.030040942231282841 0 0.01587117357781612 -0.029826942716963126 0 0.015593272344405286 -0.030425916522425527 0 0.016019034583402803 -0.030389132193521226 0 0.01587117357781612 -0.029826942716963126 0 0.016192197720158296 -0.031402772690608267 0 0.016544422672253908 -0.030494905697766903 0 0.015593272344405286 -0.030425916522425527 0 0.015174026704631501 -0.030101718741047199 0 0.01587117357781612 -0.029826942716963126 0 0.016870775465184052 -0.029439520989578027 0 0.016820677466467201 -0.029416901630956713 0 0.016864742985184648 -0.0294415655751449 0 0.016859548827663141 -0.029414073322465328 0 0.016870775465184052 -0.029439520989578027 0 0.016820677466467201 -0.029416901630956713 0 0.016793551649188592 -0.029460673157128546 0 0.016864742985184648 -0.0294415655751449 0 0.016863190738645634 -0.029368414377508308 0 0.016820677466467201 -0.029416901630956713 0 0.016793551649188592 -0.029460673157128546 0 0.016864742985184648 -0.0294415655751449 0 0.016864742985184648 -0.0294415655751449 0 0.016863190738645634 -0.029368414377508308 0 0.016953414409989955 -0.029103545826989628 0 0.016865665858205963 -0.029469736518526989 0 0.016864742985184648 -0.0294415655751449 0 0.016953414409989955 -0.029103545826989628 0 0.016767150623061118 -0.029428273658237695 0 0.016796317690228019 -0.029371577617019938 0 0.01684444973622793 -0.029354442080513566 0 0.016863190738645634 -0.029368414377508308 0 0.016767150623061118 -0.029428273658237695 0 0.01684444973622793 -0.029354442080513566 0 0.016793551649188592 -0.029460673157128546 0 0.016863190738645634 -0.029368414377508308 0 0.016767150623061118 -0.029428273658237695 0 0.016654471991723326 -0.029577610191481574 0 0.016793551649188592 -0.029460673157128546 0 0.016767150623061118 -0.029428273658237695 0 0.016767150623061118 -0.029428273658237695 0 0.01676878634009224 -0.029499874194677637 0 0.016796317690228019 -0.029371577617019938 0 0.016948193390382348 -0.029481921082874438 0 0.016784005216003102 -0.029857542726381157 0 0.01676878634009224 -0.029499874194677637 0 0.016948193390382348 -0.029481921082874438 0 0.01676878634009224 -0.029499874194677637 0 0.016796317690228019 -0.029371577617019938 0 0.016654471991723326 -0.029577610191481574 0 0.016767150623061118 -0.029428273658237695 0 0.01676878634009224 -0.029499874194677637 0 0.016796317690228019 -0.029371577617019938 0 0.01684444973622793 -0.029354442080513566 0 0.016747840456577529 -0.029430850504918865 0 0.015529680705339522 -0.027982928552234377 0 0.01514883900998586 -0.028319866673000977 0 0.013991355971825858 -0.025878457201006344 0 0.014579544358479836 -0.025999057097212234 0 0.01396194455579248 -0.025706942481198279 0 0.014298294594922862 -0.025921559289785165 0 0.014402187570036432 -0.025944039314421328 0 0.013991355971825858 -0.025878457201006344 0 0.014408524616100772 -0.026217006257572954 0 0.014459880475221818 -0.026733381263054256 0 0.013991355971825858 -0.025878457201006344 0 0.013875609966366042 -0.025367313863777913 0 0.014001086452924938 -0.025545270422997039 0 0.013991355971825858 -0.025878457201006344 0 0.014408524616100772 -0.026217006257572954 0 0.014579544358479836 -0.025999057097212234 0 0.014408524616100772 -0.026217006257572954 0 0.014579544358479836 -0.025999057097212234 0 0.0149269428186497 -0.026626320329821672 0 0.016863190738645634 -0.029368414377508308 0 0.01684444973622793 -0.029354442080513566 0 0.016953414409989955 -0.029103545826989628 0 0.015529680705339522 -0.027982928552234377 0 0.015666186451018908 -0.027861597714156409 0 0.015141655619616405 -0.026446084349211522 0 0.0149269428186497 -0.026626320329821672 0 0.015285847976382291 -0.026798650269261728 0 0.014579544358479836 -0.025999057097212234 0 0.015141655619616405 -0.026446084349211522 0 0.0149269428186497 -0.026626320329821672 0 0.0149269428186497 -0.026626320329821672 0 0.014839563654187822 -0.027088745508786691 0 0.014459880475221818 -0.026733381263054256 0 0.0149269428186497 -0.026626320329821672 0 0.015285847976382291 -0.026798650269261728 0 0.01522207254568066 -0.026911906700131469 0 0.014620672577744138 -0.025878606490088683 0 0.014793378769351164 -0.026211793738569925 0 0.0149269428186497 -0.026626320329821672 0 0.014839563654187822 -0.027088745508786691 0 0.01522207254568066 -0.026911906700131469 0 0.014868535482287835 -0.025841958845739463 0 0.015042345616636359 -0.025865014461833855 0 0.014762273891320208 -0.025974776488954875 0 0.014868535482287835 -0.025841958845739463 0 0.014762273891320208 -0.025974776488954875 0 0.014754443241514679 -0.025814319931322872 0 0.014620672577744138 -0.025878606490088683 0 0.014611218626502102 -0.025875304490110898 0 0.014007764905584428 -0.025202835018117688 0 0.013875609966366042 -0.025367313863777913 0 0.01399908813038358 -0.025170182107104026 0 0.014018779912448369 -0.02513334086535236 0 0.013875609966366042 -0.025367313863777913 0 0.01399908813038358 -0.025170182107104026 0 0.014008781270984021 -0.025135671422266234 0 0.014018779912448369 -0.02513334086535236 0 0.013875609966366042 -0.025367313863777913 0 0.014620672577744138 -0.025878606490088683 0 0.014402187570036432 -0.025944039314421328 0 0.014007764905584428 -0.025202835018117688 0 0.01399448924064046 -0.025373271217233498 0 0.013875609966366042 -0.025367313863777913 0 0.014007764905584428 -0.025202835018117688 0 0.01399448924064046 -0.025373271217233498 0 0.014001444137484328 -0.025326336365181095 0 0.01399448924064046 -0.025373271217233498 0 0.013875609966366042 -0.025367313863777913 0 0.014001086452924938 -0.025545270422997039 0 0.014408524616100772 -0.026217006257572954 0 0.0149269428186497 -0.026626320329821672 0 0.014459880475221818 -0.026733381263054256 0 0.014804738315845483 -0.027828467000713043 0 0.014577879515650621 -0.026836536537923169 0 0.01402875213245436 -0.027921321732188559 0 0.014577879515650621 -0.026836536537923169 0 0.01402875213245436 -0.027921321732188559 0 0.01384123259902003 -0.026879600646343472 0 0.014590127534716153 -0.028666789635709653 0 0.014804738315845483 -0.027828467000713043 0 0.01402875213245436 -0.027921321732188559 0 0.015315861538600472 -0.029231159969804611 0 0.014590127534716153 -0.028666789635709653 0 0.014804738315845483 -0.027828467000713043 0 0.015315861538600472 -0.029231159969804611 0 0.014804738315845483 -0.027828467000713043 0 0.016447640980593654 -0.028483457363408085 0 0.015018386736573656 -0.0277950750328924 0 0.015406002009806713 -0.02781015794534691 0 0.014804738315845483 -0.027828467000713043 0 0.015125800547201447 -0.027097197692265793 0 0.014577879515650621 -0.026836536537923169 0 0.014804738315845483 -0.027828467000713043 0 0.015125800547201447 -0.027097197692265793 0 0.015292237412409589 -0.027009164572285891 0 0.015125800547201447 -0.027097197692265793 0 0.015292237412409589 -0.027009164572285891 0 0.015285847976382291 -0.026798650269261728 0 0.015666186451018908 -0.027861597714156409 0 0.015406002009806713 -0.02781015794534691 0 0.016865665858205963 -0.029469736518526989 0 0.016953414409989955 -0.029103545826989628 0 0.016447640980593654 -0.028483457363408085 0 0.015141655619616405 -0.026446084349211522 0 0.015292237412409589 -0.027009164572285891 0 0.015285847976382291 -0.026798650269261728 0 0.014793378769351164 -0.026211793738569925 0 0.01473201522986649 -0.026428704731496715 0 0.015285847976382291 -0.026798650269261728 0 0.01522207254568066 -0.026911906700131469 0 0.015248628889497884 -0.026789092397434721 0 0.014762273891320208 -0.025974776488954875 0 0.014730875984957587 -0.026236129111850612 0 0.014682842520467757 -0.025863095355385574 0 0.014762273891320208 -0.025974776488954875 0 0.014682842520467757 -0.025863095355385574 0 0.014754443241514679 -0.025814319931322872 0 0.014730875984957587 -0.026236129111850612 0 0.01460842686069109 -0.026075479650280387 0 0.014682842520467757 -0.025863095355385574 0 0.015125800547201447 -0.027097197692265793 0 0.015285847976382291 -0.026798650269261728 0 0.015248628889497884 -0.026789092397434721 0 0.015125800547201447 -0.027097197692265793 0 0.015248628889497884 -0.026789092397434721 0 0.014577879515650621 -0.026836536537923169 0 0.01473201522986649 -0.026428704731496715 0 0.014583088316430093 -0.026553638441882393 0 0.014730875984957587 -0.026236129111850612 0 0.01460842686069109 -0.026075479650280387 0 0.014577879515650621 -0.026836536537923169 0 0.01460842686069109 -0.026075479650280387 0 0.014227061703189645 -0.026203070883077464 0 0.014577879515650621 -0.026836536537923169 0 0.01460842686069109 -0.026075479650280387 0 0.014227061703189645 -0.026203070883077464 0 0.014423226096253447 -0.025873673230973969 0 0.014227061703189645 -0.026203070883077464 0 0.014577879515650621 -0.026836536537923169 0 0.01384123259902003 -0.026879600646343472 0 0.014364915312061749 -0.025622775374778813 0 0.014423226096253447 -0.025873673230973969 0 0.014058468190514921 -0.025810929888440474 0 0.014227061703189645 -0.026203070883077464 0 0.014423226096253447 -0.025873673230973969 0 0.014058468190514921 -0.025810929888440474 0 0.014364915312061749 -0.025622775374778813 0 0.014423226096253447 -0.025873673230973969 0 0.014668151027860215 -0.025770349573425007 0 0.01460842686069109 -0.026075479650280387 0 0.014423226096253447 -0.025873673230973969 0 0.014668151027860215 -0.025770349573425007 0 0.01426357495186322 -0.025484650652873624 0 0.014479391287686777 -0.025531331257514844 0 0.014250789931556672 -0.025319669795617887 0 0.014280299552375317 -0.025320697424668619 0 0.014304856344105884 -0.025208599054936394 0 0.014280299552375317 -0.025320697424668619 0 0.014409547566688783 -0.025298326908245759 0 0.014372718726934864 -0.025198435648994863 0 0.01460842686069109 -0.026075479650280387 0 0.014668151027860215 -0.025770349573425007 0 0.014682842520467757 -0.025863095355385574 0 0.014479391287686777 -0.025531331257514844 0 0.014599250073535816 -0.025556781724499707 0 0.014668151027860215 -0.025770349573425007 0 0.014682842520467757 -0.025863095355385574 0 0.014615480444004946 -0.025591418371659094 0 0.014682842520467757 -0.025863095355385574 0 0.014754443241514679 -0.025814319931322872 0 0.014615480444004946 -0.025591418371659094 0 0.014409547566688783 -0.025298326908245759 0 0.014615480444004946 -0.025591418371659094 0 0.014522228039721969 -0.025277471678116697 0 0.014280299552375317 -0.025320697424668619 0 0.014409547566688783 -0.025298326908245759 0 0.014615480444004946 -0.025591418371659094 0 0.014409547566688783 -0.025298326908245759 0 0.014411542783755974 -0.025215472297403837 0 0.014522228039721969 -0.025277471678116697 0 0.014411542783755974 -0.025215472297403837 0 0.014372718726934864 -0.025198435648994863 0 0.014332439734935696 -0.025154696688764633 0 0.014409547566688783 -0.025298326908245759 0 0.014411542783755974 -0.025215472297403837 0 0.014372718726934864 -0.025198435648994863 0 0.014372718726934864 -0.025198435648994863 0 0.014366828353810502 -0.025133382525813774 0 0.014332439734935696 -0.025154696688764633 0 0.014366828353810502 -0.025133382525813774 0 0.014332439734935696 -0.025154696688764633 0 0.014322831264962695 -0.025149120041648969 0 0.014372718726934864 -0.025198435648994863 0 0.014366828353810502 -0.025133382525813774 0 0.014304856344105884 -0.025208599054936394 0 0.014280299552375317 -0.025320697424668619 0 0.014372718726934864 -0.025198435648994863 0 0.014304856344105884 -0.025208599054936394 0 0.014250789931556672 -0.025319669795617887 0 0.014304856344105884 -0.025208599054936394 0 0.014257316650624033 -0.025190066885534834 0 0.014304856344105884 -0.025208599054936394 0 0.014297395369730164 -0.025103132566368938 0 0.014257316650624033 -0.025190066885534834 0 0.014366828353810502 -0.025133382525813774 0 0.014304856344105884 -0.025208599054936394 0 0.014297395369730164 -0.025103132566368938 0 0.014297395369730164 -0.025103132566368938 0 0.014235622615615456 -0.025116183480683976 0 0.014257316650624033 -0.025190066885534834 0 0.014235622615615456 -0.025116183480683976 0 0.014257316650624033 -0.025190066885534834 0 0.014181480051202086 -0.025199627888117745 0 0.014250789931556672 -0.025319669795617887 0 0.014257316650624033 -0.025190066885534834 0 0.014181480051202086 -0.025199627888117745 0 0.014112785112644922 -0.025129118052959577 0 0.014197482158242309 -0.025163306991065049 0 0.01409078054919208 -0.025107411162816808 0 0.014034503369066939 -0.025122714412288114 0 0.014112785112644922 -0.025129118052959577 0 0.01409078054919208 -0.025107411162816808 0 0.014039636549996976 -0.025087597652484656 0 0.014034503369066939 -0.025122714412288114 0 0.01409078054919208 -0.025107411162816808 0 0.014039636549996976 -0.025087597652484656 0 0.01409078054919208 -0.025107411162816808 0 0.014035638997565327 -0.025054383840192193 0 0.014007764905584428 -0.025202835018117688 0 0.014039636549996976 -0.025087597652484656 0 0.014034503369066939 -0.025122714412288114 0 0.014007764905584428 -0.025202835018117688 0 0.01399908813038358 -0.025170182107104026 0 0.014034503369066939 -0.025122714412288114 0 0.014018779912448369 -0.02513334086535236 0 0.01399908813038358 -0.025170182107104026 0 0.014034503369066939 -0.025122714412288114 0 0.014057728598802003 -0.025101873640918516 0 0.014018779912448369 -0.02513334086535236 0 0.014109028364222453 -0.025108504774046764 0 0.014034503369066939 -0.025122714412288114 0 0.014109028364222453 -0.025108504774046764 0 0.014112785112644922 -0.025129118052959577 0 0.014018779912448369 -0.02513334086535236 0 0.014034503369066939 -0.025122714412288114 0 0.014109028364222453 -0.025108504774046764 0 0.014620672577744138 -0.025878606490088683 0 0.014526781601016159 -0.025655907431271389 0 0.014868535482287835 -0.025841958845739463 0 0.015042345616636359 -0.025865014461833855 0 0.014925341577698464 -0.025673276476252147 0 0.014057728598802003 -0.025101873640918516 0 0.014109028364222453 -0.025108504774046764 0 0.014234041918276112 -0.025069843635959734 0 0.014109028364222453 -0.025108504774046764 0 0.014234041918276112 -0.025069843635959734 0 0.014173559497731846 -0.025132762512346325 0 0.014109028364222453 -0.025108504774046764 0 0.014112785112644922 -0.025129118052959577 0 0.014173559497731846 -0.025132762512346325 0 0.014868535482287835 -0.025841958845739463 0 0.014754443241514679 -0.025814319931322872 0 0.014925341577698464 -0.025673276476252147 0 0.014925341577698464 -0.025673276476252147 0 0.014615480444004946 -0.025591418371659094 0 0.014522228039721969 -0.025277471678116697 0 0.014754443241514679 -0.025814319931322872 0 0.014925341577698464 -0.025673276476252147 0 0.014615480444004946 -0.025591418371659094 0 0.014526781601016159 -0.025655907431271389 0 0.014497595446995188 -0.025584058553142722 0 0.014234041918276112 -0.025069843635959734 0 0.014522228039721969 -0.025277471678116697 0 0.01428545092384549 -0.02519336030676126 0 0.014522228039721969 -0.025277471678116697 0 0.01428545092384549 -0.02519336030676126 0 0.014336459632062018 -0.025205936105413947 0 0.01428545092384549 -0.02519336030676126 0 0.014197482158242309 -0.025163306991065049 0 0.014336459632062018 -0.025205936105413947 0 0.014411542783755974 -0.025215472297403837 0 0.014522228039721969 -0.025277471678116697 0 0.014336459632062018 -0.025205936105413947 0 0.014112785112644922 -0.025129118052959577 0 0.014173559497731846 -0.025132762512346325 0 0.014197482158242309 -0.025163306991065049 0 0.014234041918276112 -0.025069843635959734 0 0.01428545092384549 -0.02519336030676126 0 0.014173559497731846 -0.025132762512346325 0 0.01428545092384549 -0.02519336030676126 0 0.014173559497731846 -0.025132762512346325 0 0.014197482158242309 -0.025163306991065049 0 0.014197482158242309 -0.025163306991065049 0 0.014197783010963184 -0.025141872079537858 0 0.014336459632062018 -0.025205936105413947 0 0.014197482158242309 -0.025163306991065049 0 0.014197783010963184 -0.025141872079537858 0 0.01409078054919208 -0.025107411162816808 0 0.014197783010963184 -0.025141872079537858 0 0.014336459632062018 -0.025205936105413947 0 0.014332439734935696 -0.025154696688764633 0 0.014411542783755974 -0.025215472297403837 0 0.014336459632062018 -0.025205936105413947 0 0.014332439734935696 -0.025154696688764633 0 0.014197783010963184 -0.025141872079537858 0 0.014332439734935696 -0.025154696688764633 0 0.014149896086732805 -0.025099604728840454 0 0.014197783010963184 -0.025141872079537858 0 0.01411547444857973 -0.025101928587787144 0 0.014149896086732805 -0.025099604728840454 0 0.014197783010963184 -0.025141872079537858 0 0.01411547444857973 -0.025101928587787144 0 0.01409078054919208 -0.025107411162816808 0 0.01411547444857973 -0.025101928587787144 0 0.01409078054919208 -0.025107411162816808 0 0.014060935196796704 -0.025073931247242644 0 0.01409078054919208 -0.025107411162816808 0 0.014060935196796704 -0.025073931247242644 0 0.014035638997565327 -0.025054383840192193 0 0.01411547444857973 -0.025101928587787144 0 0.014060935196796704 -0.025073931247242644 0 0.014099318189676623 -0.025029659385092558 0 0.014060935196796704 -0.025073931247242644 0 0.014013934564306088 -0.025059834814402781 0 0.013977710864906111 -0.025067253468836505 0 0.014013934564306088 -0.025059834814402781 0 0.013977710864906111 -0.025067253468836505 0 0.013970333506208001 -0.025060904050334152 0 0.013977710864906111 -0.025067253468836505 0 0.013973755262927405 -0.02500541424435325 0 0.013837287336023296 -0.025062643792322294 0 0.013977710864906111 -0.025067253468836505 0 0.014035638997565327 -0.025054383840192193 0 0.013973755262927405 -0.02500541424435325 0 0.014060935196796704 -0.025073931247242644 0 0.013977710864906111 -0.025067253468836505 0 0.014035638997565327 -0.025054383840192193 0 0.014039636549996976 -0.025087597652484656 0 0.014035638997565327 -0.025054383840192193 0 0.014031717092949297 -0.025005203234184082 0 0.014035638997565327 -0.025054383840192193 0 0.013973755262927405 -0.02500541424435325 0 0.014031717092949297 -0.025005203234184082 0 0.013973755262927405 -0.02500541424435325 0 0.014031717092949297 -0.025005203234184082 0 0.013838304417913705 -0.024860414781328114 0 0.013905424047275433 -0.025098139866905161 0 0.013795702966583806 -0.025054307777373126 0 0.014007764905584428 -0.025202835018117688 0 0.014039636549996976 -0.025087597652484656 0 0.014031717092949297 -0.025005203234184082 0 0.013919442050012353 -0.025123999716340037 0 0.013905424047275433 -0.025098139866905161 0 0.013944630707009204 -0.025146177952139838 0 0.013940601471554537 -0.025228409851254397 0 0.013919587810133291 -0.025222060614928876 0 0.013944630707009204 -0.025146177952139838 0 0.013940601471554537 -0.025228409851254397 0 0.013927862124651236 -0.025216090785527518 0 0.013980070470033525 -0.025307243214951675 0 0.013927862124651236 -0.025216090785527518 0 0.013953217459629857 -0.025274649800929017 0 0.013940601471554537 -0.025228409851254397 0 0.013927862124651236 -0.025216090785527518 0 0.013953217459629857 -0.025274649800929017 0 0.013973755262927405 -0.02500541424435325 0 0.013838304417913705 -0.024860414781328114 0 0.013837287336023296 -0.025062643792322294 0 0.013838304417913705 -0.024860414781328114 0 0.01338029516247694 -0.02495958761956743 0 0.013235976177290198 -0.024893571768317968 0 0.013795702966583806 -0.025054307777373126 0 0.013494047646779693 -0.02506056177981409 0 0.013944630707009204 -0.025146177952139838 0 0.013927862124651236 -0.025216090785527518 0 0.013996052662913481 -0.025065695111921589 0 0.013838304417913705 -0.024860414781328114 0 0.013837287336023296 -0.025062643792322294 0 0.01338029516247694 -0.02495958761956743 0 0.013837287336023296 -0.025062643792322294 0 0.01374876706123016 -0.0251231001773808 0 0.01338029516247694 -0.02495958761956743 0 0.012867316088156456 -0.024873239043937012 0 0.012990836467984497 -0.024941844617705645 0 0.013977710864906111 -0.025067253468836505 0 0.013887909593150465 -0.025094210222225969 0 0.013970333506208001 -0.025060904050334152 0 0.013977710864906111 -0.025067253468836505 0 0.013837287336023296 -0.025062643792322294 0 0.013887909593150465 -0.025094210222225969 0 0.012867316088156456 -0.024873239043937012 0 0.012239154014136071 -0.023734731934108237 0 0.013887909593150465 -0.025094210222225969 0 0.01374876706123016 -0.0251231001773808 0 0.013932606838518805 -0.025058431829247087 0 0.013837287336023296 -0.025062643792322294 0 0.013887909593150465 -0.025094210222225969 0 0.01374876706123016 -0.0251231001773808 0 0.012726259931519907 -0.025698317964291409 0 0.013030876220104225 -0.025343655544508674 0 0.013025386684865347 -0.025613333668137919 0 0.013160947666321128 -0.025511533976330453 0 0.013030876220104225 -0.025343655544508674 0 0.013025386684865347 -0.025613333668137919 0 0.012726259931519907 -0.025698317964291409 0 0.012612570053821007 -0.025441149716877498 0 0.013030876220104225 -0.025343655544508674 0 0.012612570053821007 -0.025441149716877498 0 0.013030876220104225 -0.025343655544508674 0 0.01240942133330619 -0.025127086294273054 0 0.013030876220104225 -0.025343655544508674 0 0.01240942133330619 -0.025127086294273054 0 0.013235976177290198 -0.024893571768317968 0 0.013160947666321128 -0.025511533976330453 0 0.013030876220104225 -0.025343655544508674 0 0.01338029516247694 -0.02495958761956743 0 -0.0011625346896379752 -0.0086146625030677337 0 -0.001095616173273277 -0.0083266017688623309 0 -0.00074187861048612678 -0.0085836938035254839 0 -0.001095616173273277 -0.0083266017688623309 0 -0.00074187861048612678 -0.0085836938035254839 0 -0.0006091282581327848 -0.0081242300301356766 0 0.0005376527421482257 -0.0083416104370407137 0 -0.00074187861048612678 -0.0085836938035254839 0 -0.0006091282581327848 -0.0081242300301356766 0 0.012726259931519907 -0.025698317964291409 0 0.012612570053821007 -0.025441149716877498 0 0.01183877316306328 -0.025533635844918304 0 0.0067356713432459043 -0.017097203356212488 0 0.0053991310572879293 -0.016971488431120247 0 0.01183877316306328 -0.025533635844918304 0 0.011618962195101858 -0.024690767366006328 0 0.01240942133330619 -0.025127086294273054 0 0.012612570053821007 -0.025441149716877498 0 0.01183877316306328 -0.025533635844918304 0 0.01240942133330619 -0.025127086294273054 0 -0.001095616173273277 -0.0083266017688623309 0 -0.0011430521471323385 -0.0081548659496038685 0 -0.0006091282581327848 -0.0081242300301356766 0 0.010185476614609449 -0.024521735459815557 0 0.01183877316306328 -0.025533635844918304 0 0.011618962195101858 -0.024690767366006328 0 0.010185476614609449 -0.024521735459815557 0 0.011618962195101858 -0.024690767366006328 0 0.011358418573660392 -0.023939379338972427 0 0.003880856061017414 -0.016934886722007384 0 0.0053991310572879293 -0.016971488431120247 0 0.011618962195101858 -0.024690767366006328 0 0.012174414619680598 -0.024226700511063008 0 0.011358418573660392 -0.023939379338972427 0 0.011618962195101858 -0.024690767366006328 0 0.01240942133330619 -0.025127086294273054 0 0.012174414619680598 -0.024226700511063008 0 0.01240942133330619 -0.025127086294273054 0 0.012174414619680598 -0.024226700511063008 0 0.012773802573430429 -0.024507659174343898 0 0.012174414619680598 -0.024226700511063008 0 0.011890704586451622 -0.023217289956276772 0 0.013053565766067567 -0.023606414928218574 0 0.011890704586451622 -0.023217289956276772 0 0.013053565766067567 -0.023606414928218574 0 0.012541023316505239 -0.02253076853207172 0 0.012174414619680598 -0.024226700511063008 0 0.011890704586451622 -0.023217289956276772 0 0.011358418573660392 -0.023939379338972427 0 0.011890704586451622 -0.023217289956276772 0 0.010618734949185738 -0.023079366998455288 0 0.011358418573660392 -0.023939379338972427 0 0.010185476614609449 -0.024521735459815557 0 0.010618734949185738 -0.023079366998455288 0 0.011358418573660392 -0.023939379338972427 0 0.013030876220104225 -0.025343655544508674 0 0.01338029516247694 -0.02495958761956743 0 0.013235976177290198 -0.024893571768317968 0 0.013996052662913481 -0.025065695111921589 0 0.013523757167677829 -0.024899585746806747 0 0.01378009306118886 -0.024980343111980007 0 0.013996052662913481 -0.025065695111921589 0 0.01378009306118886 -0.024980343111980007 0 0.013909902948765297 -0.025058618729668126 0 0.013944630707009204 -0.025146177952139838 0 0.013996052662913481 -0.025065695111921589 0 0.013909902948765297 -0.025058618729668126 0 0.01240942133330619 -0.025127086294273054 0 0.013996052662913481 -0.025065695111921589 0 0.013523757167677829 -0.024899585746806747 0 0.013117377813351802 -0.025128121644096734 0 0.013494047646779693 -0.02506056177981409 0 0.01240942133330619 -0.025127086294273054 0 0.012773802573430429 -0.024507659174343898 0 0.013523757167677829 -0.024899585746806747 0 0.012773802573430429 -0.024507659174343898 0 0.013523757167677829 -0.024899585746806747 0 0.013053565766067567 -0.023606414928218574 0 0.013523757167677829 -0.024899585746806747 0 0.013935260263305447 -0.025086355928938556 0 0.01378009306118886 -0.024980343111980007 0 0.011254634418261585 -0.025371208608445082 0 0.010919628886725319 -0.025281880194753782 0 0.012174414619680598 -0.024226700511063008 0 0.012773802573430429 -0.024507659174343898 0 0.013053565766067567 -0.023606414928218574 0 0.013935260263305447 -0.025086355928938556 0 0.013871947019172843 -0.02510083865508575 0 0.013934009123791254 -0.025204255181720706 0 0.013944630707009204 -0.025146177952139838 0 0.013871947019172843 -0.02510083865508575 0 0.013919587810133291 -0.025222060614928876 0 0.013935260263305447 -0.025086355928938556 0 0.013871947019172843 -0.02510083865508575 0 0.01378009306118886 -0.024980343111980007 0 0.013871947019172843 -0.02510083865508575 0 0.01378009306118886 -0.024980343111980007 0 0.013909902948765297 -0.025058618729668126 0 0.013944630707009204 -0.025146177952139838 0 0.013871947019172843 -0.02510083865508575 0 0.013909902948765297 -0.025058618729668126 0 0.013935915051508679 -0.025264064164667213 0 0.013934009123791254 -0.025204255181720706 0 0.013952870893056076 -0.025308653160291881 0 0.013919587810133291 -0.025222060614928876 0 0.013935915051508679 -0.025264064164667213 0 0.013934009123791254 -0.025204255181720706 0 0.013871947019172843 -0.02510083865508575 0 0.013919587810133291 -0.025222060614928876 0 0.013934009123791254 -0.025204255181720706 0 0.013919587810133291 -0.025222060614928876 0 0.013939820302926426 -0.025292930873525347 0 0.013935915051508679 -0.025264064164667213 0 0.013934009123791254 -0.025204255181720706 0 0.014007321515080315 -0.025217111004195655 0 0.013952870893056076 -0.025308653160291881 0 0.013935260263305447 -0.025086355928938556 0 0.013934009123791254 -0.025204255181720706 0 0.014007321515080315 -0.025217111004195655 0 0.010919628886725319 -0.025281880194753782 0 0.0099033514189497823 -0.025187058331315747 0 0.0099033514189497823 -0.025187058331315747 0 0.0098777952522596506 -0.027021097668111102 0 0.0061638081406243236 -0.029267906333023612 0 0.0062403650259334415 -0.029297964001146488 0 0.0061794605022891516 -0.029343428660332217 0 0.0062296978361071889 -0.029183485978949431 0 0.0061638081406243236 -0.029267906333023612 0 0.0062403650259334415 -0.029297964001146488 0 0.0061638081406243236 -0.029267906333023612 0 0.0061545411510640895 -0.029330800321518712 0 0.0061794605022891516 -0.029343428660332217 0 0.0061638081406243236 -0.029267906333023612 0 0.0061245605971379817 -0.029335593887342869 0 0.0061545411510640895 -0.029330800321518712 0 0.0098777952522596506 -0.027021097668111102 0 0.0098485361904701134 -0.028720571646548732 0 0.013952870893056076 -0.025308653160291881 0 0.013939049243933105 -0.025316623328208571 0 0.013931166735750077 -0.02535806273615434 0 0.01393807245300773 -0.025339651258365296 0 0.013939049243933105 -0.025316623328208571 0 0.013950880598015086 -0.025331411196085632 0 0.01393807245300773 -0.025339651258365296 0 0.013939049243933105 -0.025316623328208571 0 0.013931166735750077 -0.02535806273615434 0 0.013939820302926426 -0.025292930873525347 0 0.013939049243933105 -0.025316623328208571 0 0.013950880598015086 -0.025331411196085632 0 0.013939820302926426 -0.025292930873525347 0 0.013935915051508679 -0.025264064164667213 0 0.013939049243933105 -0.025316623328208571 0 0.013935915051508679 -0.025264064164667213 0 0.013952870893056076 -0.025308653160291881 0 0.013939049243933105 -0.025316623328208571 0 0.011890704586451622 -0.023217289956276772 0 0.010618734949185738 -0.023079366998455288 0 0.011238147621888834 -0.022026431262864413 0 0.0098100084148799414 -0.021842083799983557 0 0.010618734949185738 -0.023079366998455288 0 0.011238147621888834 -0.022026431262864413 0 0.011890704586451622 -0.023217289956276772 0 0.012562990810614282 -0.022470940709630041 0 0.011238147621888834 -0.022026431262864413 0 0.010435596981750016 -0.024626451092001643 0 0.0099033514189497823 -0.025187058331315747 0 0.0099033514189497823 -0.025187058331315747 0 0.0079374169712032629 -0.025533669346096931 0 0.012562990810614282 -0.022470940709630041 0 0.011238147621888834 -0.022026431262864413 0 0.011821458620592397 -0.020962721424126255 0 0.011238147621888834 -0.022026431262864413 0 0.011821458620592397 -0.020962721424126255 0 0.010612853497272923 -0.020944786620693649 0 0.0098100084148799414 -0.021842083799983557 0 0.011238147621888834 -0.022026431262864413 0 0.010612853497272923 -0.020944786620693649 0 0.011821458620592397 -0.020962721424126255 0 0.010612853497272923 -0.020944786620693649 0 0.01107904013020595 -0.01948026234651425 0 0.0091080130839168456 -0.020426528551301486 0 0.010612853497272923 -0.020944786620693649 0 0.01107904013020595 -0.01948026234651425 0 0.0079374169712032629 -0.025533669346096931 0 0.005436199599194916 -0.02590039121340634 0 0.0062403650259334415 -0.029297964001146488 0 0.0061903067009730032 -0.029383349106905401 0 0.0061794605022891516 -0.029343428660332217 0 0.0062403650259334415 -0.029297964001146488 0 0.0061903067009730032 -0.029383349106905401 0 0.0062193183699170386 -0.029398766298954822 0 0.0061903067009730032 -0.029383349106905401 0 0.006188412870267143 -0.029399170683421263 0 0.0061815581257068063 -0.029383736687776982 0 0.0060138609941920215 -0.029491302559729874 0 0.0063831244525652201 -0.029749719419082742 0 0.0063279215086761674 -0.02967308245639743 0 0.0060138609941920215 -0.029491302559729874 0 0.006199269788754961 -0.029408073319548995 0 0.0061649069993012723 -0.029436591195124588 0 0.0066500151962771434 -0.029003271943459197 0 0.0070968872978231182 -0.028971528325165172 0 0.0061849441376164889 -0.029410104069830627 0 0.006199269788754961 -0.029408073319548995 0 0.0061649069993012723 -0.029436591195124588 0 0.0061903067009730032 -0.029383349106905401 0 0.006188412870267143 -0.029399170683421263 0 0.0061849441376164889 -0.029410104069830627 0 0.0061903067009730032 -0.029383349106905401 0 0.0061849441376164889 -0.029410104069830627 0 0.0061649069993012723 -0.029436591195124588 0 0.006188412870267143 -0.029399170683421263 0 0.0061849441376164889 -0.029410104069830627 0 0.006199269788754961 -0.029408073319548995 0 0.0061903067009730032 -0.029383349106905401 0 0.0061649069993012723 -0.029436591195124588 0 0.0062193183699170386 -0.029398766298954822 0 0.0053876840562850662 -0.026037926998484562 0 0.005436199599194916 -0.02590039121340634 0 0.0060138609941920215 -0.029491302559729874 0 0.0061649069993012723 -0.029436591195124588 0 0.0061330369191375479 -0.029465151947139619 0 0.0030351819682677625 -0.027046812671776284 0 0.005436199599194916 -0.02590039121340634 0 -0.00302447336697895 -0.025531514784376139 0 -0.0031531852533129368 -0.026218499911178646 0 -0.0038184559307345742 -0.024725274975555888 0 -0.00302447336697895 -0.025531514784376139 0 -0.0030944982575043505 -0.024852613800702104 0 -0.0038184559307345742 -0.024725274975555888 0 0.0061341288157230325 -0.029360636164072269 0 0.0061545411510640895 -0.029330800321518712 0 0.0061640186474795425 -0.029367716230845567 0 0.0093220868858353133 -0.030603514686012863 0 0.0094356353730810586 -0.030660328329748604 0 0.0094278145454644215 -0.030475349003448015 0 0.0092038357329044477 -0.029121251472278571 0 0.010105264731506166 -0.028960860102631221 0 0.0094734709798804922 -0.029739479052444402 0 0.0092481643600090934 -0.029259176373139312 0 0.0090218900765997104 -0.029503079252799051 0 0.0092038357329044477 -0.029121251472278571 0 0.0098485361904701134 -0.028720571646548732 0 0.013925656247912699 -0.025335914829136913 0 0.013931818608142429 -0.025327801552638928 0 0.013947159341936915 -0.025337232615670537 0 0.0098485361904701134 -0.028720571646548732 0 0.010105264731506166 -0.028960860102631221 0 0.0099137890028046186 -0.028548327400048798 0 0.0098485361904701134 -0.028720571646548732 0 0.01393807245300773 -0.025339651258365296 0 0.013925656247912699 -0.025335914829136913 0 0.013947159341936915 -0.025337232615670537 0 0.0061341288157230325 -0.029360636164072269 0 0.0061245605971379817 -0.029335593887342869 0 0.0061545411510640895 -0.029330800321518712 0 0.0061545411510640895 -0.029330800321518712 0 0.0061794605022891516 -0.029343428660332217 0 0.0061640186474795425 -0.029367716230845567 0 0.006199269788754961 -0.029408073319548995 0 0.0061341288157230325 -0.029360636164072269 0 0.0061640186474795425 -0.029367716230845567 0 0.0061903067009730032 -0.029383349106905401 0 0.0061794605022891516 -0.029343428660332217 0 0.0061815581257068063 -0.029383736687776982 0 0.0061794605022891516 -0.029343428660332217 0 0.0061640186474795425 -0.029367716230845567 0 0.0061815581257068063 -0.029383736687776982 0 0.0063831244525652201 -0.029749719419082742 0 0.0071362851717949472 -0.030121376634079714 0 0.0067311083435394135 -0.029764365645179196 0 0.0073619304233726521 -0.030928039346742174 0 0.0080904720996591989 -0.031154941317488416 0 0.0070968872978231182 -0.028971528325165172 0 0.0092038357329044477 -0.029121251472278571 0 0.0063279215086761674 -0.02967308245639743 0 0.0067311083435394135 -0.029764365645179196 0 0.0068856093327587164 -0.029656872836654843 0 0.0063645867715306894 -0.029607542638794462 0 0.0063279215086761674 -0.02967308245639743 0 0.0065104610405566556 -0.029663264937954452 0 0.006188412870267143 -0.029399170683421263 0 0.006199269788754961 -0.029408073319548995 0 0.0061815581257068063 -0.029383736687776982 0 0.006199269788754961 -0.029408073319548995 0 0.0061640186474795425 -0.029367716230845567 0 0.0061815581257068063 -0.029383736687776982 0 0.0063831244525652201 -0.029749719419082742 0 0.0063279215086761674 -0.02967308245639743 0 0.0067311083435394135 -0.029764365645179196 0 0.0067311083435394135 -0.029764365645179196 0 0.0068856093327587164 -0.029656872836654843 0 0.0069205696816421851 -0.029728438756452952 0 0.0081874004665796907 -0.030851838693304337 0 0.0082744460897899615 -0.030859587946715776 0 0.0080904720996591989 -0.031154941317488416 0 0.0085540372128998683 -0.031143891055287566 0 0.0082744460897899615 -0.030859587946715776 0 0.0085540372128998683 -0.031143891055287566 0 0.0079341492412619424 -0.031313766468469041 0 0.0079958512997829797 -0.031443523798597751 0 0.0085516928678883598 -0.031337596089004258 0 0.0080904720996591989 -0.031154941317488416 0 0.0082744460897899615 -0.030859587946715776 0 0.0092038357329044477 -0.029121251472278571 0 0.0082744460897899615 -0.030859587946715776 0 0.0093220868858353133 -0.030603514686012863 0 0.0092073212943340338 -0.030374967172081321 0 0.0094278145454644215 -0.030475349003448015 0 0.0071362851717949472 -0.030121376634079714 0 0.0067311083435394135 -0.029764365645179196 0 0.0069378639772970548 -0.029722979507847427 0 0.0092073212943340338 -0.030374967172081321 0 0.0094278145454644215 -0.030475349003448015 0 0.0093945096972117507 -0.030339948835205317 0 0.010105264731506166 -0.028960860102631221 0 0.010724601793680101 -0.030093483377874545 0 0.0094278145454644215 -0.030475349003448015 0 0.0093945096972117507 -0.030339948835205317 0 0.0097315924954892163 -0.030355096918965617 0 0.0086770140617779407 -0.031034283328230383 0 0.011126329927272508 -0.03113583652674129 0 0.011311655592365443 -0.030938155320939832 0 0.010826676092546495 -0.029817075473868818 0 0.011008993001178441 -0.028950652292724685 0 0.010690402530889136 -0.029812192146781803 0 0.0086770140617779407 -0.031034283328230383 0 0.011311655592365443 -0.030938155320939832 0 0.01189424285008955 -0.030432276897263001 0 0.0094356353730810586 -0.030660328329748604 0 0.0094278145454644215 -0.030475349003448015 0 0.0097315924954892163 -0.030355096918965617 0 0.0085540372128998683 -0.031143891055287566 0 0.010771472871907125 -0.031599084463822036 0 0.0085540372128998683 -0.031143891055287566 0 0.010724601793680101 -0.030093483377874545 0 0.010724601793680101 -0.030093483377874545 0 0.010724419291990514 -0.030096239685328711 0 0.014224508122371918 -0.025458930003595625 0 0.01396108407787966 -0.025548445346520336 0 0.013878040461063746 -0.026598649459006207 0 0.010998309504182034 -0.028426713749855954 0 0.01136632445801075 -0.03001122694664644 0 0.011421048158799298 -0.029166446224610072 0 0.010826676092546495 -0.029817075473868818 0 0.011008993001178441 -0.028950652292724685 0 0.014073114468556389 -0.025422981636148444 0 0.01396108407787966 -0.025548445346520336 0 0.013988599830921961 -0.025443154725878245 0 0.014073114468556389 -0.025422981636148444 0 0.014224508122371918 -0.025458930003595625 0 0.01396108407787966 -0.025548445346520336 0 0.011025071013863305 -0.028422910451355636 0 0.010998309504182034 -0.028426713749855954 0 0.013931818608142429 -0.025327801552638928 0 0.013970523090360096 -0.025339421840084374 0 0.013947159341936915 -0.025337232615670537 0 0.010105264731506166 -0.028960860102631221 0 0.010998309504182034 -0.028426713749855954 0 0.01456600257584899 -0.027522112529442564 0 0.013965664704906507 -0.029159650688009731 0 0.01396108407787966 -0.025548445346520336 0 0.014004334244314088 -0.025651329360494562 0 0.013991410927003537 -0.025575288499760519 0 0.013975089220515042 -0.025506405487468353 0 0.01396108407787966 -0.025548445346520336 0 0.013991410927003537 -0.025575288499760519 0 0.013975089220515042 -0.025506405487468353 0 0.013991410927003537 -0.025575288499760519 0 0.013986616743534642 -0.025515842310065723 0 0.013975089220515042 -0.025506405487468353 0 0.01396108407787966 -0.025548445346520336 0 0.013988599830921961 -0.025443154725878245 0 0.013592369929111899 -0.029966426656051204 0 0.012011115273676216 -0.030259092887901622 0 0.012987463056988027 -0.03077261012844415 0 0.01396108407787966 -0.025548445346520336 0 0.013878040461063746 -0.026598649459006207 0 0.013215566856069878 -0.026586613619281389 0 0.01112695892769211 -0.03113472580723135 0 0.011311655592365443 -0.030938155320939832 0 0.01162043438542344 -0.031156058276557461 0 0.010724601793680101 -0.030093483377874545 0 0.01136632445801075 -0.03001122694664644 0 0.01136632445801075 -0.03001122694664644 0 0.010771472871907125 -0.031599084463822036 0 0.011311655592365443 -0.030938155320939832 0 0.01162043438542344 -0.031156058276557461 0 0.01189424285008955 -0.030432276897263001 0 0.011833108341288411 -0.030724301275180464 0 0.012011115273676216 -0.030259092887901622 0 0.012987463056988027 -0.03077261012844415 0 0.01136632445801075 -0.03001122694664644 0 0.013965664704906507 -0.029159650688009731 0 0.013965664704906507 -0.029159650688009731 0 0.01514883900998586 -0.028319866673000977 0 0.014666184683633142 -0.029708033275056549 0 0.013965664704906507 -0.029159650688009731 0 0.014004334244314088 -0.025651329360494562 0 0.013983245772203282 -0.025668316232563711 0 0.013991410927003537 -0.025575288499760519 0 0.014004334244314088 -0.025651329360494562 0 0.013983245772203282 -0.025668316232563711 0 0.01396194455579248 -0.025706942481198279 0 0.016591189729776586 -0.029366046177151689 0 0.016530684137552782 -0.029436181711264033 0 0.016747840456577529 -0.029430850504918865 0 0.013983245772203282 -0.025668316232563711 0 0.01396194455579248 -0.025706942481198279 0 0.013976492271614863 -0.025739256896255249 0 0.013991355971825858 -0.025878457201006344 0 0.01396194455579248 -0.025706942481198279 0 0.013976492271614863 -0.025739256896255249 0 0.013991355971825858 -0.025878457201006344 0 0.013976492271614863 -0.025739256896255249 0 0.014007392172310689 -0.025655527887982421 0 0.013983245772203282 -0.025668316232563711 0 0.013976492271614863 -0.025739256896255249 0 0.014007392172310689 -0.025655527887982421 0 0.014007392172310689 -0.025655527887982421 0 0.013997693104805408 -0.025553133796156695 0 0.014006514470864529 -0.025460977465118349 0 0.013991355971825858 -0.025878457201006344 0 0.014007392172310689 -0.025655527887982421 0 0.014001086452924938 -0.025545270422997039 0 0.013983245772203282 -0.025668316232563711 0 0.013991410927003537 -0.025575288499760519 0 0.013997693104805408 -0.025553133796156695 0 0.013983245772203282 -0.025668316232563711 0 0.014007392172310689 -0.025655527887982421 0 0.013997693104805408 -0.025553133796156695 0 0.013991410927003537 -0.025575288499760519 0 0.013997693104805408 -0.025553133796156695 0 0.013986616743534642 -0.025515842310065723 0 0.013997693104805408 -0.025553133796156695 0 0.013986616743534642 -0.025515842310065723 0 0.013988952361829321 -0.02543766026101674 0 0.013997693104805408 -0.025553133796156695 0 0.013988952361829321 -0.02543766026101674 0 0.014006514470864529 -0.025460977465118349 0 0.013988952361829321 -0.02543766026101674 0 0.014006514470864529 -0.025460977465118349 0 0.013992262671394766 -0.025358045189363937 0 0.014007392172310689 -0.025655527887982421 0 0.014001086452924938 -0.025545270422997039 0 0.014006514470864529 -0.025460977465118349 0 0.01399448924064046 -0.025373271217233498 0 0.014006514470864529 -0.025460977465118349 0 0.014001444137484328 -0.025326336365181095 0 0.01399448924064046 -0.025373271217233498 0 0.014001086452924938 -0.025545270422997039 0 0.014006514470864529 -0.025460977465118349 0 0.014007764905584428 -0.025202835018117688 0 0.013980070470033525 -0.025307243214951675 0 0.014001444137484328 -0.025326336365181095 0 0.013980070470033525 -0.025307243214951675 0 0.014001444137484328 -0.025326336365181095 0 0.013992262671394766 -0.025358045189363937 0 0.014006514470864529 -0.025460977465118349 0 0.014001444137484328 -0.025326336365181095 0 0.013992262671394766 -0.025358045189363937 0 0.013980070470033525 -0.025307243214951675 0 0.013992262671394766 -0.025358045189363937 0 0.013973019214781576 -0.025340297131702154 0 0.013980070470033525 -0.025307243214951675 0 0.013973019214781576 -0.025340297131702154 0 0.013953217459629857 -0.025274649800929017 0 0.013988952361829321 -0.02543766026101674 0 0.013992262671394766 -0.025358045189363937 0 0.013973019214781576 -0.025340297131702154 0 0.013973019214781576 -0.025340297131702154 0 0.01397590674735621 -0.025335603575418888 0 0.013953217459629857 -0.025274649800929017 0 0.01397590674735621 -0.025335603575418888 0 0.013953217459629857 -0.025274649800929017 0 0.013951695190710774 -0.025276922854105929 0 0.013940601471554537 -0.025228409851254397 0 0.013953217459629857 -0.025274649800929017 0 0.013951695190710774 -0.025276922854105929 0 0.013940601471554537 -0.025228409851254397 0 0.013919587810133291 -0.025222060614928876 0 0.013951695190710774 -0.025276922854105929 0 0.013919587810133291 -0.025222060614928876 0 0.013951695190710774 -0.025276922854105929 0 0.013961097123314295 -0.025319099583526603 0 0.013919587810133291 -0.025222060614928876 0 0.013939820302926426 -0.025292930873525347 0 0.013961097123314295 -0.025319099583526603 0 0.01397590674735621 -0.025335603575418888 0 0.013951695190710774 -0.025276922854105929 0 0.013961097123314295 -0.025319099583526603 0 0.013961097123314295 -0.025319099583526603 0 0.013981835495892212 -0.025360423764894852 0 0.014000453739578223 -0.02537926617886559 0 0.01397590674735621 -0.025335603575418888 0 0.013961097123314295 -0.025319099583526603 0 0.014000453739578223 -0.02537926617886559 0 0.013950880598015086 -0.025331411196085632 0 0.013961097123314295 -0.025319099583526603 0 0.013981835495892212 -0.025360423764894852 0 0.013939820302926426 -0.025292930873525347 0 0.013950880598015086 -0.025331411196085632 0 0.013961097123314295 -0.025319099583526603 0 0.01393807245300773 -0.025339651258365296 0 0.013950880598015086 -0.025331411196085632 0 0.013981835495892212 -0.025360423764894852 0 0.01393807245300773 -0.025339651258365296 0 0.013947159341936915 -0.025337232615670537 0 0.013981835495892212 -0.025360423764894852 0 0.013970523090360096 -0.025339421840084374 0 0.013947159341936915 -0.025337232615670537 0 0.013981835495892212 -0.025360423764894852 0 0.014073114468556389 -0.025422981636148444 0 0.013981835495892212 -0.025360423764894852 0 0.014000453739578223 -0.02537926617886559 0 0.014073114468556389 -0.025422981636148444 0 0.014059052751640003 -0.025416010911684293 0 0.013981835495892212 -0.025360423764894852 0 0.010998309504182034 -0.028426713749855954 0 0.011182480451540175 -0.028071000357002347 0 0.014073114468556389 -0.025422981636148444 0 0.014000453739578223 -0.02537926617886559 0 0.013988599830921961 -0.025443154725878245 0 0.014000453739578223 -0.02537926617886559 0 0.013988599830921961 -0.025443154725878245 0 0.013980826845036662 -0.025422717333800759 0 0.013975089220515042 -0.025506405487468353 0 0.013988599830921961 -0.025443154725878245 0 0.013980826845036662 -0.025422717333800759 0 0.013975089220515042 -0.025506405487468353 0 0.013986616743534642 -0.025515842310065723 0 0.013980826845036662 -0.025422717333800759 0 0.013986616743534642 -0.025515842310065723 0 0.013988952361829321 -0.02543766026101674 0 0.013980826845036662 -0.025422717333800759 0 0.013988952361829321 -0.02543766026101674 0 0.013973019214781576 -0.025340297131702154 0 0.013980826845036662 -0.025422717333800759 0 0.013973019214781576 -0.025340297131702154 0 0.01397590674735621 -0.025335603575418888 0 0.013980826845036662 -0.025422717333800759 0 0.01397590674735621 -0.025335603575418888 0 0.014000453739578223 -0.02537926617886559 0 0.013980826845036662 -0.025422717333800759 0 0.036109483818530533 -0.027311114135686786 0 0.034998554165791 -0.029523433578258214 0 0.034999541787460432 -0.025481842848392815 0 0.036109483818530533 -0.027311114135686786 0 0.037438155859602758 -0.02590339782508886 0 0.036381434194546106 -0.025866414152819182 0 0.036219569492346664 -0.027662238084644193 0 0.036448532759075322 -0.026897049889069095 0 0.036109483818530533 -0.027311114135686786 0 0.037530194141609907 -0.027899996266054571 0 0.037438155859602758 -0.02590339782508886 0 0.037834848019592575 -0.026281880939828424 0 0.03751014378444182 -0.026711841836901711 0 0.037438155859602758 -0.02590339782508886 0 0.037834848019592575 -0.026281880939828424 0 0.03751014378444182 -0.026711841836901711 0 0.037980284189484237 -0.02691088830762892 0 0.036109483818530533 -0.027311114135686786 0 0.037530194141609907 -0.027899996266054571 0 0.036106211122686402 -0.029357695175220487 0 0.037530194141609907 -0.027899996266054571 0 0.03740263602474482 -0.029870655358584106 0 0.036106211122686402 -0.029357695175220487 0 0.037586952014517394 -0.027353814202578115 0 0.037862993532772178 -0.027387373858484165 0 0.037980284189484237 -0.02691088830762892 0 0.036219569492346664 -0.027662238084644193 0 0.035320010959200732 -0.029441894421601916 0 0.03751014378444182 -0.026711841836901711 0 0.037586952014517394 -0.027353814202578115 0 0.037980284189484237 -0.02691088830762892 0 0.03740263602474482 -0.029870655358584106 0 0.036232294218895726 -0.031033304239781297 0 0.037428086351479671 -0.032468673491446616 0 0.035320010959200732 -0.029441894421601916 0 0.033327760569449874 -0.033481642046187983 0 0.037586952014517394 -0.027353814202578115 0 0.037781027412212502 -0.027539191061237138 0 0.037722864057598116 -0.027693784411181203 0 0.037586952014517394 -0.027353814202578115 0 0.037781027412212502 -0.027539191061237138 0 0.037862993532772178 -0.027387373858484165 0 0.03740263602474482 -0.029870655358584106 0 0.036232294218895726 -0.031033304239781297 0 0.036106211122686402 -0.029357695175220487 0 0.036106211122686402 -0.029357695175220487 0 0.034998554165791 -0.029523433578258214 0 0.035377862029471588 -0.031357262386270936 0 0.036232294218895726 -0.031033304239781297 0 0.036106211122686402 -0.029357695175220487 0 0.035377862029471588 -0.031357262386270936 0 0.036109483818530533 -0.027311114135686786 0 0.036106211122686402 -0.029357695175220487 0 0.034998554165791 -0.029523433578258214 0 0.034998554165791 -0.029523433578258214 0 0.035377862029471588 -0.031357262386270936 0 0.034478414044940189 -0.034162615293486326 0 0.034998554165791 -0.029523433578258214 0 0.034996262004214039 -0.034999212826533274 0 0.034478414044940189 -0.034162615293486326 0 0.035377862029471588 -0.031357262386270936 0 0.034478414044940189 -0.034162615293486326 0 0.03548847628360377 -0.032548380428378883 0 0.034996262004214039 -0.034999212826533274 0 0.034478414044940189 -0.034162615293486326 0 0.030864546446339881 -0.034996643348472828 0 0.034478414044940189 -0.034162615293486326 0 0.033576200325252215 -0.034043116711464441 0 0.034600173809071176 -0.03348428229873187 0 0.034478414044940189 -0.034162615293486326 0 0.030864546446339881 -0.034996643348472828 0 0.033576200325252215 -0.034043116711464441 0 0.030853826598826146 -0.034999990078209281 0 0.031000172636018081 -0.036671890667248373 0 0.029953599994178341 -0.036204937948317029 0 0.030856425566096735 -0.034998994291607723 0 0.032127394253331609 -0.034592152422667805 0 0.033576200325252215 -0.034043116711464441 0 0.034600173809071176 -0.03348428229873187 0 0.035091070608271491 -0.033079852235405056 0 0.032127394253331609 -0.034592152422667805 0 0.033327760569449874 -0.033481642046187983 0 0.031000172636018081 -0.036671890667248373 0 0.031190074133491352 -0.038249372890048254 0 0.030474534464521277 -0.037390907354857006 0 0.031190074133491352 -0.038249372890048254 0 0.030463630484388788 -0.038254138662791141 0 0.030474534464521277 -0.037390907354857006 0 0.034478414044940189 -0.034162615293486326 0 0.034600173809071176 -0.03348428229873187 0 0.03548847628360377 -0.032548380428378883 0 0.034600173809071176 -0.03348428229873187 0 0.03548847628360377 -0.032548380428378883 0 0.035091070608271491 -0.033079852235405056 0 0.033929294521197181 -0.033412523621100462 0 0.033327760569449874 -0.033481642046187983 0 0.036232294218895726 -0.031033304239781297 0 0.03548847628360377 -0.032548380428378883 0 0.037428086351479671 -0.032468673491446616 0 0.036232294218895726 -0.031033304239781297 0 0.035377862029471588 -0.031357262386270936 0 0.03548847628360377 -0.032548380428378883 0 0.037722864057598116 -0.027693784411181203 0 0.037868301288459312 -0.027603709951947979 0 0.037913069537348437 -0.027674903304551472 0 0.033327760569449874 -0.033481642046187983 0 0.032457960294244727 -0.033957097255533399 0 0.037781027412212502 -0.027539191061237138 0 0.037722864057598116 -0.027693784411181203 0 0.037868301288459312 -0.027603709951947979 0 0.037560122796911136 -0.027616230309603768 0 0.037994553790270336 -0.027549941500480856 0 0.036810491818812831 -0.027332323979872175 0 0.032457960294244727 -0.033957097255533399 0 0.032256372960623045 -0.033411654432038931 0 0.03779196703056515 -0.027601770023158171 0 0.037560122796911136 -0.027616230309603768 0 0.037994553790270336 -0.027549941500480856 0 0.037781027412212502 -0.027539191061237138 0 0.037868301288459312 -0.027603709951947979 0 0.03779196703056515 -0.027601770023158171 0 0.037868301288459312 -0.027603709951947979 0 0.03779196703056515 -0.027601770023158171 0 0.037994553790270336 -0.027549941500480856 0 0.032476096948053541 -0.033863098265099881 0 0.032457960294244727 -0.033957097255533399 0 0.037560122796911136 -0.027616230309603768 0 0.036810491818812831 -0.027332323979872175 0 0.036921406939594982 -0.02939725714078965 0 0.028875520177756721 -0.038262107734464978 0 0.029378057345886742 -0.037169120550753033 0 0.02800739957782088 -0.037295300211440216 0 0.032457960294244727 -0.033957097255533399 0 0.030825086770838579 -0.035403451303952511 0 0.030260399996727177 -0.038243685602409025 0 0.028875520177756721 -0.038262107734464978 0 0.029378057345886742 -0.037169120550753033 0 0.030463630484388788 -0.038254138662791141 0 0.029584311068912322 -0.037220374880009746 0 0.030474534464521277 -0.037390907354857006 0 0.031000172636018081 -0.036671890667248373 0 0.030474534464521277 -0.037390907354857006 0 0.029953599994178341 -0.036204937948317029 0 0.029584311068912322 -0.037220374880009746 0 0.030474534464521277 -0.037390907354857006 0 0.029953599994178341 -0.036204937948317029 0 0.029378057345886742 -0.037169120550753033 0 0.028499888307662976 -0.036090385037083506 0 0.02800739957782088 -0.037295300211440216 0 0.030825086770838579 -0.035403451303952511 0 0.029182535845080328 -0.035424990346919635 0 0.029584311068912322 -0.037220374880009746 0 0.029953599994178341 -0.036204937948317029 0 0.028635737283531335 -0.036143434545285485 0 0.028635737283531335 -0.036143434545285485 0 0.029253084899534501 -0.034999960939160808 0 0.027652072667386805 -0.03499999426734398 0 0.029953599994178341 -0.036204937948317029 0 0.028635737283531335 -0.036143434545285485 0 0.029253084899534501 -0.034999960939160808 0 0.030853826598826146 -0.034999990078209281 0 0.029953599994178341 -0.036204937948317029 0 0.029253084899534501 -0.034999960939160808 0 0.026373212813020696 -0.035745354315837141 0 0.027651853178022084 -0.034999974021142619 0 0.027027754375287882 -0.036401307536821345 0 0.026373212813020696 -0.035745354315837141 0 0.027651853178022084 -0.034999974021142619 0 0.025821299928642297 -0.034999892720527094 0 0.028499888307662976 -0.036090385037083506 0 0.027651853178022084 -0.034999974021142619 0 0.027027754375287882 -0.036401307536821345 0 0.029182535845080328 -0.035424990346919635 0 0.027654548518417425 -0.034999925982836924 0 0.028499888307662976 -0.036090385037083506 0 0.027027754375287882 -0.036401307536821345 0 0.02800739957782088 -0.037295300211440216 0 0.026373212813020696 -0.035745354315837141 0 0.027027754375287882 -0.036401307536821345 0 0.025514214560605455 -0.036125172037059415 0 0.027027754375287882 -0.036401307536821345 0 0.026829651480466885 -0.037531169213001848 0 0.02800739957782088 -0.037295300211440216 0 0.027027754375287882 -0.036401307536821345 0 0.026829651480466885 -0.037531169213001848 0 0.02581843311975358 -0.037210095235346699 0 0.028875520177756721 -0.038262107734464978 0 0.02800739957782088 -0.037295300211440216 0 0.027480524619524341 -0.038276369096496503 0 0.026829651480466885 -0.037531169213001848 0 0.02800739957782088 -0.037295300211440216 0 0.027480524619524341 -0.038276369096496503 0 0.036810491818812831 -0.027332323979872175 0 0.03474178381173134 -0.027319491560119969 0 0.035727875522215659 -0.028344402826389451 0 0.032256372960623045 -0.033411654432038931 0 0.031140208864453796 -0.033098031144401741 0 0.03474178381173134 -0.027319491560119969 0 0.034661525167032324 -0.028106361788304876 0 0.035727875522215659 -0.028344402826389451 0 0.03474178381173134 -0.027319491560119969 0 0.034661525167032324 -0.028106361788304876 0 0.03340234817822841 -0.027455391500377162 0 0.031140208864453796 -0.033098031144401741 0 0.030003229290515143 -0.032897879900535602 0 0.03474178381173134 -0.027319491560119969 0 0.03340234817822841 -0.027455391500377162 0 0.033020285160586756 -0.027422305589416121 0 0.034661525167032324 -0.028106361788304876 0 0.03340234817822841 -0.027455391500377162 0 0.034839493654021961 -0.029307323548168701 0 0.026829651480466885 -0.037531169213001848 0 0.027480524619524341 -0.038276369096496503 0 0.026085563149246562 -0.038276949772880119 0 0.03340234817822841 -0.027455391500377162 0 0.033267654025416683 -0.028024991572086877 0 0.03339017303637571 -0.028029040043656382 0 0.03428624695637187 -0.027473814002141064 0 0.034700495606076368 -0.027600624377067094 0 0.033267654025416683 -0.028024991572086877 0 0.03331368780563438 -0.028016378458388846 0 0.033325746441743728 -0.027996249471711369 0 0.031122644220355444 -0.029770710400468903 0 0.031490092988193781 -0.029056038630162831 0 0.033267654025416683 -0.028024991572086877 0 0.03331368780563438 -0.028016378458388846 0 0.03339017303637571 -0.028029040043656382 0 0.033361238941945905 -0.029029298878301781 0 0.033325746441743728 -0.027996249471711369 0 0.033522829283757438 -0.02798875970402296 0 0.03331368780563438 -0.028016378458388846 0 0.033270912387048185 -0.027988850530569549 0 0.033298173293668888 -0.027986686846484154 0 0.03331368780563438 -0.028016378458388846 0 0.033325746441743728 -0.027996249471711369 0 0.033298173293668888 -0.027986686846484154 0 0.033270912387048185 -0.027988850530569549 0 0.03339017303637571 -0.028029040043656382 0 0.033103632536413539 -0.027957880324730251 0 0.034700495606076368 -0.027600624377067094 0 0.034746424303648701 -0.025905100398098967 0 0.03331368780563438 -0.028016378458388846 0 0.033270912387048185 -0.027988850530569549 0 0.03339017303637571 -0.028029040043656382 0 0.034839493654021961 -0.029307323548168701 0 0.035727875522215659 -0.028344402826389451 0 0.036921406939594982 -0.02939725714078965 0 0.034661525167032324 -0.028106361788304876 0 0.034839493654021961 -0.029307323548168701 0 0.035727875522215659 -0.028344402826389451 0 0.036810491818812831 -0.027332323979872175 0 0.035727875522215659 -0.028344402826389451 0 0.036921406939594982 -0.02939725714078965 0 0.036061975674240306 -0.027227161350198429 0 0.035695700942478571 -0.027160643377866944 0 0.03779196703056515 -0.027601770023158171 0 0.037560122796911136 -0.027616230309603768 0 0.038210661877091316 -0.027388459869688971 0 0.03779196703056515 -0.027601770023158171 0 0.038210661877091316 -0.027388459869688971 0 0.037862993532772178 -0.027387373858484165 0 0.037781027412212502 -0.027539191061237138 0 0.03779196703056515 -0.027601770023158171 0 0.037862993532772178 -0.027387373858484165 0 0.038210661877091316 -0.027388459869688971 0 0.037862993532772178 -0.027387373858484165 0 0.037980284189484237 -0.02691088830762892 0 0.034839493654021961 -0.029307323548168701 0 0.036921406939594982 -0.02939725714078965 0 0.03622772569659502 -0.031171313548631618 0 0.038210661877091316 -0.027388459869688971 0 0.038553198596890215 -0.02684518366950896 0 0.037980284189484237 -0.02691088830762892 0 0.035695700942478571 -0.027160643377866944 0 0.034746424303648701 -0.025905100398098967 0 0.034746424303648701 -0.025905100398098967 0 0.035113328718920256 -0.023162920522929023 0 0.038553198596890215 -0.02684518366950896 0 0.037980284189484237 -0.02691088830762892 0 0.038326581792678824 -0.026159256931989578 0 0.037834848019592575 -0.026281880939828424 0 0.037980284189484237 -0.02691088830762892 0 0.038326581792678824 -0.026159256931989578 0 0.032960042647296628 -0.017579603143406931 0 0.033552809610119035 -0.018287220178558543 0 0.032611230163830995 -0.018350548029737526 0 0.03310168029286982 -0.027592450128162894 0 0.033225252653015257 -0.027786395662843744 0 0.033366425240407935 -0.02757025657586162 0 0.033103632536413539 -0.027957880324730251 0 0.03310168029286982 -0.027592450128162894 0 0.033225252653015257 -0.027786395662843744 0 0.034746424303648701 -0.025905100398098967 0 0.032899269816988402 -0.023634082744350447 0 0.033366425240407935 -0.02757025657586162 0 0.033326856945113538 -0.027856062755669552 0 0.033522829283757438 -0.02798875970402296 0 0.033225252653015257 -0.027786395662843744 0 0.033366425240407935 -0.02757025657586162 0 0.033326856945113538 -0.027856062755669552 0 0.029753758780700568 -0.027911109942181767 0 0.02926946955370956 -0.029942555199645463 0 0.02344117393771222 -0.030669507918576346 0 0.023756521967019099 -0.032332037372943725 0 0.024101666187683935 -0.031612882656902076 0 0.033326856945113538 -0.027856062755669552 0 0.033325746441743728 -0.027996249471711369 0 0.033269142220775559 -0.027927394121562019 0 0.033225252653015257 -0.027786395662843744 0 0.033326856945113538 -0.027856062755669552 0 0.033269142220775559 -0.027927394121562019 0 0.033326856945113538 -0.027856062755669552 0 0.033325746441743728 -0.027996249471711369 0 0.033522829283757438 -0.02798875970402296 0 0.033325746441743728 -0.027996249471711369 0 0.033298173293668888 -0.027986686846484154 0 0.033269142220775559 -0.027927394121562019 0 0.033270912387048185 -0.027988850530569549 0 0.033298173293668888 -0.027986686846484154 0 0.033269142220775559 -0.027927394121562019 0 0.033103632536413539 -0.027957880324730251 0 0.033225252653015257 -0.027786395662843744 0 0.033269142220775559 -0.027927394121562019 0 0.033270912387048185 -0.027988850530569549 0 0.033103632536413539 -0.027957880324730251 0 0.033269142220775559 -0.027927394121562019 0 0.024962890220746003 -0.031838298176524622 0 0.025474662412688191 -0.032375529676254247 0 0.025901016867323125 -0.032689130133118388 0 0.025279207167209522 -0.031599006793591643 0 0.026002553295507842 -0.031672848904239194 0 0.026266246482373436 -0.032437327715986349 0 0.022963763478681162 -0.033316709869071578 0 0.021383752710848417 -0.033801416463004462 0 0.024962890220746003 -0.031838298176524622 0 0.024812670290733873 -0.032280379385662639 0 0.02445693631528234 -0.031845231921870637 0 0.024962890220746003 -0.031838298176524622 0 0.025474662412688191 -0.032375529676254247 0 0.024812670290733873 -0.032280379385662639 0 0.025279207167209522 -0.031599006793591643 0 0.026002553295507842 -0.031672848904239194 0 0.025731772456917056 -0.031117663042757388 0 0.025474662412688191 -0.032375529676254247 0 0.024990175726518335 -0.032658600898310762 0 0.025291463157923858 -0.03291287133290801 0 0.025474662412688191 -0.032375529676254247 0 0.025683341462075935 -0.032854996636434444 0 0.025291463157923858 -0.03291287133290801 0 0.025474662412688191 -0.032375529676254247 0 0.024990175726518335 -0.032658600898310762 0 0.024812670290733873 -0.032280379385662639 0 0.024990175726518335 -0.032658600898310762 0 0.024812670290733873 -0.032280379385662639 0 0.024606039308492179 -0.032676173350150085 0 0.024606039308492179 -0.032676173350150085 0 0.024247305734424473 -0.032666989157862605 0 0.024400451763624102 -0.032307874284808899 0 0.024247305734424473 -0.032666989157862605 0 0.024400451763624102 -0.032307874284808899 0 0.024171242486808332 -0.032128219793546596 0 0.024812670290733873 -0.032280379385662639 0 0.024606039308492179 -0.032676173350150085 0 0.024400451763624102 -0.032307874284808899 0 0.024247305734424473 -0.032666989157862605 0 0.023756521967019099 -0.032332037372943725 0 0.024171242486808332 -0.032128219793546596 0 0.023756521967019099 -0.032332037372943725 0 0.024171242486808332 -0.032128219793546596 0 0.024101666187683935 -0.031612882656902076 0 0.024171242486808332 -0.032128219793546596 0 0.02445693631528234 -0.031845231921870637 0 0.024101666187683935 -0.031612882656902076 0 0.024812670290733873 -0.032280379385662639 0 0.024400451763624102 -0.032307874284808899 0 0.02445693631528234 -0.031845231921870637 0 0.024400451763624102 -0.032307874284808899 0 0.024171242486808332 -0.032128219793546596 0 0.02445693631528234 -0.031845231921870637 0 0.024962890220746003 -0.031838298176524622 0 0.02445693631528234 -0.031845231921870637 0 0.024180549806436708 -0.030827274504309176 0 0.024180549806436708 -0.030827274504309176 0 0.025296297248033735 -0.030657071005173418 0 0.024689291625986324 -0.03011682640988567 0 0.025279207167209522 -0.031599006793591643 0 0.024180549806436708 -0.030827274504309176 0 0.025296297248033735 -0.030657071005173418 0 0.022963763478681162 -0.033316709869071578 0 0.023108822696029995 -0.03289995025284307 0 0.02445693631528234 -0.031845231921870637 0 0.024101666187683935 -0.031612882656902076 0 0.024180549806436708 -0.030827274504309176 0 0.02344117393771222 -0.030669507918576346 0 0.024101666187683935 -0.031612882656902076 0 0.024180549806436708 -0.030827274504309176 0 0.025296297248033735 -0.030657071005173418 0 0.025731772456917056 -0.031117663042757388 0 0.026329493801399532 -0.030674447451333371 0 0.025279207167209522 -0.031599006793591643 0 0.025296297248033735 -0.030657071005173418 0 0.025731772456917056 -0.031117663042757388 0 0.011197637207548213 -0.029758312540769164 0 0.012001432664015706 -0.029751936657179758 0 0.012248863645706922 -0.030958238721823118 0 0.026002553295507842 -0.031672848904239194 0 0.025731772456917056 -0.031117663042757388 0 0.026329493801399532 -0.030674447451333371 0 0.017756265001626255 -0.032968407056023899 0 0.017205277838896842 -0.032366092427895218 0 0.012001432664015706 -0.029751936657179758 0 0.012248863645706922 -0.030958238721823118 0 0.012876598313950246 -0.029442098092261601 0 0.013295097182802371 -0.030530058120813656 0 0.012355068266036225 -0.03102928591630557 0 0.012876598313950246 -0.029442098092261601 0 0.013295097182802371 -0.030530058120813656 0 0.012876598313950246 -0.029442098092261601 0 0.013523059420455166 -0.029408837214327126 0 0.012355068266036225 -0.03102928591630557 0 0.012989488567695114 -0.032112791957149979 0 0.011759268376288195 -0.032584965286840163 0 0.013295097182802371 -0.030530058120813656 0 0.013685794538167697 -0.03162288221795808 0 0.012355068266036225 -0.03102928591630557 0 0.013685794538167697 -0.03162288221795808 0 0.012355068266036225 -0.03102928591630557 0 0.012989488567695114 -0.032112791957149979 0 0.013685794538167697 -0.03162288221795808 0 0.012989488567695114 -0.032112791957149979 0 0.013703872521360974 -0.032492588821285813 0 0.020153663075436073 -0.030383981002945103 0 0.020670499069519687 -0.033712997888791417 0 0.017756265001626255 -0.032968407056023899 0 0.020122583540410816 -0.033881754453248529 0 0.012248863645706922 -0.030958238721823118 0 0.011459668880799608 -0.032453274206868672 0 0.011629625393792959 -0.03259002997696557 0 0.011197637207548213 -0.029758312540769164 0 0.012248863645706922 -0.030958238721823118 0 0.011459668880799608 -0.032453274206868672 0 0.026002553295507842 -0.031672848904239194 0 0.026329493801399532 -0.030674447451333371 0 0.026408096324144273 -0.032561822067913797 0 0.026002553295507842 -0.031672848904239194 0 0.026266246482373436 -0.032437327715986349 0 0.026408096324144273 -0.032561822067913797 0 0.021711454604013337 -0.033893124848000784 0 0.021383752710848417 -0.033801416463004462 0 0.025474662412688191 -0.032375529676254247 0 0.025991702736509095 -0.032698799490845157 0 0.025683341462075935 -0.032854996636434444 0 0.025683341462075935 -0.032854996636434444 0 0.025849683732615435 -0.033082390370101578 0 0.025977549248397406 -0.032915683863109016 0 0.025991702736509095 -0.032698799490845157 0 0.025683341462075935 -0.032854996636434444 0 0.025977549248397406 -0.032915683863109016 0 0.025683341462075935 -0.032854996636434444 0 0.025849683732615435 -0.033082390370101578 0 0.025531282908300246 -0.03325939292892334 0 0.025849683732615435 -0.033082390370101578 0 0.026206187952036213 -0.033182116788390233 0 0.02583245284054167 -0.033308993470319105 0 0.025849683732615435 -0.033082390370101578 0 0.02583245284054167 -0.033308993470319105 0 0.025531282908300246 -0.03325939292892334 0 0.025849683732615435 -0.033082390370101578 0 0.026206187952036213 -0.033182116788390233 0 0.025977549248397406 -0.032915683863109016 0 0.02071392418731163 -0.034379188211467994 0 0.020670499069519687 -0.033712997888791417 0 0.026206187952036213 -0.033182116788390233 0 0.025977549248397406 -0.032915683863109016 0 0.026160945296898573 -0.03283070753232243 0 0.02172659370430154 -0.033954291373869266 0 0.02167284621662037 -0.033174291040008644 0 0.021957280004828664 -0.033408021921205261 0 0.020670499069519687 -0.033712997888791417 0 0.020122583540410816 -0.033881754453248529 0 0.025991702736509095 -0.032698799490845157 0 0.025977549248397406 -0.032915683863109016 0 0.026160945296898573 -0.03283070753232243 0 0.021383752710848417 -0.033801416463004462 0 0.020670499069519687 -0.033712997888791417 0 0.02071392418731163 -0.034379188211467994 0 0.020122583540410816 -0.033881754453248529 0 0.020122583540410816 -0.033881754453248529 0 0.020145048854070566 -0.035569417639393718 0 0.023361638293733184 -0.042089940149112715 0 0.023085979718647273 -0.041247756425390039 0 0.022346357114407842 -0.041302843753416217 0 0.023469045427828739 -0.041837546927684356 0 0.023361638293733184 -0.042089940149112715 0 0.023085979718647273 -0.041247756425390039 0 0.026206187952036213 -0.033182116788390233 0 0.025699943101772781 -0.033736191290845249 0 0.02583245284054167 -0.033308993470319105 0 0.025699943101772781 -0.033736191290845249 0 0.02583245284054167 -0.033308993470319105 0 0.025531282908300246 -0.03325939292892334 0 0.011759268376288195 -0.032584965286840163 0 0.013305747301450005 -0.033421111837991298 0 0.013471173541191135 -0.033638241080846704 0 0.011759268376288195 -0.032584965286840163 0 0.013116849699860858 -0.032753542295628907 0 0.013305747301450005 -0.033421111837991298 0 0.020122583540410816 -0.033881754453248529 0 0.017661051798724892 -0.034338263826519867 0 0.019410221259990208 -0.034767788392537892 0 0.019179090425600082 -0.034651263041774204 0 0.0190793300709385 -0.034647280157556463 0 0.013116849699860858 -0.032753542295628907 0 0.013703872521360974 -0.032492588821285813 0 0.013818698291861284 -0.03319918818050397 0 0.012989488567695114 -0.032112791957149979 0 0.013116849699860858 -0.032753542295628907 0 0.013703872521360974 -0.032492588821285813 0 0.012989488567695114 -0.032112791957149979 0 0.011759268376288195 -0.032584965286840163 0 0.013116849699860858 -0.032753542295628907 0 0.013116849699860858 -0.032753542295628907 0 0.013305747301450005 -0.033421111837991298 0 0.013818698291861284 -0.03319918818050397 0 0.01762195826722179 -0.034305007160513872 0 0.017661051798724892 -0.034338263826519867 0 0.013305747301450005 -0.033421111837991298 0 0.013476846935512937 -0.033635031835725408 0 0.013818698291861284 -0.03319918818050397 0 0.022346357114407842 -0.041302843753416217 0 0.022263497488642231 -0.039947814893061429 0 0.021226544339856147 -0.040497286370305925 0 0.022346357114407842 -0.041302843753416217 0 0.022783167178505755 -0.040598213781242398 0 0.022263497488642231 -0.039947814893061429 0 0.019179090425600082 -0.034651263041774204 0 0.0190793300709385 -0.034647280157556463 0 0.018949112814192273 -0.034533778968604892 0 0.020145048854070566 -0.035569417639393718 0 0.01863359835836717 -0.035523827801904072 0 0.023085979718647273 -0.041247756425390039 0 0.022346357114407842 -0.041302843753416217 0 0.022783167178505755 -0.040598213781242398 0 0.022783167178505755 -0.040598213781242398 0 0.023429896729804649 -0.04002534704455419 0 0.022263497488642231 -0.039947814893061429 0 0.022263497488642231 -0.039947814893061429 0 0.021579165442834988 -0.039775915163719734 0 0.021226544339856147 -0.040497286370305925 0 0.02071392418731163 -0.034379188211467994 0 0.022184358318652668 -0.03720407547333314 0 0.023085979718647273 -0.041247756425390039 0 0.022783167178505755 -0.040598213781242398 0 0.023429896729804649 -0.04002534704455419 0 0.026206187952036213 -0.033182116788390233 0 0.025699943101772781 -0.033736191290845249 0 0.025490935937681137 -0.034828025107419676 0 0.023469045427828739 -0.041837546927684356 0 0.023085979718647273 -0.041247756425390039 0 0.023429896729804649 -0.04002534704455419 0 0.02071392418731163 -0.034379188211467994 0 0.022328085161396932 -0.034753965047157651 0 0.023874387643989265 -0.036984567748921428 0 0.023882623609019379 -0.036602697381556505 0 0.024066622298869172 -0.036666376200573364 0 0.025490935937681137 -0.034828025107419676 0 0.024955146166807187 -0.034510768687501595 0 0.025242592222145512 -0.034173337412142825 0 0.025490935937681137 -0.034828025107419676 0 0.02455818336820019 -0.034890244180016031 0 0.024486497013708329 -0.035322496348622431 0 0.02455818336820019 -0.034890244180016031 0 0.024955146166807187 -0.034510768687501595 0 0.024559466959066301 -0.034291915611844838 0 0.025490935937681137 -0.034828025107419676 0 0.02455818336820019 -0.034890244180016031 0 0.024955146166807187 -0.034510768687501595 0 0.024955146166807187 -0.034510768687501595 0 0.024841483118000884 -0.03408880634648892 0 0.025242592222145512 -0.034173337412142825 0 0.024955146166807187 -0.034510768687501595 0 0.024559466959066301 -0.034291915611844838 0 0.024841483118000884 -0.03408880634648892 0 0.024559466959066301 -0.034291915611844838 0 0.024841483118000884 -0.03408880634648892 0 0.024474353408277586 -0.03386443214200819 0 0.025699943101772781 -0.033736191290845249 0 0.025490935937681137 -0.034828025107419676 0 0.025242592222145512 -0.034173337412142825 0 0.024841483118000884 -0.03408880634648892 0 0.025242592222145512 -0.034173337412142825 0 0.025240234274540755 -0.033721142881688398 0 0.025699943101772781 -0.033736191290845249 0 0.025242592222145512 -0.034173337412142825 0 0.025240234274540755 -0.033721142881688398 0 0.025699943101772781 -0.033736191290845249 0 0.025240234274540755 -0.033721142881688398 0 0.025531282908300246 -0.03325939292892334 0 0.025240234274540755 -0.033721142881688398 0 0.025531282908300246 -0.03325939292892334 0 0.025185022126129546 -0.033286749614744593 0 0.024841483118000884 -0.03408880634648892 0 0.025240234274540755 -0.033721142881688398 0 0.024750050612723982 -0.033542663771667459 0 0.024841483118000884 -0.03408880634648892 0 0.024750050612723982 -0.033542663771667459 0 0.024474353408277586 -0.03386443214200819 0 0.025240234274540755 -0.033721142881688398 0 0.024750050612723982 -0.033542663771667459 0 0.025185022126129546 -0.033286749614744593 0 0.024750050612723982 -0.033542663771667459 0 0.024886786285696388 -0.033082696543025709 0 0.025185022126129546 -0.033286749614744593 0 0.024886786285696388 -0.033082696543025709 0 0.025291463157923858 -0.03291287133290801 0 0.025185022126129546 -0.033286749614744593 0 0.024750050612723982 -0.033542663771667459 0 0.024886786285696388 -0.033082696543025709 0 0.024473957301848148 -0.033095026173285781 0 0.024606039308492179 -0.032676173350150085 0 0.024886786285696388 -0.033082696543025709 0 0.024473957301848148 -0.033095026173285781 0 0.024990175726518335 -0.032658600898310762 0 0.024606039308492179 -0.032676173350150085 0 0.024886786285696388 -0.033082696543025709 0 0.024990175726518335 -0.032658600898310762 0 0.024886786285696388 -0.033082696543025709 0 0.025291463157923858 -0.03291287133290801 0 0.025683341462075935 -0.032854996636434444 0 0.025291463157923858 -0.03291287133290801 0 0.025531282908300246 -0.03325939292892334 0 0.025291463157923858 -0.03291287133290801 0 0.025531282908300246 -0.03325939292892334 0 0.025185022126129546 -0.033286749614744593 0 0.033361238941945905 -0.029029298878301781 0 0.033522829283757438 -0.02798875970402296 0 0.033775729444921035 -0.029029157878611146 0 0.02926946955370956 -0.029942555199645463 0 0.029028958752674527 -0.03149885809616839 0 0.023756521967019099 -0.032332037372943725 0 0.024276756777189611 -0.033265854718556302 0 0.024023562531723951 -0.034068222689227365 0 0.024247305734424473 -0.032666989157862605 0 0.023756521967019099 -0.032332037372943725 0 0.024276756777189611 -0.033265854718556302 0 0.024247305734424473 -0.032666989157862605 0 0.024473957301848148 -0.033095026173285781 0 0.024276756777189611 -0.033265854718556302 0 0.024606039308492179 -0.032676173350150085 0 0.024247305734424473 -0.032666989157862605 0 0.024473957301848148 -0.033095026173285781 0 0.024750050612723982 -0.033542663771667459 0 0.024276756777189611 -0.033265854718556302 0 0.024474353408277586 -0.03386443214200819 0 0.024276756777189611 -0.033265854718556302 0 0.024023562531723951 -0.034068222689227365 0 0.024474353408277586 -0.03386443214200819 0 0.024750050612723982 -0.033542663771667459 0 0.024473957301848148 -0.033095026173285781 0 0.024276756777189611 -0.033265854718556302 0 0.031122644220355444 -0.029770710400468903 0 0.030003229290515143 -0.032897879900535602 0 0.033361238941945905 -0.029029298878301781 0 0.033775729444921035 -0.029029157878611146 0 0.03353514540329839 -0.030142964320839665 0 0.029028958752674527 -0.03149885809616839 0 0.028783660060766474 -0.032797575859883493 0 0.02455818336820019 -0.034890244180016031 0 0.024023562531723951 -0.034068222689227365 0 0.024486497013708329 -0.035322496348622431 0 0.02455818336820019 -0.034890244180016031 0 0.024559466959066301 -0.034291915611844838 0 0.024023562531723951 -0.034068222689227365 0 0.024559466959066301 -0.034291915611844838 0 0.024023562531723951 -0.034068222689227365 0 0.024474353408277586 -0.03386443214200819 0 0.033775729444921035 -0.029029157878611146 0 0.03353514540329839 -0.030142964320839665 0 0.034094430860818689 -0.03014990700004154 0 0.03340234817822841 -0.027455391500377162 0 0.033267654025416683 -0.028024991572086877 0 0.033020285160586756 -0.027422305589416121 0 0.024023562531723951 -0.034068222689227365 0 0.024486497013708329 -0.035322496348622431 0 0.024313615189776747 -0.035901795416857445 0 0.030003229290515143 -0.032897879900535602 0 0.028783660060766474 -0.032797575859883493 0 0.025901607804563236 -0.037982012304130564 0 0.025228047181187312 -0.037987737911507294 0 0.025558891282562328 -0.037592553372475863 0 0.024066622298869172 -0.036666376200573364 0 0.024342443679179326 -0.036152877447846406 0 0.024024799019375234 -0.036373255243706354 0 0.022328085161396932 -0.034753965047157651 0 0.022715699241054856 -0.035011784661892753 0 0.025490935937681137 -0.034828025107419676 0 0.024429837110776845 -0.035898984337115976 0 0.024342443679179326 -0.036152877447846406 0 0.025490935937681137 -0.034828025107419676 0 0.024486497013708329 -0.035322496348622431 0 0.024429837110776845 -0.035898984337115976 0 0.024486497013708329 -0.035322496348622431 0 0.024429837110776845 -0.035898984337115976 0 0.024313615189776747 -0.035901795416857445 0 0.028756775713238703 -0.032802931569820733 0 0.028783660060766474 -0.032797575859883493 0 0.024429837110776845 -0.035898984337115976 0 0.024388659667825476 -0.036052993309744992 0 0.024342443679179326 -0.036152877447846406 0 0.024388659667825476 -0.036052993309744992 0 0.024342443679179326 -0.036152877447846406 0 0.024199208042766672 -0.036155358384905016 0 0.028783660060766474 -0.032797575859883493 0 0.027164767286100063 -0.034847726584160896 0 0.025228047181187312 -0.037987737911507294 0 0.025558891282562328 -0.037592553372475863 0 0.024731982932776793 -0.036774710027663082 0 0.024102521061851956 -0.036206232448645591 0 0.024342443679179326 -0.036152877447846406 0 0.024199208042766672 -0.036155358384905016 0 0.024102521061851956 -0.036206232448645591 0 0.024342443679179326 -0.036152877447846406 0 0.024024799019375234 -0.036373255243706354 0 0.025699596938112638 -0.03709122215663007 0 0.025558891282562328 -0.037592553372475863 0 0.024731982932776793 -0.036774710027663082 0 0.026829651480466885 -0.037531169213001848 0 0.026085563149246562 -0.038276949772880119 0 0.02581843311975358 -0.037210095235346699 0 0.030003229290515143 -0.032897879900535602 0 0.029087337552325253 -0.03497295707937683 0 0.025901607804563236 -0.037982012304130564 0 0.025699596938112638 -0.03709122215663007 0 0.025558891282562328 -0.037592553372475863 0 0.027027754375287882 -0.036401307536821345 0 0.02581843311975358 -0.037210095235346699 0 0.025514214560605455 -0.036125172037059415 0 0.025699596938112638 -0.03709122215663007 0 0.025514214560605455 -0.036125172037059415 0 0.024731982932776793 -0.036774710027663082 0 0.029087337552325253 -0.03497295707937683 0 0.028738061216489676 -0.035304581265767701 0 0.027164767286100063 -0.034847726584160896 0 0.026532827560782121 -0.034934367599119935 0 0.024731982932776793 -0.036774710027663082 0 0.024786929612677068 -0.03593255320695244 0 0.024048615610116557 -0.035320317835673354 0 0.025514214560605455 -0.036125172037059415 0 0.024731982932776793 -0.036774710027663082 0 0.024786929612677068 -0.03593255320695244 0 0.025514214560605455 -0.036125172037059415 0 0.024827499456069033 -0.035501207052646748 0 0.024786929612677068 -0.03593255320695244 0 0.024827499456069033 -0.035501207052646748 0 0.025821299928642297 -0.034999892720527094 0 0.023990415378497446 -0.035000045199934895 0 0.024827499456069033 -0.035501207052646748 0 0.024786929612677068 -0.03593255320695244 0 0.024048615610116557 -0.035320317835673354 0 0.024827499456069033 -0.035501207052646748 0 0.024048615610116557 -0.035320317835673354 0 0.023990415378497446 -0.035000045199934895 0 0.026373212813020696 -0.035745354315837141 0 0.025514214560605455 -0.036125172037059415 0 0.025821299928642297 -0.034999892720527094 0 0.025514214560605455 -0.036125172037059415 0 0.024827499456069033 -0.035501207052646748 0 0.025821299928642297 -0.034999892720527094 0 0.022315576533493118 -0.035815300247945429 0 0.022159463915619591 -0.034999585142543962 0 0.023371896836346065 -0.035845117484498576 0 0.022315576533493118 -0.035815300247945429 0 0.022159463915619591 -0.034999585142543962 0 0.021468281497275733 -0.035719069344431267 0 0.022159463915619591 -0.034999585142543962 0 0.023990415378497446 -0.035000045199934895 0 0.023371896836346065 -0.035845117484498576 0 0.024048615610116557 -0.035320317835673354 0 0.023990415378497446 -0.035000045199934895 0 0.023371896836346065 -0.035845117484498576 0 0.022861388439107795 -0.036509229191992662 0 0.022740579377471544 -0.036969809444975341 0 0.024199208042766672 -0.036155358384905016 0 0.024048615610116557 -0.035320317835673354 0 0.023371896836346065 -0.035845117484498576 0 0.024199208042766672 -0.036155358384905016 0 0.023371896836346065 -0.035845117484498576 0 0.02381849045157924 -0.036232541483543594 0 0.023371896836346065 -0.035845117484498576 0 0.022274616562039756 -0.036937681287622391 0 0.0234225272175685 -0.03797669765589002 0 0.022315576533493118 -0.035815300247945429 0 0.023371896836346065 -0.035845117484498576 0 0.022274616562039756 -0.036937681287622391 0 0.022315576533493118 -0.035815300247945429 0 0.022274616562039756 -0.036937681287622391 0 0.021468281497275733 -0.035719069344431267 0 0.022274616562039756 -0.036937681287622391 0 0.02168694814300208 -0.037818493199007812 0 0.0234225272175685 -0.03797669765589002 0 0.02168694814300208 -0.037818493199007812 0 0.0234225272175685 -0.03797669765589002 0 0.021844965727981572 -0.038839241475544094 0 0.024102521061851956 -0.036206232448645591 0 0.024199208042766672 -0.036155358384905016 0 0.02381849045157924 -0.036232541483543594 0 0.024102521061851956 -0.036206232448645591 0 0.02381849045157924 -0.036232541483543594 0 0.024024799019375234 -0.036373255243706354 0 0.022184358318652668 -0.03720407547333314 0 0.022740579377471544 -0.036969809444975341 0 0.023882623609019379 -0.036602697381556505 0 0.02381849045157924 -0.036232541483543594 0 0.024024799019375234 -0.036373255243706354 0 0.023429896729804649 -0.04002534704455419 0 0.0234225272175685 -0.03797669765589002 0 0.022263497488642231 -0.039947814893061429 0 0.023882623609019379 -0.036602697381556505 0 0.024066622298869172 -0.036666376200573364 0 0.024024799019375234 -0.036373255243706354 0 0.0234225272175685 -0.03797669765589002 0 0.021844965727981572 -0.038839241475544094 0 0.022263497488642231 -0.039947814893061429 0 0.021844965727981572 -0.038839241475544094 0 0.022263497488642231 -0.039947814893061429 0 0.021579165442834988 -0.039775915163719734 0 0.01790440556131177 -0.035144001698186905 0 0.01863359835836717 -0.035523827801904072 0 0.018511240162789211 -0.03631510540723408 0 0.01863359835836717 -0.035523827801904072 0 0.02101652232967538 -0.039506866520614838 0 0.020001917673288756 -0.039199509707295313 0 0.021226544339856147 -0.040497286370305925 0 0.021579165442834988 -0.039775915163719734 0 0.02101652232967538 -0.039506866520614838 0 0.021226544339856147 -0.040497286370305925 0 0.016643845793480667 -0.035295713374457888 0 0.016615493036198411 -0.035314554765200783 0 0.01663435414464743 -0.035258544233466221 0 0.021844965727981572 -0.038839241475544094 0 0.021579165442834988 -0.039775915163719734 0 0.02101652232967538 -0.039506866520614838 0 0.02101652232967538 -0.039506866520614838 0 0.020552121756646228 -0.038993419704839313 0 0.020864949607890419 -0.038515430628416773 0 0.02101652232967538 -0.039506866520614838 0 0.020552121756646228 -0.038993419704839313 0 0.020001917673288756 -0.039199509707295313 0 0.020327733223916504 -0.038740572803539625 0 0.020552121756646228 -0.038993419704839313 0 0.020001917673288756 -0.039199509707295313 0 0.020327733223916504 -0.038740572803539625 0 0.020552121756646228 -0.038993419704839313 0 0.020864949607890419 -0.038515430628416773 0 0.021844965727981572 -0.038839241475544094 0 0.02101652232967538 -0.039506866520614838 0 0.020864949607890419 -0.038515430628416773 0 0.01667999731386665 -0.034540840952727324 0 0.016673134356730682 -0.034359133949551028 0 0.016643845793480667 -0.035295713374457888 0 0.016725029114587044 -0.035252841278901291 0 0.016640076679719423 -0.0352706870112037 0 0.016725029114587044 -0.035252841278901291 0 0.016099691103686795 -0.034484680647770272 0 0.015225005138241746 -0.034640477098401935 0 0.016615493036198411 -0.035314554765200783 0 0.016664352132322823 -0.035334513544556134 0 0.016696050951443983 -0.035400518950309559 0 0.016643845793480667 -0.035295713374457888 0 0.016615493036198411 -0.035314554765200783 0 0.016664352132322823 -0.035334513544556134 0 0.016643845793480667 -0.035295713374457888 0 0.016664352132322823 -0.035334513544556134 0 0.016725029114587044 -0.035252841278901291 0 0.016664352132322823 -0.035334513544556134 0 0.016696050951443983 -0.035400518950309559 0 0.016725029114587044 -0.035252841278901291 0 0.016615493036198411 -0.035314554765200783 0 0.016696050951443983 -0.035400518950309559 0 0.016775378863662579 -0.035537791093341584 0 0.020001917673288756 -0.039199509707295313 0 0.019816951221663749 -0.03813866880800347 0 0.01841060971940291 -0.037632230120433527 0 0.018511240162789211 -0.03631510540723408 0 0.018000362651602 -0.036125027769814348 0 0.020327733223916504 -0.038740572803539625 0 0.020001917673288756 -0.039199509707295313 0 0.019816951221663749 -0.03813866880800347 0 0.019816951221663749 -0.03813866880800347 0 0.019714822687123854 -0.037265391008152432 0 0.01841060971940291 -0.037632230120433527 0 0.02168694814300208 -0.037818493199007812 0 0.021844965727981572 -0.038839241475544094 0 0.020864949607890419 -0.038515430628416773 0 0.020327733223916504 -0.038740572803539625 0 0.019816951221663749 -0.03813866880800347 0 0.020864949607890419 -0.038515430628416773 0 0.019816951221663749 -0.03813866880800347 0 0.020864949607890419 -0.038515430628416773 0 0.020779976072508137 -0.037473640926154246 0 0.019816951221663749 -0.03813866880800347 0 0.019714822687123854 -0.037265391008152432 0 0.020779976072508137 -0.037473640926154246 0 0.022274616562039756 -0.036937681287622391 0 0.02168694814300208 -0.037818493199007812 0 0.020779976072508137 -0.037473640926154246 0 0.02168694814300208 -0.037818493199007812 0 0.020864949607890419 -0.038515430628416773 0 0.020779976072508137 -0.037473640926154246 0 0.020758193826846249 -0.036596914962976269 0 0.019425537051299142 -0.036298373521400473 0 0.021468281497275733 -0.035719069344431267 0 0.022274616562039756 -0.036937681287622391 0 0.020779976072508137 -0.037473640926154246 0 0.020758193826846249 -0.036596914962976269 0 0.022274616562039756 -0.036937681287622391 0 0.020758193826846249 -0.036596914962976269 0 0.021468281497275733 -0.035719069344431267 0 0.019714822687123854 -0.037265391008152432 0 0.020779976072508137 -0.037473640926154246 0 0.020758193826846249 -0.036596914962976269 0 0.019714822687123854 -0.037265391008152432 0 0.01841060971940291 -0.037632230120433527 0 0.019425537051299142 -0.036298373521400473 0 0.019425537051299142 -0.036298373521400473 0 0.017971075238003929 -0.034838843335196816 0 0.021468281497275733 -0.035719069344431267 0 0.019714822687123854 -0.037265391008152432 0 0.020758193826846249 -0.036596914962976269 0 0.019425537051299142 -0.036298373521400473 0 0.01841060971940291 -0.037632230120433527 0 0.018137402055923978 -0.036021945799714003 0 0.019425537051299142 -0.036298373521400473 0 0.018137402055923978 -0.036021945799714003 0 0.019425537051299142 -0.036298373521400473 0 0.017971075238003929 -0.034838843335196816 0 0.020328686392363071 -0.034999954708672225 0 0.019725133153487999 -0.035821863634000702 0 0.021468281497275733 -0.035719069344431267 0 0.018741406580979881 -0.035416215039318452 0 0.019827966917501955 -0.0354995309979209 0 0.022159463915619591 -0.034999585142543962 0 0.020328686392363071 -0.034999954708672225 0 0.021468281497275733 -0.035719069344431267 0 0.016665818631229408 -0.034999387543120063 0 0.018498284479976406 -0.035000133984583959 0 0.017812659106903887 -0.03575225082015674 0 0.017971075238003929 -0.034838843335196816 0 0.015678254643806684 -0.034860919295848621 0 0.016584278087478563 -0.035223767076397038 0 0.019725133153487999 -0.035821863634000702 0 0.018498284479976406 -0.035000133984583959 0 0.017812659106903887 -0.03575225082015674 0 0.018741406580979881 -0.035416215039318452 0 0.017256859986457089 -0.035331415413887984 0 0.020328686392363071 -0.034999954708672225 0 0.019725133153487999 -0.035821863634000702 0 0.018498284479976406 -0.035000133984583959 0 0.018000362651602 -0.036125027769814348 0 0.017678087057889862 -0.035835818991633427 0 0.01841060971940291 -0.037632230120433527 0 0.018137402055923978 -0.036021945799714003 0 0.016791473928567668 -0.035334148964561149 0 0.016094893595099483 -0.035074917393402745 0 0.015979245697657806 -0.035016370388316745 0 0.017971075238003929 -0.034838843335196816 0 0.016584278087478563 -0.035223767076397038 0 0.016791473928567668 -0.035334148964561149 0 0.016584278087478563 -0.035223767076397038 0 0.016791473928567668 -0.035334148964561149 0 0.016786087434677455 -0.035441911064579619 0 0.016775378863662579 -0.035537791093341584 0 0.016791473928567668 -0.035334148964561149 0 0.016786087434677455 -0.035441911064579619 0 0.016584278087478563 -0.035223767076397038 0 0.016022967320423891 -0.0352258651628823 0 0.015945927165582002 -0.035219752478874308 0 0.016584278087478563 -0.035223767076397038 0 0.016786087434677455 -0.035441911064579619 0 0.016849952784352824 -0.035617722484894213 0 0.018137402055923978 -0.036021945799714003 0 0.017971075238003929 -0.034838843335196816 0 0.016791473928567668 -0.035334148964561149 0 0.015678254643806684 -0.034860919295848621 0 0.016584278087478563 -0.035223767076397038 0 0.015929174142513058 -0.035158814418977898 0 0.016584278087478563 -0.035223767076397038 0 0.016022967320423891 -0.0352258651628823 0 0.015929174142513058 -0.035158814418977898 0 0.015722800954956231 -0.0350670426498483 0 0.015678254643806684 -0.034860919295848621 0 0.015929174142513058 -0.035158814418977898 0 0.015722800954956231 -0.0350670426498483 0 0.015929174142513058 -0.035158814418977898 0 0.015828321608587732 -0.035141276916197506 0 0.016022967320423891 -0.0352258651628823 0 0.015929174142513058 -0.035158814418977898 0 0.015828321608587732 -0.035141276916197506 0 0.016022967320423891 -0.0352258651628823 0 0.015828321608587732 -0.035141276916197506 0 0.015891125710895244 -0.035176855457079631 0 0.016022967320423891 -0.0352258651628823 0 0.015891125710895244 -0.035176855457079631 0 0.015945927165582002 -0.035219752478874308 0 0.015891125710895244 -0.035176855457079631 0 0.015945927165582002 -0.035219752478874308 0 0.015878368597821997 -0.035224611194770182 0 0.016696050951443983 -0.035400518950309559 0 0.016775378863662579 -0.035537791093341584 0 0.016849952784352824 -0.035617722484894213 0 0.016696050951443983 -0.035400518950309559 0 0.016849952784352824 -0.035617722484894213 0 0.016725029114587044 -0.035252841278901291 0 0.016775378863662579 -0.035537791093341584 0 0.016786087434677455 -0.035441911064579619 0 0.016849952784352824 -0.035617722484894213 0 0.015979245697657806 -0.035016370388316745 0 0.015569672396499206 -0.034383374087641153 0 0.015945927165582002 -0.035219752478874308 0 0.015878368597821997 -0.035224611194770182 0 0.015899707834401762 -0.035248737981788854 0 0.016849952784352824 -0.035617722484894213 0 0.016725029114587044 -0.035252841278901291 0 0.016938584585111473 -0.034647625748103719 0 0.016725029114587044 -0.035252841278901291 0 0.016938584585111473 -0.034647625748103719 0 0.016099691103686795 -0.034484680647770272 0 0.01581278206693602 -0.035175942720585406 0 0.015891125710895244 -0.035176855457079631 0 0.015878368597821997 -0.035224611194770182 0 0.015742679549842483 -0.035256740927622252 0 0.015878368597821997 -0.035224611194770182 0 0.015873199675998918 -0.035271089466517712 0 0.015237292032550897 -0.033911401433421431 0 0.014914558211276581 -0.0332429259903173 0 0.015878368597821997 -0.035224611194770182 0 0.015873199675998918 -0.035271089466517712 0 0.015899707834401762 -0.035248737981788854 0 0.01333329024027817 -0.031844954181281131 0 0.012571136626436443 -0.030626051333429258 0 0.013613348816527544 -0.030486053868382879 0 0.014498247514995434 -0.031582107526391352 0 0.01333329024027817 -0.031844954181281131 0 0.013613348816527544 -0.030486053868382879 0 0.014564966880508051 -0.032269339829456921 0 0.015569672396499206 -0.034383374087641153 0 0.014914558211276581 -0.0332429259903173 0 0.014564966880508051 -0.032269339829456921 0 0.015873199675998918 -0.035271089466517712 0 0.01588320055574553 -0.03525094940757946 0 0.015899707834401762 -0.035248737981788854 0 0.016831497788400044 -0.032626573834917308 0 0.016938584585111473 -0.034647625748103719 0 0.016129272730500761 -0.033734693325126255 0 0.016938584585111473 -0.034647625748103719 0 0.016099691103686795 -0.034484680647770272 0 0.016129272730500761 -0.033734693325126255 0 0.016099691103686795 -0.034484680647770272 0 0.015225005138241746 -0.034640477098401935 0 0.015448257861830317 -0.033912392714181061 0 0.016099691103686795 -0.034484680647770272 0 0.015448257861830317 -0.033912392714181061 0 0.016129272730500761 -0.033734693325126255 0 0.017661051798724892 -0.034338263826519867 0 0.016673134356730682 -0.034359133949551028 0 0.013476846935512937 -0.033635031835725408 0 0.015225005138241746 -0.034640477098401935 0 0.014645438738564501 -0.033685461161642269 0 0.016643845793480667 -0.035295713374457888 0 0.016640076679719423 -0.0352706870112037 0 0.016646166308988838 -0.03525634213000392 0 0.016656494910548506 -0.035238207044274508 0 0.016640076679719423 -0.0352706870112037 0 0.016646166308988838 -0.03525634213000392 0 0.015225005138241746 -0.034640477098401935 0 0.015448257861830317 -0.033912392714181061 0 0.014645438738564501 -0.033685461161642269 0 0.017661051798724892 -0.034338263826519867 0 0.01863359835836717 -0.035523827801904072 0 0.014645438738564501 -0.033685461161642269 0 0.013818698291861284 -0.03319918818050397 0 0.014530284582601112 -0.032484743732870601 0 0.013476846935512937 -0.033635031835725408 0 0.014645438738564501 -0.033685461161642269 0 0.013818698291861284 -0.03319918818050397 0 0.014645438738564501 -0.033685461161642269 0 0.014530284582601112 -0.032484743732870601 0 0.015552108216735748 -0.032869285663321195 0 0.013703872521360974 -0.032492588821285813 0 0.013818698291861284 -0.03319918818050397 0 0.014530284582601112 -0.032484743732870601 0 0.016831497788400044 -0.032626573834917308 0 0.016129272730500761 -0.033734693325126255 0 0.015552108216735748 -0.032869285663321195 0 0.015448257861830317 -0.033912392714181061 0 0.016129272730500761 -0.033734693325126255 0 0.015552108216735748 -0.032869285663321195 0 0.015448257861830317 -0.033912392714181061 0 0.014645438738564501 -0.033685461161642269 0 0.015552108216735748 -0.032869285663321195 0 0.012782480911177856 -0.030028174128376581 0 0.012224936640356558 -0.029298692935898586 0 0.012719270663224898 -0.029502603018988442 0 0.014564966880508051 -0.032269339829456921 0 0.013553018624375371 -0.030599435784782518 0 0.014530284582601112 -0.032484743732870601 0 0.015552108216735748 -0.032869285663321195 0 0.015266518657780762 -0.031070351394018252 0 0.016831497788400044 -0.032626573834917308 0 0.015552108216735748 -0.032869285663321195 0 0.015266518657780762 -0.031070351394018252 0 0.013295097182802371 -0.030530058120813656 0 0.013685794538167697 -0.03162288221795808 0 0.015266518657780762 -0.031070351394018252 0 0.013685794538167697 -0.03162288221795808 0 0.014530284582601112 -0.032484743732870601 0 0.015266518657780762 -0.031070351394018252 0 0.013685794538167697 -0.03162288221795808 0 0.013703872521360974 -0.032492588821285813 0 0.014530284582601112 -0.032484743732870601 0 0.012224936640356558 -0.029298692935898586 0 0.012154695893921066 -0.02865864528837371 0 0.011756674707215505 -0.028371358894658114 0 0.013295097182802371 -0.030530058120813656 0 0.015266518657780762 -0.031070351394018252 0 0.013523059420455166 -0.029408837214327126 0 0.013553018624375371 -0.030599435784782518 0 0.012643508796344599 -0.029387556015537691 0 0.012224936640356558 -0.029298692935898586 0 0.012154695893921066 -0.02865864528837371 0 0.012707216953104282 -0.028757439760930804 0 0.012224936640356558 -0.029298692935898586 0 0.012707216953104282 -0.028757439760930804 0 0.012719270663224898 -0.029502603018988442 0 0.012707216953104282 -0.028757439760930804 0 0.013319755049647167 -0.028662149061206 0 0.012719270663224898 -0.029502603018988442 0 0.013319755049647167 -0.028662149061206 0 0.013348619838855857 -0.029612989222053143 0 0.012719270663224898 -0.029502603018988442 0 0.014076040226826908 -0.029350575020510181 0 0.013319755049647167 -0.028662149061206 0 0.013348619838855857 -0.029612989222053143 0 0.014076040226826908 -0.029350575020510181 0 0.013319755049647167 -0.028662149061206 0 0.01402875213245436 -0.027921321732188559 0 0.012571136626436443 -0.030626051333429258 0 0.013613348816527544 -0.030486053868382879 0 0.013348619838855857 -0.029612989222053143 0 0.014076040226826908 -0.029350575020510181 0 0.013613348816527544 -0.030486053868382879 0 0.013348619838855857 -0.029612989222053143 0 0.012571136626436443 -0.030626051333429258 0 0.013348619838855857 -0.029612989222053143 0 0.012719270663224898 -0.029502603018988442 0 0.014564966880508051 -0.032269339829456921 0 0.014318597853035476 -0.031456841066336429 0 0.013112127839899936 -0.02768907514613235 0 0.01402875213245436 -0.027921321732188559 0 0.01384123259902003 -0.026879600646343472 0 0.013319755049647167 -0.028662149061206 0 0.013112127839899936 -0.02768907514613235 0 0.01402875213245436 -0.027921321732188559 0 0.012707216953104282 -0.028757439760930804 0 0.013319755049647167 -0.028662149061206 0 0.013112127839899936 -0.02768907514613235 0 0.012154695893921066 -0.02865864528837371 0 0.012707216953104282 -0.028757439760930804 0 0.012401075689064773 -0.028244366158174737 0 0.012707216953104282 -0.028757439760930804 0 0.013112127839899936 -0.02768907514613235 0 0.012401075689064773 -0.028244366158174737 0 0.012154695893921066 -0.02865864528837371 0 0.012027675248000498 -0.028257524142310808 0 0.011756674707215505 -0.028371358894658114 0 0.012027675248000498 -0.028257524142310808 0 0.011803709960185503 -0.028036143309535674 0 0.011756674707215505 -0.028371358894658114 0 0.012154695893921066 -0.02865864528837371 0 0.012401075689064773 -0.028244366158174737 0 0.012027675248000498 -0.028257524142310808 0 0.012401075689064773 -0.028244366158174737 0 0.012027675248000498 -0.028257524142310808 0 0.012069466992895919 -0.027907130084075964 0 0.012401075689064773 -0.028244366158174737 0 0.012069466992895919 -0.027907130084075964 0 0.012449347804869552 -0.027621271725937948 0 0.012027675248000498 -0.028257524142310808 0 0.012069466992895919 -0.027907130084075964 0 0.011803709960185503 -0.028036143309535674 0 0.012069466992895919 -0.027907130084075964 0 0.012449347804869552 -0.027621271725937948 0 0.012031758099411706 -0.027318113148046948 0 0.012069466992895919 -0.027907130084075964 0 0.012031758099411706 -0.027318113148046948 0 0.011781731478736726 -0.027769985369527038 0 0.012069466992895919 -0.027907130084075964 0 0.011781731478736726 -0.027769985369527038 0 0.011803709960185503 -0.028036143309535674 0 0.013112127839899936 -0.02768907514613235 0 0.012401075689064773 -0.028244366158174737 0 0.012449347804869552 -0.027621271725937948 0 0.013112127839899936 -0.02768907514613235 0 0.012449347804869552 -0.027621271725937948 0 0.012686565686539255 -0.026951763377944991 0 0.012449347804869552 -0.027621271725937948 0 0.012686565686539255 -0.026951763377944991 0 0.012031758099411706 -0.027318113148046948 0 0.012686565686539255 -0.026951763377944991 0 0.012981821540374817 -0.02622877195923037 0 0.013325573398361818 -0.026744913143462227 0 0.013344261988052537 -0.026620734161537353 0 0.013742442685189553 -0.026079676204954116 0 0.012031758099411706 -0.027318113148046948 0 0.012176530450725611 -0.026526396428263259 0 0.011697993298550133 -0.027065940174295242 0 0.012686565686539255 -0.026951763377944991 0 0.012031758099411706 -0.027318113148046948 0 0.011956544842121818 -0.026099141783523589 0 0.012686565686539255 -0.026951763377944991 0 0.011956544842121818 -0.026099141783523589 0 0.012981821540374817 -0.02622877195923037 0 0.011956544842121818 -0.026099141783523589 0 0.012981821540374817 -0.02622877195923037 0 0.012813214248186424 -0.025568772598936321 0 0.012981821540374817 -0.02622877195923037 0 0.013755327403037646 -0.026110423189775817 0 0.013325573398361818 -0.026744913143462227 0 0.012981821540374817 -0.02622877195923037 0 0.013755327403037646 -0.026110423189775817 0 0.012813214248186424 -0.025568772598936321 0 0.013112127839899936 -0.02768907514613235 0 0.012686565686539255 -0.026951763377944991 0 0.013325573398361818 -0.026744913143462227 0 0.013112127839899936 -0.02768907514613235 0 0.013325573398361818 -0.026744913143462227 0 0.01384123259902003 -0.026879600646343472 0 0.013755327403037646 -0.026110423189775817 0 0.013325573398361818 -0.026744913143462227 0 0.01384123259902003 -0.026879600646343472 0 0.014227061703189645 -0.026203070883077464 0 0.013755327403037646 -0.026110423189775817 0 0.01384123259902003 -0.026879600646343472 0 0.014227061703189645 -0.026203070883077464 0 0.013755327403037646 -0.026110423189775817 0 0.014058468190514921 -0.025810929888440474 0 0.013755327403037646 -0.026110423189775817 0 0.014058468190514921 -0.025810929888440474 0 0.013889376861780272 -0.025691665646326314 0 0.013755327403037646 -0.026110423189775817 0 0.013889376861780272 -0.025691665646326314 0 0.013806883864783575 -0.025670104511717001 0 0.014103813685844242 -0.025306564192591589 0 0.014137119224067457 -0.025054820750892083 0 0.013889376861780272 -0.025691665646326314 0 0.013882790847221547 -0.025552667345309043 0 0.013806883864783575 -0.025670104511717001 0 0.013889376861780272 -0.025691665646326314 0 0.013882790847221547 -0.025552667345309043 0 0.013992546305423455 -0.02539584600147687 0 0.014058468190514921 -0.025810929888440474 0 0.013889376861780272 -0.025691665646326314 0 0.013992546305423455 -0.02539584600147687 0 0.014058468190514921 -0.025810929888440474 0 0.014007705538093353 -0.025304466981056217 0 0.014031489157465025 -0.02542192770183108 0 0.014007705538093353 -0.025304466981056217 0 0.014031489157465025 -0.02542192770183108 0 0.014116518158456121 -0.025283940119899831 0 0.013882790847221547 -0.025552667345309043 0 0.013992546305423455 -0.02539584600147687 0 0.013915058553820303 -0.025422777757866829 0 0.014096421661678595 -0.025550290774612433 0 0.014039634325334487 -0.025375375003721563 0 0.014364915312061749 -0.025622775374778813 0 0.014058468190514921 -0.025810929888440474 0 0.014031489157465025 -0.02542192770183108 0 0.014250789931556672 -0.025319669795617887 0 0.014031489157465025 -0.02542192770183108 0 0.014116518158456121 -0.025283940119899831 0 0.01426357495186322 -0.025484650652873624 0 0.0141259428726881 -0.025458092696703849 0 0.014250789931556672 -0.025319669795617887 0 0.014181480051202086 -0.025199627888117745 0 0.014116518158456121 -0.025283940119899831 0 0.014181480051202086 -0.025199627888117745 0 0.014116518158456121 -0.025283940119899831 0 0.01409253184628761 -0.025170584597361243 0 0.014039634325334487 -0.025375375003721563 0 0.013991851346749374 -0.025172329783771125 0 0.014007705538093353 -0.025304466981056217 0 0.01409253184628761 -0.025170584597361243 0 0.014045126222962731 -0.025108181804486721 0 0.014007705538093353 -0.025304466981056217 0 0.014116518158456121 -0.025283940119899831 0 0.01409253184628761 -0.025170584597361243 0 0.013992546305423455 -0.02539584600147687 0 0.013932114027127395 -0.025305586707277755 0 0.013915058553820303 -0.025422777757866829 0 0.01409253184628761 -0.025170584597361243 0 0.014166649364566665 -0.025090285156367596 0 0.014045126222962731 -0.025108181804486721 0 0.014181480051202086 -0.025199627888117745 0 0.01409253184628761 -0.025170584597361243 0 0.014166649364566665 -0.025090285156367596 0 0.014235622615615456 -0.025116183480683976 0 0.014181480051202086 -0.025199627888117745 0 0.014166649364566665 -0.025090285156367596 0 0.013964002405034329 -0.025102513755659271 0 0.013924773828415593 -0.025198137220328657 0 0.013902729048753842 -0.025147446967125887 0 0.013964002405034329 -0.025102513755659271 0 0.013902729048753842 -0.025147446967125887 0 0.013972270064774217 -0.025105827579638369 0 0.013902729048753842 -0.025147446967125887 0 0.013972270064774217 -0.025105827579638369 0 0.013966909214844139 -0.025114167687165439 0 0.013964002405034329 -0.025102513755659271 0 0.013972270064774217 -0.025105827579638369 0 0.014001577050195562 -0.025056109895243865 0 0.013964002405034329 -0.025102513755659271 0 0.013993600949102668 -0.025131050201040186 0 0.013924773828415593 -0.025198137220328657 0 0.013924773828415593 -0.025198137220328657 0 0.013892145268730912 -0.025302290131171582 0 0.013878515757202144 -0.025258107912808764 0 0.013992546305423455 -0.02539584600147687 0 0.013993600949102668 -0.025131050201040186 0 0.013932114027127395 -0.025305586707277755 0 0.013924773828415593 -0.025198137220328657 0 0.013932114027127395 -0.025305586707277755 0 0.013892145268730912 -0.025302290131171582 0 0.013993600949102668 -0.025131050201040186 0 0.013924773828415593 -0.025198137220328657 0 0.013932114027127395 -0.025305586707277755 0 0.013932114027127395 -0.025305586707277755 0 0.013915058553820303 -0.025422777757866829 0 0.013876023358526175 -0.025400149246667773 0 0.013932114027127395 -0.025305586707277755 0 0.013892145268730912 -0.025302290131171582 0 0.013876023358526175 -0.025400149246667773 0 0.013892145268730912 -0.025302290131171582 0 0.013847904560444609 -0.025361242448479804 0 0.013876023358526175 -0.025400149246667773 0 0.013847904560444609 -0.025361242448479804 0 0.013832212023974173 -0.025313559413453566 0 0.013810030935847617 -0.025378001031083702 0 0.013832212023974173 -0.025313559413453566 0 0.013798020793692014 -0.025285419753190878 0 0.013810030935847617 -0.025378001031083702 0 0.013832212023974173 -0.025313559413453566 0 0.013878515757202144 -0.025258107912808764 0 0.013835975227714445 -0.025251549159842249 0 0.013847904560444609 -0.025361242448479804 0 0.013832212023974173 -0.025313559413453566 0 0.013878515757202144 -0.025258107912808764 0 0.013892145268730912 -0.025302290131171582 0 0.013847904560444609 -0.025361242448479804 0 0.013878515757202144 -0.025258107912808764 0 0.013924773828415593 -0.025198137220328657 0 0.013878515757202144 -0.025258107912808764 0 0.013902729048753842 -0.025147446967125887 0 0.013902729048753842 -0.025147446967125887 0 0.013918956416049127 -0.025064669256795846 0 0.013979200040453396 -0.025086553601119096 0 0.013902729048753842 -0.025147446967125887 0 0.013835975227714445 -0.025251549159842249 0 0.01380137965185883 -0.025278093025670873 0 0.015633537661749658 -0.025167587803758513 0 0.015677806982702457 -0.025160060904086994 0 0.013878515757202144 -0.025258107912808764 0 0.013902729048753842 -0.025147446967125887 0 0.013835975227714445 -0.025251549159842249 0 0.015677806982702457 -0.025160060904086994 0 0.016731189645311957 -0.024699662147095618 0 0.013832212023974173 -0.025313559413453566 0 0.013835975227714445 -0.025251549159842249 0 0.013798020793692014 -0.025285419753190878 0 0.015670753100712163 -0.025165226991971292 0 0.015677806982702457 -0.025160060904086994 0 0.015677806982702457 -0.025160060904086994 0 0.015170254258799745 -0.024851034943807696 0 0.015449908467100301 -0.024204195806148077 0 0.015461035792876556 -0.025839299836905767 0 0.014638084932887931 -0.025269258636010337 0 0.013813936037649258 -0.025468793503619067 0 0.013751148160302677 -0.025456886656385021 0 0.013806883864783575 -0.025670104511717001 0 0.013798020793692014 -0.025285419753190878 0 0.013810030935847617 -0.025378001031083702 0 0.013751148160302677 -0.025456886656385021 0 0.015170254258799745 -0.024851034943807696 0 0.016731189645311957 -0.024699662147095618 0 0.013810030935847617 -0.025378001031083702 0 0.013813936037649258 -0.025468793503619067 0 0.013751148160302677 -0.025456886656385021 0 0.013847904560444609 -0.025361242448479804 0 0.013810030935847617 -0.025378001031083702 0 0.013813936037649258 -0.025468793503619067 0 0.013915058553820303 -0.025422777757866829 0 0.013876023358526175 -0.025400149246667773 0 0.013857764331617818 -0.025506398866050797 0 0.013847904560444609 -0.025361242448479804 0 0.013813936037649258 -0.025468793503619067 0 0.013876023358526175 -0.025400149246667773 0 0.013813936037649258 -0.025468793503619067 0 0.013876023358526175 -0.025400149246667773 0 0.013857764331617818 -0.025506398866050797 0 0.013813936037649258 -0.025468793503619067 0 0.013857764331617818 -0.025506398866050797 0 0.013806883864783575 -0.025670104511717001 0 0.013882790847221547 -0.025552667345309043 0 0.013857764331617818 -0.025506398866050797 0 0.013806883864783575 -0.025670104511717001 0 0.013882790847221547 -0.025552667345309043 0 0.013915058553820303 -0.025422777757866829 0 0.013857764331617818 -0.025506398866050797 0 0.012176530450725611 -0.026526396428263259 0 0.012240580083353415 -0.025647760910027042 0 0.011882378362884874 -0.026150281578875102 0 0.013742442685189553 -0.026079676204954116 0 0.015170254258799745 -0.024851034943807696 0 0.015170254258799745 -0.024851034943807696 0 0.014137119224067457 -0.025054820750892083 0 0.011956544842121818 -0.026099141783523589 0 0.011968172979546348 -0.024981069442271044 0 0.012813214248186424 -0.025568772598936321 0 0.0202840949146618 -0.024981124521827408 0 0.017791276071166238 -0.024266765584266485 0 0.011882378362884874 -0.026150281578875102 0 0.011475583963858321 -0.026143322518081859 0 0.01164407587583164 -0.026550328955109913 0 0.011882378362884874 -0.026150281578875102 0 0.011475583963858321 -0.026143322518081859 0 0.011948386783163274 -0.025755037076439124 0 0.027852674513659539 -0.022654616448393651 0 0.027321282928938786 -0.022505901176435257 0 0.027340904210742464 -0.023343422433792976 0 0.027852674513659539 -0.022654616448393651 0 0.027652548318811941 -0.022082878839833463 0 0.027321282928938786 -0.022505901176435257 0 0.027852674513659539 -0.022654616448393651 0 0.027652548318811941 -0.022082878839833463 0 0.02794211258198841 -0.022004103201911727 0 0.027652548318811941 -0.022082878839833463 0 0.027412125441362078 -0.021758665558580893 0 0.027321282928938786 -0.022505901176435257 0 0.02794211258198841 -0.022004103201911727 0 0.027719694920974293 -0.021742022800640672 0 0.028078903232808421 -0.021658377989292217 0 0.027652548318811941 -0.022082878839833463 0 0.02794211258198841 -0.022004103201911727 0 0.027719694920974293 -0.021742022800640672 0 0.027652548318811941 -0.022082878839833463 0 0.027719694920974293 -0.021742022800640672 0 0.027412125441362078 -0.021758665558580893 0 0.027852674513659539 -0.022654616448393651 0 0.02794211258198841 -0.022004103201911727 0 0.028277161376575769 -0.022039846825423877 0 0.011475583963858321 -0.026143322518081859 0 0.011876597316112295 -0.025609132271752513 0 0.011948386783163274 -0.025755037076439124 0 0.011873620409301944 -0.025604049690135838 0 0.011948386783163274 -0.025755037076439124 0 0.01198572284179905 -0.025459134428669154 0 0.012240580083353415 -0.025647760910027042 0 0.011882378362884874 -0.026150281578875102 0 0.011948386783163274 -0.025755037076439124 0 0.012240580083353415 -0.025647760910027042 0 0.011948386783163274 -0.025755037076439124 0 0.01198572284179905 -0.025459134428669154 0 0.017791276071166238 -0.024266765584266485 0 0.017713070913808943 -0.024242230322673041 0 0.02794211258198841 -0.022004103201911727 0 0.028277161376575769 -0.022039846825423877 0 0.028078903232808421 -0.021658377989292217 0 0.017791276071166238 -0.024266765584266485 0 0.019148169977965309 -0.024438241834478552 0 0.016731189645311957 -0.024699662147095618 0 0.019148169977965309 -0.024438241834478552 0 0.019118240873351601 -0.025219586306444552 0 0.019770384421284152 -0.024364332807704191 0 0.017984648064853278 -0.023126418402312898 0 0.017791276071166238 -0.024266765584266485 0 0.016731189645311957 -0.024699662147095618 0 0.013918956416049127 -0.025064669256795846 0 0.013983464658627376 -0.025007846867336956 0 0.013984097715667871 -0.025055249332834695 0 0.013983464658627376 -0.025007846867336956 0 0.013984097715667871 -0.025055249332834695 0 0.0140285365542503 -0.025047478606572627 0 0.013918956416049127 -0.025064669256795846 0 0.013984097715667871 -0.025055249332834695 0 0.013979200040453396 -0.025086553601119096 0 0.014012861049039938 -0.025084270522851889 0 0.0140285365542503 -0.025047478606572627 0 0.014052095457460414 -0.025126236086936621 0 0.013902729048753842 -0.025147446967125887 0 0.013979200040453396 -0.025086553601119096 0 0.013966909214844139 -0.025114167687165439 0 0.013984097715667871 -0.025055249332834695 0 0.013979200040453396 -0.025086553601119096 0 0.014012861049039938 -0.025084270522851889 0 0.013979200040453396 -0.025086553601119096 0 0.013966909214844139 -0.025114167687165439 0 0.014006276493152475 -0.025100975882903959 0 0.013979200040453396 -0.025086553601119096 0 0.014012861049039938 -0.025084270522851889 0 0.014006276493152475 -0.025100975882903959 0 0.013984097715667871 -0.025055249332834695 0 0.014012861049039938 -0.025084270522851889 0 0.0140285365542503 -0.025047478606572627 0 0.019148169977965309 -0.024438241834478552 0 0.020446845503398904 -0.023422618071597776 0 0.019148169977965309 -0.024438241834478552 0 0.021477089616911371 -0.024871176311480898 0 0.027719694920974293 -0.021742022800640672 0 0.028078903232808421 -0.021658377989292217 0 0.027495370872098076 -0.021248323618896489 0 0.027439603079356154 -0.02129203208978582 0 0.027495370872098076 -0.021248323618896489 0 0.027476648703771551 -0.021185806885505681 0 0.027719694920974293 -0.021742022800640672 0 0.027495370872098076 -0.021248323618896489 0 0.027412125441362078 -0.021758665558580893 0 0.027476648703771551 -0.021185806885505681 0 0.027409835783740424 -0.021140514134590262 0 0.027409970753369914 -0.021150222154507094 0 0.027476648703771551 -0.021185806885505681 0 0.027409835783740424 -0.021140514134590262 0 0.027413065716188088 -0.021162859834238289 0 0.027495370872098076 -0.021248323618896489 0 0.027476648703771551 -0.021185806885505681 0 0.027413065716188088 -0.021162859834238289 0 0.014052095457460414 -0.025126236086936621 0 0.014031860330790394 -0.025072473757511878 0 0.014055594723932611 -0.024960097407347351 0 0.014031860330790394 -0.025072473757511878 0 0.013972270064774217 -0.025105827579638369 0 0.014001577050195562 -0.025056109895243865 0 0.014031860330790394 -0.025072473757511878 0 0.013972270064774217 -0.025105827579638369 0 0.014006276493152475 -0.025100975882903959 0 0.013972270064774217 -0.025105827579638369 0 0.013966909214844139 -0.025114167687165439 0 0.014006276493152475 -0.025100975882903959 0 0.014012861049039938 -0.025084270522851889 0 0.014052095457460414 -0.025126236086936621 0 0.014006276493152475 -0.025100975882903959 0 0.014052095457460414 -0.025126236086936621 0 0.014031860330790394 -0.025072473757511878 0 0.014006276493152475 -0.025100975882903959 0 0.027607250747404062 -0.021091042364865763 0 0.027453411755415619 -0.02114394493180901 0 0.027264323674471409 -0.021104546376546195 0 0.027607250747404062 -0.021091042364865763 0 0.027632368637497545 -0.021128937272772624 0 0.027453411755415619 -0.02114394493180901 0 0.027632368637497545 -0.021128937272772624 0 0.027453411755415619 -0.02114394493180901 0 0.027507539636087128 -0.021155812018249013 0 0.027453411755415619 -0.02114394493180901 0 0.027409835783740424 -0.021140514134590262 0 0.027507539636087128 -0.021155812018249013 0 0.027409835783740424 -0.021140514134590262 0 0.027413065716188088 -0.021162859834238289 0 0.027264323674471409 -0.021104546376546195 0 0.027453411755415619 -0.02114394493180901 0 0.027409835783740424 -0.021140514134590262 0 0.027264323674471409 -0.021104546376546195 0 0.027264323674471409 -0.021104546376546195 0 0.027236240496944463 -0.0214814379529218 0 0.02594213143489207 -0.022150263686364861 0 0.027413065716188088 -0.021162859834238289 0 0.027264323674471409 -0.021104546376546195 0 0.027236240496944463 -0.0214814379529218 0 0.027495370872098076 -0.021248323618896489 0 0.027413065716188088 -0.021162859834238289 0 0.027236240496944463 -0.0214814379529218 0 0.027495370872098076 -0.021248323618896489 0 0.027236240496944463 -0.0214814379529218 0 0.027412125441362078 -0.021758665558580893 0 0.027320561651256549 -0.021864491575949097 0 0.027343298622194201 -0.022068669039368698 0 0.027264323674471409 -0.021104546376546195 0 0.027636100271843524 -0.021044605306045874 0 0.027740828608440671 -0.021012852979536256 0 0.027607250747404062 -0.021091042364865763 0 0.027264323674471409 -0.021104546376546195 0 0.027740828608440671 -0.021012852979536256 0 0.027636100271843524 -0.021044605306045874 0 0.027849963578363744 -0.020957989852943133 0 0.027740828608440671 -0.021012852979536256 0 0.02594213143489207 -0.022150263686364861 0 0.026938836362463591 -0.022293620517371281 0 0.026248004250545829 -0.023442328790013085 0 0.027636100271843524 -0.021044605306045874 0 0.028081244738811399 -0.020762573637628672 0 0.027849963578363744 -0.020957989852943133 0 0.024710978327922073 -0.02330535461576648 0 0.024305318776520392 -0.024010788688037386 0 0.027412125441362078 -0.021758665558580893 0 0.026938836362463591 -0.022293620517371281 0 0.027674119494845061 -0.023318670061728098 0 0.027236240496944463 -0.0214814379529218 0 0.027412125441362078 -0.021758665558580893 0 0.026938836362463591 -0.022293620517371281 0 0.027236240496944463 -0.0214814379529218 0 0.02594213143489207 -0.022150263686364861 0 0.026938836362463591 -0.022293620517371281 0 0.027674119494845061 -0.023318670061728098 0 0.026807620390629575 -0.024320887548481319 0 0.026248004250545829 -0.023442328790013085 0 0.026938836362463591 -0.022293620517371281 0 0.027674119494845061 -0.023318670061728098 0 0.026248004250545829 -0.023442328790013085 0 0.024305318776520392 -0.024010788688037386 0 0.022928625031118602 -0.025972225884770342 0 0.027674119494845061 -0.023318670061728098 0 0.026807620390629575 -0.024320887548481319 0 0.027874792063693126 -0.025291324512127619 0 0.026807620390629575 -0.024320887548481319 0 0.026248004250545829 -0.023442328790013085 0 0.0257810760713717 -0.02447722846340818 0 0.02594213143489207 -0.022150263686364861 0 0.026248004250545829 -0.023442328790013085 0 0.02470792859522403 -0.02409142445427969 0 0.027343298622194201 -0.022068669039368698 0 0.027634629574239677 -0.022425618706332334 0 0.027636100271843524 -0.021044605306045874 0 0.028093807752636923 -0.020015101190242891 0 0.028081244738811399 -0.020762573637628672 0 0.026248004250545829 -0.023442328790013085 0 0.02470792859522403 -0.02409142445427969 0 0.0257810760713717 -0.02447722846340818 0 0.02470792859522403 -0.02409142445427969 0 0.0257810760713717 -0.02447722846340818 0 0.025077303614158063 -0.025349275009003712 0 0.0257810760713717 -0.02447722846340818 0 0.026150947062278749 -0.025418382026470863 0 0.025077303614158063 -0.025349275009003712 0 0.026150947062278749 -0.025418382026470863 0 0.025077303614158063 -0.025349275009003712 0 0.025113187748604854 -0.026379569407966062 0 0.025077303614158063 -0.025349275009003712 0 0.025113187748604854 -0.026379569407966062 0 0.023597556765183429 -0.026401355844122155 0 0.026150947062278749 -0.025418382026470863 0 0.025113187748604854 -0.026379569407966062 0 0.026325872272954239 -0.027312981966764689 0 0.025113187748604854 -0.026379569407966062 0 0.024573707741807876 -0.027657418943812028 0 0.023597556765183429 -0.026401355844122155 0 0.025113187748604854 -0.026379569407966062 0 0.024573707741807876 -0.027657418943812028 0 0.026325872272954239 -0.027312981966764689 0 0.024017920473400324 -0.026710875525692495 0 0.022928625031118602 -0.025972225884770342 0 0.025218463952763739 -0.028241112439211312 0 0.026019591097204451 -0.027143870369074143 0 0.026177019863182872 -0.028823490277656894 0 0.026150947062278749 -0.025418382026470863 0 0.026325872272954239 -0.027312981966764689 0 0.027874792063693126 -0.025291324512127619 0 0.026807620390629575 -0.024320887548481319 0 0.026150947062278749 -0.025418382026470863 0 0.027874792063693126 -0.025291324512127619 0 0.026807620390629575 -0.024320887548481319 0 0.0257810760713717 -0.02447722846340818 0 0.026150947062278749 -0.025418382026470863 0 0.0202840949146618 -0.024981124521827408 0 0.022928625031118602 -0.025972225884770342 0 0.011475583963858321 -0.026143322518081859 0 0.011113869811661943 -0.026641749560158065 0 0.01164407587583164 -0.026550328955109913 0 0.011113869811661943 -0.026641749560158065 0 0.01164407587583164 -0.026550328955109913 0 0.011697993298550133 -0.027065940174295242 0 0.012176530450725611 -0.026526396428263259 0 0.011882378362884874 -0.026150281578875102 0 0.01164407587583164 -0.026550328955109913 0 0.012176530450725611 -0.026526396428263259 0 0.01164407587583164 -0.026550328955109913 0 0.011697993298550133 -0.027065940174295242 0 0.011113869811661943 -0.026641749560158065 0 0.011443113839035166 -0.02734095216097954 0 0.011056664288019781 -0.02750773517689091 0 0.011113869811661943 -0.026641749560158065 0 0.011697993298550133 -0.027065940174295242 0 0.011443113839035166 -0.02734095216097954 0 0.022928625031118602 -0.025972225884770342 0 0.020751703868029693 -0.028187092802737901 0 0.011056664288019781 -0.02750773517689091 0 0.011533239368455871 -0.027903646758265729 0 0.011701782526719183 -0.028863832245815197 0 0.011443113839035166 -0.02734095216097954 0 0.011056664288019781 -0.02750773517689091 0 0.011533239368455871 -0.027903646758265729 0 0.011697993298550133 -0.027065940174295242 0 0.011443113839035166 -0.02734095216097954 0 0.011781731478736726 -0.027769985369527038 0 0.012031758099411706 -0.027318113148046948 0 0.011697993298550133 -0.027065940174295242 0 0.011781731478736726 -0.027769985369527038 0 0.011533239368455871 -0.027903646758265729 0 0.011781731478736726 -0.027769985369527038 0 0.011803709960185503 -0.028036143309535674 0 0.011443113839035166 -0.02734095216097954 0 0.011533239368455871 -0.027903646758265729 0 0.011781731478736726 -0.027769985369527038 0 0.011533239368455871 -0.027903646758265729 0 0.011803709960185503 -0.028036143309535674 0 0.011756674707215505 -0.028371358894658114 0 0.012133022934455489 -0.028807789584200227 0 0.012643508796344599 -0.029387556015537691 0 0.011533239368455871 -0.027903646758265729 0 0.012876598313950246 -0.029442098092261601 0 0.013523059420455166 -0.029408837214327126 0 0.012001432664015706 -0.029751936657179758 0 0.012876598313950246 -0.029442098092261601 0 0.011701782526719183 -0.028863832245815197 0 0.011197637207548213 -0.029758312540769164 0 0.011056664288019781 -0.02750773517689091 0 0.011701782526719183 -0.028863832245815197 0 0.011533239368455871 -0.027903646758265729 0 0.012876598313950246 -0.029442098092261601 0 0.011701782526719183 -0.028863832245815197 0 0.020153663075436073 -0.030383981002945103 0 0.020751703868029693 -0.028187092802737901 0 0.011197637207548213 -0.029758312540769164 0 0.012001432664015706 -0.029751936657179758 0 0.011701782526719183 -0.028863832245815197 0 0.026329493801399532 -0.030674447451333371 0 0.026177019863182872 -0.028823490277656894 0 0.025424176658526327 -0.02976600253851077 0 0.025296297248033735 -0.030657071005173418 0 0.026329493801399532 -0.030674447451333371 0 0.025424176658526327 -0.02976600253851077 0 0.025296297248033735 -0.030657071005173418 0 0.025424176658526327 -0.02976600253851077 0 0.024689291625986324 -0.03011682640988567 0 0.025424176658526327 -0.02976600253851077 0 0.024689291625986324 -0.03011682640988567 0 0.024449810407867839 -0.029257428180068403 0 0.024180549806436708 -0.030827274504309176 0 0.024689291625986324 -0.03011682640988567 0 0.023960423322014156 -0.029948546794287448 0 0.024689291625986324 -0.03011682640988567 0 0.024449810407867839 -0.029257428180068403 0 0.023960423322014156 -0.029948546794287448 0 0.025424176658526327 -0.02976600253851077 0 0.024449810407867839 -0.029257428180068403 0 0.025304080134739625 -0.029020593544236559 0 0.024573707741807876 -0.027657418943812028 0 0.026325872272954239 -0.027312981966764689 0 0.024449810407867839 -0.029257428180068403 0 0.025218463952763739 -0.028241112439211312 0 0.024449810407867839 -0.029257428180068403 0 0.025304080134739625 -0.029020593544236559 0 0.024017920473400324 -0.026710875525692495 0 0.023970832071147776 -0.027380600697151345 0 0.025218463952763739 -0.028241112439211312 0 0.026177019863182872 -0.028823490277656894 0 0.025304080134739625 -0.029020593544236559 0 0.026177019863182872 -0.028823490277656894 0 0.025424176658526327 -0.02976600253851077 0 0.025304080134739625 -0.029020593544236559 0 0.032179491052258098 -0.019235924947516712 0 0.032911384696652043 -0.018944743151290893 0 0.032807062002649219 -0.019616154024709349 0 0.024573707741807876 -0.027657418943812028 0 0.024449810407867839 -0.029257428180068403 0 0.022752195731785413 -0.028680384399455174 0 0.029753758780700568 -0.027911109942181767 0 0.030436995558778317 -0.023481609185259582 0 0.02344117393771222 -0.030669507918576346 0 0.022752195731785413 -0.028680384399455174 0 0.023960423322014156 -0.029948546794287448 0 0.024449810407867839 -0.029257428180068403 0 0.022752195731785413 -0.028680384399455174 0 0.023960423322014156 -0.029948546794287448 0 0.02344117393771222 -0.030669507918576346 0 0.024180549806436708 -0.030827274504309176 0 0.023960423322014156 -0.029948546794287448 0 0.032899269816988402 -0.023634082744350447 0 0.030436995558778317 -0.023481609185259582 0 0.03310168029286982 -0.027592450128162894 0 0.033366425240407935 -0.02757025657586162 0 0.033209266228389503 -0.027123560511164956 0 0.032611230163830995 -0.018350548029737526 0 0.032179491052258098 -0.019235924947516712 0 0.032911384696652043 -0.018944743151290893 0 0.033552809610119035 -0.018287220178558543 0 0.032611230163830995 -0.018350548029737526 0 0.032911384696652043 -0.018944743151290893 0 0.033552809610119035 -0.018287220178558543 0 0.032911384696652043 -0.018944743151290893 0 0.03356390929424527 -0.018917142931580564 0 0.033552809610119035 -0.018287220178558543 0 0.03356390929424527 -0.018917142931580564 0 0.034355484533137401 -0.019070434105016045 0 0.035113328718920256 -0.023162920522929023 0 0.03568658157473413 -0.022365195856672092 0 0.033397391215434849 -0.019430678241558384 0 0.034115929649742825 -0.020036226312101724 0 0.034355484533137401 -0.019070434105016045 0 0.03356390929424527 -0.018917142931580564 0 0.033397391215434849 -0.019430678241558384 0 0.034355484533137401 -0.019070434105016045 0 0.032911384696652043 -0.018944743151290893 0 0.033397391215434849 -0.019430678241558384 0 0.032807062002649219 -0.019616154024709349 0 0.032911384696652043 -0.018944743151290893 0 0.03356390929424527 -0.018917142931580564 0 0.033397391215434849 -0.019430678241558384 0 0.032807062002649219 -0.019616154024709349 0 0.033169183081232442 -0.020187620982211829 0 0.032407713799548099 -0.020318185509860569 0 0.033397391215434849 -0.019430678241558384 0 0.032807062002649219 -0.019616154024709349 0 0.033169183081232442 -0.020187620982211829 0 0.033397391215434849 -0.019430678241558384 0 0.033169183081232442 -0.020187620982211829 0 0.034115929649742825 -0.020036226312101724 0 0.033169183081232442 -0.020187620982211829 0 0.034115929649742825 -0.020036226312101724 0 0.033857331558821126 -0.020982920356290173 0 0.033169183081232442 -0.020187620982211829 0 0.032909460199695886 -0.020782955593998412 0 0.032407713799548099 -0.020318185509860569 0 0.033169183081232442 -0.020187620982211829 0 0.032909460199695886 -0.020782955593998412 0 0.033857331558821126 -0.020982920356290173 0 0.031066196008888887 -0.018113618593604591 0 0.030176015849530807 -0.019621815989178781 0 0.030893181002127984 -0.020364369804392254 0 0.031066196008888887 -0.018113618593604591 0 0.029417106313223227 -0.019019320957229191 0 0.030176015849530807 -0.019621815989178781 0 0.030014399080026198 -0.015208364914790109 0 0.031066196008888887 -0.018113618593604591 0 0.029131160887431045 -0.01745664294878645 0 0.032179491052258098 -0.019235924947516712 0 0.032807062002649219 -0.019616154024709349 0 0.032407713799548099 -0.020318185509860569 0 0.030436995558778317 -0.023481609185259582 0 0.030790609006008114 -0.020398707886594914 0 0.030436995558778317 -0.023481609185259582 0 0.028535628690816845 -0.022790347182009878 0 0.024573707741807876 -0.027657418943812028 0 0.022752195731785413 -0.028680384399455174 0 0.023597556765183429 -0.026401355844122155 0 0.02470792859522403 -0.02409142445427969 0 0.025077303614158063 -0.025349275009003712 0 0.023597556765183429 -0.026401355844122155 0 0.027634629574239677 -0.022425618706332334 0 0.028535628690816845 -0.022790347182009878 0 0.031066196008888887 -0.018113618593604591 0 0.029131160887431045 -0.01745664294878645 0 0.029417106313223227 -0.019019320957229191 0 0.028093807752636923 -0.020015101190242891 0 0.029131160887431045 -0.01745664294878645 0 0.029417106313223227 -0.019019320957229191 0 0.028093807752636923 -0.020015101190242891 0 0.029417106313223227 -0.019019320957229191 0 0.029499212038930526 -0.020285601445516617 0 0.028093807752636923 -0.020015101190242891 0 0.029499212038930526 -0.020285601445516617 0 0.028081244738811399 -0.020762573637628672 0 0.029499212038930526 -0.020285601445516617 0 0.028081244738811399 -0.020762573637628672 0 0.031777424276680288 -0.022122520720047278 0 0.029417106313223227 -0.019019320957229191 0 0.029499212038930526 -0.020285601445516617 0 0.030176015849530807 -0.019621815989178781 0 0.031066196008888887 -0.018113618593604591 0 0.030893181002127984 -0.020364369804392254 0 0.032379922232894993 -0.021554130675071944 0 0.030790609006008114 -0.020398707886594914 0 0.03130957354331898 -0.020915438483998388 0 0.029499212038930526 -0.020285601445516617 0 0.030893181002127984 -0.020364369804392254 0 0.031777424276680288 -0.022122520720047278 0 0.029499212038930526 -0.020285601445516617 0 0.030176015849530807 -0.019621815989178781 0 0.030893181002127984 -0.020364369804392254 0 0.030893181002127984 -0.020364369804392254 0 0.031777424276680288 -0.022122520720047278 0 0.032379922232894993 -0.021554130675071944 0 0.027953441329801852 -0.020902022446831568 0 0.027965849971401925 -0.020885873760090563 0 0.027945648561747558 -0.020931985121376291 0 0.027906785112592342 -0.020935385826001272 0 0.027965849971401925 -0.020885873760090563 0 0.027945648561747558 -0.020931985121376291 0 0.027953441329801852 -0.020902022446831568 0 0.027945648561747558 -0.020931985121376291 0 0.028006323967455348 -0.0209264626862357 0 0.029162463469184257 -0.020743676405030775 0 0.029994925567098402 -0.020817894216384959 0 0.028081244738811399 -0.020762573637628672 0 0.027953441329801852 -0.020902022446831568 0 0.027965849971401925 -0.020885873760090563 0 0.028081244738811399 -0.020762573637628672 0 0.027906785112592342 -0.020935385826001272 0 0.027849963578363744 -0.020957989852943133 0 0.028081244738811399 -0.020762573637628672 0 0.027906785112592342 -0.020935385826001272 0 0.027965849971401925 -0.020885873760090563 0 0.027906785112592342 -0.020935385826001272 0 0.027849963578363744 -0.020957989852943133 0 0.027740828608440671 -0.021012852979536256 0 0.027906785112592342 -0.020935385826001272 0 0.027740828608440671 -0.021012852979536256 0 0.027805189160136003 -0.021029035276346433 0 0.027906785112592342 -0.020935385826001272 0 0.027805189160136003 -0.021029035276346433 0 0.027945648561747558 -0.020931985121376291 0 0.027607250747404062 -0.021091042364865763 0 0.027740828608440671 -0.021012852979536256 0 0.027805189160136003 -0.021029035276346433 0 0.027945648561747558 -0.020931985121376291 0 0.027902179386213893 -0.02101813235646605 0 0.027985949800373385 -0.020975795956351774 0 0.027805189160136003 -0.021029035276346433 0 0.027945648561747558 -0.020931985121376291 0 0.027902179386213893 -0.02101813235646605 0 0.027902179386213893 -0.02101813235646605 0 0.027812392431428679 -0.021086552854717885 0 0.027957184360695136 -0.02105674813136341 0 0.027902179386213893 -0.02101813235646605 0 0.027985949800373385 -0.020975795956351774 0 0.027957184360695136 -0.02105674813136341 0 0.027632368637497545 -0.021128937272772624 0 0.027805189160136003 -0.021029035276346433 0 0.027812392431428679 -0.021086552854717885 0 0.027805189160136003 -0.021029035276346433 0 0.027902179386213893 -0.02101813235646605 0 0.027812392431428679 -0.021086552854717885 0 0.027607250747404062 -0.021091042364865763 0 0.027632368637497545 -0.021128937272772624 0 0.027805189160136003 -0.021029035276346433 0 0.028059816963865371 -0.021005849233186734 0 0.028162454941774984 -0.020972898726276674 0 0.028129590677459591 -0.021051318942070508 0 0.028059816963865371 -0.021005849233186734 0 0.02806294022732753 -0.020948654859382965 0 0.028162454941774984 -0.020972898726276674 0 0.028059816963865371 -0.021005849233186734 0 0.027985949800373385 -0.020975795956351774 0 0.027957184360695136 -0.02105674813136341 0 0.028059816963865371 -0.021005849233186734 0 0.027985949800373385 -0.020975795956351774 0 0.02806294022732753 -0.020948654859382965 0 0.028006323967455348 -0.0209264626862357 0 0.02806294022732753 -0.020948654859382965 0 0.028116265309023607 -0.020882806874446422 0 0.027985949800373385 -0.020975795956351774 0 0.028006323967455348 -0.0209264626862357 0 0.02806294022732753 -0.020948654859382965 0 0.027945648561747558 -0.020931985121376291 0 0.027985949800373385 -0.020975795956351774 0 0.028006323967455348 -0.0209264626862357 0 0.02806294022732753 -0.020948654859382965 0 0.028116265309023607 -0.020882806874446422 0 0.028162454941774984 -0.020972898726276674 0 0.033820349570441506 -0.022326838118138577 0 0.033509924704396281 -0.021511806936167194 0 0.034406871083026841 -0.021997325354044226 0 0.029994925567098402 -0.020817894216384959 0 0.031356200657821805 -0.020556674546369908 0 0.027953441329801852 -0.020902022446831568 0 0.028006323967455348 -0.0209264626862357 0 0.028116265309023607 -0.020882806874446422 0 0.033820349570441506 -0.022326838118138577 0 0.032379922232894993 -0.021554130675071944 0 0.033509924704396281 -0.021511806936167194 0 0.031777424276680288 -0.022122520720047278 0 0.033820349570441506 -0.022326838118138577 0 0.032379922232894993 -0.021554130675071944 0 0.032909460199695886 -0.020782955593998412 0 0.032407713799548099 -0.020318185509860569 0 0.032379922232894993 -0.021554130675071944 0 0.032909460199695886 -0.020782955593998412 0 0.032379922232894993 -0.021554130675071944 0 0.033509924704396281 -0.021511806936167194 0 0.032909460199695886 -0.020782955593998412 0 0.033509924704396281 -0.021511806936167194 0 0.033857331558821126 -0.020982920356290173 0 0.033509924704396281 -0.021511806936167194 0 0.033857331558821126 -0.020982920356290173 0 0.034406871083026841 -0.021997325354044226 0 0.033857331558821126 -0.020982920356290173 0 0.035211488033825601 -0.021451480019630216 0 0.034953103898112237 -0.020764590274827636 0 0.034653133247540935 -0.020829689452924034 0 0.035011122709908263 -0.020888803573315046 0 0.033857331558821126 -0.020982920356290173 0 0.034785245832640616 -0.021502126935942598 0 0.034406871083026841 -0.021997325354044226 0 0.035211488033825601 -0.021451480019630216 0 0.036066052173720616 -0.02106318639443102 0 0.03617254419354031 -0.021432644283677197 0 0.035211488033825601 -0.021451480019630216 0 0.03617254419354031 -0.021432644283677197 0 0.034953103898112237 -0.020764590274827636 0 0.034968283717097391 -0.022125947487382978 0 0.03524571495002507 -0.022213104125333696 0 0.035495252710545933 -0.021915385355101895 0 0.035011122709908263 -0.020888803573315046 0 0.035417857478339157 -0.020724329906826537 0 0.034785245832640616 -0.021502126935942598 0 0.034968283717097391 -0.022125947487382978 0 0.035495252710545933 -0.021915385355101895 0 0.034968283717097391 -0.022125947487382978 0 0.03524571495002507 -0.022213104125333696 0 0.035008119761214013 -0.022365810025414528 0 0.033820349570441506 -0.022326838118138577 0 0.034406871083026841 -0.021997325354044226 0 0.035011062502199014 -0.022465981870884551 0 0.034785245832640616 -0.021502126935942598 0 0.034968283717097391 -0.022125947487382978 0 0.034406871083026841 -0.021997325354044226 0 0.034968283717097391 -0.022125947487382978 0 0.034406871083026841 -0.021997325354044226 0 0.035011062502199014 -0.022465981870884551 0 0.031356200657821805 -0.020556674546369908 0 0.03392375927591694 -0.019759301339960234 0 0.028116265309023607 -0.020882806874446422 0 0.028270006423607257 -0.02090460029036624 0 0.028162454941774984 -0.020972898726276674 0 0.033972285518782175 -0.020025342515169638 0 0.03392375927591694 -0.019759301339960234 0 0.03524571495002507 -0.022213104125333696 0 0.035008119761214013 -0.022365810025414528 0 0.035498074068402177 -0.022306766274877939 0 0.03392375927591694 -0.019759301339960234 0 0.033495211814490555 -0.019211352701058074 0 0.037814681545646038 -0.019351517686488146 0 0.037679293234240137 -0.017745638586850347 0 0.03697595524158561 -0.018598526884461303 0 0.037679293234240137 -0.017745638586850347 0 0.036685578398333377 -0.017721647871806689 0 0.03697595524158561 -0.018598526884461303 0 0.028259454338035898 -0.021001701947607053 0 0.028162454941774984 -0.020972898726276674 0 0.028205370094402847 -0.021042927768773541 0 0.028270006423607257 -0.02090460029036624 0 0.028259454338035898 -0.021001701947607053 0 0.028162454941774984 -0.020972898726276674 0 0.035613935219701097 -0.018314407131977302 0 0.034999983175274946 -0.017778469572451674 0 0.035491209839400698 -0.018975342027039311 0 0.035613935219701097 -0.018314407131977302 0 0.03588928965091101 -0.017831863524841937 0 0.036074315843827073 -0.018673401619531786 0 0.035613935219701097 -0.018314407131977302 0 0.034999983175274946 -0.017778469572451674 0 0.03588928965091101 -0.017831863524841937 0 0.035805084764751229 -0.018933309196220976 0 0.035482103049233764 -0.019401244346545683 0 0.036685578398333377 -0.017721647871806689 0 0.036037463620350298 -0.018669561882826681 0 0.03697595524158561 -0.018598526884461303 0 0.03588928965091101 -0.017831863524841937 0 0.036685578398333377 -0.017721647871806689 0 0.036074315843827073 -0.018673401619531786 0 0.037814681545646038 -0.019351517686488146 0 0.03697595524158561 -0.018598526884461303 0 0.03591916019744202 -0.018845393875187105 0 0.03392375927591694 -0.019759301339960234 0 0.035362005680679244 -0.019574559840088154 0 0.035008119761214013 -0.022365810025414528 0 0.035498074068402177 -0.022306766274877939 0 0.035882432501559598 -0.022562308139732774 0 0.036037463620350298 -0.018669561882826681 0 0.03697595524158561 -0.018598526884461303 0 0.03591916019744202 -0.018845393875187105 0 0.03524571495002507 -0.022213104125333696 0 0.035498074068402177 -0.022306766274877939 0 0.03552625246418957 -0.022163705716872272 0 0.035498074068402177 -0.022306766274877939 0 0.035784601633950475 -0.022251401340839014 0 0.03552625246418957 -0.022163705716872272 0 0.035498074068402177 -0.022306766274877939 0 0.035784601633950475 -0.022251401340839014 0 0.035882432501559598 -0.022562308139732774 0 0.035362005680679244 -0.019574559840088154 0 0.035228615938317484 -0.019988440778314218 0 0.035957303184610809 -0.018854944704481975 0 0.035491209839400698 -0.018975342027039311 0 0.035442820958579577 -0.019637306836285204 0 0.035784601633950475 -0.022251401340839014 0 0.035882432501559598 -0.022562308139732774 0 0.036103386645331095 -0.022225435545709299 0 0.034999983175274946 -0.017778469572451674 0 0.035491209839400698 -0.018975342027039311 0 0.03499998525395244 -0.019419676554374606 0 0.036074315843827073 -0.018673401619531786 0 0.035957303184610809 -0.018854944704481975 0 0.035491209839400698 -0.018975342027039311 0 0.035613935219701097 -0.018314407131977302 0 0.036074315843827073 -0.018673401619531786 0 0.035491209839400698 -0.018975342027039311 0 0.035482103049233764 -0.019401244346545683 0 0.035362005680679244 -0.019574559840088154 0 0.035491209839400698 -0.018975342027039311 0 0.035442820958579577 -0.019637306836285204 0 0.03499998525395244 -0.019419676554374606 0 0.035228615938317484 -0.019988440778314218 0 0.035000177643999202 -0.019422917792299207 0 0.03544851827104363 -0.01964527864983124 0 0.034999997611938526 -0.019419719457511857 0 0.034999999025056704 -0.020313075375744782 0 0.035253466849212552 -0.020095483890630959 0 0.034999668290472546 -0.020314474751871963 0 0.036066052173720616 -0.02106318639443102 0 0.035228615938317484 -0.019988440778314218 0 0.035000513658380424 -0.020312386041300659 0 0.034999668290472546 -0.020314474751871963 0 0.036066052173720616 -0.02106318639443102 0 0.03617254419354031 -0.021432644283677197 0 0.035228615938317484 -0.019988440778314218 0 0.035417857478339157 -0.020724329906826537 0 0.035784601633950475 -0.022251401340839014 0 0.036103386645331095 -0.022225435545709299 0 0.035495252710545933 -0.021915385355101895 0 0.03524571495002507 -0.022213104125333696 0 0.03552625246418957 -0.022163705716872272 0 0.035495252710545933 -0.021915385355101895 0 0.035784601633950475 -0.022251401340839014 0 0.03552625246418957 -0.022163705716872272 0 0.035495252710545933 -0.021915385355101895 0 0.034999668290472546 -0.020314474751871963 0 0.03617254419354031 -0.021432644283677197 0 0.034999541787460432 -0.025481842848392815 0 0.03617254419354031 -0.021432644283677197 0 0.037323517879588382 -0.023276978178044277 0 0.034999541787460432 -0.025481842848392815 0 0.035953140508542571 -0.02172435976092834 0 0.035934170389867195 -0.021926088872468358 0 0.03617254419354031 -0.021432644283677197 0 0.034953103898112237 -0.020764590274827636 0 0.035362431057353823 -0.020104662475897733 0 0.034115929649742825 -0.020036226312101724 0 0.033857331558821126 -0.020982920356290173 0 0.034953103898112237 -0.020764590274827636 0 0.034115929649742825 -0.020036226312101724 0 0.034953103898112237 -0.020764590274827636 0 0.035362431057353823 -0.020104662475897733 0 0.035934170389867195 -0.021926088872468358 0 0.03568658157473413 -0.022365195856672092 0 0.034115929649742825 -0.020036226312101724 0 0.035362431057353823 -0.020104662475897733 0 0.034355484533137401 -0.019070434105016045 0 0.037323517879588382 -0.023276978178044277 0 0.036999372877681382 -0.024835777866677969 0 0.03810701498887694 -0.025065050268321169 0 0.037834848019592575 -0.026281880939828424 0 0.03810701498887694 -0.025065050268321169 0 0.037438155859602758 -0.02590339782508886 0 0.037834848019592575 -0.026281880939828424 0 0.038326581792678824 -0.026159256931989578 0 0.03810701498887694 -0.025065050268321169 0 0.036999372877681382 -0.024835777866677969 0 0.03810701498887694 -0.025065050268321169 0 0.037438155859602758 -0.02590339782508886 0 0.036999372877681382 -0.024835777866677969 0 0.037438155859602758 -0.02590339782508886 0 0.036381434194546106 -0.025866414152819182 0 0.037323517879588382 -0.023276978178044277 0 0.036999372877681382 -0.024835777866677969 0 0.034999541787460432 -0.025481842848392815 0 0.036109483818530533 -0.027311114135686786 0 0.036381434194546106 -0.025866414152819182 0 0.034999541787460432 -0.025481842848392815 0 0.036999372877681382 -0.024835777866677969 0 0.036381434194546106 -0.025866414152819182 0 0.034999541787460432 -0.025481842848392815 0 0.036999915185910642 -0.0095714945305961155 0 0.036702146948296502 -0.010382651672245712 0 0.037072568347968689 -0.010963660938088126 0 0.034740258386801608 -0.01160468718219552 0 0.034522265969977359 -0.012313071290671872 0 0.036526772838462368 -0.009958733140259959 0 0.036205415140604644 -0.010338951089451102 0 0.036208732093020439 -0.0095140592775962863 0 0.036205415140604644 -0.010338951089451102 0 0.035578694179266575 -0.0099287854433743241 0 0.036208732093020439 -0.0095140592775962863 0 0.036526772838462368 -0.009958733140259959 0 0.036999915185910642 -0.0095714945305961155 0 0.036702146948296502 -0.010382651672245712 0 0.036526772838462368 -0.009958733140259959 0 0.036999915185910642 -0.0095714945305961155 0 0.036208732093020439 -0.0095140592775962863 0 0.036702146948296502 -0.010382651672245712 0 0.036476846159298568 -0.010882339182931489 0 0.037072568347968689 -0.010963660938088126 0 0.036702146948296502 -0.010382651672245712 0 0.036205415140604644 -0.010338951089451102 0 0.036476846159298568 -0.010882339182931489 0 0.036526772838462368 -0.009958733140259959 0 0.036702146948296502 -0.010382651672245712 0 0.036205415140604644 -0.010338951089451102 0 0.036205415140604644 -0.010338951089451102 0 0.036070417018763117 -0.010819347523134244 0 0.036476846159298568 -0.010882339182931489 0 0.036205415140604644 -0.010338951089451102 0 0.036070417018763117 -0.010819347523134244 0 0.035802780999608687 -0.010490944958625108 0 0.036070417018763117 -0.010819347523134244 0 0.035802780999608687 -0.010490944958625108 0 0.03544319968996483 -0.010838976212877587 0 0.036205415140604644 -0.010338951089451102 0 0.035802780999608687 -0.010490944958625108 0 0.035578694179266575 -0.0099287854433743241 0 0.035802780999608687 -0.010490944958625108 0 0.03544319968996483 -0.010838976212877587 0 0.035578694179266575 -0.0099287854433743241 0 0.034999863504307969 -0.010817644167469999 0 0.035578694179266575 -0.0099287854433743241 0 0.03499958084597838 -0.0087793366391429005 0 0.034999863504307969 -0.010817644167469999 0 0.03544319968996483 -0.010838976212877587 0 0.035578694179266575 -0.0099287854433743241 0 0.035578694179266575 -0.0099287854433743241 0 0.03499958084597838 -0.0087793366391429005 0 0.035753220843073689 -0.0088289643013046547 0 0.035578694179266575 -0.0099287854433743241 0 0.035753220843073689 -0.0088289643013046547 0 0.036208732093020439 -0.0095140592775962863 0 0.035753220843073689 -0.0088289643013046547 0 0.036406907938768454 -0.0084817057345105504 0 0.035839779616920149 -0.0073551629388725224 0 0.036406907938768454 -0.0084817057345105504 0 0.037668458988937559 -0.0095600103525633959 0 0.036920685017526211 -0.0067394651458939202 0 0.035753220843073689 -0.0088289643013046547 0 0.036208732093020439 -0.0095140592775962863 0 0.036406907938768454 -0.0084817057345105504 0 0.036999915185910642 -0.0095714945305961155 0 0.036208732093020439 -0.0095140592775962863 0 0.036406907938768454 -0.0084817057345105504 0 0.036999915185910642 -0.0095714945305961155 0 0.036406907938768454 -0.0084817057345105504 0 0.037668458988937559 -0.0095600103525633959 0 0.036608284208277442 -0.0058546032161671023 0 0.037201088258317562 -0.0045912689925750802 0 0.036920685017526211 -0.0067394651458939202 0 0.035161797575531228 -0.0080352285167062439 0 0.035406853922930297 -0.007542687337157611 0 0.036608284208277442 -0.0058546032161671023 0 0.036682651731761835 -0.0049491381677199244 0 0.036408779302002509 -0.0049721129298619261 0 0.036682651731761835 -0.0049491381677199244 0 0.036408779302002509 -0.0049721129298619261 0 0.036576499258057935 -0.0044467614625885912 0 0.036682651731761835 -0.0049491381677199244 0 0.037201088258317562 -0.0045912689925750802 0 0.036576499258057935 -0.0044467614625885912 0 0.036608284208277442 -0.0058546032161671023 0 0.036682651731761835 -0.0049491381677199244 0 0.037201088258317562 -0.0045912689925750802 0 0.036608284208277442 -0.0058546032161671023 0 0.036408779302002509 -0.0049721129298619261 0 0.036209428282140327 -0.005188564798766726 0 0.036408779302002509 -0.0049721129298619261 0 0.036020436764782199 -0.0044264347389537982 0 0.036294336463339003 -0.0044742767795364876 0 0.036408779302002509 -0.0049721129298619261 0 0.036294336463339003 -0.0044742767795364876 0 0.036576499258057935 -0.0044467614625885912 0 0.036020436764782199 -0.0044264347389537982 0 0.035707478628453596 -0.0043833537494614751 0 0.036209428282140327 -0.005188564798766726 0 0.036408779302002509 -0.0049721129298619261 0 0.036020436764782199 -0.0044264347389537982 0 0.036209428282140327 -0.005188564798766726 0 0.036020436764782199 -0.0044264347389537982 0 0.036223358048263356 -0.0040815072888291089 0 0.035889062689258525 -0.0039324421991989668 0 0.036223358048263356 -0.0040815072888291089 0 0.036576499258057935 -0.0044467614625885912 0 0.036568369253406972 -0.0039383116287943229 0 0.036020436764782199 -0.0044264347389537982 0 0.036294336463339003 -0.0044742767795364876 0 0.036223358048263356 -0.0040815072888291089 0 0.036294336463339003 -0.0044742767795364876 0 0.036223358048263356 -0.0040815072888291089 0 0.036576499258057935 -0.0044467614625885912 0 0.036223358048263356 -0.0040815072888291089 0 0.036568369253406972 -0.0039383116287943229 0 0.036169632527072004 -0.0036471593099924081 0 0.035889062689258525 -0.0039324421991989668 0 0.036169632527072004 -0.0036471593099924081 0 0.035689734765874011 -0.0035245866563973177 0 0.036223358048263356 -0.0040815072888291089 0 0.035889062689258525 -0.0039324421991989668 0 0.036169632527072004 -0.0036471593099924081 0 0.037668458988937559 -0.0095600103525633959 0 0.037829133858400463 -0.011646253169523443 0 0.037107085542606201 -0.011315310878909211 0 0.036999915185910642 -0.0095714945305961155 0 0.037668458988937559 -0.0095600103525633959 0 0.037107085542606201 -0.011315310878909211 0 0.035161797575531228 -0.0080352285167062439 0 0.034274408602980574 -0.0097440118150003904 0 0.037201088258317562 -0.0045912689925750802 0 0.036568369253406972 -0.0039383116287943229 0 0.036866527175856881 -0.0035182978154154111 0 0.037201088258317562 -0.0045912689925750802 0 0.036576499258057935 -0.0044467614625885912 0 0.036568369253406972 -0.0039383116287943229 0 0.036866527175856881 -0.0035182978154154111 0 0.036218647588913411 -0.0031939540279402319 0 0.036648890219368895 -0.0027481680203083683 0 0.034274408602980574 -0.0097440118150003904 0 0.032626980856669124 -0.014479293105362168 0 0.037829133858400463 -0.011646253169523443 0 0.037230323270667401 -0.012931619229201118 0 0.037107085542606201 -0.011315310878909211 0 0.036568369253406972 -0.0039383116287943229 0 0.036866527175856881 -0.0035182978154154111 0 0.036451730303547841 -0.0035653280086207621 0 0.036866527175856881 -0.0035182978154154111 0 0.036451730303547841 -0.0035653280086207621 0 0.036218647588913411 -0.0031939540279402319 0 0.036169632527072004 -0.0036471593099924081 0 0.036218647588913411 -0.0031939540279402319 0 0.035689734765874011 -0.0035245866563973177 0 0.036568369253406972 -0.0039383116287943229 0 0.036451730303547841 -0.0035653280086207621 0 0.036169632527072004 -0.0036471593099924081 0 0.036451730303547841 -0.0035653280086207621 0 0.036169632527072004 -0.0036471593099924081 0 0.036218647588913411 -0.0031939540279402319 0 0.032433391608781455 -0.014902357228266079 0 0.0319528035029455 -0.013483043887761221 0 0.028545613565895463 -0.021287812487035498 0 0.028326696850266207 -0.021188501497786377 0 0.02823017647872782 -0.021330924655758046 0 0.036218647588913411 -0.0031939540279402319 0 0.036566043760660631 -0.0026907107308655363 0 0.035535566845116634 -0.0027410342322073877 0 0.037829133858400463 -0.011646253169523443 0 0.037230323270667401 -0.012931619229201118 0 0.038054630427263043 -0.013590146939590932 0 0.03377520261734844 -0.014083479492624661 0 0.032626980856669124 -0.014479293105362168 0 0.03377520261734844 -0.014083479492624661 0 0.033411998412776797 -0.014958023503379672 0 0.036218647588913411 -0.0031939540279402319 0 0.036648890219368895 -0.0027481680203083683 0 0.036566043760660631 -0.0026907107308655363 0 0.032626980856669124 -0.014479293105362168 0 0.032433391608781455 -0.014902357228266079 0 0.034343249615915505 -0.015931144071786078 0 0.03410909573356951 -0.01439844248750239 0 0.032380875097940416 -0.014426403704196455 0 0.032626980856669124 -0.014479293105362168 0 0.032559928573271564 -0.014932619297960087 0 0.032559928573271564 -0.014932619297960087 0 0.032433391608781455 -0.014902357228266079 0 0.033761844773869169 -0.014889685635664077 0 0.033334717799949398 -0.014568971544836893 0 0.033721024692196587 -0.014489883271139571 0 0.032559928573271564 -0.014932619297960087 0 0.033411998412776797 -0.014958023503379672 0 0.033334717799949398 -0.014568971544836893 0 0.033323257262104194 -0.014496933275767943 0 0.033721024692196587 -0.014489883271139571 0 0.037219381138228577 -0.012869726908574441 0 0.036112451767017349 -0.012873349937750809 0 0.036622607130714351 -0.013686025324998416 0 0.033411998412776797 -0.014958023503379672 0 0.034843291625624474 -0.013793716335693172 0 0.037201175825680791 -0.012802287281606529 0 0.036103740723839206 -0.012819340973951886 0 0.036474909646726353 -0.012236434126976892 0 0.037149651444363663 -0.01222155904398313 0 0.037201175825680791 -0.012802287281606529 0 0.036474909646726353 -0.012236434126976892 0 0.03377520261734844 -0.014083479492624661 0 0.034522265969977359 -0.012313071290671872 0 0.03377520261734844 -0.014083479492624661 0 0.034377202423596646 -0.013518783441246565 0 0.037164815872037023 -0.012197621305278707 0 0.036257978960226922 -0.011475973064643411 0 0.037072568347968689 -0.010963660938088126 0 0.037149651444363663 -0.01222155904398313 0 0.036474909646726353 -0.012236434126976892 0 0.036326356382167968 -0.011552664191404348 0 0.036474909646726353 -0.012236434126976892 0 0.036326356382167968 -0.011552664191404348 0 0.035469879793704175 -0.011891316564969045 0 0.036070417018763117 -0.010819347523134244 0 0.036257978960226922 -0.011475973064643411 0 0.036476846159298568 -0.010882339182931489 0 0.036257978960226922 -0.011475973064643411 0 0.036476846159298568 -0.010882339182931489 0 0.037072568347968689 -0.010963660938088126 0 0.034999863504307969 -0.010817644167469999 0 0.035469879793704175 -0.011891316564969045 0 0.034999984939903105 -0.012854698759839219 0 0.034999863504307969 -0.010817644167469999 0 0.03544319968996483 -0.010838976212877587 0 0.035469879793704175 -0.011891316564969045 0 0.03544319968996483 -0.010838976212877587 0 0.036326356382167968 -0.011552664191404348 0 0.035469879793704175 -0.011891316564969045 0 0.034425796322257514 -0.013234417796650107 0 0.034377202423596646 -0.013518783441246565 0 0.036070417018763117 -0.010819347523134244 0 0.03544319968996483 -0.010838976212877587 0 0.036257978960226922 -0.011475973064643411 0 0.034843291625624474 -0.013793716335693172 0 0.035000049149890279 -0.012857486427148016 0 0.036103740723839206 -0.012819340973951886 0 0.035469879793704175 -0.011891316564969045 0 0.034999984939903105 -0.012854698759839219 0 0.036103740723839206 -0.012819340973951886 0 0.036474909646726353 -0.012236434126976892 0 0.035469879793704175 -0.011891316564969045 0 0.036112451767017349 -0.012873349937750809 0 0.034999983029943775 -0.012854832855071467 0 0.035894383268501001 -0.01390855414642069 0 0.034999983029943775 -0.012854832855071467 0 0.035894383268501001 -0.01390855414642069 0 0.034999977920021359 -0.014495994723022283 0 0.037219381138228577 -0.012869726908574441 0 0.036622607130714351 -0.013686025324998416 0 0.037387367317358138 -0.014483700016501736 0 0.036112451767017349 -0.012873349937750809 0 0.035894383268501001 -0.01390855414642069 0 0.036622607130714351 -0.013686025324998416 0 0.035894383268501001 -0.01390855414642069 0 0.036622607130714351 -0.013686025324998416 0 0.036562407392328293 -0.014490057781877407 0 0.036622607130714351 -0.013686025324998416 0 0.036562407392328293 -0.014490057781877407 0 0.037387367317358138 -0.014483700016501736 0 0.035894383268501001 -0.01390855414642069 0 0.036562407392328293 -0.014490057781877407 0 0.035919188188437146 -0.015118687426195805 0 0.036562407392328293 -0.014490057781877407 0 0.036845573957181112 -0.0153127440719309 0 0.037387367317358138 -0.014483700016501736 0 0.036562407392328293 -0.014490057781877407 0 0.036845573957181112 -0.0153127440719309 0 0.035919188188437146 -0.015118687426195805 0 0.034999977920021359 -0.014495994723022283 0 0.035919188188437146 -0.015118687426195805 0 0.034999975301030571 -0.016137247411210611 0 0.035894383268501001 -0.01390855414642069 0 0.034999977920021359 -0.014495994723022283 0 0.035919188188437146 -0.015118687426195805 0 0.035919188188437146 -0.015118687426195805 0 0.034999975301030571 -0.016137247411210611 0 0.036126312183672973 -0.016619209518476234 0 0.036845573957181112 -0.0153127440719309 0 0.036126312183672973 -0.016619209518476234 0 0.037542015773968047 -0.016119487874995338 0 0.036845573957181112 -0.0153127440719309 0 0.035919188188437146 -0.015118687426195805 0 0.036126312183672973 -0.016619209518476234 0 0.03588928965091101 -0.017831863524841937 0 0.036685578398333377 -0.017721647871806689 0 0.036126312183672973 -0.016619209518476234 0 0.036685578398333377 -0.017721647871806689 0 0.036126312183672973 -0.016619209518476234 0 0.037542015773968047 -0.016119487874995338 0 0.034999983175274946 -0.017778469572451674 0 0.034999975301030571 -0.016137247411210611 0 0.036126312183672973 -0.016619209518476234 0 0.034999983175274946 -0.017778469572451674 0 0.03588928965091101 -0.017831863524841937 0 0.036126312183672973 -0.016619209518476234 0 0.028162454941774984 -0.020972898726276674 0 0.028205370094402847 -0.021042927768773541 0 0.028129590677459591 -0.021051318942070508 0 0.028205370094402847 -0.021042927768773541 0 0.02818942543537143 -0.021074608772298269 0 0.028129590677459591 -0.021051318942070508 0 0.033495211814490555 -0.019211352701058074 0 0.033300904458194891 -0.018398673558474816 0 0.028259454338035898 -0.021001701947607053 0 0.028205370094402847 -0.021042927768773541 0 0.028240506256212442 -0.021064893319153444 0 0.037679293234240137 -0.017745638586850347 0 0.036685578398333377 -0.017721647871806689 0 0.037542015773968047 -0.016119487874995338 0 0.028205370094402847 -0.021042927768773541 0 0.028240506256212442 -0.021064893319153444 0 0.02818942543537143 -0.021074608772298269 0 0.028240506256212442 -0.021064893319153444 0 0.02818942543537143 -0.021074608772298269 0 0.02822714315603481 -0.021061572098346699 0 0.02818942543537143 -0.021074608772298269 0 0.028209240848907503 -0.021071870083693555 0 0.02822714315603481 -0.021061572098346699 0 0.028209240848907503 -0.021071870083693555 0 0.02822714315603481 -0.021061572098346699 0 0.028259028294568882 -0.021020842576093827 0 0.028240506256212442 -0.021064893319153444 0 0.02822714315603481 -0.021061572098346699 0 0.02818004740183986 -0.02103316585333409 0 0.036845573957181112 -0.0153127440719309 0 0.037542015773968047 -0.016119487874995338 0 0.037387367317358138 -0.014483700016501736 0 0.033300904458194891 -0.018398673558474816 0 0.033280400507591054 -0.017238850041208346 0 0.02822714315603481 -0.021061572098346699 0 0.028259028294568882 -0.021020842576093827 0 0.02818004740183986 -0.02103316585333409 0 0.028289080176805665 -0.021049747976853481 0 0.02828368288942459 -0.021051781508359554 0 0.028259028294568882 -0.021020842576093827 0 0.032559928573271564 -0.014932619297960087 0 0.032120934098426909 -0.017640339427838315 0 0.028151464737229046 -0.020643469953234569 0 0.028259028294568882 -0.021020842576093827 0 0.02818004740183986 -0.02103316585333409 0 0.028280538210524592 -0.020637511199990761 0 0.028151464737229046 -0.020643469953234569 0 0.028259028294568882 -0.021020842576093827 0 0.033411998412776797 -0.014958023503379672 0 0.033280400507591054 -0.017238850041208346 0 0.032433391608781455 -0.014902357228266079 0 0.031134391149873378 -0.01713130168307005 0 0.02828368288942459 -0.021051781508359554 0 0.028259028294568882 -0.021020842576093827 0 0.028214173187921736 -0.021069281551979339 0 0.028209240848907503 -0.021071870083693555 0 0.028259028294568882 -0.021020842576093827 0 0.028214173187921736 -0.021069281551979339 0 0.031134391149873378 -0.01713130168307005 0 0.03069689021817186 -0.017762032789799029 0 0.028326696850266207 -0.021188501497786377 0 0.028115268742805271 -0.021242452699976506 0 0.02823017647872782 -0.021330924655758046 0 0.028326696850266207 -0.021188501497786377 0 0.028115268742805271 -0.021242452699976506 0 0.028122909728868759 -0.021133275294600361 0 0.028115268742805271 -0.021242452699976506 0 0.028122909728868759 -0.021133275294600361 0 0.027962457498548837 -0.021213434946650501 0 0.028115268742805271 -0.021242452699976506 0 0.027962457498548837 -0.021213434946650501 0 0.027979318259403991 -0.021345503440661225 0 0.028122909728868759 -0.021133275294600361 0 0.027958140929965274 -0.021130325296788703 0 0.027962457498548837 -0.021213434946650501 0 0.028209240848907503 -0.021071870083693555 0 0.028214173187921736 -0.021069281551979339 0 0.028122909728868759 -0.021133275294600361 0 0.02818942543537143 -0.021074608772298269 0 0.028209240848907503 -0.021071870083693555 0 0.028122909728868759 -0.021133275294600361 0 0.02818942543537143 -0.021074608772298269 0 0.028122909728868759 -0.021133275294600361 0 0.028098825606644059 -0.021094738948832195 0 0.02818942543537143 -0.021074608772298269 0 0.028098825606644059 -0.021094738948832195 0 0.028129590677459591 -0.021051318942070508 0 0.028122909728868759 -0.021133275294600361 0 0.028098825606644059 -0.021094738948832195 0 0.027958140929965274 -0.021130325296788703 0 0.028098825606644059 -0.021094738948832195 0 0.027958140929965274 -0.021130325296788703 0 0.028038240792401303 -0.021072763685611465 0 0.028059816963865371 -0.021005849233186734 0 0.028038240792401303 -0.021072763685611465 0 0.027957184360695136 -0.02105674813136341 0 0.027958140929965274 -0.021130325296788703 0 0.028038240792401303 -0.021072763685611465 0 0.027957184360695136 -0.02105674813136341 0 0.028059816963865371 -0.021005849233186734 0 0.028038240792401303 -0.021072763685611465 0 0.028129590677459591 -0.021051318942070508 0 0.028098825606644059 -0.021094738948832195 0 0.028038240792401303 -0.021072763685611465 0 0.028129590677459591 -0.021051318942070508 0 0.027698450873512751 -0.021149007972864928 0 0.027849654554608961 -0.02111557904736815 0 0.02777767791777103 -0.021163358134462896 0 0.027812392431428679 -0.021086552854717885 0 0.027698450873512751 -0.021149007972864928 0 0.027849654554608961 -0.02111557904736815 0 0.027632368637497545 -0.021128937272772624 0 0.027812392431428679 -0.021086552854717885 0 0.027698450873512751 -0.021149007972864928 0 0.027812392431428679 -0.021086552854717885 0 0.027957184360695136 -0.02105674813136341 0 0.027849654554608961 -0.02111557904736815 0 0.027958140929965274 -0.021130325296788703 0 0.027957184360695136 -0.02105674813136341 0 0.027849654554608961 -0.02111557904736815 0 0.027958140929965274 -0.021130325296788703 0 0.02777767791777103 -0.021163358134462896 0 0.027811338310570945 -0.02120210374776222 0 0.027958140929965274 -0.021130325296788703 0 0.027849654554608961 -0.02111557904736815 0 0.02777767791777103 -0.021163358134462896 0 0.02777767791777103 -0.021163358134462896 0 0.02770453754682899 -0.021185628805600487 0 0.02761846008941974 -0.021195985173863261 0 0.027698450873512751 -0.021149007972864928 0 0.02777767791777103 -0.021163358134462896 0 0.02761846008941974 -0.021195985173863261 0 0.02777767791777103 -0.021163358134462896 0 0.02770453754682899 -0.021185628805600487 0 0.027811338310570945 -0.02120210374776222 0 0.02770453754682899 -0.021185628805600487 0 0.027811338310570945 -0.02120210374776222 0 0.027669410891324013 -0.021201808183964346 0 0.027811338310570945 -0.02120210374776222 0 0.027702636735509507 -0.021267716537073079 0 0.027669410891324013 -0.021201808183964346 0 0.027958140929965274 -0.021130325296788703 0 0.027811338310570945 -0.02120210374776222 0 0.027962457498548837 -0.021213434946650501 0 0.027962457498548837 -0.021213434946650501 0 0.027843421717945661 -0.021274658766472471 0 0.027979318259403991 -0.021345503440661225 0 0.027811338310570945 -0.02120210374776222 0 0.027962457498548837 -0.021213434946650501 0 0.027843421717945661 -0.021274658766472471 0 0.027811338310570945 -0.02120210374776222 0 0.027843421717945661 -0.021274658766472471 0 0.027702636735509507 -0.021267716537073079 0 0.027843421717945661 -0.021274658766472471 0 0.027772873598152066 -0.021355209890793141 0 0.027702636735509507 -0.021267716537073079 0 0.034504238684367534 -0.0032004362293902885 0 0.034544810935056854 -0.0032383961228740505 0 0.034543062561481395 -0.0032460703344605597 0 0.034544810935056854 -0.0032383961228740505 0 0.034549669350264378 -0.0032483987018008583 0 0.034507926223514326 -0.0032987729340330065 0 0.034544810935056854 -0.0032383961228740505 0 0.034549669350264378 -0.0032483987018008583 0 0.034543062561481395 -0.0032460703344605597 0 0.034544810935056854 -0.0032383961228740505 0 0.03482648251185521 -0.0032124886386810793 0 0.034655926382903435 -0.0033378831999798203 0 0.034544810935056854 -0.0032383961228740505 0 0.034745438233322379 -0.0029484583724500696 0 0.03482648251185521 -0.0032124886386810793 0 0.034544810935056854 -0.0032383961228740505 0 0.034507926223514326 -0.0032987729340330065 0 0.034655926382903435 -0.0033378831999798203 0 0.034504238684367534 -0.0032004362293902885 0 0.034544810935056854 -0.0032383961228740505 0 0.034745438233322379 -0.0029484583724500696 0 0.031043636064800768 -0.012647295943629826 0 0.031483381450108996 -0.012865517840515034 0 0.027843421717945661 -0.021274658766472471 0 0.027772873598152066 -0.021355209890793141 0 0.027979318259403991 -0.021345503440661225 0 0.031483381450108996 -0.012865517840515034 0 0.0319528035029455 -0.013483043887761221 0 0.034745438233322379 -0.0029484583724500696 0 0.035297812349943725 -0.0031530894040387438 0 0.03482648251185521 -0.0032124886386810793 0 0.028115268742805271 -0.021242452699976506 0 0.027979318259403991 -0.021345503440661225 0 0.02823017647872782 -0.021330924655758046 0 0.034745438233322379 -0.0029484583724500696 0 0.035535566845116634 -0.0027410342322073877 0 0.035297812349943725 -0.0031530894040387438 0 0.036218647588913411 -0.0031939540279402319 0 0.035535566845116634 -0.0027410342322073877 0 0.035297812349943725 -0.0031530894040387438 0 0.036218647588913411 -0.0031939540279402319 0 0.035297812349943725 -0.0031530894040387438 0 0.035689734765874011 -0.0035245866563973177 0 0.035297812349943725 -0.0031530894040387438 0 0.035689734765874011 -0.0035245866563973177 0 0.035086166973313342 -0.0034570142692563798 0 0.035297812349943725 -0.0031530894040387438 0 0.03482648251185521 -0.0032124886386810793 0 0.035086166973313342 -0.0034570142692563798 0 0.03482648251185521 -0.0032124886386810793 0 0.035086166973313342 -0.0034570142692563798 0 0.034655926382903435 -0.0033378831999798203 0 0.035086166973313342 -0.0034570142692563798 0 0.03481579209928768 -0.0034947910009670274 0 0.034655926382903435 -0.0033378831999798203 0 0.035086166973313342 -0.0034570142692563798 0 0.035104796688457701 -0.0036850787396981296 0 0.03551662431793217 -0.0039105848052181551 0 0.035086166973313342 -0.0034570142692563798 0 0.035104796688457701 -0.0036850787396981296 0 0.03481579209928768 -0.0034947910009670274 0 0.035104796688457701 -0.0036850787396981296 0 0.03481579209928768 -0.0034947910009670274 0 0.034850440455670664 -0.0036487966727689032 0 0.035689734765874011 -0.0035245866563973177 0 0.035086166973313342 -0.0034570142692563798 0 0.03551662431793217 -0.0039105848052181551 0 0.035889062689258525 -0.0039324421991989668 0 0.035689734765874011 -0.0035245866563973177 0 0.03551662431793217 -0.0039105848052181551 0 0.035104796688457701 -0.0036850787396981296 0 0.03551662431793217 -0.0039105848052181551 0 0.035313288149070379 -0.0040549260867502263 0 0.036020436764782199 -0.0044264347389537982 0 0.035889062689258525 -0.0039324421991989668 0 0.03551662431793217 -0.0039105848052181551 0 0.035707478628453596 -0.0043833537494614751 0 0.035687683180448682 -0.0046596241095918861 0 0.036209428282140327 -0.005188564798766726 0 0.036020436764782199 -0.0044264347389537982 0 0.03551662431793217 -0.0039105848052181551 0 0.035707478628453596 -0.0043833537494614751 0 0.03551662431793217 -0.0039105848052181551 0 0.035707478628453596 -0.0043833537494614751 0 0.035313288149070379 -0.0040549260867502263 0 0.035707478628453596 -0.0043833537494614751 0 0.035313288149070379 -0.0040549260867502263 0 0.035687683180448682 -0.0046596241095918861 0 0.034850440455670664 -0.0036487966727689032 0 0.035313288149070379 -0.0040549260867502263 0 0.035005840039680568 -0.0040924962871303708 0 0.035104796688457701 -0.0036850787396981296 0 0.034850440455670664 -0.0036487966727689032 0 0.035313288149070379 -0.0040549260867502263 0 0.035313288149070379 -0.0040549260867502263 0 0.035005840039680568 -0.0040924962871303708 0 0.035687683180448682 -0.0046596241095918861 0 0.034850440455670664 -0.0036487966727689032 0 0.035005840039680568 -0.0040924962871303708 0 0.034547256605840522 -0.0034433023342050162 0 0.034073249333780815 -0.0029440382663816467 0 0.034503843939359131 -0.0032040640286327658 0 0.03442982973265598 -0.0033437726947239651 0 0.035005840039680568 -0.0040924962871303708 0 0.034547256605840522 -0.0034433023342050162 0 0.034073249333780815 -0.0029440382663816467 0 0.034547256605840522 -0.0034433023342050162 0 0.034073249333780815 -0.0029440382663816467 0 0.03442982973265598 -0.0033437726947239651 0 0.034850440455670664 -0.0036487966727689032 0 0.034547256605840522 -0.0034433023342050162 0 0.03442982973265598 -0.0033437726947239651 0 0.034073249333780815 -0.0029440382663816467 0 0.034503843939359131 -0.0032040640286327658 0 0.034808341195269328 -0.0028416307531666431 0 0.034073249333780815 -0.0029440382663816467 0 0.034808341195269328 -0.0028416307531666431 0 0.034080566054033562 -0.0018647639000659586 0 0.034503843939359131 -0.0032040640286327658 0 0.034507926223514326 -0.0032987729340330065 0 0.03442982973265598 -0.0033437726947239651 0 0.034503843939359131 -0.0032040640286327658 0 0.034549669350264378 -0.0032483987018008583 0 0.034507926223514326 -0.0032987729340330065 0 0.034507926223514326 -0.0032987729340330065 0 0.034655926382903435 -0.0033378831999798203 0 0.03442982973265598 -0.0033437726947239651 0 0.03481579209928768 -0.0034947910009670274 0 0.034655926382903435 -0.0033378831999798203 0 0.03442982973265598 -0.0033437726947239651 0 0.03481579209928768 -0.0034947910009670274 0 0.034850440455670664 -0.0036487966727689032 0 0.03442982973265598 -0.0033437726947239651 0 0.034697820212652677 -0.0031404934807254402 0 0.034653464298992562 -0.0031985083801037949 0 0.034705270350753735 -0.0031142456284988665 0 0.034697820212652677 -0.0031404934807254402 0 0.034653464298992562 -0.0031985083801037949 0 0.034681681865636339 -0.0031966581894062002 0 0.034503843939359131 -0.0032040640286327658 0 0.034549669350264378 -0.0032483987018008583 0 0.034705270350753735 -0.0031142456284988665 0 0.034549669350264378 -0.0032483987018008583 0 0.034653464298992562 -0.0031985083801037949 0 0.034705270350753735 -0.0031142456284988665 0 0.034705270350753735 -0.0031142456284988665 0 0.034808341195269328 -0.0028416307531666431 0 0.034719548207646125 -0.0030782032741905473 0 0.033285108726311491 -0.001770955866493008 0 0.032785556236772102 -0.0018952589051364351 0 0.034503843939359131 -0.0032040640286327658 0 0.034705270350753735 -0.0031142456284988665 0 0.034808341195269328 -0.0028416307531666431 0 0.034697820212652677 -0.0031404934807254402 0 0.034705270350753735 -0.0031142456284988665 0 0.034719548207646125 -0.0030782032741905473 0 0.032785556236772102 -0.0018952589051364351 0 0.031350912273831404 -0.0021966178790485064 0 0.034697820212652677 -0.0031404934807254402 0 0.034719548207646125 -0.0030782032741905473 0 0.034722785415418969 -0.0031129666627776236 0 0.032087970940137871 0.00067746523308600474 0 0.030923220192129983 0.00093174779120242424 0 0.031649148483008496 8.5031302563642902e-05 0 0.030887514455119679 3.2284241105716133e-05 0 0.030597859835729362 -0.00021781561907767779 0 0.030892665924286713 -0.00048429326053006015 0 0.030887514455119679 3.2284241105716133e-05 0 0.030892665924286713 -0.00048429326053006015 0 0.031256383169919258 0.00027290441994848227 0 0.030887514455119679 3.2284241105716133e-05 0 0.030597859835729362 -0.00021781561907767779 0 0.030841461926475942 0.00036197210311757997 0 0.031350912273831404 -0.0021966178790485064 0 0.031355497997724233 -0.0016996287275881704 0 0.029477929188703681 -0.00036166628451373583 0 0.030892665924286713 -0.00048429326053006015 0 0.029986190774138152 -0.0012957903324323759 0 0.031350912273831404 -0.0021966178790485064 0 0.031168356459898631 -0.0020557556690651651 0 0.029986190774138152 -0.0012957903324323759 0 0.029737612216300096 -0.0024005136461567969 0 0.031934602930833972 -0.0011857256080569894 0 0.029477929188703681 -0.00036166628451373583 0 0.029986190774138152 -0.0012957903324323759 0 0.029385912131097432 -0.0026866180008963229 0 0.031350912273831404 -0.0021966178790485064 0 0.029535184530425643 -0.0046701239467205249 0 0.029986190774138152 -0.0012957903324323759 0 0.029737612216300096 -0.0024005136461567969 0 0.029385912131097432 -0.0026866180008963229 0 0.029737612216300096 -0.0024005136461567969 0 0.029289516471831249 -0.0025365873206818503 0 0.028935717404757921 -0.0028273016903055566 0 0.034697820212652677 -0.0031404934807254402 0 0.034722785415418969 -0.0031129666627776236 0 0.034704769803300915 -0.0031621706524198826 0 0.034722785415418969 -0.0031129666627776236 0 0.034704769803300915 -0.0031621706524198826 0 0.034711782964402277 -0.0032080051156986532 0 0.034704769803300915 -0.0031621706524198826 0 0.034681681865636339 -0.0031966581894062002 0 0.034711782964402277 -0.0032080051156986532 0 0.034697820212652677 -0.0031404934807254402 0 0.034704769803300915 -0.0031621706524198826 0 0.034681681865636339 -0.0031966581894062002 0 0.029535184530425643 -0.0046701239467205249 0 0.025990065737300536 -0.012867455412073949 0 0.034681681865636339 -0.0031966581894062002 0 0.034711782964402277 -0.0032080051156986532 0 0.034649425469619299 -0.003263994472621027 0 0.034711782964402277 -0.0032080051156986532 0 0.034649425469619299 -0.003263994472621027 0 0.034666850718810517 -0.0033571785702160902 0 0.029385912131097432 -0.0026866180008963229 0 0.029373828154587962 -0.0022869445357942119 0 0.029637104161222665 -0.0019963805502386258 0 0.029289516471831249 -0.0025365873206818503 0 0.029251118200619829 -0.0023984226025911548 0 0.028934316997757063 -0.0024380335591294377 0 0.029737612216300096 -0.0024005136461567969 0 0.029289516471831249 -0.0025365873206818503 0 0.029433617272584253 -0.0025329804043147872 0 0.029289516471831249 -0.0025365873206818503 0 0.029433617272584253 -0.0025329804043147872 0 0.029251118200619829 -0.0023984226025911548 0 0.029385912131097432 -0.0026866180008963229 0 0.029433617272584253 -0.0025329804043147872 0 0.029373828154587962 -0.0022869445357942119 0 0.029737612216300096 -0.0024005136461567969 0 0.029385912131097432 -0.0026866180008963229 0 0.029433617272584253 -0.0025329804043147872 0 0.029251118200619829 -0.0023984226025911548 0 0.028975948450300819 -0.0020829179629282615 0 0.028934316997757063 -0.0024380335591294377 0 0.029373828154587962 -0.0022869445357942119 0 0.029251118200619829 -0.0023984226025911548 0 0.028975948450300819 -0.0020829179629282615 0 0.029433617272584253 -0.0025329804043147872 0 0.029373828154587962 -0.0022869445357942119 0 0.029251118200619829 -0.0023984226025911548 0 0.023968539219777953 -0.013912757993832767 0 0.025295278254720006 -0.012251072810489224 0 0.029373828154587962 -0.0022869445357942119 0 0.029240008786789184 -0.0019536064803617318 0 0.028975948450300819 -0.0020829179629282615 0 0.029373828154587962 -0.0022869445357942119 0 0.029240008786789184 -0.0019536064803617318 0 0.029637104161222665 -0.0019963805502386258 0 0.023968539219777953 -0.013912757993832767 0 0.02131126979761248 -0.019858514165894816 0 0.023968539219777953 -0.013912757993832767 0 0.025990065737300536 -0.012867455412073949 0 0.024065014667681711 -0.014355591783022077 0 0.024636084629633501 -0.014358127268751205 0 0.024681913333676645 -0.01377008451197588 0 0.025990065737300536 -0.012867455412073949 0 0.030078174183070901 -0.012648813731845279 0 0.027262589494854852 -0.02135182841214198 0 0.027555286768560585 -0.021361067860287505 0 0.027330488619778586 -0.021256343942319428 0 0.034649425469619299 -0.003263994472621027 0 0.034666850718810517 -0.0033571785702160902 0 0.034578210083492912 -0.0033208395887771155 0 0.025990065737300536 -0.012867455412073949 0 0.02131126979761248 -0.019858514165894816 0 0.034653464298992562 -0.0031985083801037949 0 0.034649425469619299 -0.003263994472621027 0 0.034578210083492912 -0.0033208395887771155 0 0.034653464298992562 -0.0031985083801037949 0 0.034681681865636339 -0.0031966581894062002 0 0.034649425469619299 -0.003263994472621027 0 0.034549669350264378 -0.0032483987018008583 0 0.034653464298992562 -0.0031985083801037949 0 0.034543062561481395 -0.0032460703344605597 0 0.034653464298992562 -0.0031985083801037949 0 0.034578210083492912 -0.0033208395887771155 0 0.034543062561481395 -0.0032460703344605597 0 0.031043636064800768 -0.012647295943629826 0 0.030078174183070901 -0.012648813731845279 0 0.027772873598152066 -0.021355209890793141 0 0.027555286768560585 -0.021361067860287505 0 0.027702636735509507 -0.021267716537073079 0 0.034504238684367534 -0.0032004362293902885 0 0.034578210083492912 -0.0033208395887771155 0 0.034543062561481395 -0.0032460703344605597 0 0.027555286768560585 -0.021361067860287505 0 0.027702636735509507 -0.021267716537073079 0 0.027574823648926102 -0.021231749045743382 0 0.027702636735509507 -0.021267716537073079 0 0.027574823648926102 -0.021231749045743382 0 0.027669410891324013 -0.021201808183964346 0 0.027555286768560585 -0.021361067860287505 0 0.027473780472600743 -0.021253225256444633 0 0.027330488619778586 -0.021256343942319428 0 0.027555286768560585 -0.021361067860287505 0 0.027473780472600743 -0.021253225256444633 0 0.027574823648926102 -0.021231749045743382 0 0.027473780472600743 -0.021253225256444633 0 0.027574823648926102 -0.021231749045743382 0 0.027433470837488292 -0.021171237455561671 0 0.027433470837488292 -0.021171237455561671 0 0.027604434883574242 -0.021169325119459799 0 0.02755941814563714 -0.021102303552943586 0 0.027574823648926102 -0.021231749045743382 0 0.027433470837488292 -0.021171237455561671 0 0.027604434883574242 -0.021169325119459799 0 0.023813506198707188 -0.02240031480129109 0 0.023681004443622113 -0.022379314691359578 0 0.014078550574847474 -0.02342189001332181 0 0.013603039146467644 -0.023972913975029323 0 0.014022209833422753 -0.024070783700869208 0 0.021922637777758627 -0.021655786987084556 0 0.023681004443622113 -0.022379314691359578 0 0.027574823648926102 -0.021231749045743382 0 0.027669410891324013 -0.021201808183964346 0 0.027604434883574242 -0.021169325119459799 0 0.027604434883574242 -0.021169325119459799 0 0.027636043238263287 -0.021180897728343515 0 0.027620984397369756 -0.021178563410044371 0 0.027669410891324013 -0.021201808183964346 0 0.027604434883574242 -0.021169325119459799 0 0.027636043238263287 -0.021180897728343515 0 0.02770453754682899 -0.021185628805600487 0 0.027669410891324013 -0.021201808183964346 0 0.027636043238263287 -0.021180897728343515 0 0.02770453754682899 -0.021185628805600487 0 0.02761846008941974 -0.021195985173863261 0 0.027636043238263287 -0.021180897728343515 0 0.02761846008941974 -0.021195985173863261 0 0.027477898250922308 -0.021325107562154791 0 0.027502556831323698 -0.021197176603231428 0 0.02761846008941974 -0.021195985173863261 0 0.027636043238263287 -0.021180897728343515 0 0.027620984397369756 -0.021178563410044371 0 0.024622373909083419 -0.02169601273428657 0 0.023681004443622113 -0.022379314691359578 0 0.013603039146467644 -0.023972913975029323 0 0.014022209833422753 -0.024070783700869208 0 0.013957008054291287 -0.024724855322421285 0 0.023681004443622113 -0.022379314691359578 0 0.021711901642072217 -0.022721697497946017 0 0.027477898250922308 -0.021325107562154791 0 0.027502556831323698 -0.021197176603231428 0 0.027409970753369914 -0.021150222154507094 0 0.027502556831323698 -0.021197176603231428 0 0.027409970753369914 -0.021150222154507094 0 0.027507539636087128 -0.021155812018249013 0 0.027409835783740424 -0.021140514134590262 0 0.027409970753369914 -0.021150222154507094 0 0.027507539636087128 -0.021155812018249013 0 0.027632368637497545 -0.021128937272772624 0 0.027698450873512751 -0.021149007972864928 0 0.027507539636087128 -0.021155812018249013 0 0.027698450873512751 -0.021149007972864928 0 0.02761846008941974 -0.021195985173863261 0 0.027507539636087128 -0.021155812018249013 0 0.02761846008941974 -0.021195985173863261 0 0.027502556831323698 -0.021197176603231428 0 0.027507539636087128 -0.021155812018249013 0 0.01401393817298264 -0.024982215889634358 0 0.014001577050195562 -0.025056109895243865 0 0.014037487372091895 -0.02498170565976349 0 0.01401393817298264 -0.024982215889634358 0 0.014001577050195562 -0.025056109895243865 0 0.014026826180272293 -0.02500937943292144 0 0.014031860330790394 -0.025072473757511878 0 0.014001577050195562 -0.025056109895243865 0 0.014026826180272293 -0.02500937943292144 0 0.016755263540609536 -0.024602810304718167 0 0.017691825366732406 -0.023913587540483155 0 0.014031860330790394 -0.025072473757511878 0 0.014026826180272293 -0.02500937943292144 0 0.014055594723932611 -0.024960097407347351 0 0.020446845503398904 -0.023422618071597776 0 0.021711901642072217 -0.022721697497946017 0 0.01401393817298264 -0.024982215889634358 0 0.014026826180272293 -0.02500937943292144 0 0.014055594723932611 -0.024960097407347351 0 0.014052095457460414 -0.025126236086936621 0 0.013957008054291287 -0.024724855322421285 0 0.014055594723932611 -0.024960097407347351 0 0.01401393817298264 -0.024982215889634358 0 0.014055594723932611 -0.024960097407347351 0 0.014006956387969163 -0.02494814393085493 0 0.013957008054291287 -0.024724855322421285 0 0.014055594723932611 -0.024960097407347351 0 0.014454420679606396 -0.024087028023488478 0 0.014022209833422753 -0.024070783700869208 0 0.013957008054291287 -0.024724855322421285 0 0.014454420679606396 -0.024087028023488478 0 0.01401393817298264 -0.024982215889634358 0 0.014033246259764652 -0.024933259303139974 0 0.014037487372091895 -0.02498170565976349 0 0.01401393817298264 -0.024982215889634358 0 0.014006956387969163 -0.02494814393085493 0 0.014033246259764652 -0.024933259303139974 0 0.014033246259764652 -0.024933259303139974 0 0.014041950095548679 -0.024871399547004753 0 0.014069978031816149 -0.024851160544726903 0 0.014006956387969163 -0.02494814393085493 0 0.014033246259764652 -0.024933259303139974 0 0.014041950095548679 -0.024871399547004753 0 0.014006956387969163 -0.02494814393085493 0 0.014041950095548679 -0.024871399547004753 0 0.014038372352551025 -0.024822357583636906 0 0.017691825366732406 -0.023913587540483155 0 0.02131126979761248 -0.019858514165894816 0 0.014078550574847474 -0.02342189001332181 0 0.014454420679606396 -0.024087028023488478 0 0.014700697989185399 -0.022811393102616647 0 0.014078550574847474 -0.02342189001332181 0 0.014022209833422753 -0.024070783700869208 0 0.014454420679606396 -0.024087028023488478 0 0.027433470837488292 -0.021171237455561671 0 0.027281458232899517 -0.021242036566092162 0 0.027330488619778586 -0.021256343942319428 0 0.021922637777758627 -0.021655786987084556 0 0.02131126979761248 -0.019858514165894816 0 0.027473780472600743 -0.021253225256444633 0 0.027433470837488292 -0.021171237455561671 0 0.027330488619778586 -0.021256343942319428 0 0.027262589494854852 -0.02135182841214198 0 0.02726755923573445 -0.021235182082277392 0 0.027330488619778586 -0.021256343942319428 0 0.02131126979761248 -0.019858514165894816 0 0.021520856076592727 -0.01991451201896853 0 0.01712524041065341 -0.025752592903458261 0 0.017808172610875139 -0.025087943198830679 0 0.016519726317149579 -0.024809387245425005 0 0.014041950095548679 -0.024871399547004753 0 0.014038372352551025 -0.024822357583636906 0 0.014069978031816149 -0.024851160544726903 0 0.02131126979761248 -0.019858514165894816 0 0.017003077645378593 -0.021975035240463757 0 0.014069978031816149 -0.024851160544726903 0 0.014124497749912675 -0.024838900331292248 0 0.014037487372091895 -0.02498170565976349 0 0.014033246259764652 -0.024933259303139974 0 0.014069978031816149 -0.024851160544726903 0 0.014037487372091895 -0.02498170565976349 0 0.016519726317149579 -0.024809387245425005 0 0.015335002009476493 -0.024650917828533014 0 0.015743895837254288 -0.025753206157536398 0 0.015335002009476493 -0.024650917828533014 0 0.014927008600097819 -0.025216880769276518 0 0.015743895837254288 -0.025753206157536398 0 0.017003077645378593 -0.021975035240463757 0 0.015591616961625756 -0.023073209417416675 0 0.014124497749912675 -0.024838900331292248 0 0.014037487372091895 -0.02498170565976349 0 0.014164498237491907 -0.024928755630325827 0 0.014037487372091895 -0.02498170565976349 0 0.014097783794361692 -0.025008026864417436 0 0.014164498237491907 -0.024928755630325827 0 0.014045126222962731 -0.025108181804486721 0 0.014037487372091895 -0.02498170565976349 0 0.014097783794361692 -0.025008026864417436 0 0.013991851346749374 -0.025172329783771125 0 0.013975541572342706 -0.025086480186666135 0 0.013964002405034329 -0.025102513755659271 0 0.013993600949102668 -0.025131050201040186 0 0.014037487372091895 -0.02498170565976349 0 0.013964002405034329 -0.025102513755659271 0 0.014001577050195562 -0.025056109895243865 0 0.014037487372091895 -0.02498170565976349 0 0.014166649364566665 -0.025090285156367596 0 0.014169352086346901 -0.0250118406510224 0 0.014254983343867692 -0.025008091454543267 0 0.014169352086346901 -0.0250118406510224 0 0.014260320110208176 -0.024934759175151942 0 0.014254983343867692 -0.025008091454543267 0 0.014235622615615456 -0.025116183480683976 0 0.014166649364566665 -0.025090285156367596 0 0.014254983343867692 -0.025008091454543267 0 0.014045126222962731 -0.025108181804486721 0 0.014097783794361692 -0.025008026864417436 0 0.014169352086346901 -0.0250118406510224 0 0.014166649364566665 -0.025090285156367596 0 0.014045126222962731 -0.025108181804486721 0 0.014169352086346901 -0.0250118406510224 0 0.014169352086346901 -0.0250118406510224 0 0.014164498237491907 -0.024928755630325827 0 0.014260320110208176 -0.024934759175151942 0 0.014097783794361692 -0.025008026864417436 0 0.014169352086346901 -0.0250118406510224 0 0.014164498237491907 -0.024928755630325827 0 0.014260320110208176 -0.024934759175151942 0 0.014273105844681423 -0.024909001994254353 0 0.014254983343867692 -0.025008091454543267 0 0.014164498237491907 -0.024928755630325827 0 0.014260320110208176 -0.024934759175151942 0 0.01435274953386103 -0.02481088377409876 0 0.014260320110208176 -0.024934759175151942 0 0.01435274953386103 -0.02481088377409876 0 0.014273105844681423 -0.024909001994254353 0 0.01435274953386103 -0.02481088377409876 0 0.014451770842128316 -0.025082663974262061 0 0.014222814086020573 -0.024892764155416993 0 0.01435274953386103 -0.02481088377409876 0 0.014653198723460627 -0.025010699650710125 0 0.014451770842128316 -0.025082663974262061 0 0.015591616961625756 -0.023073209417416675 0 0.015198284101866315 -0.023399093593738832 0 0.014124497749912675 -0.024838900331292248 0 0.014164498237491907 -0.024928755630325827 0 0.01435274953386103 -0.02481088377409876 0 0.015335002009476493 -0.024650917828533014 0 0.01435274953386103 -0.02481088377409876 0 0.014653198723460627 -0.025010699650710125 0 0.015335002009476493 -0.024650917828533014 0 0.014653198723460627 -0.025010699650710125 0 0.014927008600097819 -0.025216880769276518 0 0.014653198723460627 -0.025010699650710125 0 0.014927008600097819 -0.025216880769276518 0 0.014621183453811219 -0.025283007524197102 0 0.014927008600097819 -0.025216880769276518 0 0.014621183453811219 -0.025283007524197102 0 0.01463295838013725 -0.02566366554091639 0 0.014451770842128316 -0.025082663974262061 0 0.01448984040999686 -0.025534280835045688 0 0.014222814086020573 -0.024892764155416993 0 0.017327360681875775 -0.019583608561859929 0 0.016064237669149373 -0.021920202628517536 0 0.014451770842128316 -0.025082663974262061 0 0.014621183453811219 -0.025283007524197102 0 0.01448984040999686 -0.025534280835045688 0 0.017327360681875775 -0.019583608561859929 0 0.016027556618733427 -0.023288673843153005 0 0.014653198723460627 -0.025010699650710125 0 0.014451770842128316 -0.025082663974262061 0 0.014621183453811219 -0.025283007524197102 0 0.018030922913259462 -0.017864342807053027 0 0.018811626113448145 -0.015335297246006968 0 0.025856840891061252 -0.00153638801543652 0 0.02559659325352694 -0.0021751694263275672 0 0.024055045117254415 -0.0016080876289034224 0 0.014515518914190539 -0.024728203602846513 0 0.01455474263378859 -0.024740821261277596 0 0.014329827990477172 -0.024784649712347482 0 0.014621183453811219 -0.025283007524197102 0 0.01448984040999686 -0.025534280835045688 0 0.01463295838013725 -0.02566366554091639 0 0.017327360681875775 -0.019583608561859929 0 0.018030922913259462 -0.017864342807053027 0 0.025856840891061252 -0.00153638801543652 0 0.02559659325352694 -0.0021751694263275672 0 0.026173871014880806 -0.0017219962288676893 0 0.02559659325352694 -0.0021751694263275672 0 0.026223473504313002 -0.0026690776435961592 0 0.02512431999840474 -0.0033311198082923137 0 0.02559659325352694 -0.0021751694263275672 0 0.02512431999840474 -0.0033311198082923137 0 0.024055045117254415 -0.0016080876289034224 0 0.026223473504313002 -0.0026690776435961592 0 0.027151687802104522 -0.0026766667451716261 0 0.026569306075817055 -0.0033225489962513061 0 0.02559659325352694 -0.0021751694263275672 0 0.026223473504313002 -0.0026690776435961592 0 0.02615903377332978 -0.0021934858388756705 0 0.026223473504313002 -0.0026690776435961592 0 0.02615903377332978 -0.0021934858388756705 0 0.026626787474127171 -0.0022735450071051854 0 0.026223473504313002 -0.0026690776435961592 0 0.026626787474127171 -0.0022735450071051854 0 0.027151687802104522 -0.0026766667451716261 0 0.026626787474127171 -0.0022735450071051854 0 0.027257576720651454 -0.0021244520010110274 0 0.027151687802104522 -0.0026766667451716261 0 0.018030922913259462 -0.017864342807053027 0 0.02151049266609887 -0.015337549535518408 0 0.025863144974769874 -0.001536917733841876 0 0.026173871014880806 -0.0017219962288676893 0 0.027781060576270365 -0.0015363461208253032 0 0.026626787474127171 -0.0022735450071051854 0 0.026173871014880806 -0.0017219962288676893 0 0.027257576720651454 -0.0021244520010110274 0 0.014927008600097819 -0.025216880769276518 0 0.01463295838013725 -0.02566366554091639 0 0.015743895837254288 -0.025753206157536398 0 0.02559659325352694 -0.0021751694263275672 0 0.02615903377332978 -0.0021934858388756705 0 0.026173871014880806 -0.0017219962288676893 0 0.02615903377332978 -0.0021934858388756705 0 0.026626787474127171 -0.0022735450071051854 0 0.026173871014880806 -0.0017219962288676893 0 0.018030922913259462 -0.017864342807053027 0 0.018064512891752125 -0.017664123812866046 0 0.026173871014880806 -0.0017219962288676893 0 0.027781060576270365 -0.0015363461208253032 0 0.027257576720651454 -0.0021244520010110274 0 0.027781060576270365 -0.0015363461208253032 0 0.028201658353793731 -0.0024336344696402265 0 0.027257576720651454 -0.0021244520010110274 0 0.023968539219777953 -0.013912757993832767 0 0.02151049266609887 -0.015337549535518408 0 0.029437293568473685 -0.0016608872322377683 0 0.027781060576270365 -0.0015363461208253032 0 0.028975948450300819 -0.0020829179629282615 0 0.027781060576270365 -0.0015363461208253032 0 0.028975948450300819 -0.0020829179629282615 0 0.028201658353793731 -0.0024336344696402265 0 0.01712524041065341 -0.025752592903458261 0 0.016519726317149579 -0.024809387245425005 0 0.015743895837254288 -0.025753206157536398 0 0.028201658353793731 -0.0024336344696402265 0 0.027633829030870798 -0.0032079515097158469 0 0.028935717404757921 -0.0028273016903055566 0 0.028975948450300819 -0.0020829179629282615 0 0.028201658353793731 -0.0024336344696402265 0 0.028934316997757063 -0.0024380335591294377 0 0.028201658353793731 -0.0024336344696402265 0 0.028934316997757063 -0.0024380335591294377 0 0.028935717404757921 -0.0028273016903055566 0 0.029289516471831249 -0.0025365873206818503 0 0.028934316997757063 -0.0024380335591294377 0 0.028935717404757921 -0.0028273016903055566 0 0.028201658353793731 -0.0024336344696402265 0 0.027257576720651454 -0.0021244520010110274 0 0.027151687802104522 -0.0026766667451716261 0 0.028201658353793731 -0.0024336344696402265 0 0.027151687802104522 -0.0026766667451716261 0 0.027633829030870798 -0.0032079515097158469 0 0.02952037199675123 -0.0018975655680785457 0 0.029258119793278196 -0.0014885054859406761 0 0.027151687802104522 -0.0026766667451716261 0 0.027633829030870798 -0.0032079515097158469 0 0.026569306075817055 -0.0033225489962513061 0 0.027633829030870798 -0.0032079515097158469 0 0.028257371621813451 -0.0036293680761495983 0 0.02654140064881275 -0.0042395038085749504 0 0.027633829030870798 -0.0032079515097158469 0 0.028257371621813451 -0.0036293680761495983 0 0.028935717404757921 -0.0028273016903055566 0 0.029467436823864941 -0.0020432867730700334 0 0.02952037199675123 -0.0018975655680785457 0 0.030892665924286713 -0.00048429326053006015 0 0.029986190774138152 -0.0012957903324323759 0 0.031934602930833972 -0.0011857256080569894 0 0.029737612216300096 -0.0024005136461567969 0 0.028257371621813451 -0.0036293680761495983 0 0.028935717404757921 -0.0028273016903055566 0 0.030892665924286713 -0.00048429326053006015 0 0.032005982531488369 3.5806975764389348e-05 0 0.031256383169919258 0.00027290441994848227 0 0.030892665924286713 -0.00048429326053006015 0 0.031934602930833972 -0.0011857256080569894 0 0.032005982531488369 3.5806975764389348e-05 0 0.031934602930833972 -0.0011857256080569894 0 0.032005982531488369 3.5806975764389348e-05 0 0.032977718291694443 -0.00048264186370314992 0 0.032005982531488369 3.5806975764389348e-05 0 0.032977718291694443 -0.00048264186370314992 0 0.032757397891380276 0.00045492539186655652 0 0.029258119793278196 -0.0014885054859406761 0 0.02846792526197596 -0.00066283161474635583 0 0.032977718291694443 -0.00048264186370314992 0 0.033574081268132792 0.00062350730000574717 0 0.033813794981105559 5.9051036247902772e-05 0 0.02654140064881275 -0.0042395038085749504 0 0.02512431999840474 -0.0033311198082923137 0 0.02481821340480948 -0.0047272225889085076 0 0.026223473504313002 -0.0026690776435961592 0 0.02512431999840474 -0.0033311198082923137 0 0.026569306075817055 -0.0033225489962513061 0 0.02654140064881275 -0.0042395038085749504 0 0.02512431999840474 -0.0033311198082923137 0 0.026569306075817055 -0.0033225489962513061 0 0.027633829030870798 -0.0032079515097158469 0 0.02654140064881275 -0.0042395038085749504 0 0.026569306075817055 -0.0033225489962513061 0 0.033199500020067163 0.0010284890259159873 0 0.032713066623802869 0.0012861685226286631 0 0.032757397891380276 0.00045492539186655652 0 0.033199500020067163 0.0010284890259159873 0 0.032713066623802869 0.0012861685226286631 0 0.033225491300114374 0.0016199547854696197 0 0.033199500020067163 0.0010284890259159873 0 0.033612529443820122 0.0012749780836599808 0 0.033574081268132792 0.00062350730000574717 0 0.033199500020067163 0.0010284890259159873 0 0.033612529443820122 0.0012749780836599808 0 0.033225491300114374 0.0016199547854696197 0 0.033612529443820122 0.0012749780836599808 0 0.033574081268132792 0.00062350730000574717 0 0.033966556451248707 0.0010988520974202615 0 0.032977718291694443 -0.00048264186370314992 0 0.033574081268132792 0.00062350730000574717 0 0.032757397891380276 0.00045492539186655652 0 0.033199500020067163 0.0010284890259159873 0 0.033574081268132792 0.00062350730000574717 0 0.032757397891380276 0.00045492539186655652 0 0.032005982531488369 3.5806975764389348e-05 0 0.031645869509113814 0.00064212992415059369 0 0.032166723125772678 0.00083857318991059507 0 0.032005982531488369 3.5806975764389348e-05 0 0.032757397891380276 0.00045492539186655652 0 0.032166723125772678 0.00083857318991059507 0 0.032005982531488369 3.5806975764389348e-05 0 0.031256383169919258 0.00027290441994848227 0 0.031645869509113814 0.00064212992415059369 0 0.031256383169919258 0.00027290441994848227 0 0.031645869509113814 0.00064212992415059369 0 0.03120075175587839 0.00083114981072656942 0 0.031645869509113814 0.00064212992415059369 0 0.03120075175587839 0.00083114981072656942 0 0.03167923923278896 0.0012008646519516791 0 0.031645869509113814 0.00064212992415059369 0 0.03167923923278896 0.0012008646519516791 0 0.032166723125772678 0.00083857318991059507 0 0.03167923923278896 0.0012008646519516791 0 0.032164214721843991 0.0015588169936609263 0 0.03167698237485779 0.0018503575504405254 0 0.03120075175587839 0.00083114981072656942 0 0.03167923923278896 0.0012008646519516791 0 0.031183522088465917 0.0016565022184719372 0 0.032713066623802869 0.0012861685226286631 0 0.032757397891380276 0.00045492539186655652 0 0.032166723125772678 0.00083857318991059507 0 0.03167923923278896 0.0012008646519516791 0 0.032166723125772678 0.00083857318991059507 0 0.032164214721843991 0.0015588169936609263 0 0.032713066623802869 0.0012861685226286631 0 0.032166723125772678 0.00083857318991059507 0 0.032164214721843991 0.0015588169936609263 0 0.032713066623802869 0.0012861685226286631 0 0.032164214721843991 0.0015588169936609263 0 0.03266699011872487 0.002005112351440767 0 0.032164214721843991 0.0015588169936609263 0 0.03266699011872487 0.002005112351440767 0 0.031998559939751182 0.0023616167341269007 0 0.032164214721843991 0.0015588169936609263 0 0.031998559939751182 0.0023616167341269007 0 0.03167698237485779 0.0018503575504405254 0 0.03266699011872487 0.002005112351440767 0 0.031998559939751182 0.0023616167341269007 0 0.032208208133010667 0.0031326305929541211 0 0.031183522088465917 0.0016565022184719372 0 0.031345893228844783 0.0025676727489987107 0 0.030662189401146511 0.0028872072503061566 0 0.031183522088465917 0.0016565022184719372 0 0.03167698237485779 0.0018503575504405254 0 0.031345893228844783 0.0025676727489987107 0 0.03167923923278896 0.0012008646519516791 0 0.031183522088465917 0.0016565022184719372 0 0.03167698237485779 0.0018503575504405254 0 0.031998559939751182 0.0023616167341269007 0 0.03167698237485779 0.0018503575504405254 0 0.031345893228844783 0.0025676727489987107 0 0.031638660380247208 0.0025913571210831126 0 0.031433046190108088 0.0017079399000224859 0 0.031345893228844783 0.0025676727489987107 0 0.03155796591584855 0.0036230293980263582 0 0.030662189401146511 0.0028872072503061566 0 0.03155796591584855 0.0036230293980263582 0 0.031380375813567007 0.0044398327271480461 0 0.030662189401146511 0.0028872072503061566 0 0.031998559939751182 0.0023616167341269007 0 0.031345893228844783 0.0025676727489987107 0 0.03155796591584855 0.0036230293980263582 0 0.031543479234851894 0.0041980949135970724 0 0.031268974241820346 0.0049439213705452893 0 0.031470862736481593 0.0045698551592657519 0 0.031998559939751182 0.0023616167341269007 0 0.03155796591584855 0.0036230293980263582 0 0.032208208133010667 0.0031326305929541211 0 0.031189823874949649 0.0039450971468641873 0 0.031201167838866502 0.0039482779870533618 0 0.03155796591584855 0.0036230293980263582 0 0.031543479234851894 0.0041980949135970724 0 0.031531593776445911 0.0043004848827502065 0 0.03266699011872487 0.002005112351440767 0 0.032208208133010667 0.0031326305929541211 0 0.033303316618753256 0.0022982102243691758 0 0.031201167838866502 0.0039482779870533618 0 0.030596390113180057 0.0042807702855710457 0 0.031201167838866502 0.0039482779870533618 0 0.031481559909532587 0.0035899339236872747 0 0.031485382265973638 0.0040316419568864042 0 0.0306190743444513 0.0038938020803340047 0 0.030477300929476977 0.0042841786913190077 0 0.03266699011872487 0.002005112351440767 0 0.033303316618753256 0.0022982102243691758 0 0.033225491300114374 0.0016199547854696197 0 0.032713066623802869 0.0012861685226286631 0 0.03266699011872487 0.002005112351440767 0 0.033225491300114374 0.0016199547854696197 0 0.033303316618753256 0.0022982102243691758 0 0.033697839700769318 0.001814263135961069 0 0.034147586581708168 0.0018483597661685203 0 0.031481559909532587 0.0035899339236872747 0 0.030629347569127885 0.0036200417939613572 0 0.033612529443820122 0.0012749780836599808 0 0.033697839700769318 0.001814263135961069 0 0.033923932190165734 0.0014468190280423679 0 0.033612529443820122 0.0012749780836599808 0 0.033225491300114374 0.0016199547854696197 0 0.033697839700769318 0.001814263135961069 0 0.033303316618753256 0.0022982102243691758 0 0.033225491300114374 0.0016199547854696197 0 0.033697839700769318 0.001814263135961069 0 0.030477300929476977 0.0042841786913190077 0 0.029742497724787514 0.0037560284385881782 0 0.029456759293782584 0.0045377964712020099 0 0.0306190743444513 0.0038938020803340047 0 0.030477300929476977 0.0042841786913190077 0 0.029742497724787514 0.0037560284385881782 0 0.030596390113180057 0.0042807702855710457 0 0.029687421218339838 0.0045387345918716281 0 0.031268974241820346 0.0049439213705452893 0 0.031149351159945011 0.0048920724666517406 0 0.030758737125758877 0.0054339838352619862 0 0.031149351159945011 0.0048920724666517406 0 0.030758737125758877 0.0054339838352619862 0 0.030624998553928116 0.0053260764370363098 0 0.031268974241820346 0.0049439213705452893 0 0.031149351159945011 0.0048920724666517406 0 0.031470862736481593 0.0045698551592657519 0 0.031149351159945011 0.0048920724666517406 0 0.031553471341063649 0.0043204586489736128 0 0.031470862736481593 0.0045698551592657519 0 0.031149351159945011 0.0048920724666517406 0 0.031192266139278162 0.0047910548906908235 0 0.031553471341063649 0.0043204586489736128 0 0.031149351159945011 0.0048920724666517406 0 0.030904723135460867 0.0050673886847486353 0 0.031192266139278162 0.0047910548906908235 0 0.031149351159945011 0.0048920724666517406 0 0.030904723135460867 0.0050673886847486353 0 0.030624998553928116 0.0053260764370363098 0 0.030904723135460867 0.0050673886847486353 0 0.031192266139278162 0.0047910548906908235 0 0.031023908143035697 0.0050073556636066 0 0.031192266139278162 0.0047910548906908235 0 0.031222987853771898 0.0047598951328796735 0 0.031017828474813013 0.0050998481478601986 0 0.031192266139278162 0.0047910548906908235 0 0.031023908143035697 0.0050073556636066 0 0.031017828474813013 0.0050998481478601986 0 0.031023908143035697 0.0050073556636066 0 0.031056309123130486 0.005221437949222839 0 0.031017828474813013 0.0050998481478601986 0 0.030854978238856145 0.0048801649135434564 0 0.031222987853771898 0.0047598951328796735 0 0.030838474064121928 0.0052929420777154193 0 0.031222987853771898 0.0047598951328796735 0 0.030838474064121928 0.0052929420777154193 0 0.031017828474813013 0.0050998481478601986 0 0.031192266139278162 0.0047910548906908235 0 0.031222987853771898 0.0047598951328796735 0 0.031553471341063649 0.0043204586489736128 0 0.030854978238856145 0.0048801649135434564 0 0.031222987853771898 0.0047598951328796735 0 0.031257633540074811 0.0038073603232540521 0 0.031222987853771898 0.0047598951328796735 0 0.031553471341063649 0.0043204586489736128 0 0.031257633540074811 0.0038073603232540521 0 0.031723468610302889 0.0030089454608747844 0 0.031638660380247208 0.0025913571210831126 0 0.031553471341063649 0.0043204586489736128 0 0.032169337446034389 0.0022360684840295642 0 0.031257633540074811 0.0038073603232540521 0 0.031553471341063649 0.0043204586489736128 0 0.031470862736481593 0.0045698551592657519 0 0.031380375813567007 0.0044398327271480461 0 0.031470862736481593 0.0045698551592657519 0 0.031531593776445911 0.0043004848827502065 0 0.031380375813567007 0.0044398327271480461 0 0.031543479234851894 0.0041980949135970724 0 0.031470862736481593 0.0045698551592657519 0 0.031531593776445911 0.0043004848827502065 0 0.03155796591584855 0.0036230293980263582 0 0.031531593776445911 0.0043004848827502065 0 0.031380375813567007 0.0044398327271480461 0 0.031539687357876815 0.0015336871937285585 0 0.030325709305095053 0.0028112542010895491 0 0.03186638933954225 -0.00017016987441874221 0 0.032169337446034389 0.0022360684840295642 0 0.031539687357876815 0.0015336871937285585 0 0.031257633540074811 0.0038073603232540521 0 0.033615482983158043 -0.00072374035551708838 0 0.03272881781261542 -0.00071184229598092788 0 0.03186638933954225 -0.00017016987441874221 0 0.03222405823336072 0.00191379887829434 0 0.032140783950458433 0.0013042646495489583 0 0.03222405823336072 0.00191379887829434 0 0.032416205239690715 0.0033309428647841938 0 0.030325709305095053 0.0028112542010895491 0 0.031257633540074811 0.0038073603232540521 0 0.030274597672549981 0.0045614976577867099 0 0.031539687357876815 0.0015336871937285585 0 0.030325709305095053 0.0028112542010895491 0 0.031257633540074811 0.0038073603232540521 0 0.030854978238856145 0.0048801649135434564 0 0.031257633540074811 0.0038073603232540521 0 0.030274597672549981 0.0045614976577867099 0 0.03502999672585895 0.0013763078055261026 0 0.033842362575837288 0.0032316822469500143 0 0.033245984750564575 0.00020646127914466855 0 0.033615482983158043 -0.00072374035551708838 0 0.03502999672585895 0.0013763078055261026 0 0.033245984750564575 0.00020646127914466855 0 0.03502999672585895 0.0013763078055261026 0 0.033842362575837288 0.0032316822469500143 0 0.034711968849436454 0.0047935231442965218 0 0.032416205239690715 0.0033309428647841938 0 0.032512566909095895 0.0052494208671300764 0 0.03502999672585895 0.0013763078055261026 0 0.034711968849436454 0.0047935231442965218 0 0.035297787527816059 0.0051004060120284928 0 0.030274597672549981 0.0045614976577867099 0 0.030539852583514993 0.0050014382420461578 0 0.030353145072743701 0.0052884932200187983 0 0.030854978238856145 0.0048801649135434564 0 0.030274597672549981 0.0045614976577867099 0 0.030539852583514993 0.0050014382420461578 0 0.030854978238856145 0.0048801649135434564 0 0.030539852583514993 0.0050014382420461578 0 0.030658265467779295 0.0052092607736069323 0 0.032908048780391053 0.0018273008327375966 0 0.033543212572074169 0.0013875243184829221 0 0.032874440791005793 0.0032153815452036364 0 0.032107902029480273 -0.00027621486788906015 0 0.029610631446976652 0.0029804913519460084 0 0.032874440791005793 0.0032153815452036364 0 0.031732978552175772 0.0044635696633979986 0 0.03230803533003257 0.0050481086525265111 0 0.032874440791005793 0.0032153815452036364 0 0.033842362575837288 0.0032316822469500143 0 0.03325325609186907 0.0047046032249020518 0 0.032874440791005793 0.0032153815452036364 0 0.033842362575837288 0.0032316822469500143 0 0.033245984750564575 0.00020646127914466855 0 0.033245984750564575 0.00020646127914466855 0 0.032107902029480273 -0.00027621486788906015 0 0.032704562878278956 -0.00075535246694019055 0 0.032874440791005793 0.0032153815452036364 0 0.033245984750564575 0.00020646127914466855 0 0.032107902029480273 -0.00027621486788906015 0 0.033245984750564575 0.00020646127914466855 0 0.032704562878278956 -0.00075535246694019055 0 0.032945823250213675 -0.00083265646932296046 0 0.033615482983158043 -0.00072374035551708838 0 0.033245984750564575 0.00020646127914466855 0 0.032945823250213675 -0.00083265646932296046 0 0.033615482983158043 -0.00072374035551708838 0 0.032945823250213675 -0.00083265646932296046 0 0.03272881781261542 -0.00071184229598092788 0 0.032704562878278956 -0.00075535246694019055 0 0.032945823250213675 -0.00083265646932296046 0 0.033044949072488165 -0.00096880751855568832 0 0.032945823250213675 -0.00083265646932296046 0 0.032984711919178393 -0.00088163612777325681 0 0.033044949072488165 -0.00096880751855568832 0 0.032984711919178393 -0.00088163612777325681 0 0.033179472219084218 -0.00085509118105827492 0 0.03327563070705461 -0.00098661278188177741 0 0.032984711919178393 -0.00088163612777325681 0 0.03327563070705461 -0.00098661278188177741 0 0.033044949072488165 -0.00096880751855568832 0 0.032984711919178393 -0.00088163612777325681 0 0.033179472219084218 -0.00085509118105827492 0 0.032710806066583317 -0.00067248360613418742 0 0.033179472219084218 -0.00085509118105827492 0 0.032710806066583317 -0.00067248360613418742 0 0.032835576965741596 -0.00060172892103118236 0 0.032710806066583317 -0.00067248360613418742 0 0.03272881781261542 -0.00071184229598092788 0 0.032196133974810935 -0.00040101966216910505 0 0.032710806066583317 -0.00067248360613418742 0 0.032196133974810935 -0.00040101966216910505 0 0.032250594957056719 -0.00044319416508355663 0 0.032984711919178393 -0.00088163612777325681 0 0.032710806066583317 -0.00067248360613418742 0 0.03272881781261542 -0.00071184229598092788 0 0.032945823250213675 -0.00083265646932296046 0 0.032984711919178393 -0.00088163612777325681 0 0.03272881781261542 -0.00071184229598092788 0 0.03272881781261542 -0.00071184229598092788 0 0.03186638933954225 -0.00017016987441874221 0 0.032196133974810935 -0.00040101966216910505 0 0.031539687357876815 0.0015336871937285585 0 0.03186638933954225 -0.00017016987441874221 0 0.032086333240620865 8.925908764932853e-05 0 0.032169337446034389 0.0022360684840295642 0 0.031539687357876815 0.0015336871937285585 0 0.032086333240620865 8.925908764932853e-05 0 0.03186638933954225 -0.00017016987441874221 0 0.032086333240620865 8.925908764932853e-05 0 0.031977730782262279 -0.00040541482284781532 0 0.031183522088465917 0.0016565022184719372 0 0.030662189401146511 0.0028872072503061566 0 0.030536386364406101 0.0010942196806266601 0 0.031433046190108088 0.0017079399000224859 0 0.031366619041761482 0.001096023887633442 0 0.03186638933954225 -0.00017016987441874221 0 0.032196133974810935 -0.00040101966216910505 0 0.031977730782262279 -0.00040541482284781532 0 0.032196133974810935 -0.00040101966216910505 0 0.031977730782262279 -0.00040541482284781532 0 0.032250594957056719 -0.00044319416508355663 0 0.031366619041761482 0.001096023887633442 0 0.031414853037572757 0.00094707508009636533 0 0.030536386364406101 0.0010942196806266601 0 0.030902919797588291 0.00052286600172091614 0 0.031649148483008496 8.5031302563642902e-05 0 0.031977730782262279 -0.00040541482284781532 0 0.031649148483008496 8.5031302563642902e-05 0 0.032250594957056719 -0.00044319416508355663 0 0.03120075175587839 0.00083114981072656942 0 0.031183522088465917 0.0016565022184719372 0 0.030536386364406101 0.0010942196806266601 0 0.03120075175587839 0.00083114981072656942 0 0.030536386364406101 0.0010942196806266601 0 0.030902919797588291 0.00052286600172091614 0 0.03120075175587839 0.00083114981072656942 0 0.031014044379356377 0.00048222524868692313 0 0.030902919797588291 0.00052286600172091614 0 0.031256383169919258 0.00027290441994848227 0 0.03120075175587839 0.00083114981072656942 0 0.031014044379356377 0.00048222524868692313 0 0.031014044379356377 0.00048222524868692313 0 0.030902919797588291 0.00052286600172091614 0 0.030841461926475942 0.00036197210311757997 0 0.030887514455119679 3.2284241105716133e-05 0 0.031014044379356377 0.00048222524868692313 0 0.030841461926475942 0.00036197210311757997 0 0.030887514455119679 3.2284241105716133e-05 0 0.031256383169919258 0.00027290441994848227 0 0.031014044379356377 0.00048222524868692313 0 0.030902919797588291 0.00052286600172091614 0 0.030841461926475942 0.00036197210311757997 0 0.031649148483008496 8.5031302563642902e-05 0 0.030923220192129983 0.00093174779120242424 0 0.030841461926475942 0.00036197210311757997 0 0.031649148483008496 8.5031302563642902e-05 0 0.033348972587542262 -9.0552521903825004e-05 0 0.032087970940137871 0.00067746523308600474 0 0.032530491346431482 -0.0001487924597995582 0 0.031649148483008496 8.5031302563642902e-05 0 0.032530491346431482 -0.0001487924597995582 0 0.032250594957056719 -0.00044319416508355663 0 0.032087970940137871 0.00067746523308600474 0 0.031649148483008496 8.5031302563642902e-05 0 0.032530491346431482 -0.0001487924597995582 0 0.033348972587542262 -9.0552521903825004e-05 0 0.032530491346431482 -0.0001487924597995582 0 0.033188324531272254 -0.00058421899085268404 0 0.033348972587542262 -9.0552521903825004e-05 0 0.033188324531272254 -0.00058421899085268404 0 0.03372179263945526 -0.00096755973783914124 0 0.033188324531272254 -0.00058421899085268404 0 0.032835576965741596 -0.00060172892103118236 0 0.033451048597837291 -0.000834611197929729 0 0.032530491346431482 -0.0001487924597995582 0 0.033188324531272254 -0.00058421899085268404 0 0.032835576965741596 -0.00060172892103118236 0 0.033179472219084218 -0.00085509118105827492 0 0.032835576965741596 -0.00060172892103118236 0 0.033451048597837291 -0.000834611197929729 0 0.032710806066583317 -0.00067248360613418742 0 0.032835576965741596 -0.00060172892103118236 0 0.032250594957056719 -0.00044319416508355663 0 0.032530491346431482 -0.0001487924597995582 0 0.032835576965741596 -0.00060172892103118236 0 0.032250594957056719 -0.00044319416508355663 0 0.033785903447410406 -0.00095252376511764203 0 0.033648518602107408 -0.00088136564011406316 0 0.033897358007772702 -0.0010189208525576904 0 0.033785903447410406 -0.00095252376511764203 0 0.033451048597837291 -0.000834611197929729 0 0.03372179263945526 -0.00096755973783914124 0 0.033785903447410406 -0.00095252376511764203 0 0.033451048597837291 -0.000834611197929729 0 0.033589130951435432 -0.00099859185096597266 0 0.033188324531272254 -0.00058421899085268404 0 0.033451048597837291 -0.000834611197929729 0 0.03372179263945526 -0.00096755973783914124 0 0.033348972587542262 -9.0552521903825004e-05 0 0.03372179263945526 -0.00096755973783914124 0 0.034080566054033562 -0.0018647639000659586 0 0.033785903447410406 -0.00095252376511764203 0 0.03372179263945526 -0.00096755973783914124 0 0.034080566054033562 -0.0018647639000659586 0 0.033285108726311491 -0.001770955866493008 0 0.033347515734571093 -0.00174828474522161 0 0.033785903447410406 -0.00095252376511764203 0 0.034080566054033562 -0.0018647639000659586 0 0.033648518602107408 -0.00088136564011406316 0 0.034781484547235071 -0.0031179723389560907 0 0.034935700649445713 -0.0031170617268196522 0 0.034073249333780815 -0.0029440382663816467 0 0.034080566054033562 -0.0018647639000659586 0 0.033648518602107408 -0.00088136564011406316 0 0.035005840039680568 -0.0040924962871303708 0 0.035301401382647334 -0.0053185483468951517 0 0.035687683180448682 -0.0046596241095918861 0 0.035005840039680568 -0.0040924962871303708 0 0.034073249333780815 -0.0029440382663816467 0 0.035301401382647334 -0.0053185483468951517 0 0.035301401382647334 -0.0053185483468951517 0 0.036208428286976249 -0.0053533093644693814 0 0.035687683180448682 -0.0046596241095918861 0 0.036208428286976249 -0.0053533093644693814 0 0.035687683180448682 -0.0046596241095918861 0 0.036209428282140327 -0.005188564798766726 0 0.034935700649445713 -0.0031170617268196522 0 0.035336323955561209 -0.0031711067732908115 0 0.035301401382647334 -0.0053185483468951517 0 0.036208428286976249 -0.0053533093644693814 0 0.036732209297898055 -0.0052870247607455113 0 0.033648518602107408 -0.00088136564011406316 0 0.033897358007772702 -0.0010189208525576904 0 0.034884631410151405 -0.0011327144809446994 0 0.033897358007772702 -0.0010189208525576904 0 0.034884631410151405 -0.0011327144809446994 0 0.034151270445911271 -0.0014539134991643791 0 0.034884631410151405 -0.0011327144809446994 0 0.035008526429014787 -0.0021465028450020603 0 0.034151270445911271 -0.0014539134991643791 0 0.035008526429014787 -0.0021465028450020603 0 0.034151270445911271 -0.0014539134991643791 0 0.034344099289828157 -0.0016474294666976672 0 0.034151270445911271 -0.0014539134991643791 0 0.033620658829743452 -0.0012019671117156057 0 0.033589130951435432 -0.00099859185096597266 0 0.033897358007772702 -0.0010189208525576904 0 0.034151270445911271 -0.0014539134991643791 0 0.033589130951435432 -0.00099859185096597266 0 0.033785903447410406 -0.00095252376511764203 0 0.033897358007772702 -0.0010189208525576904 0 0.033589130951435432 -0.00099859185096597266 0 0.033179472219084218 -0.00085509118105827492 0 0.033451048597837291 -0.000834611197929729 0 0.033589130951435432 -0.00099859185096597266 0 0.033179472219084218 -0.00085509118105827492 0 0.033589130951435432 -0.00099859185096597266 0 0.03327563070705461 -0.00098661278188177741 0 0.033620658829743452 -0.0012019671117156057 0 0.033589130951435432 -0.00099859185096597266 0 0.03327563070705461 -0.00098661278188177741 0 0.033620658829743452 -0.0012019671117156057 0 0.03327563070705461 -0.00098661278188177741 0 0.033044949072488165 -0.00096880751855568832 0 0.032704562878278956 -0.00075535246694019055 0 0.033044949072488165 -0.00096880751855568832 0 0.033240815307167604 -0.0010623681080908665 0 0.033620658829743452 -0.0012019671117156057 0 0.033044949072488165 -0.00096880751855568832 0 0.033240815307167604 -0.0010623681080908665 0 0.033620658829743452 -0.0012019671117156057 0 0.033240815307167604 -0.0010623681080908665 0 0.034344099289828157 -0.0016474294666976672 0 0.033240815307167604 -0.0010623681080908665 0 0.033841894373229507 -0.0015334649996640419 0 0.034344099289828157 -0.0016474294666976672 0 0.032107902029480273 -0.00027621486788906015 0 0.032704562878278956 -0.00075535246694019055 0 0.033240815307167604 -0.0010623681080908665 0 0.032107902029480273 -0.00027621486788906015 0 0.033240815307167604 -0.0010623681080908665 0 0.033841894373229507 -0.0015334649996640419 0 0.032107902029480273 -0.00027621486788906015 0 0.033841894373229507 -0.0015334649996640419 0 0.033088271544437761 -0.0023920403301055638 0 0.033841894373229507 -0.0015334649996640419 0 0.033088271544437761 -0.0023920403301055638 0 0.034495035319325934 -0.0025583665178548929 0 0.033543212572074169 0.0013875243184829221 0 0.034941842293281282 0.00012549113897886833 0 0.033277578841630517 0.00099336333960109457 0 0.033543212572074169 0.0013875243184829221 0 0.035450350389030445 -0.0024403972880040446 0 0.034495035319325934 -0.0025583665178548929 0 0.035157441348703883 -0.0020335610629050919 0 0.035509998743341604 -0.00041838811876723477 0 0.034941842293281282 0.00012549113897886833 0 0.033841894373229507 -0.0015334649996640419 0 0.034495035319325934 -0.0025583665178548929 0 0.035157441348703883 -0.0020335610629050919 0 0.035157441348703883 -0.0020335610629050919 0 0.034344099289828157 -0.0016474294666976672 0 0.035366884179068865 -0.0022301228847062772 0 0.033841894373229507 -0.0015334649996640419 0 0.035157441348703883 -0.0020335610629050919 0 0.034344099289828157 -0.0016474294666976672 0 0.034151270445911271 -0.0014539134991643791 0 0.033620658829743452 -0.0012019671117156057 0 0.034344099289828157 -0.0016474294666976672 0 0.035008526429014787 -0.0021465028450020603 0 0.034344099289828157 -0.0016474294666976672 0 0.035366884179068865 -0.0022301228847062772 0 0.035008526429014787 -0.0021465028450020603 0 0.035366884179068865 -0.0022301228847062772 0 0.036223126007159462 -0.0033453041298976811 0 0.035855009863797943 -0.0023362886470433965 0 0.035867283602726029 -0.0031820388654995495 0 0.036223126007159462 -0.0033453041298976811 0 0.035366884179068865 -0.0022301228847062772 0 0.035855009863797943 -0.0023362886470433965 0 0.036223126007159462 -0.0033453041298976811 0 0.035855009863797943 -0.0023362886470433965 0 0.035925398304132709 -0.0021193366898394511 0 0.035867283602726029 -0.0031820388654995495 0 0.035157441348703883 -0.0020335610629050919 0 0.035366884179068865 -0.0022301228847062772 0 0.035855009863797943 -0.0023362886470433965 0 0.035450350389030445 -0.0024403972880040446 0 0.035157441348703883 -0.0020335610629050919 0 0.035887770210685427 -0.0020211354608155804 0 0.035157441348703883 -0.0020335610629050919 0 0.035855009863797943 -0.0023362886470433965 0 0.035887770210685427 -0.0020211354608155804 0 0.035855009863797943 -0.0023362886470433965 0 0.035887770210685427 -0.0020211354608155804 0 0.035925398304132709 -0.0021193366898394511 0 0.035887770210685427 -0.0020211354608155804 0 0.035975401374627326 -0.001616402334459185 0 0.035925398304132709 -0.0021193366898394511 0 0.035887770210685427 -0.0020211354608155804 0 0.036005768867956048 -0.0018221587805838896 0 0.035975401374627326 -0.001616402334459185 0 0.035450350389030445 -0.0024403972880040446 0 0.035887770210685427 -0.0020211354608155804 0 0.036005768867956048 -0.0018221587805838896 0 0.035509998743341604 -0.00041838811876723477 0 0.035629906550938034 -0.00057541779634018514 0 0.034999707018797337 -0.00063334070788130721 0 0.035777406322462832 -0.00041975106882532603 0 0.035599824304204324 -0.0014465934040182797 0 0.035777406322462832 -0.00041975106882532603 0 0.035975401374627326 -0.001616402334459185 0 0.035599824304204324 -0.0014465934040182797 0 0.036005768867956048 -0.0018221587805838896 0 0.035777406322462832 -0.00041975106882532603 0 0.035975401374627326 -0.001616402334459185 0 0.035629906550938034 -0.00057541779634018514 0 0.035517728739110126 -0.00057223804556668506 0 0.036284772325989069 -4.9279360973410892e-07 0 0.035777406322462832 -0.00041975106882532603 0 0.03609596811866779 -4.9243449649997957e-05 0 0.035975401374627326 -0.001616402334459185 0 0.035925398304132709 -0.0021193366898394511 0 0.035599824304204324 -0.0014465934040182797 0 0.035925398304132709 -0.0021193366898394511 0 0.035599824304204324 -0.0014465934040182797 0 0.034999808379623451 -0.0026693546452431446 0 0.034999707018797337 -0.00063334070788130721 0 0.035599824304204324 -0.0014465934040182797 0 0.034999808379623451 -0.0026693546452431446 0 0.035925398304132709 -0.0021193366898394511 0 0.034999808379623451 -0.0026693546452431446 0 0.035867283602726029 -0.0031820388654995495 0 0.034999808379623451 -0.0026693546452431446 0 0.035867283602726029 -0.0031820388654995495 0 0.034999455739846662 -0.0047056369633276408 0 0.035867283602726029 -0.0031820388654995495 0 0.034999455739846662 -0.0047056369633276408 0 0.035737024222536655 -0.0044685519715489111 0 0.034999455739846662 -0.0047056369633276408 0 0.035737024222536655 -0.0044685519715489111 0 0.034999803943608659 -0.0067423785187366286 0 0.035737024222536655 -0.0044685519715489111 0 0.034999803943608659 -0.0067423785187366286 0 0.036074160493340938 -0.0056314460448200912 0 0.035867283602726029 -0.0031820388654995495 0 0.035737024222536655 -0.0044685519715489111 0 0.036223126007159462 -0.0033453041298976811 0 0.036223126007159462 -0.0033453041298976811 0 0.036554852030913347 -0.005891250352198724 0 0.036074160493340938 -0.0056314460448200912 0 0.036732209297898055 -0.0052870247607455113 0 0.036223126007159462 -0.0033453041298976811 0 0.036554852030913347 -0.005891250352198724 0 0.034884631410151405 -0.0011327144809446994 0 0.035008526429014787 -0.0021465028450020603 0 0.036223126007159462 -0.0033453041298976811 0 0.035336323955561209 -0.0031711067732908115 0 0.035537602276495515 -0.0032146862858017313 0 0.035737024222536655 -0.0044685519715489111 0 0.036223126007159462 -0.0033453041298976811 0 0.036074160493340938 -0.0056314460448200912 0 0.036554852030913347 -0.005891250352198724 0 0.036920685017526211 -0.0067394651458939202 0 0.036074160493340938 -0.0056314460448200912 0 0.036208428286976249 -0.0053533093644693814 0 0.036732209297898055 -0.0052870247607455113 0 0.036554852030913347 -0.005891250352198724 0 0.036608284208277442 -0.0058546032161671023 0 0.036554852030913347 -0.005891250352198724 0 0.036209428282140327 -0.005188564798766726 0 0.036208428286976249 -0.0053533093644693814 0 0.036554852030913347 -0.005891250352198724 0 0.036209428282140327 -0.005188564798766726 0 0.036608284208277442 -0.0058546032161671023 0 0.036554852030913347 -0.005891250352198724 0 0.036920685017526211 -0.0067394651458939202 0 0.036406907938768454 -0.0084817057345105504 0 0.036920685017526211 -0.0067394651458939202 0 0.035839779616920149 -0.0073551629388725224 0 0.036920685017526211 -0.0067394651458939202 0 0.035839779616920149 -0.0073551629388725224 0 0.036074160493340938 -0.0056314460448200912 0 0.03499958084597838 -0.0087793366391429005 0 0.035839779616920149 -0.0073551629388725224 0 0.034999803943608659 -0.0067423785187366286 0 0.03499958084597838 -0.0087793366391429005 0 0.035753220843073689 -0.0088289643013046547 0 0.035839779616920149 -0.0073551629388725224 0 0.035839779616920149 -0.0073551629388725224 0 0.034999803943608659 -0.0067423785187366286 0 0.036074160493340938 -0.0056314460448200912 0 0.016402815155643943 0.0073607716757295742 0 0.016488490260367021 0.0073928409427569831 0 0.016407453414682863 0.007320739738560492 0 0.016488490260367021 0.0073928409427569831 0 0.016407453414682863 0.007320739738560492 0 0.016542068685630826 0.0073621419904720689 0 0.016407453414682863 0.007320739738560492 0 0.016542068685630826 0.0073621419904720689 0 0.016444663526394523 0.0072581007119518889 0 0.016407453414682863 0.007320739738560492 0 0.016347746062149979 0.0073174381370516668 0 0.016348485673183023 0.0072704586347380629 0 0.016347746062149979 0.0073174381370516668 0 0.016348485673183023 0.0072704586347380629 0 0.016289063781619546 0.0072748907679342275 0 0.016347746062149979 0.0073174381370516668 0 0.016285423248963288 0.007332095180627665 0 0.016289063781619546 0.0072748907679342275 0 0.016362109139965032 0.0073550999630819696 0 0.016347746062149979 0.0073174381370516668 0 0.016285423248963288 0.007332095180627665 0 0.016402815155643943 0.0073607716757295742 0 0.016362109139965032 0.0073550999630819696 0 0.016347746062149979 0.0073174381370516668 0 0.016402815155643943 0.0073607716757295742 0 0.016407453414682863 0.007320739738560492 0 0.016347746062149979 0.0073174381370516668 0 0.016285423248963288 0.007332095180627665 0 0.016412108311882147 0.0074111681124659186 0 0.016197770852494166 0.0073133852314081482 0 0.0040168242729585217 -0.012577835838765226 0 0.0050188359047701955 -0.012935674010489544 0 0.0030686700448973258 -0.012870402421419378 0 0.010847360458003196 -0.0046494734182320873 0 0.0082181267909159795 -0.0025003946832121119 0 0.016362109139965032 0.0073550999630819696 0 0.016285423248963288 0.007332095180627665 0 0.016412108311882147 0.0074111681124659186 0 0.0040168242729585217 -0.012577835838765226 0 0.0034655605822098063 -0.012345775468900656 0 0.0038304727582846123 -0.012135278220616939 0 0.0040168242729585217 -0.012577835838765226 0 0.0042908048716079374 -0.012047422259823021 0 0.0038304727582846123 -0.012135278220616939 0 0.0040168242729585217 -0.012577835838765226 0 0.0045465400943869583 -0.01263066571968869 0 0.0050188359047701955 -0.012935674010489544 0 0.0040168242729585217 -0.012577835838765226 0 0.0045465400943869583 -0.01263066571968869 0 0.0042908048716079374 -0.012047422259823021 0 0.0045465400943869583 -0.01263066571968869 0 0.0046810527874889454 -0.012296067909552434 0 0.0042908048716079374 -0.012047422259823021 0 0.0045465400943869583 -0.01263066571968869 0 0.0046810527874889454 -0.012296067909552434 0 0.0048320320144175973 -0.012607889446300704 0 0.0050812970617590643 -0.012569609407101556 0 0.0050188359047701955 -0.012935674010489544 0 0.0070595053947149766 -0.012901366736565244 0 0.0046810527874889454 -0.012296067909552434 0 0.0050812970617590643 -0.012569609407101556 0 0.0048320320144175973 -0.012607889446300704 0 0.0045465400943869583 -0.01263066571968869 0 0.0048320320144175973 -0.012607889446300704 0 0.0050188359047701955 -0.012935674010489544 0 0.0050812970617590643 -0.012569609407101556 0 0.0048320320144175973 -0.012607889446300704 0 0.0050188359047701955 -0.012935674010489544 0 0.016402815155643943 0.0073607716757295742 0 0.016488490260367021 0.0073928409427569831 0 0.016412108311882147 0.0074111681124659186 0 0.016402815155643943 0.0073607716757295742 0 0.016362109139965032 0.0073550999630819696 0 0.016412108311882147 0.0074111681124659186 0 0.010847360458003196 -0.0046494734182320873 0 0.013779479054706755 -0.0082657029231324071 0 0.016488490260367021 0.0073928409427569831 0 0.016412108311882147 0.0074111681124659186 0 0.016707963634558384 0.0075300569969451595 0 0.013779479054706755 -0.0082657029231324071 0 0.012175227814356452 -0.014718631406107813 0 0.0050812970617590643 -0.012569609407101556 0 0.0070595053947149766 -0.012901366736565244 0 0.0058258733747252843 -0.01178993494877727 0 0.01404047490354725 -0.024834086947476068 0 0.014051848555468068 -0.024876903194067154 0 0.014069286047399385 -0.024839433097874515 0 0.013779479054706755 -0.0082657029231324071 0 0.015480513265870943 -0.011008141547771041 0 0.013779479054706755 -0.0082657029231324071 0 0.014768307857289104 -0.0020530678273399531 0 0.016707963634558384 0.0075300569969451595 0 0.01669410718028478 0.0073229328763234269 0 0.016991386418865186 0.0074883189273901706 0 0.016707963634558384 0.0075300569969451595 0 0.016542068685630826 0.0073621419904720689 0 0.01669410718028478 0.0073229328763234269 0 0.016488490260367021 0.0073928409427569831 0 0.016707963634558384 0.0075300569969451595 0 0.016542068685630826 0.0073621419904720689 0 0.016542068685630826 0.0073621419904720689 0 0.01669410718028478 0.0073229328763234269 0 0.016444663526394523 0.0072581007119518889 0 0.01669410718028478 0.0073229328763234269 0 0.016534475398969732 0.0071849292864661369 0 0.016444663526394523 0.0072581007119518889 0 0.01669410718028478 0.0073229328763234269 0 0.016664476038232224 0.0070827963902297753 0 0.017005027299070077 0.0072516591357182306 0 0.01669410718028478 0.0073229328763234269 0 0.016991386418865186 0.0074883189273901706 0 0.017005027299070077 0.0072516591357182306 0 0.016664476038232224 0.0070827963902297753 0 0.017005027299070077 0.0072516591357182306 0 0.017270613394266263 0.0068524781173482496 0 0.016664476038232224 0.0070827963902297753 0 0.016534475398969732 0.0071849292864661369 0 0.016512249719696288 0.007185535339213794 0 0.01669410718028478 0.0073229328763234269 0 0.016664476038232224 0.0070827963902297753 0 0.016534475398969732 0.0071849292864661369 0 0.016534475398969732 0.0071849292864661369 0 0.016426943573810141 0.0072123100741953846 0 0.016512249719696288 0.007185535339213794 0 0.016534475398969732 0.0071849292864661369 0 0.016426943573810141 0.0072123100741953846 0 0.016444663526394523 0.0072581007119518889 0 0.016407453414682863 0.007320739738560492 0 0.016444663526394523 0.0072581007119518889 0 0.016348485673183023 0.0072704586347380629 0 0.016444663526394523 0.0072581007119518889 0 0.016348485673183023 0.0072704586347380629 0 0.016360030943115677 0.0072363457917932325 0 0.016426943573810141 0.0072123100741953846 0 0.016444663526394523 0.0072581007119518889 0 0.016360030943115677 0.0072363457917932325 0 0.016426943573810141 0.0072123100741953846 0 0.016360030943115677 0.0072363457917932325 0 0.01637825256164081 0.0072289836161629146 0 0.016360030943115677 0.0072363457917932325 0 0.016323493244845926 0.0072244405447761699 0 0.01637825256164081 0.0072289836161629146 0 0.01611725523501267 0.0065599022517364549 0 0.016406513471014687 0.0065525758581305438 0 0.016406752951720515 0.0069818809098751997 0 0.01611725523501267 0.0065599022517364549 0 0.016406513471014687 0.0065525758581305438 0 0.016155335306528497 0.0061871591697035171 0 0.016323493244845926 0.0072244405447761699 0 0.016305016158824386 0.007251733409846594 0 0.016260832494390746 0.0072444426135692373 0 0.013336296575687256 0.0056839459383085022 0 0.010980309106427378 0.0030338429053963349 0 0.016360030943115677 0.0072363457917932325 0 0.016323493244845926 0.0072244405447761699 0 0.016305016158824386 0.007251733409846594 0 0.016348485673183023 0.0072704586347380629 0 0.016360030943115677 0.0072363457917932325 0 0.016305016158824386 0.007251733409846594 0 0.0047563741346758007 0.0021491863230456419 0 0.004759204968507855 0.00073327625634101834 0 0.017018288187366094 0.0067955125010973026 0 0.016406513471014687 0.0065525758581305438 0 0.016651559898136197 0.005470576029316959 0 0.017018288187366094 0.0067955125010973026 0 0.016406513471014687 0.0065525758581305438 0 0.016662136262552019 0.0069993798347626965 0 0.016406513471014687 0.0065525758581305438 0 0.016651559898136197 0.005470576029316959 0 0.01513909959007217 0.0048712955708080504 0 0.013676904484691046 0.0059771402448096063 0 0.010980309106427378 0.0030338429053963349 0 -0.0068416002315991207 -0.0022979068053120074 0 -0.0071640175482988325 -0.0031349230638376114 0 -0.006778210614648443 -0.0029970700729498676 0 -0.0071640175482988325 -0.0031349230638376114 0 -0.006778210614648443 -0.0029970700729498676 0 -0.0068475254948855164 -0.0034861355072890858 0 -0.0065230227200106655 -0.0033455672229943958 0 -0.006778210614648443 -0.0029970700729498676 0 -0.0068475254948855164 -0.0034861355072890858 0 -0.0071640175482988325 -0.0031349230638376114 0 -0.0068475254948855164 -0.0034861355072890858 0 -0.0071244329810434869 -0.0036847400535264339 0 -0.0064683439343243285 -0.0036907209696668917 0 -0.0068475254948855164 -0.0034861355072890858 0 -0.0068702148124237189 -0.0039968930941191895 0 -0.0068475254948855164 -0.0034861355072890858 0 -0.0071244329810434869 -0.0036847400535264339 0 -0.0068702148124237189 -0.0039968930941191895 0 0.004759204968507855 0.00073327625634101834 0 0.0043402348529870422 -0.0018454629983960657 0 0.016651559898136197 0.005470576029316959 0 0.015712081225951358 0.0035994036146104755 0 0.01513909959007217 0.0048712955708080504 0 -0.0071640175482988325 -0.0031349230638376114 0 -0.0071244329810434869 -0.0036847400535264339 0 -0.0074941781687648621 -0.00396188496231755 0 -0.0090126085257228542 -0.0040830368345093262 0 -0.007466450138600836 -0.0051107020728187735 0 -0.0064586438343284544 -0.0041345230209429281 0 0.0043402348529870422 -0.0018454629983960657 0 -0.0036133180121093482 -0.0027323849679760249 0 -0.0071244329810434869 -0.0036847400535264339 0 -0.0074941781687648621 -0.00396188496231755 0 -0.0068702148124237189 -0.0039968930941191895 0 -0.0090126085257228542 -0.0040830368345093262 0 -0.010180016701644434 -0.0063399313214881278 0 -0.008471474836171387 -0.0057097231869218477 0 -0.0090126085257228542 -0.0040830368345093262 0 -0.007466450138600836 -0.0051107020728187735 0 -0.008471474836171387 -0.0057097231869218477 0 -0.007466450138600836 -0.0051107020728187735 0 -0.0065761852309175178 -0.0052397255395612227 0 -0.0064586438343284544 -0.0041345230209429281 0 -0.0058613393564076683 -0.0044023782857025504 0 -0.0065761852309175178 -0.0052397255395612227 0 -0.0064586438343284544 -0.0041345230209429281 0 0.016305016158824386 0.007251733409846594 0 0.016272456446608345 0.0072526657973718016 0 0.016260832494390746 0.0072444426135692373 0 0.016272456446608345 0.0072526657973718016 0 0.016289063781619546 0.0072748907679342275 0 0.016252724152407666 0.0072334187203424959 0 0.016285423248963288 0.007332095180627665 0 0.016289063781619546 0.0072748907679342275 0 0.016197770852494166 0.0073133852314081482 0 0.0084886224867618855 -0.0011459714930072153 0 0.0082181267909159795 -0.0025003946832121119 0 0.016305016158824386 0.007251733409846594 0 0.016272456446608345 0.0072526657973718016 0 0.016289063781619546 0.0072748907679342275 0 0.016348485673183023 0.0072704586347380629 0 0.016305016158824386 0.007251733409846594 0 0.016289063781619546 0.0072748907679342275 0 0.010980309106427378 0.0030338429053963349 0 0.0071606594907769371 -0.0015084777223015183 0 0.016272456446608345 0.0072526657973718016 0 0.016260832494390746 0.0072444426135692373 0 0.016251812364829525 0.0072341825517403483 0 0.015712081225951358 0.0035994036146104755 0 0.01513909959007217 0.0048712955708080504 0 0.015362698873469851 0.0035911063592304242 0 0.010980309106427378 0.0030338429053963349 0 0.0084901509992301779 -0.0020902405749463606 0 0.0094660150413682833 -0.0011355903904018269 0 0.0095115401874604402 -0.0013953003773390909 0 0.0093144253041006955 -0.0014033444372842901 0 0.0043402348529870422 -0.0018454629983960657 0 0.0036028600445170713 -0.0061058922380724835 0 0.0054296337024349267 -0.0026695308500736016 0 0.0054641088211092124 -0.0026746921266444994 0 0.0054576044163917219 -0.0026871997369780215 0 0.0053927800723571218 -0.0026728471129304453 0 0.0054073459124208065 -0.0026754947640109032 0 0.0054154543052701044 -0.0026393706006511103 0 0.0054073459124208065 -0.0026754947640109032 0 0.0054296337024349267 -0.0026695308500736016 0 0.0054154543052701044 -0.0026393706006511103 0 0.0054073459124208065 -0.0026754947640109032 0 0.0054296337024349267 -0.0026695308500736016 0 0.0054576044163917219 -0.0026871997369780215 0 0.0071606594907769371 -0.0015084777223015183 0 0.0084901509992301779 -0.0020902405749463606 0 0.0043402348529870422 -0.0018454629983960657 0 0.0071606594907769371 -0.0015084777223015183 0 0.0054296337024349267 -0.0026695308500736016 0 0.0054641088211092124 -0.0026746921266444994 0 0.0054154543052701044 -0.0026393706006511103 0 0.0029109012293616456 -0.012619499778362643 0 0.0030686700448973258 -0.012870402421419378 0 0.0034655605822098063 -0.012345775468900656 0 0.0073644564345128642 -0.0039131241832233432 0 0.0084901509992301779 -0.0020902405749463606 0 0.0084901509992301779 -0.0020902405749463606 0 0.0082181267909159795 -0.0025003946832121119 0 0.016272456446608345 0.0072526657973718016 0 0.016251812364829525 0.0072341825517403483 0 0.016252724152407666 0.0072334187203424959 0 0.0065234161750973392 0.0015152393155203347 0 0.0038902533286867538 -0.0029260634315308614 0 0.0095710346186999324 -0.0028379202532825853 0 0.0073644564345128642 -0.0039131241832233432 0 0.0082181267909159795 -0.0025003946832121119 0 0.0040168242729585217 -0.012577835838765226 0 0.0030686700448973258 -0.012870402421419378 0 0.0034655605822098063 -0.012345775468900656 0 0.0034655605822098063 -0.012345775468900656 0 0.0035504689608632572 -0.011591457684154078 0 0.0038304727582846123 -0.012135278220616939 0 0.0022226798831566008 -0.01288967472694175 0 0.0028986377009971448 -0.011831141521910296 0 0.0022098179602507836 -0.011816131373705911 0 0.0029109012293616456 -0.012619499778362643 0 0.0034655605822098063 -0.012345775468900656 0 0.0035504689608632572 -0.011591457684154078 0 0.0073644564345128642 -0.0039131241832233432 0 0.0044993126392328647 -0.0090107893374403933 0 0.0028986377009971448 -0.011831141521910296 0 0.0022098179602507836 -0.011816131373705911 0 0.0025277601895372275 -0.011225709040085132 0 0.0022226798831566008 -0.01288967472694175 0 0.0022098179602507836 -0.011816131373705911 0 0.0015041771998483763 -0.011932851078567386 0 0.0073644564345128642 -0.0039131241832233432 0 0.0036028600445170713 -0.0061058922380724835 0 0.0036028600445170713 -0.0061058922380724835 0 0.00046638395381979291 -0.0070865045990582262 0 0.0022098179602507836 -0.011816131373705911 0 0.0015041771998483763 -0.011932851078567386 0 0.00184181523626101 -0.011152087923835728 0 0.0036028600445170713 -0.0061058922380724835 0 0.0030606173794725084 -0.0072649477309636385 0 0.00184181523626101 -0.011152087923835728 0 0.0013770951619639807 -0.010491430109430936 0 0.0007704379024815203 -0.010960457415299767 0 0.0014473509094816124 -0.011891728016163183 0 0.00184181523626101 -0.011152087923835728 0 0.0007704379024815203 -0.010960457415299767 0 0.0013770951619639807 -0.010491430109430936 0 0.0007704379024815203 -0.010960457415299767 0 0.0011461333262377978 -0.0097630166430776426 0 0.00184181523626101 -0.011152087923835728 0 0.0013770951619639807 -0.010491430109430936 0 0.0017663193363046958 -0.010127606942748422 0 0.00184181523626101 -0.011152087923835728 0 0.002561767203795153 -0.010467281425058496 0 0.0017663193363046958 -0.010127606942748422 0 0.002561767203795153 -0.010467281425058496 0 0.0029592442642290954 -0.011032991111662742 0 0.0025277601895372275 -0.011225709040085132 0 0.002561767203795153 -0.010467281425058496 0 0.0029592442642290954 -0.011032991111662742 0 0.0038601641434187111 -0.010593258797515501 0 0.0028986377009971448 -0.011831141521910296 0 0.0029592442642290954 -0.011032991111662742 0 0.0025277601895372275 -0.011225709040085132 0 0.0022098179602507836 -0.011816131373705911 0 0.00184181523626101 -0.011152087923835728 0 0.0025277601895372275 -0.011225709040085132 0 0.00184181523626101 -0.011152087923835728 0 0.002561767203795153 -0.010467281425058496 0 0.0025277601895372275 -0.011225709040085132 0 -0.0048481478126963327 -0.0067696859111102394 0 -0.0069498169886191572 -0.006394789269608861 0 -0.0057781257383642884 -0.0077597029448419688 0 -0.0055012747575198129 -0.0056721750496400375 0 -0.0065761852309175178 -0.0052397255395612227 0 -0.0069498169886191572 -0.006394789269608861 0 -0.007466450138600836 -0.0051107020728187735 0 -0.0065761852309175178 -0.0052397255395612227 0 -0.0069498169886191572 -0.006394789269608861 0 -0.0069498169886191572 -0.006394789269608861 0 -0.0083056302582817099 -0.0069653834732243949 0 -0.007093826664881943 -0.0081503880771526781 0 -0.010180016701644434 -0.0063399313214881278 0 -0.0083056302582817099 -0.0069653834732243949 0 -0.0091118637119210911 -0.0079840450267832739 0 -0.010180016701644434 -0.0063399313214881278 0 -0.0083056302582817099 -0.0069653834732243949 0 -0.008471474836171387 -0.0057097231869218477 0 -0.0069498169886191572 -0.006394789269608861 0 -0.0083056302582817099 -0.0069653834732243949 0 -0.008471474836171387 -0.0057097231869218477 0 -0.007466450138600836 -0.0051107020728187735 0 -0.0069498169886191572 -0.006394789269608861 0 -0.008471474836171387 -0.0057097231869218477 0 -0.0091118637119210911 -0.0079840450267832739 0 -0.007093826664881943 -0.0081503880771526781 0 -0.0080103323275070859 -0.0096457381690779644 0 -0.0083056302582817099 -0.0069653834732243949 0 -0.0091118637119210911 -0.0079840450267832739 0 -0.007093826664881943 -0.0081503880771526781 0 0.00046638395381979291 -0.0070865045990582262 0 -0.0011888230760040365 -0.0079646303500935066 0 -0.0052414049368784714 -0.0090326546290680557 0 -0.007093826664881943 -0.0081503880771526781 0 -0.0057781257383642884 -0.0077597029448419688 0 -0.0052414049368784714 -0.0090326546290680557 0 -0.007093826664881943 -0.0081503880771526781 0 -0.0080103323275070859 -0.0096457381690779644 0 -0.0069498169886191572 -0.006394789269608861 0 -0.007093826664881943 -0.0081503880771526781 0 -0.0057781257383642884 -0.0077597029448419688 0 -0.0010971547506922967 -0.009072439085071167 0 -0.00081540532752488086 -0.0092072977372928879 0 -0.00086734353425671983 -0.0091242196301840675 0 -0.0025398078023496449 -0.0085290143852634458 0 -0.0011888230760040365 -0.0079646303500935066 0 -0.0013321932161636759 -0.009103473192797808 0 -0.0010971547506922967 -0.009072439085071167 0 -0.00081540532752488086 -0.0092072977372928879 0 -0.00043085828223737784 -0.0099025584697600959 0 -0.00010384445323515061 -0.00898457260131795 0 -0.00086734353425671983 -0.0091242196301840675 0 0.0007704379024815203 -0.010960457415299767 0 0.00012696083425018943 -0.010043517731325117 0 0.0011461333262377978 -0.0097630166430776426 0 -0.00043085828223737784 -0.0099025584697600959 0 -0.00010384445323515061 -0.00898457260131795 0 0.00058081926555901954 -0.0097710977863132691 0 -0.0011888230760040365 -0.0079646303500935066 0 -0.0010376824994516528 -0.0082267961643140274 0 -0.0011888230760040365 -0.0079646303500935066 0 -9.0151543993580716e-05 -0.0082240024249753511 0 0.0005376527421482257 -0.0083416104370407137 0 -0.00074187861048612678 -0.0085836938035254839 0 -0.00010384445323515061 -0.00898457260131795 0 -0.00074187861048612678 -0.0085836938035254839 0 -0.00010384445323515061 -0.00898457260131795 0 -0.00086734353425671983 -0.0091242196301840675 0 -0.0011625346896379752 -0.0086146625030677337 0 -0.00074187861048612678 -0.0085836938035254839 0 -0.0011413558517201158 -0.008874286584771204 0 -0.00074187861048612678 -0.0085836938035254839 0 -0.00086734353425671983 -0.0091242196301840675 0 -0.0011413558517201158 -0.008874286584771204 0 -0.0010971547506922967 -0.009072439085071167 0 -0.00086734353425671983 -0.0091242196301840675 0 -0.0011413558517201158 -0.008874286584771204 0 0.002561767203795153 -0.010467281425058496 0 0.0025290424089978634 -0.0094477170664944345 0 0.0038601641434187111 -0.010593258797515501 0 0.0019768267381728918 -0.0094834756226112021 0 0.0021959101935891422 -0.0098873757311860391 0 0.0017663193363046958 -0.010127606942748422 0 0.0019768267381728918 -0.0094834756226112021 0 0.0025290424089978634 -0.0094477170664944345 0 0.0021959101935891422 -0.0098873757311860391 0 0.002561767203795153 -0.010467281425058496 0 0.0025290424089978634 -0.0094477170664944345 0 0.0021959101935891422 -0.0098873757311860391 0 0.002561767203795153 -0.010467281425058496 0 0.0021959101935891422 -0.0098873757311860391 0 0.0017663193363046958 -0.010127606942748422 0 0.0013770951619639807 -0.010491430109430936 0 0.0017663193363046958 -0.010127606942748422 0 0.0011461333262377978 -0.0097630166430776426 0 0.0019768267381728918 -0.0094834756226112021 0 0.0017663193363046958 -0.010127606942748422 0 0.0011461333262377978 -0.0097630166430776426 0 0.00037245167076304221 -0.0082719350989952992 0 -9.0151543993580716e-05 -0.0082240024249753511 0 0.0005376527421482257 -0.0083416104370407137 0 -0.00010384445323515061 -0.00898457260131795 0 0.00058081926555901954 -0.0097710977863132691 0 0.0005376527421482257 -0.0083416104370407137 0 0.0019768267381728918 -0.0094834756226112021 0 0.00058081926555901954 -0.0097710977863132691 0 0.0005376527421482257 -0.0083416104370407137 0 0.0019768267381728918 -0.0094834756226112021 0 0.0025290424089978634 -0.0094477170664944345 0 0.0067356713432459043 -0.017097203356212488 0 0.008159477962278212 -0.017273842747614496 0 0.012726259931519907 -0.025698317964291409 0 0.013042701463718668 -0.025571762226689495 0 0.013025386684865347 -0.025613333668137919 0 0.013042701463718668 -0.025571762226689495 0 0.013025386684865347 -0.025613333668137919 0 0.012949533811219188 -0.025600682527037 0 0.013160947666321128 -0.025511533976330453 0 0.013025386684865347 -0.025613333668137919 0 0.012949533811219188 -0.025600682527037 0 0.013887909593150465 -0.025094210222225969 0 0.013932606838518805 -0.025058431829247087 0 0.013960797620881647 -0.025030317954987141 0 0.013887909593150465 -0.025094210222225969 0 0.013960797620881647 -0.025030317954987141 0 0.013970333506208001 -0.025060904050334152 0 0.013960797620881647 -0.025030317954987141 0 0.013987280869257572 -0.024957106383943831 0 0.013997479685794151 -0.024989479253023181 0 0.013960797620881647 -0.025030317954987141 0 0.013997479685794151 -0.024989479253023181 0 0.013970333506208001 -0.025060904050334152 0 0.008159477962278212 -0.017273842747614496 0 0.010023698347266392 -0.017437679974260125 0 0.013932606838518805 -0.025058431829247087 0 0.013960797620881647 -0.025030317954987141 0 0.013987280869257572 -0.024957106383943831 0 0.013042701463718668 -0.025571762226689495 0 0.012949533811219188 -0.025600682527037 0 0.012847924140883331 -0.025201610934716526 0 0.0025290424089978634 -0.0094477170664944345 0 0.0043547760101926248 -0.010760842152353149 0 0.0038601641434187111 -0.010593258797515501 0 0.012239154014136071 -0.023734731934108237 0 0.010023698347266392 -0.017437679974260125 0 0.0028986377009971448 -0.011831141521910296 0 0.0029592442642290954 -0.011032991111662742 0 0.0038601641434187111 -0.010593258797515501 0 0.0035504689608632572 -0.011591457684154078 0 0.004068317227397979 -0.011306079072559337 0 0.0038601641434187111 -0.010593258797515501 0 0.0044993126392328647 -0.0090107893374403933 0 0.0040684742088276157 -0.0098152173335508321 0 0.010023698347266392 -0.017437679974260125 0 0.0084488939785104644 -0.014187247980168198 0 0.004068317227397979 -0.011306079072559337 0 0.0043547760101926248 -0.010760842152353149 0 0.004684777553874692 -0.01162450912163418 0 0.004068317227397979 -0.011306079072559337 0 0.0043547760101926248 -0.010760842152353149 0 0.0038601641434187111 -0.010593258797515501 0 0.013987280869257572 -0.024957106383943831 0 0.014016552466260187 -0.024894010744269428 0 0.013997479685794151 -0.024989479253023181 0 0.010023698347266392 -0.017437679974260125 0 0.012175227814356452 -0.014718631406107813 0 0.0048533779787083399 -0.010945203872036654 0 0.0050160313019052818 -0.011696234638707883 0 0.0058258733747252843 -0.01178993494877727 0 0.0050812970617590643 -0.012569609407101556 0 0.0050160313019052818 -0.011696234638707883 0 0.0058258733747252843 -0.01178993494877727 0 0.0046810527874889454 -0.012296067909552434 0 0.0050812970617590643 -0.012569609407101556 0 0.004684777553874692 -0.01162450912163418 0 0.0080289407555741554 -0.013502867417887223 0 0.0084488939785104644 -0.014187247980168198 0 0.0046810527874889454 -0.012296067909552434 0 0.004684777553874692 -0.01162450912163418 0 0.0042908048716079374 -0.012047422259823021 0 0.0035504689608632572 -0.011591457684154078 0 0.0042908048716079374 -0.012047422259823021 0 0.0038304727582846123 -0.012135278220616939 0 0.0035504689608632572 -0.011591457684154078 0 0.004068317227397979 -0.011306079072559337 0 0.0042908048716079374 -0.012047422259823021 0 0.004068317227397979 -0.011306079072559337 0 0.004684777553874692 -0.01162450912163418 0 0.0042908048716079374 -0.012047422259823021 0 0.01404047490354725 -0.024834086947476068 0 0.014051848555468068 -0.024876903194067154 0 0.014016552466260187 -0.024894010744269428 0 0.014051848555468068 -0.024876903194067154 0 0.014016552466260187 -0.024894010744269428 0 0.014042127919578238 -0.024941388138961004 0 0.014016552466260187 -0.024894010744269428 0 0.014042127919578238 -0.024941388138961004 0 0.013997479685794151 -0.024989479253023181 0 0.014042127919578238 -0.024941388138961004 0 0.01403429896949078 -0.025024626707944669 0 0.014066904204603336 -0.024982231179416999 0 0.014042127919578238 -0.024941388138961004 0 0.013997479685794151 -0.024989479253023181 0 0.01403429896949078 -0.025024626707944669 0 0.013997479685794151 -0.024989479253023181 0 0.013970333506208001 -0.025060904050334152 0 0.01403429896949078 -0.025024626707944669 0 0.014013934564306088 -0.025059834814402781 0 0.013970333506208001 -0.025060904050334152 0 0.01403429896949078 -0.025024626707944669 0 0.014060935196796704 -0.025073931247242644 0 0.014013934564306088 -0.025059834814402781 0 0.01403429896949078 -0.025024626707944669 0 0.014060935196796704 -0.025073931247242644 0 0.01403429896949078 -0.025024626707944669 0 0.014099318189676623 -0.025029659385092558 0 0.014099318189676623 -0.025029659385092558 0 0.014066904204603336 -0.024982231179416999 0 0.014083246848574328 -0.024925833749345663 0 0.01403429896949078 -0.025024626707944669 0 0.014099318189676623 -0.025029659385092558 0 0.014066904204603336 -0.024982231179416999 0 0.014099318189676623 -0.025029659385092558 0 0.014107218320028753 -0.024952739265020212 0 0.014083246848574328 -0.024925833749345663 0 0.014099318189676623 -0.025029659385092558 0 0.014149896086732805 -0.025099604728840454 0 0.014107218320028753 -0.024952739265020212 0 0.01411547444857973 -0.025101928587787144 0 0.014099318189676623 -0.025029659385092558 0 0.014149896086732805 -0.025099604728840454 0 0.014429361807807597 -0.024692693466352885 0 0.01449702681863043 -0.024585929585880635 0 0.014149896086732805 -0.025099604728840454 0 0.014076735366027611 -0.024927782234921571 0 0.014107218320028753 -0.024952739265020212 0 0.014332439734935696 -0.025154696688764633 0 0.014149896086732805 -0.025099604728840454 0 0.014322831264962695 -0.025149120041648969 0 0.014076735366027611 -0.024927782234921571 0 0.014097780087852401 -0.024853979791714855 0 0.014115391804709927 -0.024821070302850398 0 0.014076735366027611 -0.024927782234921571 0 0.014107218320028753 -0.024952739265020212 0 0.014097780087852401 -0.024853979791714855 0 0.014107218320028753 -0.024952739265020212 0 0.014097780087852401 -0.024853979791714855 0 0.014083246848574328 -0.024925833749345663 0 0.014097780087852401 -0.024853979791714855 0 0.014081615750462186 -0.024862297621854955 0 0.014100160834537809 -0.024823775070823905 0 0.014051848555468068 -0.024876903194067154 0 0.014081615750462186 -0.024862297621854955 0 0.014083246848574328 -0.024925833749345663 0 0.014042127919578238 -0.024941388138961004 0 0.014066904204603336 -0.024982231179416999 0 0.014083246848574328 -0.024925833749345663 0 0.014051848555468068 -0.024876903194067154 0 0.014042127919578238 -0.024941388138961004 0 0.014083246848574328 -0.024925833749345663 0 0.014097780087852401 -0.024853979791714855 0 0.014081615750462186 -0.024862297621854955 0 0.014083246848574328 -0.024925833749345663 0 0.014273105844681423 -0.024909001994254353 0 0.014335751318395096 -0.024969072592100669 0 0.014222814086020573 -0.024892764155416993 0 0.014273105844681423 -0.024909001994254353 0 0.014254983343867692 -0.025008091454543267 0 0.014335751318395096 -0.024969072592100669 0 0.014297395369730164 -0.025103132566368938 0 0.014235622615615456 -0.025116183480683976 0 0.014254983343867692 -0.025008091454543267 0 0.014366828353810502 -0.025133382525813774 0 0.014297395369730164 -0.025103132566368938 0 0.014335751318395096 -0.024969072592100669 0 0.014297395369730164 -0.025103132566368938 0 0.014254983343867692 -0.025008091454543267 0 0.014335751318395096 -0.024969072592100669 0 0.014366828353810502 -0.025133382525813774 0 0.014322831264962695 -0.025149120041648969 0 0.01437390390325928 -0.025099656295519645 0 0.014366828353810502 -0.025133382525813774 0 0.014350310978454595 -0.025096678714795036 0 0.01437390390325928 -0.025099656295519645 0 0.014350310978454595 -0.025096678714795036 0 0.01437390390325928 -0.025099656295519645 0 0.014364159743281705 -0.024992264914786476 0 0.014982352711201052 -0.024557053276719826 0 0.01520445523246435 -0.024294340504011917 0 0.01449702681863043 -0.024585929585880635 0 0.014714076727289813 -0.024228252017252525 0 0.014097780087852401 -0.024853979791714855 0 0.014115391804709927 -0.024821070302850398 0 0.014146743650134226 -0.024790961665634669 0 0.014097780087852401 -0.024853979791714855 0 0.014146743650134226 -0.024790961665634669 0 0.014128289679536495 -0.024803203516715968 0 0.014146743650134226 -0.024790961665634669 0 0.014205664477910168 -0.024739602832680261 0 0.014240433011613202 -0.024757657166916577 0 0.014146743650134226 -0.024790961665634669 0 0.014240433011613202 -0.024757657166916577 0 0.014191700005181431 -0.024795302495885345 0 0.014115391804709927 -0.024821070302850398 0 0.014146743650134226 -0.024790961665634669 0 0.014205664477910168 -0.024739602832680261 0 0.014714076727289813 -0.024228252017252525 0 0.015168834935186925 -0.023465266672319185 0 0.01520445523246435 -0.024294340504011917 0 0.016027556618733427 -0.023288673843153005 0 0.014350310978454595 -0.025096678714795036 0 0.014364159743281705 -0.024992264914786476 0 0.014286004197866199 -0.024958534702967154 0 0.015168834935186925 -0.023465266672319185 0 0.016064237669149373 -0.021920202628517536 0 0.014205664477910168 -0.024739602832680261 0 0.014240433011613202 -0.024757657166916577 0 0.014354898074364695 -0.024702716380532466 0 0.014240433011613202 -0.024757657166916577 0 0.014354898074364695 -0.024702716380532466 0 0.014329827990477172 -0.024784649712347482 0 0.014364159743281705 -0.024992264914786476 0 0.014291658636740943 -0.02484237821393687 0 0.014286004197866199 -0.024958534702967154 0 0.014201067012956483 -0.024714594332802008 0 0.014291658636740943 -0.02484237821393687 0 0.014286004197866199 -0.024958534702967154 0 0.01435274953386103 -0.02481088377409876 0 0.014273105844681423 -0.024909001994254353 0 0.014222814086020573 -0.024892764155416993 0 0.02512431999840474 -0.0033311198082923137 0 0.024055045117254415 -0.0016080876289034224 0 0.023357061759006058 -0.003500791296890416 0 0.014515518914190539 -0.024728203602846513 0 0.014354898074364695 -0.024702716380532466 0 0.014329827990477172 -0.024784649712347482 0 0.024055045117254415 -0.0016080876289034224 0 0.022494264579750099 -0.0028042243026743748 0 0.022312832420649874 -0.0017006481846630374 0 0.014240433011613202 -0.024757657166916577 0 0.014329827990477172 -0.024784649712347482 0 0.014191700005181431 -0.024795302495885345 0 0.018811626113448145 -0.015335297246006968 0 0.018212344464019852 -0.014053961366310441 0 0.024055045117254415 -0.0016080876289034224 0 0.022494264579750099 -0.0028042243026743748 0 0.023357061759006058 -0.003500791296890416 0 0.022494264579750099 -0.0028042243026743748 0 0.022312832420649874 -0.0017006481846630374 0 0.020620432007574591 -0.0017836651045573381 0 0.014146743650134226 -0.024790961665634669 0 0.014191700005181431 -0.024795302495885345 0 0.014128289679536495 -0.024803203516715968 0 0.018212344464019852 -0.014053961366310441 0 0.017375436669624673 -0.013239573467910487 0 0.022494264579750099 -0.0028042243026743748 0 0.020620432007574591 -0.0017836651045573381 0 0.020582256674385773 -0.0031071488607830877 0 0.0218107261034702 -0.0037131723071822877 0 0.020582256674385773 -0.0031071488607830877 0 0.020263714192726441 -0.0043064161014149897 0 0.022494264579750099 -0.0028042243026743748 0 0.0218107261034702 -0.0037131723071822877 0 0.020582256674385773 -0.0031071488607830877 0 0.020263714192726441 -0.0043064161014149897 0 0.020106137208702472 -0.0051970016742859714 0 0.021474434386751326 -0.0055669306417987256 0 0.0218107261034702 -0.0037131723071822877 0 0.020263714192726441 -0.0043064161014149897 0 0.021474434386751326 -0.0055669306417987256 0 0.0218107261034702 -0.0037131723071822877 0 0.022692858117621673 -0.004570776406799996 0 0.021474434386751326 -0.0055669306417987256 0 0.022692858117621673 -0.004570776406799996 0 0.023130718606386047 -0.0051540870834920517 0 0.021474434386751326 -0.0055669306417987256 0 0.022494264579750099 -0.0028042243026743748 0 0.0218107261034702 -0.0037131723071822877 0 0.023357061759006058 -0.003500791296890416 0 0.0218107261034702 -0.0037131723071822877 0 0.023357061759006058 -0.003500791296890416 0 0.022692858117621673 -0.004570776406799996 0 0.023357061759006058 -0.003500791296890416 0 0.022692858117621673 -0.004570776406799996 0 0.023288106405848608 -0.0043726493446631142 0 0.023357061759006058 -0.003500791296890416 0 0.023288106405848608 -0.0043726493446631142 0 0.023877147589357123 -0.00434890199112595 0 0.022692858117621673 -0.004570776406799996 0 0.023130718606386047 -0.0051540870834920517 0 0.023288106405848608 -0.0043726493446631142 0 0.023130718606386047 -0.0051540870834920517 0 0.023288106405848608 -0.0043726493446631142 0 0.023877147589357123 -0.00434890199112595 0 0.023130718606386047 -0.0051540870834920517 0 0.023877147589357123 -0.00434890199112595 0 0.02481821340480948 -0.0047272225889085076 0 0.026540383690489378 0.00090929492750643466 0 0.02846792526197596 -0.00066283161474635583 0 0.02512431999840474 -0.0033311198082923137 0 0.023357061759006058 -0.003500791296890416 0 0.023877147589357123 -0.00434890199112595 0 0.02512431999840474 -0.0033311198082923137 0 0.023877147589357123 -0.00434890199112595 0 0.02481821340480948 -0.0047272225889085076 0 0.018124862650965971 -0.0028095980294120786 0 0.016774879109656044 -0.0029561017911762513 0 0.01779485500355573 -0.0039342100798085569 0 0.018124862650965971 -0.0028095980294120786 0 0.016774879109656044 -0.0029561017911762513 0 0.017355795070435772 -0.0019310299084035899 0 0.015765477178855892 -0.0020026418444502848 0 0.016774879109656044 -0.0029561017911762513 0 0.017355795070435772 -0.0019310299084035899 0 0.014051848555468068 -0.024876903194067154 0 0.014081615750462186 -0.024862297621854955 0 0.014069286047399385 -0.024839433097874515 0 0.018124862650965971 -0.0028095980294120786 0 0.017355795070435772 -0.0019310299084035899 0 0.018970373576847589 -0.0018582501831733128 0 0.015480513265870943 -0.011008141547771041 0 0.016492837639661126 -0.012394711974579978 0 0.014081615750462186 -0.024862297621854955 0 0.014069286047399385 -0.024839433097874515 0 0.014100160834537809 -0.024823775070823905 0 0.014097780087852401 -0.024853979791714855 0 0.014128289679536495 -0.024803203516715968 0 0.014100160834537809 -0.024823775070823905 0 0.017375436669624673 -0.013239573467910487 0 0.016492837639661126 -0.012394711974579978 0 0.020620432007574591 -0.0017836651045573381 0 0.018970373576847589 -0.0018582501831733128 0 0.020582256674385773 -0.0031071488607830877 0 0.018970373576847589 -0.0018582501831733128 0 0.020582256674385773 -0.0031071488607830877 0 0.019142043771886913 -0.0034571509001962717 0 0.018124862650965971 -0.0028095980294120786 0 0.018970373576847589 -0.0018582501831733128 0 0.019142043771886913 -0.0034571509001962717 0 0.020582256674385773 -0.0031071488607830877 0 0.019142043771886913 -0.0034571509001962717 0 0.020263714192726441 -0.0043064161014149897 0 0.020263714192726441 -0.0043064161014149897 0 0.018829251281101994 -0.004945216763002626 0 0.020106137208702472 -0.0051970016742859714 0 0.019142043771886913 -0.0034571509001962717 0 0.020263714192726441 -0.0043064161014149897 0 0.018829251281101994 -0.004945216763002626 0 0.018860229004498338 0.0012473610218263036 0 0.016783137243290221 0.00017680140084984459 0 0.018267820408065391 0.0068757575412263369 0 0.017554808186895778 0.0073271206525808152 0 0.017778781019557915 0.0066294150834741742 0 0.018124862650965971 -0.0028095980294120786 0 0.019142043771886913 -0.0034571509001962717 0 0.01779485500355573 -0.0039342100798085569 0 0.019142043771886913 -0.0034571509001962717 0 0.018829251281101994 -0.004945216763002626 0 0.01779485500355573 -0.0039342100798085569 0 0.016991386418865186 0.0074883189273901706 0 0.017554808186895778 0.0073271206525808152 0 0.017005027299070077 0.0072516591357182306 0 0.014768307857289104 -0.0020530678273399531 0 0.016783137243290221 0.00017680140084984459 0 0.017554808186895778 0.0073271206525808152 0 0.017270613394266263 0.0068524781173482496 0 0.017778781019557915 0.0066294150834741742 0 0.017554808186895778 0.0073271206525808152 0 0.017005027299070077 0.0072516591357182306 0 0.017270613394266263 0.0068524781173482496 0 0.017270613394266263 0.0068524781173482496 0 0.01749901299687669 0.0063989967744487878 0 0.017141130131352621 0.0061992818710196584 0 0.017270613394266263 0.0068524781173482496 0 0.01749901299687669 0.0063989967744487878 0 0.017778781019557915 0.0066294150834741742 0 0.016523587407698798 0.0072261870617192549 0 0.01666891818830522 0.0071093520901263606 0 0.016536399605078866 0.0071990484761907366 0 0.017141130131352621 0.0061992818710196584 0 0.017584039871200177 0.0060340862999331314 0 0.017647004325416396 0.0054936502341832675 0 0.017178994936677662 0.0068202664498272086 0 0.017677907145406846 0.0065363623113064498 0 0.01749901299687669 0.0063989967744487878 0 0.017141130131352621 0.0061992818710196584 0 0.017584039871200177 0.0060340862999331314 0 0.01749901299687669 0.0063989967744487878 0 0.017584039871200177 0.0060340862999331314 0 0.017800032315722001 0.0062327339189812694 0 0.018200948139443125 0.0058553050903139472 0 0.017826588248686766 0.005856493576329321 0 0.017800032315722001 0.0062327339189812694 0 0.017584039871200177 0.0060340862999331314 0 0.017826588248686766 0.005856493576329321 0 0.017800032315722001 0.0062327339189812694 0 0.018267820408065391 0.0068757575412263369 0 0.017778781019557915 0.0066294150834741742 0 0.018322887095640651 0.0061465616199162035 0 0.017800032315722001 0.0062327339189812694 0 0.017778781019557915 0.0066294150834741742 0 0.018322887095640651 0.0061465616199162035 0 0.01749901299687669 0.0063989967744487878 0 0.017800032315722001 0.0062327339189812694 0 0.017778781019557915 0.0066294150834741742 0 0.018829251281101994 -0.004945216763002626 0 0.020106137208702472 -0.0051970016742859714 0 0.019871846753416456 -0.0059738666725043365 0 0.02105606605776204 0.0024778760575551125 0 0.020428230295297375 0.0028121852112594843 0 0.018860229004498338 0.0012473610218263036 0 0.02105606605776204 0.0024778760575551125 0 0.018267820408065391 0.0068757575412263369 0 0.018909840870317593 0.0062924165964670428 0 0.018322887095640651 0.0061465616199162035 0 0.020106137208702472 -0.0051970016742859714 0 0.019871846753416456 -0.0059738666725043365 0 0.021474434386751326 -0.0055669306417987256 0 0.01916879716613594 0.0064162840641987726 0 0.018761016460585346 0.0058767097080820738 0 0.020181884669663683 0.0054401658168856896 0 0.019695889557284397 0.0051725417161451945 0 0.023704354386277236 0.0036394831103480985 0 0.02105606605776204 0.0024778760575551125 0 0.023704354386277236 0.0036394831103480985 0 0.018659900528625095 0.0061154751334277658 0 0.019028438069271639 0.0058238628613246461 0 0.019453194875372146 0.0058743094967536715 0 0.018659900528625095 0.0061154751334277658 0 0.018648575721463931 0.0057204188871461626 0 0.019028438069271639 0.0058238628613246461 0 0.018200948139443125 0.0058553050903139472 0 0.017800032315722001 0.0062327339189812694 0 0.018659900528625095 0.0061154751334277658 0 0.017800032315722001 0.0062327339189812694 0 0.018322887095640651 0.0061465616199162035 0 0.018761016460585346 0.0058767097080820738 0 0.01916879716613594 0.0064162840641987726 0 0.018322887095640651 0.0061465616199162035 0 0.018761016460585346 0.0058767097080820738 0 0.018786339451523467 0.0055149575379104376 0 0.019695889557284397 0.0051725417161451945 0 0.018200948139443125 0.0058553050903139472 0 0.018659900528625095 0.0061154751334277658 0 0.018648575721463931 0.0057204188871461626 0 0.018200948139443125 0.0058553050903139472 0 0.018648575721463931 0.0057204188871461626 0 0.018362703938352303 0.0055723124936033035 0 0.018648575721463931 0.0057204188871461626 0 0.018603730472552021 0.0054325685931072834 0 0.018362703938352303 0.0055723124936033035 0 0.018648575721463931 0.0057204188871461626 0 0.018603730472552021 0.0054325685931072834 0 0.018952505480738246 0.0054549548920007941 0 0.018603730472552021 0.0054325685931072834 0 0.018362703938352303 0.0055723124936033035 0 0.018405754468162068 0.005292829340659483 0 0.019844372492331334 0.0063208718794758078 0 0.021216730084052608 0.0075855438670460063 0 0.021026529532440708 0.0056000356022877611 0 0.02181535135644485 0.0039345059150361905 0 0.023704354386277236 0.0036394831103480985 0 0.019028438069271639 0.0058238628613246461 0 0.018952505480738246 0.0054549548920007941 0 0.019453194875372146 0.0058743094967536715 0 0.018648575721463931 0.0057204188871461626 0 0.019028438069271639 0.0058238628613246461 0 0.018952505480738246 0.0054549548920007941 0 0.019844464089424536 0.0051322078815665313 0 0.019245470072482042 0.0053170309666525041 0 0.02031500218279331 0.0055237251756533401 0 0.019844372492331334 0.0063208718794758078 0 0.019245470072482042 0.0053170309666525041 0 0.021026529532440708 0.0056000356022877611 0 0.021281698318407906 0.0044172937524950716 0 0.022356018896019441 0.0044176552636306064 0 0.019844464089424536 0.0051322078815665313 0 0.019245470072482042 0.0053170309666525041 0 0.019261788266191644 0.0048945257647785116 0 0.018362703938352303 0.0055723124936033035 0 0.018405754468162068 0.005292829340659483 0 0.018092418735080319 0.0052673375077485624 0 0.018603730472552021 0.0054325685931072834 0 0.018405754468162068 0.005292829340659483 0 0.018609101470457658 0.0051079940446185955 0 0.019844372492331334 0.0063208718794758078 0 0.019245470072482042 0.0053170309666525041 0 0.018609101470457658 0.0051079940446185955 0 0.018603730472552021 0.0054325685931072834 0 0.018952505480738246 0.0054549548920007941 0 0.018609101470457658 0.0051079940446185955 0 0.02181535135644485 0.0039345059150361905 0 0.021124717795692416 0.0039028232014405393 0 0.019245470072482042 0.0053170309666525041 0 0.018731852406444045 0.0048332064990354419 0 0.019261788266191644 0.0048945257647785116 0 0.019245470072482042 0.0053170309666525041 0 0.018609101470457658 0.0051079940446185955 0 0.018731852406444045 0.0048332064990354419 0 0.018609101470457658 0.0051079940446185955 0 0.01837172840741419 0.0050516015741341883 0 0.018731852406444045 0.0048332064990354419 0 0.018405754468162068 0.005292829340659483 0 0.018609101470457658 0.0051079940446185955 0 0.01837172840741419 0.0050516015741341883 0 0.017677907145406846 0.0065363623113064498 0 0.018550929776099793 0.0063963408184636479 0 0.01837172840741419 0.0050516015741341883 0 0.018092418735080319 0.0052673375077485624 0 0.018071839012772886 0.0046420904407460557 0 0.018092418735080319 0.0052673375077485624 0 0.017647004325416396 0.0054936502341832675 0 0.018071839012772886 0.0046420904407460557 0 0.01666891818830522 0.0071093520901263606 0 0.016649679985645521 0.0069044260958180453 0 0.016820935698430978 0.0068667295178506567 0 0.018405754468162068 0.005292829340659483 0 0.01837172840741419 0.0050516015741341883 0 0.018092418735080319 0.0052673375077485624 0 0.016585869935968649 0.007011507932170322 0 0.01666891818830522 0.0071093520901263606 0 0.016525988611746905 0.0070862411269337969 0 0.016585869935968649 0.007011507932170322 0 0.01666891818830522 0.0071093520901263606 0 0.016649679985645521 0.0069044260958180453 0 0.016585869935968649 0.007011507932170322 0 0.016649679985645521 0.0069044260958180453 0 0.016501419744614606 0.0069428769741713909 0 0.01666891818830522 0.0071093520901263606 0 0.016525988611746905 0.0070862411269337969 0 0.016536399605078866 0.0071990484761907366 0 0.017584039871200177 0.0060340862999331314 0 0.017826588248686766 0.005856493576329321 0 0.017647004325416396 0.0054936502341832675 0 0.017826588248686766 0.005856493576329321 0 0.017647004325416396 0.0054936502341832675 0 0.017993890659654982 0.0055926917518693163 0 0.018200948139443125 0.0058553050903139472 0 0.018362703938352303 0.0055723124936033035 0 0.017993890659654982 0.0055926917518693163 0 0.018200948139443125 0.0058553050903139472 0 0.017826588248686766 0.005856493576329321 0 0.017993890659654982 0.0055926917518693163 0 0.018362703938352303 0.0055723124936033035 0 0.018092418735080319 0.0052673375077485624 0 0.017993890659654982 0.0055926917518693163 0 0.018092418735080319 0.0052673375077485624 0 0.017647004325416396 0.0054936502341832675 0 0.017993890659654982 0.0055926917518693163 0 0.033966556451248707 0.0010988520974202615 0 0.034186152669141656 0.00077520345015716602 0 0.034229033388717245 0.0012645637376254106 0 0.033612529443820122 0.0012749780836599808 0 0.033923932190165734 0.0014468190280423679 0 0.033966556451248707 0.0010988520974202615 0 0.033923932190165734 0.0014468190280423679 0 0.033966556451248707 0.0010988520974202615 0 0.034229033388717245 0.0012645637376254106 0 0.033574081268132792 0.00062350730000574717 0 0.033966556451248707 0.0010988520974202615 0 0.034186152669141656 0.00077520345015716602 0 0.033574081268132792 0.00062350730000574717 0 0.033813794981105559 5.9051036247902772e-05 0 0.034186152669141656 0.00077520345015716602 0 0.034453722175398133 0.00050368318978089336 0 0.033813794981105559 5.9051036247902772e-05 0 0.034186152669141656 0.00077520345015716602 0 0.034186152669141656 0.00077520345015716602 0 0.034463888295634335 0.00080610471991037597 0 0.034509114467998973 0.00099892253794082141 0 0.034453722175398133 0.00050368318978089336 0 0.034463888295634335 0.00080610471991037597 0 0.034576942616102224 0.00095633075500284727 0 0.034453722175398133 0.00050368318978089336 0 0.034186152669141656 0.00077520345015716602 0 0.034463888295634335 0.00080610471991037597 0 0.034186152669141656 0.00077520345015716602 0 0.034509114467998973 0.00099892253794082141 0 0.034229033388717245 0.0012645637376254106 0 0.034509114467998973 0.00099892253794082141 0 0.034229033388717245 0.0012645637376254106 0 0.034683583472870011 0.0015119846014683218 0 0.029045567511119214 0.0031497109443621076 0 0.028398855287190352 0.0035169319973329858 0 0.03452995133338814 0.0010024271050456278 0 0.034475398074733141 0.0010189970270284975 0 0.034514489057780748 0.0010147771876334252 0 0.034509114467998973 0.00099892253794082141 0 0.03452995133338814 0.0010024271050456278 0 0.034514489057780748 0.0010147771876334252 0 0.03452995133338814 0.0010024271050456278 0 0.034576942616102224 0.00095633075500284727 0 0.034475398074733141 0.0010189970270284975 0 0.034509114467998973 0.00099892253794082141 0 0.03452995133338814 0.0010024271050456278 0 0.034576942616102224 0.00095633075500284727 0 0.026540383690489378 0.00090929492750643466 0 0.022877677574489948 0.00072291943439337536 0 0.025262576973328826 0.0023255587638541346 0 0.02456005483836576 0.0017083178101470061 0 0.024181181170641053 0.0020563660246497558 0 0.026540383690489378 0.00090929492750643466 0 0.026563075608415334 0.0026623163096062964 0 0.034463888295634335 0.00080610471991037597 0 0.034509114467998973 0.00099892253794082141 0 0.034576942616102224 0.00095633075500284727 0 0.02105606605776204 0.0024778760575551125 0 0.022877677574489948 0.00072291943439337536 0 0.02456005483836576 0.0017083178101470061 0 0.024181181170641053 0.0020563660246497558 0 0.023901666874894804 0.00154388998089639 0 0.023112765840395372 0.0017721009116745364 0 0.024181181170641053 0.0020563660246497558 0 0.023901666874894804 0.00154388998089639 0 0.026563075608415334 0.0026623163096062964 0 0.023704354386277236 0.0036394831103480985 0 0.02456005483836576 0.0017083178101470061 0 0.023901666874894804 0.00154388998089639 0 0.023836684847747518 0.0010532083772428274 0 0.023112765840395372 0.0017721009116745364 0 0.023901666874894804 0.00154388998089639 0 0.023836684847747518 0.0010532083772428274 0 0.023704354386277236 0.0036394831103480985 0 0.025876334795478462 0.0044183156911402543 0 0.021216730084052608 0.0075855438670460063 0 0.021026529532440708 0.0056000356022877611 0 0.022849794850427332 0.0059512526177646023 0 0.025496491580668985 0.0032249788969122869 0 0.025714670714853696 0.0030279294194098944 0 0.025650031974981422 0.0031375210266437583 0 0.022356018896019441 0.0044176552636306064 0 0.025876334795478462 0.0044183156911402543 0 0.02031500218279331 0.0055237251756533401 0 0.020638252632538788 0.0054367275666923611 0 0.02052985044790227 0.0053506912704709203 0 0.019844464089424536 0.0051322078815665313 0 0.02031500218279331 0.0055237251756533401 0 0.020491924643466365 0.005226343350974676 0 0.02031500218279331 0.0055237251756533401 0 0.020491924643466365 0.005226343350974676 0 0.02052985044790227 0.0053506912704709203 0 0.020491924643466365 0.005226343350974676 0 0.02052985044790227 0.0053506912704709203 0 0.020434487149685616 0.0052990632062727399 0 0.02052985044790227 0.0053506912704709203 0 0.020654412981101624 0.0054085372939495138 0 0.020434487149685616 0.0052990632062727399 0 0.026292158035641347 0.0050568329143196944 0 0.026158525464935755 0.005199699411638733 0 0.026345911535499079 0.0052315806648622672 0 0.026297781300135818 0.0044071954604731666 0 0.025413512863170413 0.0052431072817520534 0 0.020638252632538788 0.0054367275666923611 0 0.02052985044790227 0.0053506912704709203 0 0.020654412981101624 0.0054085372939495138 0 0.028261195133747641 0.004218163590545122 0 0.028289987071303462 0.004305892003467207 0 0.028861855259441238 0.00362028613736188 0 0.026297781300135818 0.0044071954604731666 0 0.026536575906749831 0.0043330258713830698 0 0.028827947142958114 0.0029233720889564811 0 0.02650085712721614 0.0052766696474608786 0 0.025521360843544581 0.0022569132515910346 0 0.025876334795478462 0.0044183156911402543 0 0.026536575906749831 0.0043330258713830698 0 0.025876334795478462 0.0044183156911402543 0 0.026297781300135818 0.0044071954604731666 0 0.026536575906749831 0.0043330258713830698 0 0.028398855287190352 0.0035169319973329858 0 0.025742793863710398 0.003033375774733131 0 0.025650031974981422 0.0031375210266437583 0 0.025789930893830977 0.0031689430749378363 0 0.025496491580668985 0.0032249788969122869 0 0.025650031974981422 0.0031375210266437583 0 0.025789930893830977 0.0031689430749378363 0 0.023704354386277236 0.0036394831103480985 0 0.028398855287190352 0.0035169319973329858 0 0.025714670714853696 0.0030279294194098944 0 0.025742793863710398 0.003033375774733131 0 0.025650031974981422 0.0031375210266437583 0 0.026536575906749831 0.0043330258713830698 0 0.030629347569127885 0.0036200417939613572 0 0.028398855287190352 0.0035169319973329858 0 0.030629347569127885 0.0036200417939613572 0 0.027693612047996467 0.0039344949565515369 0 0.027941679134328844 0.004685305780459283 0 0.029501064721513856 0.0042928772800302087 0 0.034229033388717245 0.0012645637376254106 0 0.034683583472870011 0.0015119846014683218 0 0.034035366874337537 0.0017588984602131949 0 0.028289987071303462 0.004305892003467207 0 0.029456759293782584 0.0045377964712020099 0 0.028861855259441238 0.00362028613736188 0 0.026297781300135818 0.0044071954604731666 0 0.027898409283780189 0.0046796462867861859 0 0.029742497724787514 0.0037560284385881782 0 0.029456759293782584 0.0045377964712020099 0 0.028861855259441238 0.00362028613736188 0 0.031307046176620855 0.0035896374467871994 0 0.030629347569127885 0.0036200417939613572 0 0.033923932190165734 0.0014468190280423679 0 0.034229033388717245 0.0012645637376254106 0 0.034035366874337537 0.0017588984602131949 0 0.033697839700769318 0.001814263135961069 0 0.033923932190165734 0.0014468190280423679 0 0.034035366874337537 0.0017588984602131949 0 0.030904723135460867 0.0050673886847486353 0 0.030385528157037722 0.0054140795586061358 0 0.030624998553928116 0.0053260764370363098 0 0.030385528157037722 0.0054140795586061358 0 0.030624998553928116 0.0053260764370363098 0 0.030198859817066319 0.0055356950719162292 0 0.030758737125758877 0.0054339838352619862 0 0.030624998553928116 0.0053260764370363098 0 0.030304110880323743 0.0055942595805037396 0 0.030758737125758877 0.0054339838352619862 0 0.030304110880323743 0.0055942595805037396 0 0.030196317421757605 0.0057150924752324226 0 0.029687421218339838 0.0045387345918716281 0 0.027898409283780189 0.0046796462867861859 0 0.030624998553928116 0.0053260764370363098 0 0.030304110880323743 0.0055942595805037396 0 0.030198859817066319 0.0055356950719162292 0 0.030304110880323743 0.0055942595805037396 0 0.030043630012894382 0.0056563114310045114 0 0.030198859817066319 0.0055356950719162292 0 0.030304110880323743 0.0055942595805037396 0 0.03013139600949237 0.0057569574623993307 0 0.030043630012894382 0.0056563114310045114 0 0.027980153663853265 0.0046597789385760622 0 0.027898409283780189 0.0046796462867861859 0 0.030043630012894382 0.0056563114310045114 0 0.030198859817066319 0.0055356950719162292 0 0.02992943904893583 0.0056254621315469629 0 0.030198859817066319 0.0055356950719162292 0 0.029910854641127145 0.0055793599640826695 0 0.02992943904893583 0.0056254621315469629 0 0.030385528157037722 0.0054140795586061358 0 0.030198859817066319 0.0055356950719162292 0 0.029910854641127145 0.0055793599640826695 0 0.030385528157037722 0.0054140795586061358 0 0.029910854641127145 0.0055793599640826695 0 0.029702952481091019 0.0056386847964403179 0 0.029910854641127145 0.0055793599640826695 0 0.02992943904893583 0.0056254621315469629 0 0.029727510463721765 0.0057675453955317504 0 0.02992943904893583 0.0056254621315469629 0 0.02983787311929291 0.0056991376374016878 0 0.029727510463721765 0.0057675453955317504 0 0.03013139600949237 0.0057569574623993307 0 0.030043630012894382 0.0056563114310045114 0 0.02983787311929291 0.0056991376374016878 0 0.027898409283780189 0.0046796462867861859 0 0.025413512863170413 0.0052431072817520534 0 0.030043630012894382 0.0056563114310045114 0 0.02992943904893583 0.0056254621315469629 0 0.02983787311929291 0.0056991376374016878 0 0.020491924643466365 0.005226343350974676 0 0.020434487149685616 0.0052990632062727399 0 0.020667591521647117 0.0056448295319054308 0 0.021040422284059411 0.0061166314822166269 0 0.021198799363817175 0.0061459001163343858 0 0.021118726716738746 0.0064235649222508708 0 0.025413512863170413 0.0052431072817520534 0 0.023040888537873318 0.0052128957132675652 0 0.021198799363817175 0.0061459001163343858 0 0.021118726716738746 0.0064235649222508708 0 0.021254201420641813 0.0063225952988465979 0 0.025413512863170413 0.0052431072817520534 0 0.025296897268723056 0.0059919204894903705 0 0.025296897268723056 0.0059919204894903705 0 0.025030305219850665 0.0063765244519329968 0 0.021118726716738746 0.0064235649222508708 0 0.021243449911227917 0.0067202324056245266 0 0.021364781904033594 0.0065255093678977302 0 0.029727510463721765 0.0057675453955317504 0 0.029301234679553635 0.0066445828615425157 0 0.029451326186653148 0.0063384584400058685 0 0.029301234679553635 0.0066445828615425157 0 0.029451326186653148 0.0063384584400058685 0 0.029115314335225035 0.0068766765713087685 0 0.029451326186653148 0.0063384584400058685 0 0.029077142508664045 0.0067692272692925892 0 0.029115314335225035 0.0068766765713087685 0 0.029910854641127145 0.0055793599640826695 0 0.029727510463721765 0.0057675453955317504 0 0.029702952481091019 0.0056386847964403179 0 0.029727510463721765 0.0057675453955317504 0 0.029451326186653148 0.0063384584400058685 0 0.029702952481091019 0.0056386847964403179 0 0.030385528157037722 0.0054140795586061358 0 0.029702952481091019 0.0056386847964403179 0 0.030681307792698516 0.0052036810056247671 0 0.030016492382332813 0.0060282969568588628 0 0.030111095643051311 0.0061089246648388497 0 0.029702952481091019 0.0056386847964403179 0 0.030681307792698516 0.0052036810056247671 0 0.030906678473433934 0.0049259429335548445 0 0.029451326186653148 0.0063384584400058685 0 0.029702952481091019 0.0056386847964403179 0 0.029077142508664045 0.0067692272692925892 0 0.031023908143035697 0.0050073556636066 0 0.030906678473433934 0.0049259429335548445 0 0.031056309123130486 0.005221437949222839 0 0.031023908143035697 0.0050073556636066 0 0.030681307792698516 0.0052036810056247671 0 0.030906678473433934 0.0049259429335548445 0 0.030904723135460867 0.0050673886847486353 0 0.030385528157037722 0.0054140795586061358 0 0.030681307792698516 0.0052036810056247671 0 0.030904723135460867 0.0050673886847486353 0 0.031023908143035697 0.0050073556636066 0 0.030681307792698516 0.0052036810056247671 0 0.021605514198051991 0.0063483051708189053 0 0.021518004701984089 0.006390839455945773 0 0.021592565242049375 0.0066187441853600192 0 0.021605514198051991 0.0063483051708189053 0 0.02187237045068887 0.0064766615667594587 0 0.021592565242049375 0.0066187441853600192 0 0.020207095872713424 0.006789422718223732 0 0.020778358057517397 0.0065919475550394969 0 0.020162274018743206 0.0065514062751886419 0 0.020207095872713424 0.006789422718223732 0 0.019248559544177524 0.0065852068625648682 0 0.019158712137779327 0.0065584359823128678 0 0.019194096753577649 0.0066067166370765828 0 0.019158712137779327 0.0065584359823128678 0 0.019194096753577649 0.0066067166370765828 0 0.019151243237736912 0.0066152734925543841 0 0.019194096753577649 0.0066067166370765828 0 0.019186012252142934 0.0066546937652773508 0 0.019236796519376719 0.0066144834710430206 0 0.019151243237736912 0.0066152734925543841 0 0.019186012252142934 0.0066546937652773508 0 0.019114117239618127 0.0066718284399789295 0 0.018178235319782111 0.006781168932661649 0 0.018066642426205565 0.0071243073499890021 0 0.019194096753577649 0.0066067166370765828 0 0.019151243237736912 0.0066152734925543841 0 0.019186012252142934 0.0066546937652773508 0 0.019186012252142934 0.0066546937652773508 0 0.019236796519376719 0.0066144834710430206 0 0.01925876891083542 0.0066351143054904941 0 0.018178235319782111 0.006781168932661649 0 0.018550929776099793 0.0063963408184636479 0 0.019248559544177524 0.0065852068625648682 0 0.019194096753577649 0.0066067166370765828 0 0.019236796519376719 0.0066144834710430206 0 0.019248559544177524 0.0065852068625648682 0 0.019236796519376719 0.0066144834710430206 0 0.01926816828278528 0.0066162427443433236 0 0.019236796519376719 0.0066144834710430206 0 0.01926816828278528 0.0066162427443433236 0 0.01925876891083542 0.0066351143054904941 0 0.018557333094106621 0.0063957241746782434 0 0.018550929776099793 0.0063963408184636479 0 0.018071839012772886 0.0046420904407460557 0 0.018731852406444045 0.0048332064990354419 0 0.019054023164282147 0.0043615518879702997 0 0.01926816828278528 0.0066162427443433236 0 0.01925913502604128 0.0066325486618259598 0 0.019340717541475896 0.0066089739918258721 0 0.019248559544177524 0.0065852068625648682 0 0.01926816828278528 0.0066162427443433236 0 0.019340717541475896 0.0066089739918258721 0 0.020162274018743206 0.0065514062751886419 0 0.019669857515199597 0.0062299929081659948 0 0.018550929776099793 0.0063963408184636479 0 0.019669857515199597 0.0062299929081659948 0 0.01837172840741419 0.0050516015741341883 0 0.018071839012772886 0.0046420904407460557 0 0.018731852406444045 0.0048332064990354419 0 0.018731852406444045 0.0048332064990354419 0 0.019054023164282147 0.0043615518879702997 0 0.019261788266191644 0.0048945257647785116 0 0.021436400671624743 0.006128812946486018 0 0.021402411662879751 0.0062224825811449521 0 0.021518004701984089 0.006390839455945773 0 0.021423469921850787 0.006104182312844101 0 0.021436400671624743 0.006128812946486018 0 0.021402411662879751 0.0062224825811449521 0 0.019683124199312715 0.0062276989084165619 0 0.019669857515199597 0.0062299929081659948 0 0.021198799363817175 0.0061459001163343858 0 0.021340260085194959 0.0061006332002351534 0 0.021300891140844578 0.0062226874655766304 0 0.020491924643466365 0.005226343350974676 0 0.020667591521647117 0.0056448295319054308 0 0.021340260085194959 0.0061006332002351534 0 0.020491924643466365 0.005226343350974676 0 0.021423469921850787 0.006104182312844101 0 0.021340260085194959 0.0061006332002351534 0 0.019844464089424536 0.0051322078815665313 0 0.020491924643466365 0.005226343350974676 0 0.019054023164282147 0.0043615518879702997 0 0.020491924643466365 0.005226343350974676 0 0.021423469921850787 0.006104182312844101 0 0.021513272727417671 0.0061115072231561103 0 0.023040888537873318 0.0052128957132675652 0 0.022514478503470142 0.0052428399738859259 0 0.019879922083427006 0.0059954069340455137 0 0.019669857515199597 0.0062299929081659948 0 0.019844464089424536 0.0051322078815665313 0 0.019054023164282147 0.0043615518879702997 0 0.019261788266191644 0.0048945257647785116 0 0.021423469921850787 0.006104182312844101 0 0.021402411662879751 0.0062224825811449521 0 0.021340260085194959 0.0061006332002351534 0 0.021402411662879751 0.0062224825811449521 0 0.021340260085194959 0.0061006332002351534 0 0.021300891140844578 0.0062226874655766304 0 0.021198799363817175 0.0061459001163343858 0 0.021300891140844578 0.0062226874655766304 0 0.021254201420641813 0.0063225952988465979 0 0.021118726716738746 0.0064235649222508708 0 0.021254201420641813 0.0063225952988465979 0 0.021364781904033594 0.0065255093678977302 0 0.021300891140844578 0.0062226874655766304 0 0.021254201420641813 0.0063225952988465979 0 0.021375424531402155 0.0063479675680234767 0 0.021402411662879751 0.0062224825811449521 0 0.021300891140844578 0.0062226874655766304 0 0.021375424531402155 0.0063479675680234767 0 0.021375424531402155 0.0063479675680234767 0 0.021444083432799705 0.0064567546290339398 0 0.021364781904033594 0.0065255093678977302 0 0.021254201420641813 0.0063225952988465979 0 0.021375424531402155 0.0063479675680234767 0 0.021364781904033594 0.0065255093678977302 0 0.021605514198051991 0.0063483051708189053 0 0.021436400671624743 0.006128812946486018 0 0.021518004701984089 0.006390839455945773 0 0.021518004701984089 0.006390839455945773 0 0.021444083432799705 0.0064567546290339398 0 0.021527108154779921 0.0065772809970550015 0 0.021402411662879751 0.0062224825811449521 0 0.021375424531402155 0.0063479675680234767 0 0.021518004701984089 0.006390839455945773 0 0.021375424531402155 0.0063479675680234767 0 0.021518004701984089 0.006390839455945773 0 0.021444083432799705 0.0064567546290339398 0 0.021444083432799705 0.0064567546290339398 0 0.021527108154779921 0.0065772809970550015 0 0.021364781904033594 0.0065255093678977302 0 0.021527108154779921 0.0065772809970550015 0 0.021364781904033594 0.0065255093678977302 0 0.021523972968663249 0.0067032260323346355 0 0.021243449911227917 0.0067202324056245266 0 0.021364781904033594 0.0065255093678977302 0 0.021523972968663249 0.0067032260323346355 0 0.021523972968663249 0.0067032260323346355 0 0.021540124728847213 0.006587544911682142 0 0.021642187007462867 0.0066713312344587467 0 0.021527108154779921 0.0065772809970550015 0 0.021523972968663249 0.0067032260323346355 0 0.021540124728847213 0.006587544911682142 0 0.021518004701984089 0.006390839455945773 0 0.021527108154779921 0.0065772809970550015 0 0.021592565242049375 0.0066187441853600192 0 0.021527108154779921 0.0065772809970550015 0 0.021540124728847213 0.006587544911682142 0 0.021592565242049375 0.0066187441853600192 0 0.021238940160547483 0.0070001301055658905 0 0.021358399473984616 0.0066037118931421288 0 0.021029379926303726 0.0067162875829656086 0 0.021540124728847213 0.006587544911682142 0 0.021592565242049375 0.0066187441853600192 0 0.021358399473984616 0.0066037118931421288 0 0.021238940160547483 0.0070001301055658905 0 0.021592565242049375 0.0066187441853600192 0 0.021358399473984616 0.0066037118931421288 0 0.021418883365006431 0.0065261054342000769 0 0.021046678523644339 0.0063214299976649428 0 0.021642187007462867 0.0066713312344587467 0 0.021540124728847213 0.006587544911682142 0 0.021418883365006431 0.0065261054342000769 0 0.021642187007462867 0.0066713312344587467 0 0.021358399473984616 0.0066037118931421288 0 0.021418883365006431 0.0065261054342000769 0 0.021046678523644339 0.0063214299976649428 0 0.021540124728847213 0.006587544911682142 0 0.021358399473984616 0.0066037118931421288 0 0.021418883365006431 0.0065261054342000769 0 0.021145352689654714 0.0081698501086948355 0 0.02072522411813019 0.0081094047264560071 0 0.020652995685654128 0.0083292662292777896 0 0.021145352689654714 0.0081698501086948355 0 0.02072522411813019 0.0081094047264560071 0 0.020944196584423536 0.0079631606974281469 0 0.021145352689654714 0.0081698501086948355 0 0.020652995685654128 0.0083292662292777896 0 0.020701099931237855 0.0086041041733172178 0 0.02000131459493738 0.0068723951032240152 0 0.020635115692933689 0.0065985635673579098 0 0.01996595762694978 0.0072889133223744528 0 0.020654011448685453 0.0072478835391367328 0 0.019803934614782692 0.0073949225749441096 0 0.021046678523644339 0.0063214299976649428 0 0.01984803146681095 0.0065985902251894978 0 0.020145415748742217 0.0066188261570546318 0 0.019683961119591489 0.0066002485740913486 0 0.02000131459493738 0.0068723951032240152 0 0.01955234085427985 0.0071158924889932482 0 0.019683961119591489 0.0066002485740913486 0 0.02000131459493738 0.0068723951032240152 0 0.020145415748742217 0.0066188261570546318 0 0.019803934614782692 0.0073949225749441096 0 0.019819900706339804 0.0073811711341616112 0 0.02000131459493738 0.0068723951032240152 0 0.020145415748742217 0.0066188261570546318 0 0.020635115692933689 0.0065985635673579098 0 0.021029379926303726 0.0067162875829656086 0 0.020635115692933689 0.0065985635673579098 0 0.02079464479663392 0.006953922287975524 0 0.021046678523644339 0.0063214299976649428 0 0.020145415748742217 0.0066188261570546318 0 0.020635115692933689 0.0065985635673579098 0 0.021358399473984616 0.0066037118931421288 0 0.021046678523644339 0.0063214299976649428 0 0.021029379926303726 0.0067162875829656086 0 0.021046678523644339 0.0063214299976649428 0 0.021029379926303726 0.0067162875829656086 0 0.020635115692933689 0.0065985635673579098 0 0.01665291904099326 0.0084697272327965648 0 0.016730478087429789 0.0083655457298033205 0 0.016735149347567844 0.0084745298481540589 0 0.016727460126202628 0.0085513562558657049 0 0.01665291904099326 0.0084697272327965648 0 0.016730977738878088 0.0086942268414234164 0 0.016727460126202628 0.0085513562558657049 0 0.016735149347567844 0.0084745298481540589 0 0.01677642300139949 0.0085638206164854284 0 0.016727460126202628 0.0085513562558657049 0 0.01665291904099326 0.0084697272327965648 0 0.016735149347567844 0.0084745298481540589 0 0.02072522411813019 0.0081094047264560071 0 0.020211256508150428 0.0082639025466698952 0 0.020646108191556271 0.0077636643951980912 0 0.02072522411813019 0.0081094047264560071 0 0.020652995685654128 0.0083292662292777896 0 0.020211256508150428 0.0082639025466698952 0 0.020652995685654128 0.0083292662292777896 0 0.020211256508150428 0.0082639025466698952 0 0.020452954076441602 0.008491431196909113 0 0.020701099931237855 0.0086041041733172178 0 0.020452954076441602 0.008491431196909113 0 0.020243743715373266 0.0087123940088391603 0 0.019494353948883297 0.0064592689816187435 0 0.018336525259179157 0.0067177857934077817 0 0.018769336620673111 0.0071359240239194195 0 0.020211256508150428 0.0082639025466698952 0 0.020452954076441602 0.008491431196909113 0 0.020243743715373266 0.0087123940088391603 0 0.019803934614782692 0.0073949225749441096 0 0.019113726605528646 0.0077520638520352219 0 0.020652995685654128 0.0083292662292777896 0 0.020701099931237855 0.0086041041733172178 0 0.020452954076441602 0.008491431196909113 0 0.019803934614782692 0.0073949225749441096 0 0.019667336351025515 0.0074070160666261011 0 0.018429908700146071 0.0083140448570352965 0 0.018130428782368556 0.008171775775298068 0 0.020211256508150428 0.0082639025466698952 0 0.020243743715373266 0.0087123940088391603 0 0.01976758733538677 0.0088117169481501372 0 0.01665291904099326 0.0084697272327965648 0 0.016709812437580622 0.0082643900903526975 0 0.016730478087429789 0.0083655457298033205 0 0.019113726605528646 0.0077520638520352219 0 0.018130428782368556 0.008171775775298068 0 0.018336525259179157 0.0067177857934077817 0 0.017729097300343881 0.0071616229515112199 0 0.017312345179126738 0.0070490491082325227 0 0.017549326484525497 0.007466832801590273 0 0.017729097300343881 0.0071616229515112199 0 0.018045672007017122 0.0072179936904961635 0 0.017549326484525497 0.007466832801590273 0 0.018045672007017122 0.0072179936904961635 0 0.017888559607954539 0.0075847083286742518 0 0.017549326484525497 0.007466832801590273 0 0.017729097300343881 0.0071616229515112199 0 0.017416316198027585 0.007312884534871807 0 0.018336525259179157 0.0067177857934077817 0 0.017729097300343881 0.0071616229515112199 0 0.018045672007017122 0.0072179936904961635 0 0.018045672007017122 0.0072179936904961635 0 0.017888559607954539 0.0075847083286742518 0 0.018312721082865014 0.0074860977445738988 0 0.018045672007017122 0.0072179936904961635 0 0.018312721082865014 0.0074860977445738988 0 0.018769336620673111 0.0071359240239194195 0 0.018312721082865014 0.0074860977445738988 0 0.018769336620673111 0.0071359240239194195 0 0.0187095472549824 0.0076847953100578834 0 0.018336525259179157 0.0067177857934077817 0 0.018045672007017122 0.0072179936904961635 0 0.018769336620673111 0.0071359240239194195 0 0.019683961119591489 0.0066002485740913486 0 0.018769336620673111 0.0071359240239194195 0 0.01955234085427985 0.0071158924889932482 0 0.018769336620673111 0.0071359240239194195 0 0.019364336097119936 0.0075821464970120215 0 0.01955234085427985 0.0071158924889932482 0 0.018769336620673111 0.0071359240239194195 0 0.019364336097119936 0.0075821464970120215 0 0.0187095472549824 0.0076847953100578834 0 0.019364336097119936 0.0075821464970120215 0 0.018918610629324945 0.0082595296301755487 0 0.0187095472549824 0.0076847953100578834 0 0.018918610629324945 0.0082595296301755487 0 0.0187095472549824 0.0076847953100578834 0 0.018240281270968869 0.0079351406206268175 0 0.018312721082865014 0.0074860977445738988 0 0.0187095472549824 0.0076847953100578834 0 0.018240281270968869 0.0079351406206268175 0 0.018240281270968869 0.0079351406206268175 0 0.017283388585485331 0.0082502452222095093 0 0.017385226405119778 0.0079777053415999895 0 0.018918610629324945 0.0082595296301755487 0 0.018240281270968869 0.0079351406206268175 0 0.017283388585485331 0.0082502452222095093 0 0.017888559607954539 0.0075847083286742518 0 0.018312721082865014 0.0074860977445738988 0 0.018240281270968869 0.0079351406206268175 0 0.017888559607954539 0.0075847083286742518 0 0.018240281270968869 0.0079351406206268175 0 0.017797186429795483 0.0078264802580003626 0 0.018240281270968869 0.0079351406206268175 0 0.017797186429795483 0.0078264802580003626 0 0.017385226405119778 0.0079777053415999895 0 0.017797186429795483 0.0078264802580003626 0 0.01745650872450814 0.0077834090159878862 0 0.017385226405119778 0.0079777053415999895 0 0.017888559607954539 0.0075847083286742518 0 0.017797186429795483 0.0078264802580003626 0 0.01745650872450814 0.0077834090159878862 0 0.017549326484525497 0.007466832801590273 0 0.017888559607954539 0.0075847083286742518 0 0.01745650872450814 0.0077834090159878862 0 0.019533141308151841 0.0070743186788766906 0 0.019291455442115014 0.0071715309049811202 0 0.020635115692933689 0.0065985635673579098 0 0.020851430461573301 0.0073204810538353591 0 0.02079464479663392 0.006953922287975524 0 0.019158712137779327 0.0065584359823128678 0 0.019151243237736912 0.0066152734925543841 0 0.019103744218201543 0.0065864929534755331 0 0.020207095872713424 0.006789422718223732 0 0.019291455442115014 0.0071715309049811202 0 0.020207095872713424 0.006789422718223732 0 0.020385405552439097 0.0068505549779706715 0 0.021231110530843506 0.0071127552572576034 0 0.020851430461573301 0.0073204810538353591 0 0.02079464479663392 0.006953922287975524 0 0.021238940160547483 0.0070001301055658905 0 0.021029379926303726 0.0067162875829656086 0 0.02079464479663392 0.006953922287975524 0 0.020635115692933689 0.0065985635673579098 0 0.020660499984672991 0.0076230581300245582 0 0.01996595762694978 0.0072889133223744528 0 0.019364336097119936 0.0075821464970120215 0 0.020660499984672991 0.0076230581300245582 0 0.01996595762694978 0.0072889133223744528 0 0.019364336097119936 0.0075821464970120215 0 0.01996595762694978 0.0072889133223744528 0 0.01955234085427985 0.0071158924889932482 0 0.02000131459493738 0.0068723951032240152 0 0.01996595762694978 0.0072889133223744528 0 0.01955234085427985 0.0071158924889932482 0 0.019364336097119936 0.0075821464970120215 0 0.018918610629324945 0.0082595296301755487 0 0.020660499984672991 0.0076230581300245582 0 0.018526743024197791 0.0077446317518863163 0 0.019291455442115014 0.0071715309049811202 0 0.017988962765193513 0.0078659805625176053 0 0.018717739248852259 0.0074944940450619056 0 0.018431334999171659 0.0078353304720617141 0 0.018431334999171659 0.0078353304720617141 0 0.018330971108179488 0.0079900137429806065 0 0.018812362962512628 0.0080495099372716247 0 0.017988962765193513 0.0078659805625176053 0 0.018431334999171659 0.0078353304720617141 0 0.018330971108179488 0.0079900137429806065 0 0.019291455442115014 0.0071715309049811202 0 0.018066642426205565 0.0071243073499890021 0 0.019151243237736912 0.0066152734925543841 0 0.019103744218201543 0.0065864929534755331 0 0.019114117239618127 0.0066718284399789295 0 0.018717739248852259 0.0074944940450619056 0 0.018431334999171659 0.0078353304720617141 0 0.018812362962512628 0.0080495099372716247 0 0.016585869935968649 0.007011507932170322 0 0.016501419744614606 0.0069428769741713909 0 0.016525988611746905 0.0070862411269337969 0 0.016534743672755141 0.0072097641366952693 0 0.016528151175354982 0.007231175819435629 0 0.016508003983977792 0.0072331481953499211 0 0.018066642426205565 0.0071243073499890021 0 0.017674358495538084 0.0070591618651112886 0 0.017674358495538084 0.0070591618651112886 0 0.017556002060069447 0.0070571115020063259 0 0.016528151175354982 0.007231175819435629 0 0.016524918264389937 0.0072229432753619814 0 0.016536399605078866 0.0071990484761907366 0 0.016528151175354982 0.007231175819435629 0 0.0165173835027932 0.0072335224928272998 0 0.016524918264389937 0.0072229432753619814 0 0.016528151175354982 0.007231175819435629 0 0.0165173835027932 0.0072335224928272998 0 0.016508003983977792 0.0072331481953499211 0 0.016498745445217185 0.0072460508497578608 0 0.016478242119929532 0.0072592504191116691 0 0.016465992872418136 0.0072636209272853988 0 0.0165173835027932 0.0072335224928272998 0 0.016524918264389937 0.0072229432753619814 0 0.016498745445217185 0.0072460508497578608 0 0.0165173835027932 0.0072335224928272998 0 0.016498745445217185 0.0072460508497578608 0 0.016508003983977792 0.0072331481953499211 0 0.016498745445217185 0.0072460508497578608 0 0.016478242119929532 0.0072592504191116691 0 0.016508003983977792 0.0072331481953499211 0 0.018066642426205565 0.0071243073499890021 0 0.017360776832387226 0.0075051541480472481 0 0.016478242119929532 0.0072592504191116691 0 0.016508003983977792 0.0072331481953499211 0 0.016472647058685695 0.0072308630605837391 0 0.016534743672755141 0.0072097641366952693 0 0.016508003983977792 0.0072331481953499211 0 0.016472647058685695 0.0072308630605837391 0 0.018330971108179488 0.0079900137429806065 0 0.018812362962512628 0.0080495099372716247 0 0.01808880231127874 0.0082081981064181554 0 0.017988962765193513 0.0078659805625176053 0 0.018330971108179488 0.0079900137429806065 0 0.01808880231127874 0.0082081981064181554 0 0.017360776832387226 0.0075051541480472481 0 0.017065874620774968 0.0076660559198686636 0 0.017988962765193513 0.0078659805625176053 0 0.01808880231127874 0.0082081981064181554 0 0.017679667936563691 0.0081738778169747946 0 0.01808880231127874 0.0082081981064181554 0 0.017679667936563691 0.0081738778169747946 0 0.017362503765629311 0.0083759739850974273 0 0.017988962765193513 0.0078659805625176053 0 0.017679667936563691 0.0081738778169747946 0 0.017283388585485331 0.0082502452222095093 0 0.016472647058685695 0.0072308630605837391 0 0.01635100639755379 0.007378136080778498 0 0.016390923817085658 0.0073440968765691103 0 0.018526743024197791 0.0077446317518863163 0 0.018013401321931136 0.0080068635296797232 0 0.017679667936563691 0.0081738778169747946 0 0.017362503765629311 0.0083759739850974273 0 0.017283388585485331 0.0082502452222095093 0 0.016384851679235656 0.0073576082406314192 0 0.016428192782226073 0.0073078146596426315 0 0.016443750346189685 0.0072542167866353089 0 0.016390923817085658 0.0073440968765691103 0 0.016384851679235656 0.0073576082406314192 0 0.016372416255077789 0.0074270387406781243 0 0.01635100639755379 0.007378136080778498 0 0.016390923817085658 0.0073440968765691103 0 0.016372416255077789 0.0074270387406781243 0 0.016390923817085658 0.0073440968765691103 0 0.016384851679235656 0.0073576082406314192 0 0.016428192782226073 0.0073078146596426315 0 0.016472647058685695 0.0072308630605837391 0 0.016390923817085658 0.0073440968765691103 0 0.016428192782226073 0.0073078146596426315 0 0.016478242119929532 0.0072592504191116691 0 0.016472647058685695 0.0072308630605837391 0 0.016428192782226073 0.0073078146596426315 0 0.016478242119929532 0.0072592504191116691 0 0.016428192782226073 0.0073078146596426315 0 0.016465992872418136 0.0072636209272853988 0 0.016465992872418136 0.0072636209272853988 0 0.016443750346189685 0.0072542167866353089 0 0.016512926320889524 0.0072249170167408136 0 0.016428192782226073 0.0073078146596426315 0 0.016465992872418136 0.0072636209272853988 0 0.016443750346189685 0.0072542167866353089 0 0.016443750346189685 0.0072542167866353089 0 0.016512249719696288 0.007185535339213794 0 0.016512926320889524 0.0072249170167408136 0 0.016384851679235656 0.0073576082406314192 0 0.016443750346189685 0.0072542167866353089 0 0.01638709003672225 0.0072757100326557543 0 0.016426943573810141 0.0072123100741953846 0 0.016443750346189685 0.0072542167866353089 0 0.01638709003672225 0.0072757100326557543 0 0.016426943573810141 0.0072123100741953846 0 0.01638709003672225 0.0072757100326557543 0 0.01637825256164081 0.0072289836161629146 0 0.016426943573810141 0.0072123100741953846 0 0.016443750346189685 0.0072542167866353089 0 0.016512249719696288 0.007185535339213794 0 0.016664476038232224 0.0070827963902297753 0 0.016512249719696288 0.007185535339213794 0 0.016512926320889524 0.0072249170167408136 0 0.016664476038232224 0.0070827963902297753 0 0.017270613394266263 0.0068524781173482496 0 0.017141130131352621 0.0061992818710196584 0 0.016664476038232224 0.0070827963902297753 0 0.016523587407698798 0.0072261870617192549 0 0.016544764662434146 0.0072139900124515485 0 0.016664476038232224 0.0070827963902297753 0 0.016544764662434146 0.0072139900124515485 0 0.016512926320889524 0.0072249170167408136 0 0.01699400502422433 0.006991757187722502 0 0.017178994936677662 0.0068202664498272086 0 0.016523587407698798 0.0072261870617192549 0 0.016544764662434146 0.0072139900124515485 0 0.016536399605078866 0.0071990484761907366 0 0.016524918264389937 0.0072229432753619814 0 0.016544764662434146 0.0072139900124515485 0 0.016536399605078866 0.0071990484761907366 0 0.016524918264389937 0.0072229432753619814 0 0.016544764662434146 0.0072139900124515485 0 0.016512926320889524 0.0072249170167408136 0 0.016524918264389937 0.0072229432753619814 0 0.016498745445217185 0.0072460508497578608 0 0.016512926320889524 0.0072249170167408136 0 0.016498745445217185 0.0072460508497578608 0 0.016465992872418136 0.0072636209272853988 0 0.016512926320889524 0.0072249170167408136 0 0.016664734421578779 0.0073002573235295349 0 0.016475842170867463 0.0073778591767970107 0 0.016683095575133804 0.007619013254184198 0 0.016664734421578779 0.0073002573235295349 0 0.016683095575133804 0.007619013254184198 0 0.016846750547751674 0.0075125216080866378 0 0.016664734421578779 0.0073002573235295349 0 0.016406752951720515 0.0069818809098751997 0 0.016475842170867463 0.0073778591767970107 0 0.016664734421578779 0.0073002573235295349 0 0.016850068833467537 0.0072105884964057477 0 0.016846750547751674 0.0075125216080866378 0 0.017034035597223093 0.0073298249358414455 0 0.016850068833467537 0.0072105884964057477 0 0.016846750547751674 0.0075125216080866378 0 0.016664734421578779 0.0073002573235295349 0 0.016850068833467537 0.0072105884964057477 0 0.016662136262552019 0.0069993798347626965 0 0.017034035597223093 0.0073298249358414455 0 0.017018288187366094 0.0067955125010973026 0 0.016850068833467537 0.0072105884964057477 0 0.017018288187366094 0.0067955125010973026 0 0.016850068833467537 0.0072105884964057477 0 0.016662136262552019 0.0069993798347626965 0 0.016406513471014687 0.0065525758581305438 0 0.016662136262552019 0.0069993798347626965 0 0.016406752951720515 0.0069818809098751997 0 0.016664734421578779 0.0073002573235295349 0 0.016662136262552019 0.0069993798347626965 0 0.016406752951720515 0.0069818809098751997 0 0.016406752951720515 0.0069818809098751997 0 0.016184978201928601 0.007108428581081864 0 0.016475842170867463 0.0073778591767970107 0 0.013336296575687256 0.0056839459383085022 0 0.014507023298990208 0.0065627831836392462 0 0.01611725523501267 0.0065599022517364549 0 0.016406752951720515 0.0069818809098751997 0 0.016184978201928601 0.007108428581081864 0 0.016323493244845926 0.0072244405447761699 0 0.016410068812162209 0.0072524657829796833 0 0.01637825256164081 0.0072289836161629146 0 0.01638709003672225 0.0072757100326557543 0 0.016410068812162209 0.0072524657829796833 0 0.01637825256164081 0.0072289836161629146 0 0.014507023298990208 0.0065627831836392462 0 0.014854221065984443 0.0068183818497603134 0 0.016384851679235656 0.0073576082406314192 0 0.01638709003672225 0.0072757100326557543 0 0.016382342800328208 0.007443490103750088 0 0.01638709003672225 0.0072757100326557543 0 0.016410068812162209 0.0072524657829796833 0 0.016382342800328208 0.007443490103750088 0 0.016184978201928601 0.007108428581081864 0 0.016475842170867463 0.0073778591767970107 0 0.016382342800328208 0.007443490103750088 0 0.016475842170867463 0.0073778591767970107 0 0.016600086572344724 0.007775195561790081 0 0.016683095575133804 0.007619013254184198 0 0.016475842170867463 0.0073778591767970107 0 0.016600086572344724 0.007775195561790081 0 0.016382342800328208 0.007443490103750088 0 0.016600086572344724 0.007775195561790081 0 0.016382342800328208 0.007443490103750088 0 0.016372416255077789 0.0074270387406781243 0 0.01635100639755379 0.007378136080778498 0 0.016600086572344724 0.007775195561790081 0 0.016372416255077789 0.0074270387406781243 0 0.016384851679235656 0.0073576082406314192 0 0.016382342800328208 0.007443490103750088 0 0.016372416255077789 0.0074270387406781243 0 0.017362503765629311 0.0083759739850974273 0 0.016600086572344724 0.007775195561790081 0 0.017029191974557253 0.008074627170997703 0 0.017065874620774968 0.0076660559198686636 0 0.016987362386484246 0.0076979726953602624 0 0.017362503765629311 0.0083759739850974273 0 0.017283388585485331 0.0082502452222095093 0 0.017029191974557253 0.008074627170997703 0 0.017029191974557253 0.008074627170997703 0 0.017107894241899044 0.0080283305361432619 0 0.016849287519383672 0.0079364053855641957 0 0.017283388585485331 0.0082502452222095093 0 0.017029191974557253 0.008074627170997703 0 0.017107894241899044 0.0080283305361432619 0 0.017283388585485331 0.0082502452222095093 0 0.017107894241899044 0.0080283305361432619 0 0.017385226405119778 0.0079777053415999895 0 0.016600086572344724 0.007775195561790081 0 0.016849287519383672 0.0079364053855641957 0 0.016719014479731242 0.0078714191426717418 0 0.016600086572344724 0.007775195561790081 0 0.016719014479731242 0.0078714191426717418 0 0.016701155488554543 0.0077885460191784561 0 0.016600086572344724 0.007775195561790081 0 0.017029191974557253 0.008074627170997703 0 0.016849287519383672 0.0079364053855641957 0 0.016719014479731242 0.0078714191426717418 0 0.016701155488554543 0.0077885460191784561 0 0.016738296867958077 0.0078809424258374765 0 0.016701155488554543 0.0077885460191784561 0 0.016787575692399245 0.0077266447070150459 0 0.016738296867958077 0.0078809424258374765 0 0.016600086572344724 0.007775195561790081 0 0.016701155488554543 0.0077885460191784561 0 0.016683095575133804 0.007619013254184198 0 0.016701155488554543 0.0077885460191784561 0 0.016683095575133804 0.007619013254184198 0 0.016787575692399245 0.0077266447070150459 0 0.016683095575133804 0.007619013254184198 0 0.016846750547751674 0.0075125216080866378 0 0.016787575692399245 0.0077266447070150459 0 0.016846750547751674 0.0075125216080866378 0 0.016878365618251422 0.0076814664656355801 0 0.016787575692399245 0.0077266447070150459 0 0.016956138525527034 0.0075780842112171762 0 0.016846750547751674 0.0075125216080866378 0 0.016878365618251422 0.0076814664656355801 0 0.016878365618251422 0.0076814664656355801 0 0.016787575692399245 0.0077266447070150459 0 0.01683860167211932 0.0078041522480311321 0 0.01683860167211932 0.0078041522480311321 0 0.016788241006303516 0.0079117227785967057 0 0.016738296867958077 0.0078809424258374765 0 0.016787575692399245 0.0077266447070150459 0 0.01683860167211932 0.0078041522480311321 0 0.016738296867958077 0.0078809424258374765 0 0.016788241006303516 0.0079117227785967057 0 0.016738296867958077 0.0078809424258374765 0 0.01671716016293661 0.0079845465509428698 0 0.016788241006303516 0.0079117227785967057 0 0.01671716016293661 0.0079845465509428698 0 0.016765379694239739 0.0080391466635919926 0 0.016719014479731242 0.0078714191426717418 0 0.01671716016293661 0.0079845465509428698 0 0.016802247277141368 0.0078047103193146002 0 0.016719014479731242 0.0078714191426717418 0 0.016738296867958077 0.0078809424258374765 0 0.01671716016293661 0.0079845465509428698 0 0.017172170192615369 0.0081493331233084658 0 0.017355457109022646 0.0081585479735982978 0 0.01671716016293661 0.0079845465509428698 0 0.016734049775224701 0.0081934299187786577 0 0.016743962970599446 0.0082134821032939266 0 0.01671716016293661 0.0079845465509428698 0 0.016758247129542225 0.0081617228098773229 0 0.016743962970599446 0.0082134821032939266 0 0.01671716016293661 0.0079845465509428698 0 0.016774027070853115 0.0081133772189791193 0 0.016758247129542225 0.0081617228098773229 0 0.016774027070853115 0.0081133772189791193 0 0.016765691650037221 0.0081069754941139448 0 0.016765379694239739 0.0080391466635919926 0 0.01675983871368909 0.0081181625022004808 0 0.016774027070853115 0.0081133772189791193 0 0.016765691650037221 0.0081069754941139448 0 0.01671716016293661 0.0079845465509428698 0 0.016774027070853115 0.0081133772189791193 0 0.016765379694239739 0.0080391466635919926 0 0.017549326484525497 0.007466832801590273 0 0.017233751190054086 0.0076567183527109211 0 0.01745650872450814 0.0077834090159878862 0 0.017233751190054086 0.0076567183527109211 0 0.01745650872450814 0.0077834090159878862 0 0.017049765146853524 0.007844843958597832 0 0.017107894241899044 0.0080283305361432619 0 0.017385226405119778 0.0079777053415999895 0 0.017049765146853524 0.007844843958597832 0 0.01745650872450814 0.0077834090159878862 0 0.017385226405119778 0.0079777053415999895 0 0.017049765146853524 0.007844843958597832 0 0.017107894241899044 0.0080283305361432619 0 0.016849287519383672 0.0079364053855641957 0 0.017049765146853524 0.007844843958597832 0 0.017233751190054086 0.0076567183527109211 0 0.017049765146853524 0.007844843958597832 0 0.017036629071774452 0.0076423543119278825 0 0.017049765146853524 0.007844843958597832 0 0.016802247277141368 0.0078047103193146002 0 0.017036629071774452 0.0076423543119278825 0 0.016849287519383672 0.0079364053855641957 0 0.017049765146853524 0.007844843958597832 0 0.016802247277141368 0.0078047103193146002 0 0.016849287519383672 0.0079364053855641957 0 0.016719014479731242 0.0078714191426717418 0 0.016802247277141368 0.0078047103193146002 0 0.01671716016293661 0.0079845465509428698 0 0.016802247277141368 0.0078047103193146002 0 0.016817839071995497 0.0076062743857532554 0 0.016802247277141368 0.0078047103193146002 0 0.016817839071995497 0.0076062743857532554 0 0.017036629071774452 0.0076423543119278825 0 0.017355457109022646 0.0081585479735982978 0 0.018130428782368556 0.008171775775298068 0 0.016817839071995497 0.0076062743857532554 0 0.017175533315258045 0.0073761766676907229 0 0.017253697564510777 0.0072266363203230344 0 0.016817839071995497 0.0076062743857532554 0 0.017036629071774452 0.0076423543119278825 0 0.017175533315258045 0.0073761766676907229 0 0.016734049775224701 0.0081934299187786577 0 0.016709812437580622 0.0082643900903526975 0 0.016733198420793474 0.0082775033149905027 0 0.017036629071774452 0.0076423543119278825 0 0.017175533315258045 0.0073761766676907229 0 0.017281016971317887 0.0074934355027089601 0 0.017729097300343881 0.0071616229515112199 0 0.017312345179126738 0.0070490491082325227 0 0.017416316198027585 0.007312884534871807 0 0.018123514573769567 0.0081525479037786435 0 0.018130428782368556 0.008171775775298068 0 0.017175533315258045 0.0073761766676907229 0 0.017312345179126738 0.0070490491082325227 0 0.017416316198027585 0.007312884534871807 0 0.017549326484525497 0.007466832801590273 0 0.017416316198027585 0.007312884534871807 0 0.017281016971317887 0.0074934355027089601 0 0.017175533315258045 0.0073761766676907229 0 0.017416316198027585 0.007312884534871807 0 0.017281016971317887 0.0074934355027089601 0 0.017233751190054086 0.0076567183527109211 0 0.017036629071774452 0.0076423543119278825 0 0.017281016971317887 0.0074934355027089601 0 0.017549326484525497 0.007466832801590273 0 0.017233751190054086 0.0076567183527109211 0 0.017281016971317887 0.0074934355027089601 0 0.016709812437580622 0.0082643900903526975 0 0.016730478087429789 0.0083655457298033205 0 0.016733198420793474 0.0082775033149905027 0 0.016730478087429789 0.0083655457298033205 0 0.016733198420793474 0.0082775033149905027 0 0.016751015897843856 0.0082966540636516695 0 0.016730478087429789 0.0083655457298033205 0 0.016751015897843856 0.0082966540636516695 0 0.016764782743563866 0.0084074240228936073 0 0.016751015897843856 0.0082966540636516695 0 0.016776357361418987 0.0083317227393264869 0 0.016764782743563866 0.0084074240228936073 0 0.016734049775224701 0.0081934299187786577 0 0.016733198420793474 0.0082775033149905027 0 0.016751015897843856 0.0082966540636516695 0 0.016734049775224701 0.0081934299187786577 0 0.016751015897843856 0.0082966540636516695 0 0.016743962970599446 0.0082134821032939266 0 0.016751015897843856 0.0082966540636516695 0 0.016776357361418987 0.0083317227393264869 0 0.016743962970599446 0.0082134821032939266 0 0.016776357361418987 0.0083317227393264869 0 0.016799708502439659 0.0084824439512234638 0 0.016829535627530534 0.0084479780702666502 0 0.016776357361418987 0.0083317227393264869 0 0.016799708502439659 0.0084824439512234638 0 0.016764782743563866 0.0084074240228936073 0 0.016799708502439659 0.0084824439512234638 0 0.016764782743563866 0.0084074240228936073 0 0.01677642300139949 0.0085638206164854284 0 0.016764782743563866 0.0084074240228936073 0 0.016735149347567844 0.0084745298481540589 0 0.01677642300139949 0.0085638206164854284 0 0.016730478087429789 0.0083655457298033205 0 0.016764782743563866 0.0084074240228936073 0 0.016735149347567844 0.0084745298481540589 0 0.016771586582007215 0.0081721624014538825 0 0.016773779000267931 0.0081335897065000409 0 0.016768291043310183 0.0082568513531254724 0 0.016771586582007215 0.0081721624014538825 0 0.016766834865594951 0.0082505159229697214 0 0.016768291043310183 0.0082568513531254724 0 0.016771586582007215 0.0081721624014538825 0 0.016773779000267931 0.0081335897065000409 0 0.016773529663915532 0.008133855241974762 0 0.01675983871368909 0.0081181625022004808 0 0.016773779000267931 0.0081335897065000409 0 0.016773529663915532 0.008133855241974762 0 0.01675983871368909 0.0081181625022004808 0 0.016774027070853115 0.0081133772189791193 0 0.016773529663915532 0.008133855241974762 0 0.016774027070853115 0.0081133772189791193 0 0.016771586582007215 0.0081721624014538825 0 0.016773529663915532 0.008133855241974762 0 0.016774027070853115 0.0081133772189791193 0 0.016771586582007215 0.0081721624014538825 0 0.016758247129542225 0.0081617228098773229 0 0.016758247129542225 0.0081617228098773229 0 0.016743962970599446 0.0082134821032939266 0 0.016766834865594951 0.0082505159229697214 0 0.016776357361418987 0.0083317227393264869 0 0.016743962970599446 0.0082134821032939266 0 0.016766834865594951 0.0082505159229697214 0 0.016771586582007215 0.0081721624014538825 0 0.016758247129542225 0.0081617228098773229 0 0.016766834865594951 0.0082505159229697214 0 0.014228888259700969 0.0095299491860994668 0 0.013362544004988354 0.010795173263604619 0 0.0061541483516530304 0.016957144535734943 0 0.0062797012371477098 0.015900894153843034 0 0.0076403137157741007 0.016342264686462625 0 0.016776357361418987 0.0083317227393264869 0 0.016766834865594951 0.0082505159229697214 0 0.016829535627530534 0.0084479780702666502 0 0.011115781056224537 0.011356416947476905 0 0.013362544004988354 0.010795173263604619 0 0.016766834865594951 0.0082505159229697214 0 0.016768291043310183 0.0082568513531254724 0 0.016704473989111925 0.0083302552987893578 0 0.0048667815516937503 0.016756447621792164 0 0.0061541483516530304 0.016957144535734943 0 0.0051024144960446927 0.016226423957286327 0 0.0048667815516937503 0.016756447621792164 0 0.0049966566521385406 0.01716934142469621 0 0.0061541483516530304 0.016957144535734943 0 0.0089841117992291199 0.011425559792526425 0 0.011115781056224537 0.011356416947476905 0 0.0047572641585648928 0.017400001613425069 0 0.0049966566521385406 0.01716934142469621 0 0.0061541483516530304 0.016957144535734943 0 0.0061541483516530304 0.016957144535734943 0 0.0062797012371477098 0.015900894153843034 0 0.0051024144960446927 0.016226423957286327 0 0.016775447681664685 0.0080950591345388782 0 0.016773779000267931 0.0081335897065000409 0 0.016768291043310183 0.0082568513531254724 0 0.0062797012371477098 0.015900894153843034 0 0.0051024144960446927 0.016226423957286327 0 0.0042741683987215819 0.015434072861872372 0 0.0062797012371477098 0.015900894153843034 0 0.0064675225240331561 0.014797937874573033 0 0.0042741683987215819 0.015434072861872372 0 0.0076403137157741007 0.016342264686462625 0 0.0073041795003662546 0.015171511892117856 0 0.0085904704176671901 0.01466550802002581 0 0.0062797012371477098 0.015900894153843034 0 0.0076403137157741007 0.016342264686462625 0 0.0073041795003662546 0.015171511892117856 0 0.0062797012371477098 0.015900894153843034 0 0.0073041795003662546 0.015171511892117856 0 0.0064675225240331561 0.014797937874573033 0 0.0073041795003662546 0.015171511892117856 0 0.0075316280590264663 0.01415097607923126 0 0.0064675225240331561 0.014797937874573033 0 0.0073041795003662546 0.015171511892117856 0 0.0075316280590264663 0.01415097607923126 0 0.0085904704176671901 0.01466550802002581 0 0.0064675225240331561 0.014797937874573033 0 0.0057702391808388039 0.013545489656781835 0 0.0042741683987215819 0.015434072861872372 0 0.0075316280590264663 0.01415097607923126 0 0.0064675225240331561 0.014797937874573033 0 0.0057702391808388039 0.013545489656781835 0 0.01677642300139949 0.0085638206164854284 0 0.01683922117624986 0.0086620093756460074 0 0.016730977738878088 0.0086942268414234164 0 0.016799708502439659 0.0084824439512234638 0 0.01677642300139949 0.0085638206164854284 0 0.01683922117624986 0.0086620093756460074 0 0.015448821533251125 0.010090815075129161 0 0.016377190057714389 0.0096003556824203404 0 0.015861423696263258 0.0092388380058768364 0 0.013362544004988354 0.010795173263604619 0 0.012730942920827281 0.011543373559400947 0 0.016799708502439659 0.0084824439512234638 0 0.016829535627530534 0.0084479780702666502 0 0.01683922117624986 0.0086620093756460074 0 0.013362544004988354 0.010795173263604619 0 0.01591935459299329 0.009460285374760501 0 0.0075316280590264663 0.01415097607923126 0 0.0085904704176671901 0.01466550802002581 0 0.0083013636612300143 0.013534521467272022 0 0.016377190057714389 0.0096003556824203404 0 0.015861423696263258 0.0092388380058768364 0 0.016343850959436253 0.0092838519713642521 0 0.015861423696263258 0.0092388380058768364 0 0.016343850959436253 0.0092838519713642521 0 0.015990955468180523 0.0090024679905867447 0 0.016343850959436253 0.0092838519713642521 0 0.016642753197977315 0.0089882189489866194 0 0.016803159535113774 0.0092712549551754765 0 0.016377190057714389 0.0096003556824203404 0 0.016343850959436253 0.0092838519713642521 0 0.016803159535113774 0.0092712549551754765 0 0.015990955468180523 0.0090024679905867447 0 0.015795178582787586 0.0091540595918964442 0 0.014370407377596629 0.0096307953232810384 0 0.015990955468180523 0.0090024679905867447 0 0.017126472299920495 0.0074933994972008469 0 0.0169527820644387 0.0084164999472941763 0 0.016642753197977315 0.0089882189489866194 0 0.015990955468180523 0.0090024679905867447 0 0.0169527820644387 0.0084164999472941763 0 0.016343850959436253 0.0092838519713642521 0 0.016642753197977315 0.0089882189489866194 0 0.015990955468180523 0.0090024679905867447 0 0.012730942920827281 0.011543373559400947 0 0.012859028145670044 0.010945963437840827 0 0.015861423696263258 0.0092388380058768364 0 0.015990955468180523 0.0090024679905867447 0 0.015795178582787586 0.0091540595918964442 0 0.0085904704176671901 0.01466550802002581 0 0.0096631640650511365 0.013089727182173693 0 0.0083013636612300143 0.013534521467272022 0 0.0096631640650511365 0.013089727182173693 0 0.0083013636612300143 0.013534521467272022 0 0.0084436068489187853 0.012732991539785783 0 0.0084436068489187853 0.012732991539785783 0 0.0089335075044914072 0.011839739100158678 0 0.0092741831136905397 0.01254146345979924 0 0.0084436068489187853 0.012732991539785783 0 0.0089335075044914072 0.011839739100158678 0 0.0074414565001739621 0.011918905676611299 0 0.0089335075044914072 0.011839739100158678 0 0.0092741831136905397 0.01254146345979924 0 0.0098695560047287346 0.012011910223882273 0 0.0096631640650511365 0.013089727182173693 0 0.0092741831136905397 0.01254146345979924 0 0.0098695560047287346 0.012011910223882273 0 0.0096631640650511365 0.013089727182173693 0 0.0084436068489187853 0.012732991539785783 0 0.0092741831136905397 0.01254146345979924 0 0.015795178582787586 0.0091540595918964442 0 0.014398208024893751 0.0098200841005712282 0 0.014370407377596629 0.0096307953232810384 0 0.015779234341693787 0.0090450878233172063 0 0.015886296988931018 0.0087789795450178548 0 0.012859028145670044 0.010945963437840827 0 0.013073203003437671 0.010272526501671694 0 0.0096631640650511365 0.013089727182173693 0 0.0098695560047287346 0.012011910223882273 0 0.011045418527757067 0.011612981380387957 0 0.0057702391808388039 0.013545489656781835 0 0.00602577936280354 0.012102143169002251 0 0.0039944960947504576 0.012660808867128462 0 0.0057702391808388039 0.013545489656781835 0 0.0072109236565102864 0.012990713236959533 0 0.00602577936280354 0.012102143169002251 0 0.0075316280590264663 0.01415097607923126 0 0.0057702391808388039 0.013545489656781835 0 0.0072109236565102864 0.012990713236959533 0 0.0075316280590264663 0.01415097607923126 0 0.0083013636612300143 0.013534521467272022 0 0.0072109236565102864 0.012990713236959533 0 0.0083013636612300143 0.013534521467272022 0 0.0084436068489187853 0.012732991539785783 0 0.0072109236565102864 0.012990713236959533 0 0.0074414565001739621 0.011918905676611299 0 0.00602577936280354 0.012102143169002251 0 0.0067665335362883045 0.01072330489559096 0 0.0072109236565102864 0.012990713236959533 0 0.0074414565001739621 0.011918905676611299 0 0.00602577936280354 0.012102143169002251 0 0.0084436068489187853 0.012732991539785783 0 0.0072109236565102864 0.012990713236959533 0 0.0074414565001739621 0.011918905676611299 0 0.00602577936280354 0.012102143169002251 0 0.0067665335362883045 0.01072330489559096 0 0.0049349034255423384 0.010793791318357122 0 0.0056408199767962507 0.0096429777608847654 0 0.0067665335362883045 0.01072330489559096 0 0.0049349034255423384 0.010793791318357122 0 0.0056408199767962507 0.0096429777608847654 0 0.0052377675256821722 0.0084556930077124906 0 0.0072604178567546264 0.0088494295728430306 0 0.0056408199767962507 0.0096429777608847654 0 0.0067665335362883045 0.01072330489559096 0 0.0072604178567546264 0.0088494295728430306 0 0.0067665335362883045 0.01072330489559096 0 0.008451849285596667 0.010674500268255817 0 0.0072604178567546264 0.0088494295728430306 0 0.008451849285596667 0.010674500268255817 0 0.0091429981153394874 0.0096103249197995403 0 0.0072604178567546264 0.0088494295728430306 0 0.0074414565001739621 0.011918905676611299 0 0.0067665335362883045 0.01072330489559096 0 0.008451849285596667 0.010674500268255817 0 0.0089335075044914072 0.011839739100158678 0 0.0074414565001739621 0.011918905676611299 0 0.008451849285596667 0.010674500268255817 0 0.0089335075044914072 0.011839739100158678 0 0.009756395373536968 0.011245464343597276 0 0.008451849285596667 0.010674500268255817 0 0.0089335075044914072 0.011839739100158678 0 0.0098695560047287346 0.012011910223882273 0 0.009756395373536968 0.011245464343597276 0 0.009756395373536968 0.011245464343597276 0 0.008451849285596667 0.010674500268255817 0 0.0098916739425918068 0.010346700045039325 0 0.0098695560047287346 0.012011910223882273 0 0.009756395373536968 0.011245464343597276 0 0.010319214516060889 0.011450170746064211 0 0.0098695560047287346 0.012011910223882273 0 0.011045418527757067 0.011612981380387957 0 0.010319214516060889 0.011450170746064211 0 0.011045418527757067 0.011612981380387957 0 0.010319214516060889 0.011450170746064211 0 0.010598448346218842 0.010894426203734675 0 0.009756395373536968 0.011245464343597276 0 0.010319214516060889 0.011450170746064211 0 0.010598448346218842 0.010894426203734675 0 0.009756395373536968 0.011245464343597276 0 0.010598448346218842 0.010894426203734675 0 0.0098916739425918068 0.010346700045039325 0 0.011045418527757067 0.011612981380387957 0 0.010598448346218842 0.010894426203734675 0 0.01157314038691503 0.010384928725172384 0 0.011045418527757067 0.011612981380387957 0 0.01157314038691503 0.010384928725172384 0 0.013188776307045458 0.0097201531299358004 0 0.01157314038691503 0.010384928725172384 0 0.011007767088477588 0.010077578107452235 0 0.01177727129388419 0.0094335383026869016 0 0.010598448346218842 0.010894426203734675 0 0.011007767088477588 0.010077578107452235 0 0.0098916739425918068 0.010346700045039325 0 0.011007767088477588 0.010077578107452235 0 0.010515949704175999 0.0094406723837970868 0 0.0098916739425918068 0.010346700045039325 0 0.010598448346218842 0.010894426203734675 0 0.01157314038691503 0.010384928725172384 0 0.011007767088477588 0.010077578107452235 0 0.011007767088477588 0.010077578107452235 0 0.010515949704175999 0.0094406723837970868 0 0.01177727129388419 0.0094335383026869016 0 0.010515949704175999 0.0094406723837970868 0 0.01177727129388419 0.0094335383026869016 0 0.011546596070061657 0.0085232815506757053 0 0.01157314038691503 0.010384928725172384 0 0.01177727129388419 0.0094335383026869016 0 0.013188776307045458 0.0097201531299358004 0 0.0091429981153394874 0.0096103249197995403 0 0.0097677942123857234 0.0085109570373628329 0 0.0072604178567546264 0.0088494295728430306 0 0.008451849285596667 0.010674500268255817 0 0.0098916739425918068 0.010346700045039325 0 0.0091429981153394874 0.0096103249197995403 0 0.010515949704175999 0.0094406723837970868 0 0.0098916739425918068 0.010346700045039325 0 0.0091429981153394874 0.0096103249197995403 0 0.010515949704175999 0.0094406723837970868 0 0.0091429981153394874 0.0096103249197995403 0 0.0097677942123857234 0.0085109570373628329 0 0.008718928543467919 0.0074608826221263577 0 0.0097677942123857234 0.0085109570373628329 0 0.011529957853757322 0.0067860837692728364 0 0.008718928543467919 0.0074608826221263577 0 0.0097677942123857234 0.0085109570373628329 0 0.0072604178567546264 0.0088494295728430306 0 0.0097677942123857234 0.0085109570373628329 0 0.011546596070061657 0.0085232815506757053 0 0.011529957853757322 0.0067860837692728364 0 0.011546596070061657 0.0085232815506757053 0 0.011529957853757322 0.0067860837692728364 0 0.013526157378309754 0.0080224310823473147 0 0.01177727129388419 0.0094335383026869016 0 0.011546596070061657 0.0085232815506757053 0 0.012825783648516571 0.0089878934898802807 0 0.010515949704175999 0.0094406723837970868 0 0.0097677942123857234 0.0085109570373628329 0 0.011546596070061657 0.0085232815506757053 0 0.008718928543467919 0.0074608826221263577 0 0.0074174674511952639 0.0063489156460069225 0 0.0095628875221944638 0.0050253268276364586 0 0.008718928543467919 0.0074608826221263577 0 0.011529957853757322 0.0067860837692728364 0 0.0095628875221944638 0.0050253268276364586 0 0.0074174674511952639 0.0063489156460069225 0 0.005291249356785821 0.0069986518969232282 0 0.0072604178567546264 0.0088494295728430306 0 0.0074174674511952639 0.0063489156460069225 0 0.005291249356785821 0.0069986518969232282 0 0.0071970925667085425 0.003817586476816561 0 0.005291249356785821 0.0069986518969232282 0 0.0052377675256821722 0.0084556930077124906 0 0.0072604178567546264 0.0088494295728430306 0 0.008718928543467919 0.0074608826221263577 0 0.0074174674511952639 0.0063489156460069225 0 0.0072604178567546264 0.0088494295728430306 0 0.019441482112293049 0.0061820912458797365 0 0.019572273343432145 0.0058268267777502551 0 0.018937217821943578 0.0057802096695239464 0 0.019995839534794762 0.0061699009351897337 0 0.020068646646204648 0.0058121031702985729 0 0.019572273343432145 0.0058268267777502551 0 0.019441482112293049 0.0061820912458797365 0 0.019995839534794762 0.0061699009351897337 0 0.019572273343432145 0.0058268267777502551 0 0.019441482112293049 0.0061820912458797365 0 0.019995839534794762 0.0061699009351897337 0 0.020006460265978385 0.0066213375969851156 0 0.019995839534794762 0.0061699009351897337 0 0.020522978041998853 0.0063016400919146424 0 0.020006460265978385 0.0066213375969851156 0 0.019995839534794762 0.0061699009351897337 0 0.020522978041998853 0.0063016400919146424 0 0.020539453384456372 0.0059806247964466945 0 0.020522978041998853 0.0063016400919146424 0 0.020539453384456372 0.0059806247964466945 0 0.021028329265746385 0.0060520082170572457 0 0.019995839534794762 0.0061699009351897337 0 0.020539453384456372 0.0059806247964466945 0 0.020068646646204648 0.0058121031702985729 0 0.020539453384456372 0.0059806247964466945 0 0.020068646646204648 0.0058121031702985729 0 0.020452170909243846 0.0055780496472723849 0 0.020068646646204648 0.0058121031702985729 0 0.020452170909243846 0.0055780496472723849 0 0.019931673325530315 0.0055216549758205832 0 0.020539453384456372 0.0059806247964466945 0 0.020452170909243846 0.0055780496472723849 0 0.02086473667821849 0.005729819929910401 0 0.020452170909243846 0.0055780496472723849 0 0.020648922845253007 0.0052184371885772825 0 0.020253847885667937 0.0052694460366542618 0 0.020452170909243846 0.0055780496472723849 0 0.020828669163482118 0.0054661192406936666 0 0.020648922845253007 0.0052184371885772825 0 0.020452170909243846 0.0055780496472723849 0 0.020828669163482118 0.0054661192406936666 0 0.02086473667821849 0.005729819929910401 0 0.020452170909243846 0.0055780496472723849 0 0.019931673325530315 0.0055216549758205832 0 0.020253847885667937 0.0052694460366542618 0 0.019474445250702282 0.005429192385271747 0 0.019572273343432145 0.0058268267777502551 0 0.018937217821943578 0.0057802096695239464 0 0.019931673325530315 0.0055216549758205832 0 0.019474445250702282 0.005429192385271747 0 0.019785564709242157 0.0050656021166349966 0 0.019474445250702282 0.005429192385271747 0 0.018937217821943578 0.0057802096695239464 0 0.018843021811125259 0.0046808860179153719 0 0.019931673325530315 0.0055216549758205832 0 0.019474445250702282 0.005429192385271747 0 0.019572273343432145 0.0058268267777502551 0 0.020068646646204648 0.0058121031702985729 0 0.019931673325530315 0.0055216549758205832 0 0.019572273343432145 0.0058268267777502551 0 0.015770089081193161 0.0076096437495105536 0 0.014327524455136778 0.0063548707327809595 0 0.016025276904580558 0.0053022650382303612 0 0.017324923991177167 0.0063903890133217211 0 0.017969324714262162 0.005298372208349408 0 0.015770089081193161 0.0076096437495105536 0 0.014327524455136778 0.0063548707327809595 0 0.013526157378309754 0.0080224310823473147 0 0.011529957853757322 0.0067860837692728364 0 0.014327524455136778 0.0063548707327809595 0 0.013673066719381229 0.0048039150467788679 0 0.011529957853757322 0.0067860837692728364 0 0.014327524455136778 0.0063548707327809595 0 0.013526157378309754 0.0080224310823473147 0 0.015770089081193161 0.0076096437495105536 0 0.013526157378309754 0.0080224310823473147 0 0.013594142923124752 0.0099368276086156237 0 0.013526157378309754 0.0080224310823473147 0 0.012825783648516571 0.0089878934898802807 0 0.013594142923124752 0.0099368276086156237 0 0.011546596070061657 0.0085232815506757053 0 0.013526157378309754 0.0080224310823473147 0 0.012825783648516571 0.0089878934898802807 0 0.017324923991177167 0.0063903890133217211 0 0.01636494837351082 0.00795250916774096 0 0.018937217821943578 0.0057802096695239464 0 0.018881467672238035 0.0063551906109346433 0 0.018268590980109543 0.0064529856271935805 0 0.019441482112293049 0.0061820912458797365 0 0.018937217821943578 0.0057802096695239464 0 0.018881467672238035 0.0063551906109346433 0 0.019441482112293049 0.0061820912458797365 0 0.018881467672238035 0.0063551906109346433 0 0.019128088783433615 0.0067197884934603559 0 0.018881467672238035 0.0063551906109346433 0 0.018625111733794667 0.0067480324657199098 0 0.018268590980109543 0.0064529856271935805 0 0.018881467672238035 0.0063551906109346433 0 0.018625111733794667 0.0067480324657199098 0 0.019128088783433615 0.0067197884934603559 0 0.014398208024893751 0.0098200841005712282 0 0.013188776307045458 0.0097201531299358004 0 0.013594142923124752 0.0099368276086156237 0 0.012825783648516571 0.0089878934898802807 0 0.013188776307045458 0.0097201531299358004 0 0.013594142923124752 0.0099368276086156237 0 0.01177727129388419 0.0094335383026869016 0 0.012825783648516571 0.0089878934898802807 0 0.013188776307045458 0.0097201531299358004 0 0.014398208024893751 0.0098200841005712282 0 0.013594142923124752 0.0099368276086156237 0 0.014370407377596629 0.0096307953232810384 0 0.013073203003437671 0.010272526501671694 0 0.013234303087420957 0.0098497545482144882 0 0.018268590980109543 0.0064529856271935805 0 0.018176327107446787 0.0071530606958072722 0 0.017126472299920495 0.0074933994972008469 0 0.01636494837351082 0.00795250916774096 0 0.015886296988931018 0.0087789795450178548 0 0.018625111733794667 0.0067480324657199098 0 0.018268590980109543 0.0064529856271935805 0 0.018176327107446787 0.0071530606958072722 0 0.019128088783433615 0.0067197884934603559 0 0.018754407057717269 0.0071221341521684701 0 0.01916677320918787 0.0071684295193763566 0 0.018625111733794667 0.0067480324657199098 0 0.019128088783433615 0.0067197884934603559 0 0.018754407057717269 0.0071221341521684701 0 0.018625111733794667 0.0067480324657199098 0 0.018176327107446787 0.0071530606958072722 0 0.018754407057717269 0.0071221341521684701 0 0.018176327107446787 0.0071530606958072722 0 0.018754407057717269 0.0071221341521684701 0 0.01843367679792117 0.0075471764668540676 0 0.018754407057717269 0.0071221341521684701 0 0.019058711274203263 0.0074814855345722775 0 0.01843367679792117 0.0075471764668540676 0 0.018754407057717269 0.0071221341521684701 0 0.01916677320918787 0.0071684295193763566 0 0.019058711274203263 0.0074814855345722775 0 0.01916677320918787 0.0071684295193763566 0 0.01956033644496314 0.0070486474383934577 0 0.019536444691947635 0.0074169045850970622 0 0.01916677320918787 0.0071684295193763566 0 0.019536444691947635 0.0074169045850970622 0 0.019058711274203263 0.0074814855345722775 0 0.01956033644496314 0.0070486474383934577 0 0.020039131822083812 0.0070114111986876318 0 0.020022488969535401 0.0073235748236891145 0 0.01956033644496314 0.0070486474383934577 0 0.020022488969535401 0.0073235748236891145 0 0.019536444691947635 0.0074169045850970622 0 0.01956033644496314 0.0070486474383934577 0 0.020006460265978385 0.0066213375969851156 0 0.020039131822083812 0.0070114111986876318 0 0.019128088783433615 0.0067197884934603559 0 0.01916677320918787 0.0071684295193763566 0 0.01956033644496314 0.0070486474383934577 0 0.019441482112293049 0.0061820912458797365 0 0.019128088783433615 0.0067197884934603559 0 0.020006460265978385 0.0066213375969851156 0 0.019128088783433615 0.0067197884934603559 0 0.01956033644496314 0.0070486474383934577 0 0.020006460265978385 0.0066213375969851156 0 0.020006460265978385 0.0066213375969851156 0 0.020529487571117333 0.0069651921262119422 0 0.020736833280735351 0.0066222393888135432 0 0.020522978041998853 0.0063016400919146424 0 0.020006460265978385 0.0066213375969851156 0 0.020736833280735351 0.0066222393888135432 0 0.020006460265978385 0.0066213375969851156 0 0.020529487571117333 0.0069651921262119422 0 0.020039131822083812 0.0070114111986876318 0 0.020529487571117333 0.0069651921262119422 0 0.020039131822083812 0.0070114111986876318 0 0.020022488969535401 0.0073235748236891145 0 0.020529487571117333 0.0069651921262119422 0 0.020022488969535401 0.0073235748236891145 0 0.020492220874564347 0.0074035860124839229 0 0.020529487571117333 0.0069651921262119422 0 0.020492220874564347 0.0074035860124839229 0 0.02086971646755692 0.0072982976350324594 0 0.020492220874564347 0.0074035860124839229 0 0.020840303786108235 0.0076516422112422686 0 0.020165185206062138 0.0076929012805306155 0 0.020492220874564347 0.0074035860124839229 0 0.020840303786108235 0.0076516422112422686 0 0.02086971646755692 0.0072982976350324594 0 0.020840303786108235 0.0076516422112422686 0 0.020165185206062138 0.0076929012805306155 0 0.019933473584618971 0.0081928716370270951 0 0.020022488969535401 0.0073235748236891145 0 0.020492220874564347 0.0074035860124839229 0 0.020165185206062138 0.0076929012805306155 0 0.020022488969535401 0.0073235748236891145 0 0.019536444691947635 0.0074169045850970622 0 0.019589498251161238 0.0078316037158595551 0 0.020022488969535401 0.0073235748236891145 0 0.020165185206062138 0.0076929012805306155 0 0.019589498251161238 0.0078316037158595551 0 0.019058711274203263 0.0074814855345722775 0 0.019589498251161238 0.0078316037158595551 0 0.01878159360177142 0.0079838473024689532 0 0.019536444691947635 0.0074169045850970622 0 0.019058711274203263 0.0074814855345722775 0 0.019589498251161238 0.0078316037158595551 0 0.019589498251161238 0.0078316037158595551 0 0.019194024264480931 0.0084789828328215855 0 0.01878159360177142 0.0079838473024689532 0 0.019589498251161238 0.0078316037158595551 0 0.019933473584618971 0.0081928716370270951 0 0.019194024264480931 0.0084789828328215855 0 0.020165185206062138 0.0076929012805306155 0 0.019589498251161238 0.0078316037158595551 0 0.019933473584618971 0.0081928716370270951 0 0.019933473584618971 0.0081928716370270951 0 0.019194024264480931 0.0084789828328215855 0 0.020013031393122244 0.0090325906067792658 0 0.019194024264480931 0.0084789828328215855 0 0.020013031393122244 0.0090325906067792658 0 0.018599924887059329 0.0092952822916580104 0 0.01954267167397573 0.0080159581238284164 0 0.018109906718093524 0.0085526658059354166 0 0.020840303786108235 0.0076516422112422686 0 0.019933473584618971 0.0081928716370270951 0 0.020013031393122244 0.0090325906067792658 0 0.021049467189150153 0.0073295604817739573 0 0.021318634461222664 0.0075120238523159501 0 0.021414599915460557 0.0073297081140672685 0 0.020840303786108235 0.0076516422112422686 0 0.020671823660727649 0.0079563330494294843 0 0.020997635767591907 0.0079006478477510692 0 0.01954267167397573 0.0080159581238284164 0 0.02053623943656039 0.0078082497964305957 0 0.019895171071576484 0.0078048921000151861 0 0.01954267167397573 0.0080159581238284164 0 0.017126472299920495 0.0074933994972008469 0 0.017478363630229303 0.0079937143490702283 0 0.0169527820644387 0.0084164999472941763 0 0.017478363630229303 0.0079937143490702283 0 0.017463111462439364 0.0083557064143025082 0 0.0169527820644387 0.0084164999472941763 0 0.017126472299920495 0.0074933994972008469 0 0.017813649060530051 0.0076391587484088584 0 0.017478363630229303 0.0079937143490702283 0 0.018176327107446787 0.0071530606958072722 0 0.017126472299920495 0.0074933994972008469 0 0.017813649060530051 0.0076391587484088584 0 0.017478363630229303 0.0079937143490702283 0 0.018008925345936216 0.0080988307123648576 0 0.017463111462439364 0.0083557064143025082 0 0.017813649060530051 0.0076391587484088584 0 0.017478363630229303 0.0079937143490702283 0 0.018008925345936216 0.0080988307123648576 0 0.018008925345936216 0.0080988307123648576 0 0.01878159360177142 0.0079838473024689532 0 0.018383675572677272 0.0085447417368236869 0 0.018008925345936216 0.0080988307123648576 0 0.01843367679792117 0.0075471764668540676 0 0.01878159360177142 0.0079838473024689532 0 0.018176327107446787 0.0071530606958072722 0 0.017813649060530051 0.0076391587484088584 0 0.01843367679792117 0.0075471764668540676 0 0.017813649060530051 0.0076391587484088584 0 0.018008925345936216 0.0080988307123648576 0 0.01843367679792117 0.0075471764668540676 0 0.019058711274203263 0.0074814855345722775 0 0.01843367679792117 0.0075471764668540676 0 0.01878159360177142 0.0079838473024689532 0 0.019194024264480931 0.0084789828328215855 0 0.01878159360177142 0.0079838473024689532 0 0.018383675572677272 0.0085447417368236869 0 0.019194024264480931 0.0084789828328215855 0 0.018383675572677272 0.0085447417368236869 0 0.018599924887059329 0.0092952822916580104 0 0.018383675572677272 0.0085447417368236869 0 0.017540959235971092 0.0087705156586704563 0 0.018599924887059329 0.0092952822916580104 0 0.018008925345936216 0.0080988307123648576 0 0.018383675572677272 0.0085447417368236869 0 0.017540959235971092 0.0087705156586704563 0 0.017540959235971092 0.0087705156586704563 0 0.016803159535113774 0.0092712549551754765 0 0.018599924887059329 0.0092952822916580104 0 0.018008925345936216 0.0080988307123648576 0 0.017463111462439364 0.0083557064143025082 0 0.017540959235971092 0.0087705156586704563 0 0.017463111462439364 0.0083557064143025082 0 0.017540959235971092 0.0087705156586704563 0 0.017082062914452016 0.0087782558334001566 0 0.016642753197977315 0.0089882189489866194 0 0.017082062914452016 0.0087782558334001566 0 0.016803159535113774 0.0092712549551754765 0 0.017540959235971092 0.0087705156586704563 0 0.017082062914452016 0.0087782558334001566 0 0.016803159535113774 0.0092712549551754765 0 0.016642753197977315 0.0089882189489866194 0 0.017082062914452016 0.0087782558334001566 0 0.0169527820644387 0.0084164999472941763 0 0.017463111462439364 0.0083557064143025082 0 0.017082062914452016 0.0087782558334001566 0 0.0169527820644387 0.0084164999472941763 0 0.017654793966738119 0.0087147869214387816 0 0.018109906718093524 0.0085526658059354166 0 0.01591935459299329 0.009460285374760501 0 0.016354124986315496 0.0092496642540841993 0 0.016377190057714389 0.0096003556824203404 0 0.016803159535113774 0.0092712549551754765 0 0.016787143903836624 0.0091201088619067595 0 0.016803159535113774 0.0092712549551754765 0 0.016787143903836624 0.0091201088619067595 0 0.016685217985394778 0.009020344206865703 0 0.01683922117624986 0.0086620093756460074 0 0.016787143903836624 0.0091201088619067595 0 0.016769479251880961 0.0088412935826334572 0 0.016787143903836624 0.0091201088619067595 0 0.016769479251880961 0.0088412935826334572 0 0.016689805171228367 0.0088965486203702888 0 0.016689805171228367 0.0088965486203702888 0 0.016685217985394778 0.009020344206865703 0 0.01658182871711383 0.0088152058368402997 0 0.016787143903836624 0.0091201088619067595 0 0.016689805171228367 0.0088965486203702888 0 0.016685217985394778 0.009020344206865703 0 0.016689805171228367 0.0088965486203702888 0 0.01658182871711383 0.0088152058368402997 0 0.016730977738878088 0.0086942268414234164 0 0.01665291904099326 0.0084697272327965648 0 0.01658182871711383 0.0088152058368402997 0 0.016730977738878088 0.0086942268414234164 0 0.018429908700146071 0.0083140448570352965 0 0.01880832483109628 0.008301125491200826 0 0.01683922117624986 0.0086620093756460074 0 0.016769479251880961 0.0088412935826334572 0 0.016730977738878088 0.0086942268414234164 0 0.016769479251880961 0.0088412935826334572 0 0.016689805171228367 0.0088965486203702888 0 0.016730977738878088 0.0086942268414234164 0 0.016727460126202628 0.0085513562558657049 0 0.01677642300139949 0.0085638206164854284 0 0.016730977738878088 0.0086942268414234164 0 0.021049467189150153 0.0073295604817739573 0 0.021318634461222664 0.0075120238523159501 0 0.021110983981588817 0.0077312947305476724 0 0.021318634461222664 0.0075120238523159501 0 0.021110983981588817 0.0077312947305476724 0 0.021536202867526368 0.0077506133707340137 0 0.021049467189150153 0.0073295604817739573 0 0.020646108191556271 0.0077636643951980912 0 0.021110983981588817 0.0077312947305476724 0 0.01954267167397573 0.0080159581238284164 0 0.01880832483109628 0.008301125491200826 0 0.01648924511040888 0.0090485689006600794 0 0.016685217985394778 0.009020344206865703 0 0.01658182871711383 0.0088152058368402997 0 0.02072522411813019 0.0081094047264560071 0 0.020646108191556271 0.0077636643951980912 0 0.020944196584423536 0.0079631606974281469 0 0.020646108191556271 0.0077636643951980912 0 0.020944196584423536 0.0079631606974281469 0 0.021110983981588817 0.0077312947305476724 0 0.021145352689654714 0.0081698501086948355 0 0.020944196584423536 0.0079631606974281469 0 0.021110983981588817 0.0077312947305476724 0 0.021145352689654714 0.0081698501086948355 0 0.021110983981588817 0.0077312947305476724 0 0.021536202867526368 0.0077506133707340137 0 0.020654011448685453 0.0072478835391367328 0 0.021141114607522923 0.0071846957925869297 0 0.021318634461222664 0.0075120238523159501 0 0.021536202867526368 0.0077506133707340137 0 0.021548904743552411 0.0074486986449784545 0 0.021318634461222664 0.0075120238523159501 0 0.021548904743552411 0.0074486986449784545 0 0.021414599915460557 0.0073297081140672685 0 0.021642187007462867 0.0066713312344587467 0 0.021714623206386514 0.0073054285512612884 0 0.0215487991692206 0.0069452471358910249 0 0.021536202867526368 0.0077506133707340137 0 0.021548904743552411 0.0074486986449784545 0 0.021714623206386514 0.0073054285512612884 0 0.021141114607522923 0.0071846957925869297 0 0.021284831403080691 0.0071892256695257123 0 0.021523972968663249 0.0067032260323346355 0 0.021642187007462867 0.0066713312344587467 0 0.0215487991692206 0.0069452471358910249 0 0.021243449911227917 0.0067202324056245266 0 0.021523972968663249 0.0067032260323346355 0 0.0215487991692206 0.0069452471358910249 0 0.021243449911227917 0.0067202324056245266 0 0.0215487991692206 0.0069452471358910249 0 0.021397448285672936 0.0070654817889251736 0 0.025030305219850665 0.0063765244519329968 0 0.024614942154767099 0.0064858047346942217 0 0.021714623206386514 0.0073054285512612884 0 0.0215487991692206 0.0069452471358910249 0 0.021397448285672936 0.0070654817889251736 0 0.021714623206386514 0.0073054285512612884 0 0.021819986263716749 0.0073903759482093559 0 0.021831220703137737 0.007391677564599743 0 0.021714623206386514 0.0073054285512612884 0 0.021397448285672936 0.0070654817889251736 0 0.021819986263716749 0.0073903759482093559 0 0.024614942154767099 0.0064858047346942217 0 0.024090968957071735 0.0061422837894385901 0 0.028082294876660238 0.0070447912041338764 0 0.026245649302176901 0.0063411072835835884 0 0.027773893663069454 0.006487481556099405 0 0.026245649302176901 0.0063411072835835884 0 0.026056619604331033 0.0054654911004297143 0 0.027773893663069454 0.006487481556099405 0 0.024090968957071735 0.0061422837894385901 0 0.023596720277017768 0.0054281743453158853 0 0.026245649302176901 0.0063411072835835884 0 0.026056619604331033 0.0054654911004297143 0 0.024385047067559989 0.0047702210743460422 0 0.021819986263716749 0.0073903759482093559 0 0.022067124410984192 0.0071518975760564134 0 0.021831220703137737 0.007391677564599743 0 0.021819986263716749 0.0073903759482093559 0 0.022067124410984192 0.0071518975760564134 0 0.022467122641644292 0.0068374572359713838 0 0.022067124410984192 0.0071518975760564134 0 0.021831220703137737 0.007391677564599743 0 0.021805967348848345 0.0071754077656309605 0 0.021831220703137737 0.007391677564599743 0 0.021670535535044291 0.0074068722045867678 0 0.021805967348848345 0.0071754077656309605 0 0.021670535535044291 0.0074068722045867678 0 0.021805967348848345 0.0071754077656309605 0 0.021397692429381561 0.0074651930667524345 0 0.021670535535044291 0.0074068722045867678 0 0.021397692429381561 0.0074651930667524345 0 0.021640456058987862 0.0074858166382417131 0 0.021805967348848345 0.0071754077656309605 0 0.021415260751329993 0.0071852276474153676 0 0.021397692429381561 0.0074651930667524345 0 0.021415260751329993 0.0071852276474153676 0 0.021105077309030384 0.0074844040530236541 0 0.021397692429381561 0.0074651930667524345 0 0.020840303786108235 0.0076516422112422686 0 0.021105077309030384 0.0074844040530236541 0 0.02086971646755692 0.0072982976350324594 0 0.021415260751329993 0.0071852276474153676 0 0.021105077309030384 0.0074844040530236541 0 0.02086971646755692 0.0072982976350324594 0 0.020840303786108235 0.0076516422112422686 0 0.021105077309030384 0.0074844040530236541 0 0.021152217759193168 0.0076514886110984198 0 0.021105077309030384 0.0074844040530236541 0 0.021397692429381561 0.0074651930667524345 0 0.021152217759193168 0.0076514886110984198 0 0.02053623943656039 0.0078082497964305957 0 0.020830734759647928 0.0077445796265168173 0 0.021152217759193168 0.0076514886110984198 0 0.020997635767591907 0.0079006478477510692 0 0.021640456058987862 0.0074858166382417131 0 0.021548904743552411 0.0074486986449784545 0 0.021414599915460557 0.0073297081140672685 0 0.021640456058987862 0.0074858166382417131 0 0.021397692429381561 0.0074651930667524345 0 0.021152217759193168 0.0076514886110984198 0 0.021640456058987862 0.0074858166382417131 0 0.020840303786108235 0.0076516422112422686 0 0.021152217759193168 0.0076514886110984198 0 0.020997635767591907 0.0079006478477510692 0 0.021548904743552411 0.0074486986449784545 0 0.021714623206386514 0.0073054285512612884 0 0.021640456058987862 0.0074858166382417131 0 0.021714623206386514 0.0073054285512612884 0 0.021831220703137737 0.007391677564599743 0 0.021640456058987862 0.0074858166382417131 0 0.021831220703137737 0.007391677564599743 0 0.021670535535044291 0.0074068722045867678 0 0.021640456058987862 0.0074858166382417131 0 0.029538279316809541 0.0070757810910162351 0 0.029077142508664045 0.0067692272692925892 0 0.029196803431547059 0.0069503039702389791 0 0.030279032726069813 0.0063122080895644016 0 0.030111095643051311 0.0061089246648388497 0 0.031366703746917995 0.0058177968664213141 0 0.030906678473433934 0.0049259429335548445 0 0.031056309123130486 0.005221437949222839 0 0.029077142508664045 0.0067692272692925892 0 0.029196803431547059 0.0069503039702389791 0 0.029115314335225035 0.0068766765713087685 0 0.029538279316809541 0.0070757810910162351 0 0.029196803431547059 0.0069503039702389791 0 0.02929433775209352 0.0068490105568119793 0 0.029196803431547059 0.0069503039702389791 0 0.029115314335225035 0.0068766765713087685 0 0.028869240268848902 0.0068025694146143425 0 0.029115314335225035 0.0068766765713087685 0 0.028619307360526522 0.0069585256114117703 0 0.028869240268848902 0.0068025694146143425 0 0.029301234679553635 0.0066445828615425157 0 0.029115314335225035 0.0068766765713087685 0 0.028619307360526522 0.0069585256114117703 0 0.029301234679553635 0.0066445828615425157 0 0.028082294876660238 0.0070447912041338764 0 0.028619307360526522 0.0069585256114117703 0 0.028082294876660238 0.0070447912041338764 0 0.028619307360526522 0.0069585256114117703 0 0.027773893663069454 0.006487481556099405 0 0.028619307360526522 0.0069585256114117703 0 0.027773893663069454 0.006487481556099405 0 0.028869240268848902 0.0068025694146143425 0 0.027773893663069454 0.006487481556099405 0 0.027778309500323659 0.0055080118807944202 0 0.028706934594651404 0.0059894688264721932 0 0.026056619604331033 0.0054654911004297143 0 0.027773893663069454 0.006487481556099405 0 0.027778309500323659 0.0055080118807944202 0 0.027331294368188333 0.0064845320218703748 0 0.026863604140539597 0.0065908882921545849 0 0.027778309500323659 0.0055080118807944202 0 0.028706934594651404 0.0059894688264721932 0 0.028688004290742544 0.0048587143106646139 0 0.028873733224108411 0.0065749094133855553 0 0.029368588086462692 0.0063573899092871748 0 0.028861456322792595 0.0062204120949127572 0 0.028873733224108411 0.0065749094133855553 0 0.028869240268848902 0.0068025694146143425 0 0.02929433775209352 0.0068490105568119793 0 0.027331294368188333 0.0064845320218703748 0 0.02748140264138918 0.0065595986454355156 0 0.027773893663069454 0.006487481556099405 0 0.028706934594651404 0.0059894688264721932 0 0.028869240268848902 0.0068025694146143425 0 0.029196803431547059 0.0069503039702389791 0 0.028869240268848902 0.0068025694146143425 0 0.02929433775209352 0.0068490105568119793 0 0.02929433775209352 0.0068490105568119793 0 0.029368588086462692 0.0063573899092871748 0 0.029803084479521739 0.0069108030615356534 0 0.028873733224108411 0.0065749094133855553 0 0.02929433775209352 0.0068490105568119793 0 0.029368588086462692 0.0063573899092871748 0 0.028299250727831279 0.0071993646643842227 0 0.02910459968892596 0.0074770090241511392 0 0.027645911133816311 0.0089851887490393929 0 0.029166336074249944 0.0089498941490684051 0 0.029107177103090673 0.0084268583879158025 0 0.029368588086462692 0.0063573899092871748 0 0.029803084479521739 0.0069108030615356534 0 0.030272422939595322 0.0066601742881240667 0 0.029538279316809541 0.0070757810910162351 0 0.02929433775209352 0.0068490105568119793 0 0.029803084479521739 0.0069108030615356534 0 0.027953840362951812 0.0078087379136802283 0 0.028492755911973578 0.0081651902649379788 0 0.028887855149129039 0.007745337348592317 0 0.027953840362951812 0.0078087379136802283 0 0.028492755911973578 0.0081651902649379788 0 0.027257485678431333 0.0081661938231713371 0 0.027645911133816311 0.0089851887490393929 0 0.028492755911973578 0.0081651902649379788 0 0.029107177103090673 0.0084268583879158025 0 0.027645911133816311 0.0089851887490393929 0 0.028492755911973578 0.0081651902649379788 0 0.027257485678431333 0.0081661938231713371 0 0.027645911133816311 0.0089851887490393929 0 0.027257485678431333 0.0081661938231713371 0 0.026585326126651564 0.0087823242499990104 0 0.028299250727831279 0.0071993646643842227 0 0.026863604140539597 0.0065908882921545849 0 0.027257485678431333 0.0081661938231713371 0 0.02646027886389124 0.0078709711633488579 0 0.026585326126651564 0.0087823242499990104 0 0.025661157275190347 0.006364815198659955 0 0.026863604140539597 0.0065908882921545849 0 0.023074600719847457 0.0050702626556556876 0 0.023046168604290679 0.0043465360970129418 0 0.023507186072163091 0.0044418944415510961 0 0.026056619604331033 0.0054654911004297143 0 0.027778309500323659 0.0055080118807944202 0 0.027163072366397242 0.0045082010340878895 0 0.026863604140539597 0.0065908882921545849 0 0.025777993562625341 0.0058463102687807073 0 0.027778309500323659 0.0055080118807944202 0 0.028688004290742544 0.0048587143106646139 0 0.027163072366397242 0.0045082010340878895 0 0.023074600719847457 0.0050702626556556876 0 0.023507186072163091 0.0044418944415510961 0 0.023611975517679077 0.0049640435396021551 0 0.023074600719847457 0.0050702626556556876 0 0.023611975517679077 0.0049640435396021551 0 0.023387383135459325 0.0052129135171261843 0 0.023074600719847457 0.0050702626556556876 0 0.023115191014336196 0.0053869572390893433 0 0.023387383135459325 0.0052129135171261843 0 0.023115191014336196 0.0053869572390893433 0 0.023387383135459325 0.0052129135171261843 0 0.023124212376241394 0.0053912683249417379 0 0.025661157275190347 0.006364815198659955 0 0.024978706843214366 0.0061107767635905919 0 0.02646027886389124 0.0078709711633488579 0 0.026005133089569671 0.0072873866003857445 0 0.027017728369312995 0.0074270184207042992 0 0.027953840362951812 0.0078087379136802283 0 0.027257485678431333 0.0081661938231713371 0 0.027017728369312995 0.0074270184207042992 0 0.027257485678431333 0.0081661938231713371 0 0.02646027886389124 0.0078709711633488579 0 0.027017728369312995 0.0074270184207042992 0 0.026005133089569671 0.0072873866003857445 0 0.027017728369312995 0.0074270184207042992 0 0.02613928251261274 0.0068700692372356013 0 0.027017728369312995 0.0074270184207042992 0 0.027301093052166544 0.0070046714122893681 0 0.028227911446947865 0.0073411804786221073 0 0.027953840362951812 0.0078087379136802283 0 0.027017728369312995 0.0074270184207042992 0 0.028227911446947865 0.0073411804786221073 0 0.022413017512624811 0.0062792489298545296 0 0.021709471171017371 0.0060900121564153508 0 0.023167941382725099 0.0053168302320294727 0 0.022413017512624811 0.0062792489298545296 0 0.021709471171017371 0.0060900121564153508 0 0.022149245548107249 0.0067801756642780322 0 0.020529487571117333 0.0069651921262119422 0 0.020736833280735351 0.0066222393888135432 0 0.021257803084478093 0.0067559906146451784 0 0.020736833280735351 0.0066222393888135432 0 0.021257803084478093 0.0067559906146451784 0 0.021188251736542974 0.0063233498527706994 0 0.021415260751329993 0.0071852276474153676 0 0.02086971646755692 0.0072982976350324594 0 0.021709471171017371 0.0060900121564153508 0 0.020529487571117333 0.0069651921262119422 0 0.02086971646755692 0.0072982976350324594 0 0.021257803084478093 0.0067559906146451784 0 0.021386222466840292 0.0068611524518662134 0 0.021702774526730417 0.0064379575822514521 0 0.021415260751329993 0.0071852276474153676 0 0.021709471171017371 0.0060900121564153508 0 0.021783408086502348 0.0068335022868141401 0 0.021805967348848345 0.0071754077656309605 0 0.021415260751329993 0.0071852276474153676 0 0.021783408086502348 0.0068335022868141401 0 0.021805967348848345 0.0071754077656309605 0 0.021783408086502348 0.0068335022868141401 0 0.022149245548107249 0.0067801756642780322 0 0.021709471171017371 0.0060900121564153508 0 0.021783408086502348 0.0068335022868141401 0 0.022149245548107249 0.0067801756642780322 0 0.022067124410984192 0.0071518975760564134 0 0.021805967348848345 0.0071754077656309605 0 0.022149245548107249 0.0067801756642780322 0 0.022067124410984192 0.0071518975760564134 0 0.022149245548107249 0.0067801756642780322 0 0.022467122641644292 0.0068374572359713838 0 0.022413017512624811 0.0062792489298545296 0 0.022149245548107249 0.0067801756642780322 0 0.022467122641644292 0.0068374572359713838 0 0.023507186072163091 0.0044418944415510961 0 0.024571904330847667 0.0046141805625827996 0 0.023611975517679077 0.0049640435396021551 0 0.026056619604331033 0.0054654911004297143 0 0.027163072366397242 0.0045082010340878895 0 0.024571904330847667 0.0046141805625827996 0 0.025777993562625341 0.0058463102687807073 0 0.025438571334918073 0.0056317871512824936 0 0.026056619604331033 0.0054654911004297143 0 0.024385047067559989 0.0047702210743460422 0 0.024571904330847667 0.0046141805625827996 0 0.023611975517679077 0.0049640435396021551 0 0.023846863192626397 0.0050466472821547627 0 0.023387383135459325 0.0052129135171261843 0 0.024571904330847667 0.0046141805625827996 0 0.023611975517679077 0.0049640435396021551 0 0.023846863192626397 0.0050466472821547627 0 0.022413017512624811 0.0062792489298545296 0 0.022467122641644292 0.0068374572359713838 0 0.023167941382725099 0.0053168302320294727 0 0.024385047067559989 0.0047702210743460422 0 0.023846863192626397 0.0050466472821547627 0 0.023167941382725099 0.0053168302320294727 0 0.024385047067559989 0.0047702210743460422 0 0.024571904330847667 0.0046141805625827996 0 0.023846863192626397 0.0050466472821547627 0 0.023596720277017768 0.0054281743453158853 0 0.023389331711240687 0.0050621807709745432 0 0.023846863192626397 0.0050466472821547627 0 0.02337414945201155 0.0051494693254724401 0 0.023167941382725099 0.0053168302320294727 0 0.02337414945201155 0.0051494693254724401 0 0.023192148150788541 0.0049873395815469533 0 0.023167941382725099 0.0053168302320294727 0 0.023846863192626397 0.0050466472821547627 0 0.02337414945201155 0.0051494693254724401 0 0.023387383135459325 0.0052129135171261843 0 0.02337414945201155 0.0051494693254724401 0 0.02287440375625531 0.005326473347522921 0 0.023124212376241394 0.0053912683249417379 0 0.02337414945201155 0.0051494693254724401 0 0.023387383135459325 0.0052129135171261843 0 0.023124212376241394 0.0053912683249417379 0 0.02337414945201155 0.0051494693254724401 0 0.023192148150788541 0.0049873395815469533 0 0.02287440375625531 0.005326473347522921 0 0.021999349385385246 0.0061026640279394188 0 0.022171636704011743 0.0054119073545519231 0 0.02287440375625531 0.005326473347522921 0 0.022283976005214846 0.0057138561621301806 0 0.022543168484750603 0.0053959974224727959 0 0.021831593797631575 0.0057982587583562924 0 0.021999349385385246 0.0061026640279394188 0 0.022171636704011743 0.0054119073545519231 0 0.021613202754015841 0.0056584046819006736 0 0.021831593797631575 0.0057982587583562924 0 0.022171636704011743 0.0054119073545519231 0 0.021613202754015841 0.0056584046819006736 0 0.021537223580743402 0.0053239891614523631 0 0.022171636704011743 0.0054119073545519231 0 0.021831593797631575 0.0057982587583562924 0 0.021999349385385246 0.0061026640279394188 0 0.02154644787931391 0.0060148565081353557 0 0.021613202754015841 0.0056584046819006736 0 0.021831593797631575 0.0057982587583562924 0 0.02154644787931391 0.0060148565081353557 0 0.021702774526730417 0.0064379575822514521 0 0.022283976005214846 0.0057138561621301806 0 0.021999349385385246 0.0061026640279394188 0 0.02154644787931391 0.0060148565081353557 0 0.021188251736542974 0.0063233498527706994 0 0.021257803084478093 0.0067559906146451784 0 0.021999349385385246 0.0061026640279394188 0 0.021188251736542974 0.0063233498527706994 0 0.021709471171017371 0.0060900121564153508 0 0.023192148150788541 0.0049873395815469533 0 0.023167941382725099 0.0053168302320294727 0 0.020522978041998853 0.0063016400919146424 0 0.021188251736542974 0.0063233498527706994 0 0.021028329265746385 0.0060520082170572457 0 0.020522978041998853 0.0063016400919146424 0 0.020736833280735351 0.0066222393888135432 0 0.021188251736542974 0.0063233498527706994 0 0.02154644787931391 0.0060148565081353557 0 0.021188251736542974 0.0063233498527706994 0 0.021028329265746385 0.0060520082170572457 0 0.02154644787931391 0.0060148565081353557 0 0.021028329265746385 0.0060520082170572457 0 0.021279905561923749 0.0058144194981871785 0 0.020539453384456372 0.0059806247964466945 0 0.021028329265746385 0.0060520082170572457 0 0.02086473667821849 0.005729819929910401 0 0.021028329265746385 0.0060520082170572457 0 0.02086473667821849 0.005729819929910401 0 0.021279905561923749 0.0058144194981871785 0 0.02086473667821849 0.005729819929910401 0 0.021279905561923749 0.0058144194981871785 0 0.021219803013387085 0.0055588329195664079 0 0.021613202754015841 0.0056584046819006736 0 0.02154644787931391 0.0060148565081353557 0 0.021279905561923749 0.0058144194981871785 0 0.021613202754015841 0.0056584046819006736 0 0.021219803013387085 0.0055588329195664079 0 0.021537223580743402 0.0053239891614523631 0 0.021613202754015841 0.0056584046819006736 0 0.021279905561923749 0.0058144194981871785 0 0.021219803013387085 0.0055588329195664079 0 0.020828669163482118 0.0054661192406936666 0 0.02086473667821849 0.005729819929910401 0 0.021219803013387085 0.0055588329195664079 0 0.020828669163482118 0.0054661192406936666 0 0.021219803013387085 0.0055588329195664079 0 0.021092727106510424 0.0052685762286994254 0 0.021092727106510424 0.0052685762286994254 0 0.020992150040567824 0.0050161472054907055 0 0.020648922845253007 0.0052184371885772825 0 0.021092727106510424 0.0052685762286994254 0 0.021330264578045686 0.00506947175068778 0 0.020992150040567824 0.0050161472054907055 0 0.021092727106510424 0.0052685762286994254 0 0.021537223580743402 0.0053239891614523631 0 0.021330264578045686 0.00506947175068778 0 0.021219803013387085 0.0055588329195664079 0 0.021092727106510424 0.0052685762286994254 0 0.021537223580743402 0.0053239891614523631 0 0.021330264578045686 0.00506947175068778 0 0.021210901173441911 0.00472542221186565 0 0.021758016922005081 0.0050120682150815157 0 0.021537223580743402 0.0053239891614523631 0 0.021330264578045686 0.00506947175068778 0 0.021758016922005081 0.0050120682150815157 0 0.021330264578045686 0.00506947175068778 0 0.020992150040567824 0.0050161472054907055 0 0.021210901173441911 0.00472542221186565 0 0.021210901173441911 0.00472542221186565 0 0.021826938192253235 0.0045649379644903208 0 0.021170146986314635 0.0043845168893661152 0 0.021210901173441911 0.00472542221186565 0 0.021758016922005081 0.0050120682150815157 0 0.021826938192253235 0.0045649379644903208 0 0.021758016922005081 0.0050120682150815157 0 0.022349185451902769 0.0050245636524070365 0 0.021826938192253235 0.0045649379644903208 0 0.022349185451902769 0.0050245636524070365 0 0.022292340474633496 0.004900283269927622 0 0.021826938192253235 0.0045649379644903208 0 0.021758016922005081 0.0050120682150815157 0 0.022171636704011743 0.0054119073545519231 0 0.022349185451902769 0.0050245636524070365 0 0.021537223580743402 0.0053239891614523631 0 0.021758016922005081 0.0050120682150815157 0 0.022171636704011743 0.0054119073545519231 0 0.022171636704011743 0.0054119073545519231 0 0.02287440375625531 0.005326473347522921 0 0.022349185451902769 0.0050245636524070365 0 0.02287440375625531 0.005326473347522921 0 0.023124212376241394 0.0053912683249417379 0 0.022859881920298513 0.0053251787743676914 0 0.02287440375625531 0.005326473347522921 0 0.022859881920298513 0.0053251787743676914 0 0.022349185451902769 0.0050245636524070365 0 0.022859881920298513 0.0053251787743676914 0 0.022349185451902769 0.0050245636524070365 0 0.022292340474633496 0.004900283269927622 0 0.022292340474633496 0.004900283269927622 0 0.022391113469449445 0.0050273613950541302 0 0.02200494717919858 0.0046403297417732699 0 0.022859881920298513 0.0053251787743676914 0 0.022292340474633496 0.004900283269927622 0 0.022391113469449445 0.0050273613950541302 0 0.022859881920298513 0.0053251787743676914 0 0.022391113469449445 0.0050273613950541302 0 0.022572994203109712 0.0052110758655597141 0 0.022391113469449445 0.0050273613950541302 0 0.022572994203109712 0.0052110758655597141 0 0.022080449188519577 0.0049199039158535256 0 0.022391113469449445 0.0050273613950541302 0 0.02200494717919858 0.0046403297417732699 0 0.022080449188519577 0.0049199039158535256 0 0.02200494717919858 0.0046403297417732699 0 0.022099555417234188 0.004795441884586079 0 0.022080449188519577 0.0049199039158535256 0 0.02200494717919858 0.0046403297417732699 0 0.022004402867863541 0.0045836265211524566 0 0.022099555417234188 0.004795441884586079 0 0.02200494717919858 0.0046403297417732699 0 0.022004402867863541 0.0045836265211524566 0 0.021582602070644268 0.004160689168361713 0 0.021826938192253235 0.0045649379644903208 0 0.021582602070644268 0.004160689168361713 0 0.021170146986314635 0.0043845168893661152 0 0.02200494717919858 0.0046403297417732699 0 0.021826938192253235 0.0045649379644903208 0 0.021582602070644268 0.004160689168361713 0 0.022292340474633496 0.004900283269927622 0 0.02200494717919858 0.0046403297417732699 0 0.021826938192253235 0.0045649379644903208 0 0.026935841057323211 0.0066686329497363068 0 0.02613928251261274 0.0068700692372356013 0 0.025626159950754571 0.0063990048057268999 0 0.026935841057323211 0.0066686329497363068 0 0.027301093052166544 0.0070046714122893681 0 0.02613928251261274 0.0068700692372356013 0 0.027017728369312995 0.0074270184207042992 0 0.027301093052166544 0.0070046714122893681 0 0.02613928251261274 0.0068700692372356013 0 0.02613928251261274 0.0068700692372356013 0 0.025085685038118248 0.0067985161957029002 0 0.025626159950754571 0.0063990048057268999 0 0.024552966126411942 0.0057757621680756266 0 0.024376729428574426 0.0055427270752679333 0 0.026005133089569671 0.0072873866003857445 0 0.02613928251261274 0.0068700692372356013 0 0.025085685038118248 0.0067985161957029002 0 0.024978706843214366 0.0061107767635905919 0 0.024552966126411942 0.0057757621680756266 0 0.023115191014336196 0.0053869572390893433 0 0.023124212376241394 0.0053912683249417379 0 0.023204540017902835 0.0054765073054137883 0 0.022859881920298513 0.0053251787743676914 0 0.023204540017902835 0.0054765073054137883 0 0.023596064311612285 0.0057231946591262571 0 0.023124212376241394 0.0053912683249417379 0 0.022859881920298513 0.0053251787743676914 0 0.023204540017902835 0.0054765073054137883 0 0.022859881920298513 0.0053251787743676914 0 0.022572994203109712 0.0052110758655597141 0 0.023596064311612285 0.0057231946591262571 0 0.022572994203109712 0.0052110758655597141 0 0.023596064311612285 0.0057231946591262571 0 0.023207351862958005 0.0053741405283280535 0 0.023596064311612285 0.0057231946591262571 0 0.024953755823908848 0.0058066942622947253 0 0.023207351862958005 0.0053741405283280535 0 0.025085685038118248 0.0067985161957029002 0 0.023596064311612285 0.0057231946591262571 0 0.025626159950754571 0.0063990048057268999 0 0.023596064311612285 0.0057231946591262571 0 0.025626159950754571 0.0063990048057268999 0 0.024953755823908848 0.0058066942622947253 0 0.024953755823908848 0.0058066942622947253 0 0.02396868187491109 0.0054002788693418326 0 0.023207351862958005 0.0053741405283280535 0 0.024953755823908848 0.0058066942622947253 0 0.025657266346996398 0.0056958681962275418 0 0.02469321319953055 0.0054399776261645355 0 0.024953755823908848 0.0058066942622947253 0 0.025657266346996398 0.0056958681962275418 0 0.026286322688077009 0.0062691085105112043 0 0.025626159950754571 0.0063990048057268999 0 0.024953755823908848 0.0058066942622947253 0 0.026286322688077009 0.0062691085105112043 0 0.026935841057323211 0.0066686329497363068 0 0.025626159950754571 0.0063990048057268999 0 0.026286322688077009 0.0062691085105112043 0 0.025014312654954442 0.0047709963550233965 0 0.024952905864686004 0.0051991987794501402 0 0.024576574338668413 0.0043033340051662717 0 0.02193534386772323 0.006637284985244611 0 0.021182650601133331 0.0080092314715894484 0 0.025014312654954442 0.0047709963550233965 0 0.024952905864686004 0.0051991987794501402 0 0.025526999554848065 0.0052659375183669527 0 0.025657266346996398 0.0056958681962275418 0 0.024952905864686004 0.0051991987794501402 0 0.025526999554848065 0.0052659375183669527 0 0.025657266346996398 0.0056958681962275418 0 0.02469321319953055 0.0054399776261645355 0 0.024952905864686004 0.0051991987794501402 0 0.024953755823908848 0.0058066942622947253 0 0.02469321319953055 0.0054399776261645355 0 0.02396868187491109 0.0054002788693418326 0 0.02469321319953055 0.0054399776261645355 0 0.024952905864686004 0.0051991987794501402 0 0.023652418175523972 0.0051745824824921526 0 0.02469321319953055 0.0054399776261645355 0 0.02396868187491109 0.0054002788693418326 0 0.023652418175523972 0.0051745824824921526 0 0.024952905864686004 0.0051991987794501402 0 0.023652418175523972 0.0051745824824921526 0 0.023615541372638989 0.0047286332736071676 0 0.02396868187491109 0.0054002788693418326 0 0.023652418175523972 0.0051745824824921526 0 0.022679868646807894 0.0052271970741126 0 0.023652418175523972 0.0051745824824921526 0 0.022679868646807894 0.0052271970741126 0 0.022162407726069356 0.0051588176523718445 0 0.02396868187491109 0.0054002788693418326 0 0.022679868646807894 0.0052271970741126 0 0.023207351862958005 0.0053741405283280535 0 0.022572994203109712 0.0052110758655597141 0 0.023207351862958005 0.0053741405283280535 0 0.022088036484411211 0.0051733776947094695 0 0.022679868646807894 0.0052271970741126 0 0.023207351862958005 0.0053741405283280535 0 0.022088036484411211 0.0051733776947094695 0 0.022679868646807894 0.0052271970741126 0 0.022088036484411211 0.0051733776947094695 0 0.021338948455386704 0.0052835358466810419 0 0.022679868646807894 0.0052271970741126 0 0.022162407726069356 0.0051588176523718445 0 0.021338948455386704 0.0052835358466810419 0 0.019866198552610223 0.0055206009775162004 0 0.022162407726069356 0.0051588176523718445 0 0.021338948455386704 0.0052835358466810419 0 0.019482624949822013 0.00779422477674076 0 0.018887281510118016 0.008663055887676378 0 0.019866198552610223 0.0055206009775162004 0 0.022162407726069356 0.0051588176523718445 0 0.022273301527597954 0.0040219370982578018 0 0.023652418175523972 0.0051745824824921526 0 0.022162407726069356 0.0051588176523718445 0 0.023615541372638989 0.0047286332736071676 0 0.021182650601133331 0.0080092314715894484 0 0.018887281510118016 0.008663055887676378 0 0.020302254822963405 0.0087880603229747133 0 0.019967223564804619 0.0078764706988696843 0 0.019626376978968057 0.007974346463637946 0 0.021182650601133331 0.0080092314715894484 0 0.018238555769364534 0.0099419385901642864 0 0.022313116693141951 0.010867814529285693 0 0.022163944876956616 0.011206149114185052 0 0.022467053511271748 0.011395163513858485 0 0.022162407726069356 0.0051588176523718445 0 0.023615541372638989 0.0047286332736071676 0 0.022273301527597954 0.0040219370982578018 0 0.022163944876956616 0.011206149114185052 0 0.021849055358709579 0.011009918746664514 0 0.021996687280803874 0.011566299399063644 0 0.022313116693141951 0.010867814529285693 0 0.022163944876956616 0.011206149114185052 0 0.021849055358709579 0.011009918746664514 0 0.022086114286725907 0.010550198104539294 0 0.022313116693141951 0.010867814529285693 0 0.021849055358709579 0.011009918746664514 0 0.022842023788997384 0.007788176988217513 0 0.021182650601133331 0.0080092314715894484 0 0.022181126354522934 0.0051095830884160948 0 0.022942744236034106 0.0056382524666863006 0 0.022514308478469719 0.0049705602036338318 0 0.022004402867863541 0.0045836265211524566 0 0.022099555417234188 0.004795441884586079 0 0.022514308478469719 0.0049705602036338318 0 0.022181126354522934 0.0051095830884160948 0 0.022099555417234188 0.004795441884586079 0 0.022514308478469719 0.0049705602036338318 0 0.022181126354522934 0.0051095830884160948 0 0.022099555417234188 0.004795441884586079 0 0.022080449188519577 0.0049199039158535256 0 0.022572994203109712 0.0052110758655597141 0 0.022088036484411211 0.0051733776947094695 0 0.022080449188519577 0.0049199039158535256 0 0.022088036484411211 0.0051733776947094695 0 0.022080449188519577 0.0049199039158535256 0 0.021815856975136966 0.0051341826666196633 0 0.022088036484411211 0.0051733776947094695 0 0.021815856975136966 0.0051341826666196633 0 0.021338948455386704 0.0052835358466810419 0 0.022181126354522934 0.0051095830884160948 0 0.021815856975136966 0.0051341826666196633 0 0.021648011099974572 0.0054789413305367275 0 0.022181126354522934 0.0051095830884160948 0 0.022080449188519577 0.0049199039158535256 0 0.021815856975136966 0.0051341826666196633 0 0.021815856975136966 0.0051341826666196633 0 0.021648011099974572 0.0054789413305367275 0 0.021338948455386704 0.0052835358466810419 0 0.021648011099974572 0.0054789413305367275 0 0.021338948455386704 0.0052835358466810419 0 0.020933656080766239 0.0057770346220344122 0 0.019866198552610223 0.0055206009775162004 0 0.021338948455386704 0.0052835358466810419 0 0.020933656080766239 0.0057770346220344122 0 0.019866198552610223 0.0055206009775162004 0 0.020933656080766239 0.0057770346220344122 0 0.020432035963900221 0.0071896663799259491 0 0.021648011099974572 0.0054789413305367275 0 0.021508582445165035 0.0067241152132751988 0 0.022485206656848576 0.0061842399450933267 0 0.020933656080766239 0.0057770346220344122 0 0.021508582445165035 0.0067241152132751988 0 0.020432035963900221 0.0071896663799259491 0 0.021648011099974572 0.0054789413305367275 0 0.020933656080766239 0.0057770346220344122 0 0.021508582445165035 0.0067241152132751988 0 0.021508582445165035 0.0067241152132751988 0 0.022287601768408685 0.007149913636342986 0 0.022485206656848576 0.0061842399450933267 0 0.022287601768408685 0.007149913636342986 0 0.022485206656848576 0.0061842399450933267 0 0.023080523149984683 0.0070973402217501267 0 0.022181126354522934 0.0051095830884160948 0 0.021648011099974572 0.0054789413305367275 0 0.022485206656848576 0.0061842399450933267 0 0.022181126354522934 0.0051095830884160948 0 0.022485206656848576 0.0061842399450933267 0 0.022942744236034106 0.0056382524666863006 0 0.019999019817963929 0.0085930586743059052 0 0.021411905472330926 0.0096870505898486899 0 0.022485206656848576 0.0061842399450933267 0 0.022942744236034106 0.0056382524666863006 0 0.023327189332870868 0.0070398750648147206 0 0.022485206656848576 0.0061842399450933267 0 0.023080523149984683 0.0070973402217501267 0 0.023327189332870868 0.0070398750648147206 0 0.016207306674724555 0.010855586007053141 0 0.016144528703877694 0.010804267794837652 0 0.016286975538868938 0.010721945346594064 0 0.016144528703877694 0.010804267794837652 0 0.016167707959708365 0.01072849820711517 0 0.016286975538868938 0.010721945346594064 0 0.016144528703877694 0.010804267794837652 0 0.01606256392941072 0.01074940573867878 0 0.016167707959708365 0.01072849820711517 0 0.016144528703877694 0.010804267794837652 0 0.016047061210760317 0.010847478731258294 0 0.01606256392941072 0.01074940573867878 0 0.016047061210760317 0.010847478731258294 0 0.016083871730205774 0.010893354316097004 0 0.015993479685763198 0.010910912312046921 0 0.016144528703877694 0.010804267794837652 0 0.016047061210760317 0.010847478731258294 0 0.016083871730205774 0.010893354316097004 0 0.016207306674724555 0.010855586007053141 0 0.016144528703877694 0.010804267794837652 0 0.016083871730205774 0.010893354316097004 0 0.016083871730205774 0.010893354316097004 0 0.015957895447178173 0.011005097092081416 0 0.016149781799897688 0.010979539246841674 0 0.016207306674724555 0.010855586007053141 0 0.016083871730205774 0.010893354316097004 0 0.016149781799897688 0.010979539246841674 0 0.019999019817963929 0.0085930586743059052 0 0.018875598532430118 0.007564942519319935 0 0.015957895447178173 0.011005097092081416 0 0.015672899412554488 0.010825362789632226 0 0.015699187826988856 0.01050409321002402 0 0.013896661827313415 0.012443290030709439 0 0.013650116800049093 0.013160027992054197 0 0.016083871730205774 0.010893354316097004 0 0.015957895447178173 0.011005097092081416 0 0.015993479685763198 0.010910912312046921 0 0.015957895447178173 0.011005097092081416 0 0.015637996154217012 0.011119045889147326 0 0.016099493373002441 0.011312476630199826 0 0.018875598532430118 0.007564942519319935 0 0.0178136477585519 0.0051070172700520824 0 0.015957895447178173 0.011005097092081416 0 0.016149781799897688 0.010979539246841674 0 0.016099493373002441 0.011312476630199826 0 0.014861320564977205 0.0058461136139690501 0 0.011508982057693328 0.0084641621943999847 0 0.013424638688819284 -0.0035278301628680329 0 0.016829662409671181 -0.003714855574127515 0 0.013497811962060128 -0.0060565674656014781 0 0.015637996154217012 0.011119045889147326 0 0.015390947251224302 0.010659254390848541 0 0.015672899412554488 0.010825362789632226 0 0.015957895447178173 0.011005097092081416 0 0.015637996154217012 0.011119045889147326 0 0.015672899412554488 0.010825362789632226 0 0.015637996154217012 0.011119045889147326 0 0.015390947251224302 0.010659254390848541 0 0.014973327969455011 0.010723056230876223 0 0.015390947251224302 0.010659254390848541 0 0.015672899412554488 0.010825362789632226 0 0.015699187826988856 0.01050409321002402 0 0.015390947251224302 0.010659254390848541 0 0.015699187826988856 0.01050409321002402 0 0.015238574615196005 0.010259097428369465 0 0.015390947251224302 0.010659254390848541 0 0.014973327969455011 0.010723056230876223 0 0.015238574615196005 0.010259097428369465 0 0.011508982057693328 0.0084641621943999847 0 0.012138153134437047 0.0087164594966162093 0 0.014659089465228124 0.011126220012761912 0 0.014901424936031703 0.010264424480641101 0 0.014228046126067578 0.010818493648544855 0 0.010164861937932311 0.015239461639039066 0 0.0093199905544090779 0.011452507669738163 0 0.014659089465228124 0.011126220012761912 0 0.014901424936031703 0.010264424480641101 0 0.015238574615196005 0.010259097428369465 0 0.00076681289496797664 0.023783744954718952 0 0.0034707348576284987 0.023389718853839461 0 0.004709073198151433 0.020013973252762583 0 0.014901424936031703 0.010264424480641101 0 0.015238574615196005 0.010259097428369465 0 0.015433199907025167 0.0098950691438739313 0 0.00076681289496797664 0.023783744954718952 0 -0.0029812701440981855 0.027344587109114426 0 0.00086162961798178991 0.027540027202030366 0 0.010164861937932311 0.015239461639039066 0 0.01341671158125602 0.016929099798964359 0 0.00076681289496797664 0.023783744954718952 0 0.0025672068888348493 0.026018718394947557 0 0.0034707348576284987 0.023389718853839461 0 0.00076681289496797664 0.023783744954718952 0 0.0025672068888348493 0.026018718394947557 0 0.00086162961798178991 0.027540027202030366 0 0.016047061210760317 0.010847478731258294 0 0.015993479685763198 0.010910912312046921 0 0.015965962751751047 0.010839400662055732 0 0.015699187826988856 0.01050409321002402 0 0.015238574615196005 0.010259097428369465 0 0.015433199907025167 0.0098950691438739313 0 0.013650116800049093 0.013160027992054197 0 0.01341671158125602 0.016929099798964359 0 0.01341671158125602 0.016929099798964359 0 0.019348889629252141 0.014244326981593652 0 0.014000290959050192 0.018030876882258681 0 0.013677544115424222 0.017355816577833319 0 0.014741322785576463 0.017372716762606169 0 0.016047061210760317 0.010847478731258294 0 0.015965962751751047 0.010839400662055732 0 0.01606256392941072 0.01074940573867878 0 0.01341671158125602 0.016929099798964359 0 0.01303947808419334 0.020157105765792448 0 0.0025059345397210361 0.028001288452677828 0 0.00086162961798178991 0.027540027202030366 0 0.0020882663508210689 0.02972261539385641 0 0.0025672068888348493 0.026018718394947557 0 0.0025059345397210361 0.028001288452677828 0 0.0039113156929457072 0.027468085200755579 0 0.0025672068888348493 0.026018718394947557 0 0.0025059345397210361 0.028001288452677828 0 0.00086162961798178991 0.027540027202030366 0 -0.0029812701440981855 0.027344587109114426 0 0.00086162961798178991 0.027540027202030366 0 0.0001401863776392198 0.029451984232185195 0 0.0001401863776392198 0.029451984232185195 0 0.0012388811579757948 0.030696915443625822 0 -0.00079822792110222508 0.031874841688590401 0 -0.0029812701440981855 0.027344587109114426 0 0.0001401863776392198 0.029451984232185195 0 -0.00079822792110222508 0.031874841688590401 0 0.0012388811579757948 0.030696915443625822 0 0.0027502321373055662 0.030779059464410796 0 0.0017450069688978965 0.031925668033805261 0 0.00086162961798178991 0.027540027202030366 0 0.0001401863776392198 0.029451984232185195 0 0.0020882663508210689 0.02972261539385641 0 0.0001401863776392198 0.029451984232185195 0 0.0012388811579757948 0.030696915443625822 0 0.0020882663508210689 0.02972261539385641 0 0.0025059345397210361 0.028001288452677828 0 0.0020882663508210689 0.02972261539385641 0 0.0031416256477675738 0.029203487822536137 0 0.0020882663508210689 0.02972261539385641 0 0.0029655538617598736 0.03009923682805199 0 0.0031416256477675738 0.029203487822536137 0 0.0020882663508210689 0.02972261539385641 0 0.0029655538617598736 0.03009923682805199 0 0.0027502321373055662 0.030779059464410796 0 0.0012388811579757948 0.030696915443625822 0 0.0020882663508210689 0.02972261539385641 0 0.0027502321373055662 0.030779059464410796 0 0.0038732739048762971 0.030666246806909041 0 0.0031416256477675738 0.029203487822536137 0 0.0039113156929457072 0.027468085200755579 0 0.0038732739048762971 0.030666246806909041 0 0.0051549913835121607 0.030389247061039772 0 0.0047152539127358209 0.028620379247730306 0 0.0038732739048762971 0.030666246806909041 0 0.0039113156929457072 0.027468085200755579 0 0.0061582722219060476 0.025341182014333927 0 0.0025569522079228581 0.025160483609281768 0 0.0028786672494119352 0.023176482007582874 0 0.0027502321373055662 0.030779059464410796 0 0.0038732739048762971 0.030666246806909041 0 0.0037383520961955575 0.031772490708667507 0 0.0029655538617598736 0.03009923682805199 0 0.0027502321373055662 0.030779059464410796 0 0.0038732739048762971 0.030666246806909041 0 0.0029655538617598736 0.03009923682805199 0 0.0038732739048762971 0.030666246806909041 0 0.0031416256477675738 0.029203487822536137 0 0.0025059345397210361 0.028001288452677828 0 0.0031416256477675738 0.029203487822536137 0 0.0039113156929457072 0.027468085200755579 0 0.0051549913835121607 0.030389247061039772 0 0.0064785309826046024 0.029763930923031003 0 0.0047152539127358209 0.028620379247730306 0 0.0038732739048762971 0.030666246806909041 0 0.0051549913835121607 0.030389247061039772 0 0.0047406093409865981 0.031378355896158165 0 0.0051549913835121607 0.030389247061039772 0 0.005919576459361503 0.031530123040835849 0 0.0047406093409865981 0.031378355896158165 0 0.0064785309826046024 0.029763930923031003 0 0.0090555325212111522 0.028775499966688503 0 0.0074763447653168743 0.031378060586225116 0 0.0064785309826046024 0.029763930923031003 0 0.0074763447653168743 0.031378060586225116 0 0.005919576459361503 0.031530123040835849 0 0.0051549913835121607 0.030389247061039772 0 0.0064785309826046024 0.029763930923031003 0 0.005919576459361503 0.031530123040835849 0 0.0066210459663823256 0.027945649066741293 0 0.0090555325212111522 0.028775499966688503 0 0.0065571331627714306 0.025624687317743082 0 0.0064785309826046024 0.029763930923031003 0 0.0066210459663823256 0.027945649066741293 0 0.0090555325212111522 0.028775499966688503 0 0.0066210459663823256 0.027945649066741293 0 0.0047152539127358209 0.028620379247730306 0 0.0055730224185898151 0.026317555653922853 0 0.0064785309826046024 0.029763930923031003 0 0.0066210459663823256 0.027945649066741293 0 0.0047152539127358209 0.028620379247730306 0 0.0028786672494119352 0.023176482007582874 0 0.0034251268719568801 0.017947511359116659 0 0.0034707348576284987 0.023389718853839461 0 0.0061582722219060476 0.025341182014333927 0 0.008170499700147155 0.020117899997785436 0 0.0033664880300259938 0.018651451652115906 0 0.0034251268719568801 0.017947511359116659 0 0.0025672068888348493 0.026018718394947557 0 0.0034707348576284987 0.023389718853839461 0 0.0041132796408374596 0.025506786920382732 0 0.0034707348576284987 0.023389718853839461 0 0.0041132796408374596 0.025506786920382732 0 0.0061582722219060476 0.025341182014333927 0 0.0025672068888348493 0.026018718394947557 0 0.0039113156929457072 0.027468085200755579 0 0.0041132796408374596 0.025506786920382732 0 0.0039113156929457072 0.027468085200755579 0 0.0041132796408374596 0.025506786920382732 0 0.0061582722219060476 0.025341182014333927 0 -0.012835687774773693 0.018145815338592827 0 -0.013866632607658913 0.018276012293061864 0 -0.013866796029942893 0.01705843159638985 0 0.0090555325212111522 0.028775499966688503 0 0.0092707045602608094 0.032779627424879866 0 0.011565588598149264 0.031983999118471641 0 -0.013866632607658913 0.018276012293061864 0 -0.013866796029942893 0.01705843159638985 0 -0.014398432475500154 0.01771753792120391 0 -0.0013814745972345369 0.024036421364685451 0 -0.0037735508031672381 0.033911882052629461 0 0.0090555325212111522 0.028775499966688503 0 0.0092707045602608094 0.032779627424879866 0 0.0074763447653168743 0.031378060586225116 0 -0.0013814745972345369 0.024036421364685451 0 0.0032500989606699393 0.016874716277599951 0 -0.013866632607658913 0.018276012293061864 0 -0.013542485358094632 0.019188936101694528 0 -0.014290763515048611 0.019171910929237056 0 -0.012835687774773693 0.018145815338592827 0 -0.013866632607658913 0.018276012293061864 0 -0.013542485358094632 0.019188936101694528 0 -0.013542485358094632 0.019188936101694528 0 -0.013984840245189875 0.019987471935432124 0 -0.014290763515048611 0.019171910929237056 0 -0.013542485358094632 0.019188936101694528 0 -0.013345819374370517 0.019764578617296982 0 -0.01272230347610499 0.019497139574146113 0 -0.013542485358094632 0.019188936101694528 0 -0.013345819374370517 0.019764578617296982 0 -0.013984840245189875 0.019987471935432124 0 -0.012835687774773693 0.018145815338592827 0 -0.01272230347610499 0.019497139574146113 0 -0.011627912193456344 0.019410630412548095 0 -0.012835687774773693 0.018145815338592827 0 -0.013542485358094632 0.019188936101694528 0 -0.01272230347610499 0.019497139574146113 0 -0.01272230347610499 0.019497139574146113 0 -0.013139610400123231 0.020403135725813176 0 -0.011627912193456344 0.019410630412548095 0 0.0048685400267521883 0.0051019425810569776 0 0.0048024603238491486 0.0052480947265476927 0 0.0049365638310500011 0.005154372049582987 0 0.0051543070247545729 0.011650307150517025 0 0.0064081423168335051 0.008831304273709777 0 -0.002153365515619256 0.015131253605651719 0 0.0032500989606699393 0.016874716277599951 0 -0.013345819374370517 0.019764578617296982 0 -0.01272230347610499 0.019497139574146113 0 -0.013139610400123231 0.020403135725813176 0 -0.013139610400123231 0.020403135725813176 0 -0.013984840245189875 0.019987471935432124 0 -0.014842966939888595 0.021371753949970842 0 -0.013345819374370517 0.019764578617296982 0 -0.013139610400123231 0.020403135725813176 0 -0.013984840245189875 0.019987471935432124 0 0.0093199905544090779 0.011452507669738163 0 0.0046316273742379767 0.013240476259036182 0 0.0052931843250635553 0.0062398671822888295 0 0.005438447265248351 0.0060654950720976228 0 0.0053282102632014345 0.006048928357675348 0 0.004709073198151433 0.020013973252762583 0 0.0082173028788077342 0.020002505287337644 0 0.0087506844036818344 0.01626274336997088 0 0.0051843164505009616 0.0061476770990343075 0 0.0052931843250635553 0.0062398671822888295 0 0.0053282102632014345 0.006048928357675348 0 0.0034707348576284987 0.023389718853839461 0 0.004709073198151433 0.020013973252762583 0 0.0082173028788077342 0.020002505287337644 0 0.011508982057693328 0.0084641621943999847 0 0.0093199905544090779 0.011452507669738163 0 0.0066210459663823256 0.027945649066741293 0 0.0055730224185898151 0.026317555653922853 0 0.0065571331627714306 0.025624687317743082 0 0.0034251268719568801 0.017947511359116659 0 0.0032500989606699393 0.016874716277599951 0 0.0082173028788077342 0.020002505287337644 0 0.0093651489164639987 0.017018476301644096 0 0.0087506844036818344 0.01626274336997088 0 0.004807452230844291 0.0053509223557354647 0 0.0047804910147824014 0.0053146209891766901 0 0.0048024603238491486 0.0052480947265476927 0 0.0034251268719568801 0.017947511359116659 0 0.0041295138404493599 0.01432124257696182 0 0.0061579780278807139 0.016237417205482281 0 0.0036049537822292004 0.017981124607172438 0 0.0048579351234163751 0.019515559816398104 0 0.0032500989606699393 0.016874716277599951 0 0.0041295138404493599 0.01432124257696182 0 0.0041295138404493599 0.01432124257696182 0 0.0046316273742379767 0.013240476259036182 0 0.0051543070247545729 0.011650307150517025 0 0.0059246026236439899 0.0074158720531452777 0 0.0054144130683439458 0.0060359601656288621 0 0.0054544758632190105 0.0059799748429038291 0 0.0053926789915426845 0.0060052784125092648 0 0.0054544758632190105 0.0059799748429038291 0 0.0053970124062415687 0.0058840232608221169 0 0.0053926789915426845 0.0060052784125092648 0 0.0046316273742379767 0.013240476259036182 0 0.0045709538906831028 0.013109192266055981 0 0.0048685400267521883 0.0051019425810569776 0 0.004807452230844291 0.0053509223557354647 0 0.0048024603238491486 0.0052480947265476927 0 0.0054544758632190105 0.0059799748429038291 0 0.0053970124062415687 0.0058840232608221169 0 0.0053974439484594221 0.0057781296819627371 0 0.003592469600928452 0.010598180533241191 0 0.0046537429778605545 0.01189898604032834 0 0.0022065308333108977 0.014104760891356418 0 0.0041295138404493599 0.01432124257696182 0 0.0051543070247545729 0.011650307150517025 0 0.0046316273742379767 0.013240476259036182 0 0.0051543070247545729 0.011650307150517025 0 0.011508982057693328 0.0084641621943999847 0 0.010228688663202331 0.0040031090842378558 0 0.0053282102632014345 0.006048928357675348 0 0.0053926789915426845 0.0060052784125092648 0 0.0053447818875622579 0.005800858756169547 0 0.0051843164505009616 0.0061476770990343075 0 0.0053282102632014345 0.006048928357675348 0 0.0053447818875622579 0.005800858756169547 0 0.013424638688819284 -0.0035278301628680329 0 0.013497811962060128 -0.0060565674656014781 0 0.011304476104667832 -0.0027042490002556138 0 0.0053970124062415687 0.0058840232608221169 0 0.0053926789915426845 0.0060052784125092648 0 0.0053447818875622579 0.005800858756169547 0 0.005438447265248351 0.0060654950720976228 0 0.0053282102632014345 0.006048928357675348 0 0.0053926789915426845 0.0060052784125092648 0 0.012706400476913494 -0.0015897041309552978 0 0.011304476104667832 -0.0027042490002556138 0 0.011544448029750562 -0.00011551390258849265 0 0.013424638688819284 -0.0035278301628680329 0 0.012706400476913494 -0.0015897041309552978 0 0.011304476104667832 -0.0027042490002556138 0 0.0053974439484594221 0.0057781296819627371 0 0.0054313551609314979 0.0057058541731171992 0 0.0053858613179400706 0.0056507063187790692 0 0.0053970124062415687 0.0058840232608221169 0 0.0053447818875622579 0.005800858756169547 0 0.0053974439484594221 0.0057781296819627371 0 0.0053447818875622579 0.005800858756169547 0 0.0053974439484594221 0.0057781296819627371 0 0.0053858613179400706 0.0056507063187790692 0 0.0054544758632190105 0.0059799748429038291 0 0.0053974439484594221 0.0057781296819627371 0 0.0054313551609314979 0.0057058541731171992 0 0.010228688663202331 0.0040031090842378558 0 0.0083527223419470123 0.004091634761419982 0 0.0091659825965767737 0.00066395583404119237 0 0.011544448029750562 -0.00011551390258849265 0 0.010648531224772963 0.0015757955117156337 0 0.011304476104667832 -0.0027042490002556138 0 0.0091659825965767737 0.00066395583404119237 0 0.011544448029750562 -0.00011551390258849265 0 0.011544448029750562 -0.00011551390258849265 0 0.012232188615278522 0.0016293500933702181 0 0.010648531224772963 0.0015757955117156337 0 0.011544448029750562 -0.00011551390258849265 0 0.012232188615278522 0.0016293500933702181 0 0.013685128743352972 0.00013676818952809231 0 0.012706400476913494 -0.0015897041309552978 0 0.011544448029750562 -0.00011551390258849265 0 0.013685128743352972 0.00013676818952809231 0 0.0049365638310500011 0.005154372049582987 0 0.0047133212429281597 0.0053819793853524282 0 0.0042309178506705312 0.0049794668773883452 0 -0.002153365515619256 0.015131253605651719 0 -0.0046923792057986203 0.014223810496379675 0 0.0048685400267521883 0.0051019425810569776 0 0.0049365638310500011 0.005154372049582987 0 0.0042309178506705312 0.0049794668773883452 0 0.0052811382792283803 0.0049787162543693574 0 0.005154076926494059 0.0052138155466726283 0 0.0049365638310500011 0.005154372049582987 0 0.005154076926494059 0.0052138155466726283 0 0.0049365638310500011 0.005154372049582987 0 0.0050030935236668227 0.0053657527506927698 0 0.0059246026236439899 0.0074158720531452777 0 0.0059551874121875842 0.0066730853006127288 0 0.0054313551609314979 0.0057058541731171992 0 0.0053858613179400706 0.0056507063187790692 0 0.0051927052897072007 0.0057087358759009147 0 0.005154076926494059 0.0052138155466726283 0 0.0050030935236668227 0.0053657527506927698 0 0.0051927052897072007 0.0057087358759009147 0 0.0050030935236668227 0.0053657527506927698 0 0.0047133212429281597 0.0053819793853524282 0 0.0051927052897072007 0.0057087358759009147 0 0.0049365638310500011 0.005154372049582987 0 0.0050030935236668227 0.0053657527506927698 0 0.0047133212429281597 0.0053819793853524282 0 0.0047133212429281597 0.0053819793853524282 0 0.0049006984736294883 0.0058592750467787481 0 0.0044475866940091972 0.0056422253640683517 0 0.0047133212429281597 0.0053819793853524282 0 0.0049006984736294883 0.0058592750467787481 0 0.0051927052897072007 0.0057087358759009147 0 0.0049006984736294883 0.0058592750467787481 0 0.0047068275627547337 0.0062993407035532301 0 0.0044475866940091972 0.0056422253640683517 0 0.0049006984736294883 0.0058592750467787481 0 0.0052452793392934408 0.0061073223887360382 0 0.0047068275627547337 0.0062993407035532301 0 0.0083527223419470123 0.004091634761419982 0 0.0068832620914203576 0.0052781314767198191 0 0.0049006984736294883 0.0058592750467787481 0 0.0051927052897072007 0.0057087358759009147 0 0.0052452793392934408 0.0061073223887360382 0 0.0053858613179400706 0.0056507063187790692 0 0.0051927052897072007 0.0057087358759009147 0 0.0052452793392934408 0.0061073223887360382 0 0.0074174674511952639 0.0063489156460069225 0 0.0071970925667085425 0.003817586476816561 0 0.0095628875221944638 0.0050253268276364586 0 0.006172420945735552 0.0061424666794965346 0 0.0068832620914203576 0.0052781314767198191 0 0.005291249356785821 0.0069986518969232282 0 0.0052452793392934408 0.0061073223887360382 0 0.0047068275627547337 0.0062993407035532301 0 0.010848818292869667 0.0033212426662783765 0 0.012782416106580556 0.0033553056936872312 0 0.012232188615278522 0.0016293500933702181 0 0.010848818292869667 0.0033212426662783765 0 0.012232188615278522 0.0016293500933702181 0 0.010648531224772963 0.0015757955117156337 0 0.0091659825965767737 0.00066395583404119237 0 0.0071970925667085425 0.003817586476816561 0 0.0094786790564967832 0.0028961337619451853 0 0.0091659825965767737 0.00066395583404119237 0 0.010648531224772963 0.0015757955117156337 0 0.0094786790564967832 0.0028961337619451853 0 0.010848818292869667 0.0033212426662783765 0 0.010648531224772963 0.0015757955117156337 0 0.0094786790564967832 0.0028961337619451853 0 0.010848818292869667 0.0033212426662783765 0 0.0094786790564967832 0.0028961337619451853 0 0.0095628875221944638 0.0050253268276364586 0 0.0071970925667085425 0.003817586476816561 0 0.0094786790564967832 0.0028961337619451853 0 0.0095628875221944638 0.0050253268276364586 0 0.011529957853757322 0.0067860837692728364 0 0.0095628875221944638 0.0050253268276364586 0 0.011666509391861873 0.0046828729384170023 0 0.011529957853757322 0.0067860837692728364 0 0.011666509391861873 0.0046828729384170023 0 0.013673066719381229 0.0048039150467788679 0 0.010848818292869667 0.0033212426662783765 0 0.0095628875221944638 0.0050253268276364586 0 0.011666509391861873 0.0046828729384170023 0 0.010848818292869667 0.0033212426662783765 0 0.012782416106580556 0.0033553056936872312 0 0.011666509391861873 0.0046828729384170023 0 0.012782416106580556 0.0033553056936872312 0 0.011666509391861873 0.0046828729384170023 0 0.013673066719381229 0.0048039150467788679 0 0.014327524455136778 0.0063548707327809595 0 0.013673066719381229 0.0048039150467788679 0 0.015051830081245318 0.0044571447243482009 0 0.013673066719381229 0.0048039150467788679 0 0.015051830081245318 0.0044571447243482009 0 0.014411326163318597 0.0033835870592798197 0 0.012782416106580556 0.0033553056936872312 0 0.013673066719381229 0.0048039150467788679 0 0.014411326163318597 0.0033835870592798197 0 0.012782416106580556 0.0033553056936872312 0 0.014411326163318597 0.0033835870592798197 0 0.013886465297171283 0.0019985065420196485 0 0.014411326163318597 0.0033835870592798197 0 0.015006433116918756 0.002440547320257678 0 0.016041477488043042 0.0030864816064495662 0 0.015051830081245318 0.0044571447243482009 0 0.014411326163318597 0.0033835870592798197 0 0.016041477488043042 0.0030864816064495662 0 0.014411326163318597 0.0033835870592798197 0 0.015006433116918756 0.002440547320257678 0 0.013886465297171283 0.0019985065420196485 0 0.015006433116918756 0.002440547320257678 0 0.013886465297171283 0.0019985065420196485 0 0.015607007892498456 0.0014008038574741535 0 0.012782416106580556 0.0033553056936872312 0 0.012232188615278522 0.0016293500933702181 0 0.013886465297171283 0.0019985065420196485 0 0.016919109239725297 0.0023581434435264036 0 0.018207208172484349 0.0027512908380345085 0 0.017575539456387245 0.0012499024749180918 0 0.016919109239725297 0.0023581434435264036 0 0.015607007892498456 0.0014008038574741535 0 0.017575539456387245 0.0012499024749180918 0 0.015006433116918756 0.002440547320257678 0 0.016041477488043042 0.0030864816064495662 0 0.015607007892498456 0.0014008038574741535 0 0.016919109239725297 0.0023581434435264036 0 0.016041477488043042 0.0030864816064495662 0 0.015607007892498456 0.0014008038574741535 0 0.016041477488043042 0.0030864816064495662 0 0.017260490152650583 0.0033513639509487516 0 0.016880426734982898 0.0041434031503450154 0 0.016919109239725297 0.0023581434435264036 0 0.016041477488043042 0.0030864816064495662 0 0.017260490152650583 0.0033513639509487516 0 0.017260490152650583 0.0033513639509487516 0 0.018089341001405516 0.003830916964449958 0 0.018207208172484349 0.0027512908380345085 0 0.016919109239725297 0.0023581434435264036 0 0.017260490152650583 0.0033513639509487516 0 0.018207208172484349 0.0027512908380345085 0 0.017260490152650583 0.0033513639509487516 0 0.016880426734982898 0.0041434031503450154 0 0.018089341001405516 0.003830916964449958 0 0.016880426734982898 0.0041434031503450154 0 0.018843021811125259 0.0046808860179153719 0 0.018089341001405516 0.003830916964449958 0 0.016880426734982898 0.0041434031503450154 0 0.016025276904580558 0.0053022650382303612 0 0.018843021811125259 0.0046808860179153719 0 0.015770089081193161 0.0076096437495105536 0 0.016025276904580558 0.0053022650382303612 0 0.018843021811125259 0.0046808860179153719 0 0.015051830081245318 0.0044571447243482009 0 0.016880426734982898 0.0041434031503450154 0 0.016025276904580558 0.0053022650382303612 0 0.015051830081245318 0.0044571447243482009 0 0.016041477488043042 0.0030864816064495662 0 0.016880426734982898 0.0041434031503450154 0 0.014327524455136778 0.0063548707327809595 0 0.015051830081245318 0.0044571447243482009 0 0.016025276904580558 0.0053022650382303612 0 0.019474445250702282 0.005429192385271747 0 0.019785564709242157 0.0050656021166349966 0 0.018843021811125259 0.0046808860179153719 0 0.019785564709242157 0.0050656021166349966 0 0.01958110780627316 0.004596975581589966 0 0.018843021811125259 0.0046808860179153719 0 0.019785564709242157 0.0050656021166349966 0 0.01993183868854265 0.0047485628710239765 0 0.01958110780627316 0.004596975581589966 0 0.01993183868854265 0.0047485628710239765 0 0.01958110780627316 0.004596975581589966 0 0.019933432474848668 0.0043371884291919316 0 0.01958110780627316 0.004596975581589966 0 0.018843021811125259 0.0046808860179153719 0 0.019247573948592316 0.0041189190503343439 0 0.018843021811125259 0.0046808860179153719 0 0.018089341001405516 0.003830916964449958 0 0.019247573948592316 0.0041189190503343439 0 0.020648922845253007 0.0052184371885772825 0 0.020239938367021367 0.0049834860726000046 0 0.020640848657436438 0.0048299217868982757 0 0.020828669163482118 0.0054661192406936666 0 0.021092727106510424 0.0052685762286994254 0 0.020648922845253007 0.0052184371885772825 0 0.019931673325530315 0.0055216549758205832 0 0.019785564709242157 0.0050656021166349966 0 0.020253847885667937 0.0052694460366542618 0 0.020648922845253007 0.0052184371885772825 0 0.020253847885667937 0.0052694460366542618 0 0.020239938367021367 0.0049834860726000046 0 0.019785564709242157 0.0050656021166349966 0 0.020253847885667937 0.0052694460366542618 0 0.020239938367021367 0.0049834860726000046 0 0.020254400061960432 0.0046638191282710522 0 0.020640848657436438 0.0048299217868982757 0 0.020549283597826793 0.0044569173276573755 0 0.01993183868854265 0.0047485628710239765 0 0.020239938367021367 0.0049834860726000046 0 0.020254400061960432 0.0046638191282710522 0 0.019785564709242157 0.0050656021166349966 0 0.01993183868854265 0.0047485628710239765 0 0.020239938367021367 0.0049834860726000046 0 0.01993183868854265 0.0047485628710239765 0 0.020254400061960432 0.0046638191282710522 0 0.019933432474848668 0.0043371884291919316 0 0.020239938367021367 0.0049834860726000046 0 0.020254400061960432 0.0046638191282710522 0 0.020640848657436438 0.0048299217868982757 0 0.020992150040567824 0.0050161472054907055 0 0.021210901173441911 0.00472542221186565 0 0.020640848657436438 0.0048299217868982757 0 0.020992150040567824 0.0050161472054907055 0 0.020648922845253007 0.0052184371885772825 0 0.020640848657436438 0.0048299217868982757 0 0.020549283597826793 0.0044569173276573755 0 0.021170146986314635 0.0043845168893661152 0 0.020167828792443436 0.0040526607132384826 0 0.021210901173441911 0.00472542221186565 0 0.020640848657436438 0.0048299217868982757 0 0.020549283597826793 0.0044569173276573755 0 0.021210901173441911 0.00472542221186565 0 0.020549283597826793 0.0044569173276573755 0 0.021170146986314635 0.0043845168893661152 0 0.020254400061960432 0.0046638191282710522 0 0.020549283597826793 0.0044569173276573755 0 0.019933432474848668 0.0043371884291919316 0 0.020549283597826793 0.0044569173276573755 0 0.019933432474848668 0.0043371884291919316 0 0.020167828792443436 0.0040526607132384826 0 0.018628878522973107 0.0038438637203156698 0 0.018543880352224162 0.0038053697321535104 0 0.019247573948592316 0.0041189190503343439 0 0.019933432474848668 0.0043371884291919316 0 0.020167828792443436 0.0040526607132384826 0 0.019247573948592316 0.0041189190503343439 0 0.018207208172484349 0.0027512908380345085 0 0.019636398633927913 0.0011483822781556514 0 0.018089341001405516 0.003830916964449958 0 0.019247573948592316 0.0041189190503343439 0 0.018207208172484349 0.0027512908380345085 0 0.01958110780627316 0.004596975581589966 0 0.019247573948592316 0.0041189190503343439 0 0.019933432474848668 0.0043371884291919316 0 0.018207208172484349 0.0027512908380345085 0 0.019636398633927913 0.0011483822781556514 0 0.017575539456387245 0.0012499024749180918 0 0.018543880352224162 0.0038053697321535104 0 0.0178136477585519 0.0051070172700520824 0 0.019636398633927913 0.0011483822781556514 0 0.018063268452299421 -0.00064605045586088421 0 0.017575539456387245 0.0012499024749180918 0 0.019636398633927913 0.0011483822781556514 0 0.018063268452299421 -0.00064605045586088421 0 0.02026182635364656 -0.0013027086025723439 0 0.021582602070644268 0.004160689168361713 0 0.020167828792443436 0.0040526607132384826 0 0.020548494243239984 0.0032031040841651688 0 0.021582602070644268 0.004160689168361713 0 0.021170146986314635 0.0043845168893661152 0 0.020167828792443436 0.0040526607132384826 0 0.018775579610969494 0.0053609248911526113 0 0.0178136477585519 0.0051070172700520824 0 0.022004402867863541 0.0045836265211524566 0 0.021582602070644268 0.004160689168361713 0 0.022317928762025034 0.0044648494565754883 0 0.022004402867863541 0.0045836265211524566 0 0.022514308478469719 0.0049705602036338318 0 0.022317928762025034 0.0044648494565754883 0 0.016829662409671181 -0.003714855574127515 0 0.018063268452299421 -0.00064605045586088421 0 0.02026182635364656 -0.0013027086025723439 0 0.014861320564977205 0.0058461136139690501 0 0.0178136477585519 0.0051070172700520824 0 0.016829662409671181 -0.003714855574127515 0 0.014290152494432679 -0.0019020904185605187 0 0.016025245392443814 -0.00053808469881868779 0 0.016829662409671181 -0.003714855574127515 0 0.018063268452299421 -0.00064605045586088421 0 0.016025245392443814 -0.00053808469881868779 0 0.013424638688819284 -0.0035278301628680329 0 0.016829662409671181 -0.003714855574127515 0 0.014290152494432679 -0.0019020904185605187 0 0.013424638688819284 -0.0035278301628680329 0 0.012706400476913494 -0.0015897041309552978 0 0.014290152494432679 -0.0019020904185605187 0 0.012706400476913494 -0.0015897041309552978 0 0.014290152494432679 -0.0019020904185605187 0 0.013685128743352972 0.00013676818952809231 0 0.014290152494432679 -0.0019020904185605187 0 0.013685128743352972 0.00013676818952809231 0 0.016025245392443814 -0.00053808469881868779 0 0.012232188615278522 0.0016293500933702181 0 0.013886465297171283 0.0019985065420196485 0 0.013685128743352972 0.00013676818952809231 0 0.013886465297171283 0.0019985065420196485 0 0.013685128743352972 0.00013676818952809231 0 0.015607007892498456 0.0014008038574741535 0 0.013685128743352972 0.00013676818952809231 0 0.015607007892498456 0.0014008038574741535 0 0.016025245392443814 -0.00053808469881868779 0 0.015607007892498456 0.0014008038574741535 0 0.017575539456387245 0.0012499024749180918 0 0.016025245392443814 -0.00053808469881868779 0 0.018063268452299421 -0.00064605045586088421 0 0.017575539456387245 0.0012499024749180918 0 0.016025245392443814 -0.00053808469881868779 0 0.035044120463086567 0.0072620544720291107 0 0.035002530049517623 0.007924194646369705 0 0.03482421675208535 0.0078506514746061688 0 0.035044120463086567 0.0072620544720291107 0 0.03482421675208535 0.0078506514746061688 0 0.034801986203830598 0.0073426193037422274 0 0.035044120463086567 0.0072620544720291107 0 0.034998770906543498 0.0075466573311920556 0 0.03500012783484778 0.0054838784828015654 0 0.035044120463086567 0.0072620544720291107 0 0.034998770906543498 0.0075466573311920556 0 0.035002530049517623 0.007924194646369705 0 0.034998770906543498 0.0075466573311920556 0 0.035059652331860133 0.008565259573181553 0 0.035002530049517623 0.007924194646369705 0 0.035059652331860133 0.008565259573181553 0 0.035002530049517623 0.007924194646369705 0 0.034809412084886512 0.008276888168902638 0 0.034998770906543498 0.0075466573311920556 0 0.035059652331860133 0.008565259573181553 0 0.034999668531329936 0.009616457951802642 0 0.035002530049517623 0.007924194646369705 0 0.03482421675208535 0.0078506514746061688 0 0.034809412084886512 0.008276888168902638 0 0.03482421675208535 0.0078506514746061688 0 0.034745836081248767 0.0082701204549245032 0 0.034809412084886512 0.008276888168902638 0 0.03482421675208535 0.0078506514746061688 0 0.034699782929955875 0.0081734959347263599 0 0.034616514677632521 0.0075618711261524023 0 0.03482421675208535 0.0078506514746061688 0 0.034699782929955875 0.0081734959347263599 0 0.034745836081248767 0.0082701204549245032 0 0.034699782929955875 0.0081734959347263599 0 0.034616514677632521 0.0075618711261524023 0 0.034681219992501074 0.0083329340757937916 0 0.034616514677632521 0.0075618711261524023 0 0.034801986203830598 0.0073426193037422274 0 0.034591305200466396 0.0071919745171815409 0 0.03482421675208535 0.0078506514746061688 0 0.034616514677632521 0.0075618711261524023 0 0.034801986203830598 0.0073426193037422274 0 0.034591305200466396 0.0071919745171815409 0 0.034700873105592479 0.0071367896091100586 0 0.034917803764650486 0.0067689197166636182 0 0.034801986203830598 0.0073426193037422274 0 0.034591305200466396 0.0071919745171815409 0 0.034917803764650486 0.0067689197166636182 0 0.034591305200466396 0.0071919745171815409 0 0.034108248979550629 0.0073241463646967608 0 0.034321061545016282 0.0073539063416671706 0 0.034616514677632521 0.0075618711261524023 0 0.034591305200466396 0.0071919745171815409 0 0.034108248979550629 0.0073241463646967608 0 0.034616514677632521 0.0075618711261524023 0 0.034108248979550629 0.0073241463646967608 0 0.033528249342255172 0.0070539585151729988 0 0.034321061545016282 0.0073539063416671706 0 0.034048845055179001 0.0076681723299441033 0 0.033810041513717318 0.0074864470136130588 0 0.034108248979550629 0.0073241463646967608 0 0.034321061545016282 0.0073539063416671706 0 0.033810041513717318 0.0074864470136130588 0 0.034321061545016282 0.0073539063416671706 0 0.034700873105592479 0.0071367896091100586 0 0.034465910299450418 0.0075175598699288252 0 0.034591305200466396 0.0071919745171815409 0 0.034321061545016282 0.0073539063416671706 0 0.034700873105592479 0.0071367896091100586 0 0.034700873105592479 0.0071367896091100586 0 0.034917803764650486 0.0067689197166636182 0 0.034994048063589488 0.007076299451776541 0 0.034700873105592479 0.0071367896091100586 0 0.034994048063589488 0.007076299451776541 0 0.034465910299450418 0.0075175598699288252 0 0.035044120463086567 0.0072620544720291107 0 0.034801986203830598 0.0073426193037422274 0 0.034917803764650486 0.0067689197166636182 0 0.035044120463086567 0.0072620544720291107 0 0.034917803764650486 0.0067689197166636182 0 0.03500012783484778 0.0054838784828015654 0 0.034999982387269493 0.0054787120462687104 0 0.034999998529429567 0.0034416776795240761 0 0.036155266456639738 0.0043032100898335989 0 0.034917803764650486 0.0067689197166636182 0 0.03500012783484778 0.0054838784828015654 0 0.034994048063589488 0.007076299451776541 0 0.034999827716054081 0.0054785984463299455 0 0.035065197945862117 0.0051919431837827547 0 0.034999998529429567 0.0034416776795240761 0 0.036155266456639738 0.0043032100898335989 0 0.036152920342282679 0.0026537880371440212 0 0.034994048063589488 0.007076299451776541 0 0.034642851892772136 0.0079004548003482056 0 0.034465910299450418 0.0075175598699288252 0 0.035065197945862117 0.0051919431837827547 0 0.035201073546400979 0.0043905603803637422 0 0.036155266456639738 0.0043032100898335989 0 0.036152920342282679 0.0026537880371440212 0 0.03733079243466321 0.0031260471271715657 0 0.036152920342282679 0.0026537880371440212 0 0.037132653684208171 0.0020282926480891432 0 0.03733079243466321 0.0031260471271715657 0 0.034999998529429567 0.0034416776795240761 0 0.036152920342282679 0.0026537880371440212 0 0.034999808162518825 0.001404500727192091 0 0.036152920342282679 0.0026537880371440212 0 0.034999808162518825 0.001404500727192091 0 0.036242433798067679 0.0014086267575334935 0 0.036152920342282679 0.0026537880371440212 0 0.037132653684208171 0.0020282926480891432 0 0.036242433798067679 0.0014086267575334935 0 0.037132653684208171 0.0020282926480891432 0 0.036242433798067679 0.0014086267575334935 0 0.037374855738235735 0.00098779922299004649 0 0.036242433798067679 0.0014086267575334935 0 0.03597619585351465 -8.7087953101826616e-05 0 0.037374855738235735 0.00098779922299004649 0 0.035649954547151377 0.0014267706835029326 0 0.03572166003077528 0.0018050041414407311 0 0.03609596811866779 -4.9243449649997957e-05 0 0.03597619585351465 -8.7087953101826616e-05 0 0.036212235639046499 8.1033629438187954e-05 0 0.035777406322462832 -0.00041975106882532603 0 0.03609596811866779 -4.9243449649997957e-05 0 0.03597619585351465 -8.7087953101826616e-05 0 0.034999808162518825 0.001404500727192091 0 0.036242433798067679 0.0014086267575334935 0 0.03597619585351465 -8.7087953101826616e-05 0 0.034999707018797337 -0.00063334070788130721 0 0.035777406322462832 -0.00041975106882532603 0 0.034999808162518825 0.001404500727192091 0 0.035777406322462832 -0.00041975106882532603 0 0.034999808162518825 0.001404500727192091 0 0.03597619585351465 -8.7087953101826616e-05 0 0.036153320159095434 0.00014976037045640587 0 0.036284772325989069 -4.9279360973410892e-07 0 0.036227023030229344 6.1752308910618901e-05 0 0.036153320159095434 0.00014976037045640587 0 0.036227023030229344 6.1752308910618901e-05 0 0.036156661520646317 6.0645539380282639e-05 0 0.036284772325989069 -4.9279360973410892e-07 0 0.036227023030229344 6.1752308910618901e-05 0 0.036212235639046499 8.1033629438187954e-05 0 0.036284772325989069 -4.9279360973410892e-07 0 0.03609596811866779 -4.9243449649997957e-05 0 0.036212235639046499 8.1033629438187954e-05 0 0.036227023030229344 6.1752308910618901e-05 0 0.036212235639046499 8.1033629438187954e-05 0 0.036207126980636349 4.944328881342151e-05 0 0.037132653684208171 0.0020282926480891432 0 0.037374855738235735 0.00098779922299004649 0 0.03855409377131707 0.0019230693505523375 0 0.03572166003077528 0.0018050041414407311 0 0.035376900485544184 0.0026371516081618732 0 0.036227023030229344 6.1752308910618901e-05 0 0.036207126980636349 4.944328881342151e-05 0 0.036156661520646317 6.0645539380282639e-05 0 0.036177885448921275 3.5979384187465928e-05 0 0.036156661520646317 6.0645539380282639e-05 0 0.036124774631439011 -1.2295646069445368e-06 0 0.035376900485544184 0.0026371516081618732 0 0.035770376858696669 0.0021035018573949478 0 0.034157167659321482 0.0084482408521657192 0 0.034138432234988816 0.0079450237486440919 0 0.033764124753323847 0.0081991210131369795 0 0.035376900485544184 0.0026371516081618732 0 0.035117545649039884 0.003774293837520593 0 0.034138432234988816 0.0079450237486440919 0 0.033759363657035718 0.0079108791162623097 0 0.033764124753323847 0.0081991210131369795 0 0.037132653684208171 0.0020282926480891432 0 0.03855409377131707 0.0019230693505523375 0 0.03733079243466321 0.0031260471271715657 0 0.034157167659321482 0.0084482408521657192 0 0.034138432234988816 0.0079450237486440919 0 0.034642851892772136 0.0079004548003482056 0 0.035376900485544184 0.0026371516081618732 0 0.035201073546400979 0.0043905603803637422 0 0.034138432234988816 0.0079450237486440919 0 0.034642851892772136 0.0079004548003482056 0 0.034465910299450418 0.0075175598699288252 0 0.034138432234988816 0.0079450237486440919 0 0.034048845055179001 0.0076681723299441033 0 0.033759363657035718 0.0079108791162623097 0 0.034138432234988816 0.0079450237486440919 0 0.034465910299450418 0.0075175598699288252 0 0.034048845055179001 0.0076681723299441033 0 0.034321061545016282 0.0073539063416671706 0 0.034465910299450418 0.0075175598699288252 0 0.034048845055179001 0.0076681723299441033 0 0.034048845055179001 0.0076681723299441033 0 0.033741345636912633 0.007698885300600455 0 0.033810041513717318 0.0074864470136130588 0 0.034048845055179001 0.0076681723299441033 0 0.033741345636912633 0.007698885300600455 0 0.033759363657035718 0.0079108791162623097 0 0.033741345636912633 0.007698885300600455 0 0.033443687183552381 0.0078246928771357922 0 0.033225763508045653 0.0075434486452976438 0 0.033443687183552381 0.0078246928771357922 0 0.033345969051945451 0.0079747295275184281 0 0.033759363657035718 0.0079108791162623097 0 0.034718193961320455 0.0050722973543337775 0 0.034877317706457488 0.0048228962518695618 0 0.033741345636912633 0.007698885300600455 0 0.033443687183552381 0.0078246928771357922 0 0.033759363657035718 0.0079108791162623097 0 0.031979693719525491 0.0072904022439665593 0 0.032522870732327729 0.0076031871532002172 0 0.03228591415390724 0.0071523562774631266 0 0.032522870732327729 0.0076031871532002172 0 0.032528890369453424 0.0074651070676963211 0 0.032733302455990675 0.0075408475774245793 0 0.033443687183552381 0.0078246928771357922 0 0.032522870732327729 0.0076031871532002172 0 0.033225763508045653 0.0075434486452976438 0 0.034877317706457488 0.0048228962518695618 0 0.034715137729010852 0.0049773552429102572 0 0.033443687183552381 0.0078246928771357922 0 0.033166243324005938 0.0081856120171833711 0 0.032522870732327729 0.0076031871532002172 0 0.032522870732327729 0.0076031871532002172 0 0.03228591415390724 0.0071523562774631266 0 0.032528890369453424 0.0074651070676963211 0 0.031979693719525491 0.0072904022439665593 0 0.031903161920291391 0.0066393007080342379 0 0.03228591415390724 0.0071523562774631266 0 0.036061225625112353 -3.4643277279683176e-05 0 0.03606784050874725 4.5515801498718811e-06 0 0.035993435415301943 2.0342385534080558e-05 0 0.034877317706457488 0.0048228962518695618 0 0.034375140458280953 0.0035530980711669766 0 0.033345969051945451 0.0079747295275184281 0 0.033759363657035718 0.0079108791162623097 0 0.033764124753323847 0.0081991210131369795 0 0.034877317706457488 0.0048228962518695618 0 0.035117545649039884 0.003774293837520593 0 0.036061225625112353 -3.4643277279683176e-05 0 0.03606784050874725 4.5515801498718811e-06 0 0.036124774631439011 -1.2295646069445368e-06 0 0.03606784050874725 4.5515801498718811e-06 0 0.036124774631439011 -1.2295646069445368e-06 0 0.036085703300295272 3.5635971810049893e-05 0 0.036156661520646317 6.0645539380282639e-05 0 0.036085703300295272 3.5635971810049893e-05 0 0.036048707099063278 9.3890355924436283e-05 0 0.036156661520646317 6.0645539380282639e-05 0 0.036124774631439011 -1.2295646069445368e-06 0 0.036085703300295272 3.5635971810049893e-05 0 0.035993435415301943 2.0342385534080558e-05 0 0.036048707099063278 9.3890355924436283e-05 0 0.035894646161715761 0.00010437854876245778 0 0.036085703300295272 3.5635971810049893e-05 0 0.035993435415301943 2.0342385534080558e-05 0 0.036048707099063278 9.3890355924436283e-05 0 0.03606784050874725 4.5515801498718811e-06 0 0.036085703300295272 3.5635971810049893e-05 0 0.035993435415301943 2.0342385534080558e-05 0 0.03598521129527317 0.00020672792198933145 0 0.036048707099063278 9.3890355924436283e-05 0 0.035894646161715761 0.00010437854876245778 0 0.036153320159095434 0.00014976037045640587 0 0.036156661520646317 6.0645539380282639e-05 0 0.036048707099063278 9.3890355924436283e-05 0 0.036153320159095434 0.00014976037045640587 0 0.03598521129527317 0.00020672792198933145 0 0.036048707099063278 9.3890355924436283e-05 0 0.031732978552175772 0.0044635696633979986 0 0.031662253716396783 0.0056886176671188263 0 0.03230803533003257 0.0050481086525265111 0 0.031662253716396783 0.0056886176671188263 0 0.032346787774227642 0.0062851738540672776 0 0.03230803533003257 0.0050481086525265111 0 0.033543212572074169 0.0013875243184829221 0 0.03390967187451794 0.0025710049932722839 0 0.035786359832360719 0.00023103485379950131 0 0.03598521129527317 0.00020672792198933145 0 0.035894646161715761 0.00010437854876245778 0 0.034375140458280953 0.0035530980711669766 0 0.03390967187451794 0.0025710049932722839 0 0.031903161920291391 0.0066393007080342379 0 0.031662253716396783 0.0056886176671188263 0 0.032110568217536828 0.0065465420405097629 0 0.031662253716396783 0.0056886176671188263 0 0.032110568217536828 0.0065465420405097629 0 0.032346787774227642 0.0062851738540672776 0 0.032346787774227642 0.0062851738540672776 0 0.032404785149496351 0.0071520415380611733 0 0.032733666089715903 0.0072064200532285256 0 0.032110568217536828 0.0065465420405097629 0 0.032346787774227642 0.0062851738540672776 0 0.032404785149496351 0.0071520415380611733 0 0.031903161920291391 0.0066393007080342379 0 0.032110568217536828 0.0065465420405097629 0 0.03228591415390724 0.0071523562774631266 0 0.032110568217536828 0.0065465420405097629 0 0.032404785149496351 0.0071520415380611733 0 0.03228591415390724 0.0071523562774631266 0 0.032404785149496351 0.0071520415380611733 0 0.032528890369453424 0.0074651070676963211 0 0.032688174512857715 0.0075815208282500601 0 0.032404785149496351 0.0071520415380611733 0 0.03228591415390724 0.0071523562774631266 0 0.032528890369453424 0.0074651070676963211 0 0.032404785149496351 0.0071520415380611733 0 0.032688174512857715 0.0075815208282500601 0 0.032733666089715903 0.0072064200532285256 0 0.032688174512857715 0.0075815208282500601 0 0.03308736934684664 0.0077383764437849254 0 0.032733666089715903 0.0072064200532285256 0 0.032688174512857715 0.0075815208282500601 0 0.033206260536833052 0.0080437856042424524 0 0.03308736934684664 0.0077383764437849254 0 0.034065169783184239 0.0084498857099086066 0 0.033696301175977862 0.0082448309425978156 0 0.033206260536833052 0.0080437856042424524 0 0.032688174512857715 0.0075815208282500601 0 0.032756030469639576 0.0075154184643324018 0 0.033206260536833052 0.0080437856042424524 0 0.033676110116559986 0.0078516102195398275 0 0.033594887728454606 0.0078880784175931491 0 0.032688174512857715 0.0075815208282500601 0 0.032756030469639576 0.0075154184643324018 0 0.032733302455990675 0.0075408475774245793 0 0.032528890369453424 0.0074651070676963211 0 0.032688174512857715 0.0075815208282500601 0 0.032733302455990675 0.0075408475774245793 0 0.032522870732327729 0.0076031871532002172 0 0.032733302455990675 0.0075408475774245793 0 0.033225763508045653 0.0075434486452976438 0 0.032733302455990675 0.0075408475774245793 0 0.033278924492724571 0.0074101440926189572 0 0.033225763508045653 0.0075434486452976438 0 0.034108248979550629 0.0073241463646967608 0 0.033278924492724571 0.0074101440926189572 0 0.033810041513717318 0.0074864470136130588 0 0.033741345636912633 0.007698885300600455 0 0.033810041513717318 0.0074864470136130588 0 0.033225763508045653 0.0075434486452976438 0 0.033278924492724571 0.0074101440926189572 0 0.033810041513717318 0.0074864470136130588 0 0.033225763508045653 0.0075434486452976438 0 0.034108248979550629 0.0073241463646967608 0 0.033278924492724571 0.0074101440926189572 0 0.033528249342255172 0.0070539585151729988 0 0.032756030469639576 0.0075154184643324018 0 0.032733302455990675 0.0075408475774245793 0 0.033278924492724571 0.0074101440926189572 0 0.033676110116559986 0.0078516102195398275 0 0.033881562010350107 0.0077653047649487552 0 0.032756030469639576 0.0075154184643324018 0 0.033278924492724571 0.0074101440926189572 0 0.033528249342255172 0.0070539585151729988 0 0.034065169783184239 0.0084498857099086066 0 0.03456031112615645 0.0082191602115111173 0 0.0342410470664773 0.008333714062663521 0 0.034616514677632521 0.0075618711261524023 0 0.03456031112615645 0.0082191602115111173 0 0.034681219992501074 0.0083329340757937916 0 0.034022303953426272 0.0077221712447496718 0 0.033881562010350107 0.0077653047649487552 0 0.03456031112615645 0.0082191602115111173 0 0.034681219992501074 0.0083329340757937916 0 0.0342410470664773 0.008333714062663521 0 0.0342410470664773 0.008333714062663521 0 0.033858063244480117 0.0083461000417001368 0 0.034146153495682216 0.0085944944867387876 0 0.033858063244480117 0.0083461000417001368 0 0.033696301175977862 0.0082448309425978156 0 0.033457682899954454 0.0081918525206311713 0 0.0342410470664773 0.008333714062663521 0 0.033858063244480117 0.0083461000417001368 0 0.033696301175977862 0.0082448309425978156 0 0.033696301175977862 0.0082448309425978156 0 0.033457682899954454 0.0081918525206311713 0 0.033206260536833052 0.0080437856042424524 0 0.034065169783184239 0.0084498857099086066 0 0.0342410470664773 0.008333714062663521 0 0.033696301175977862 0.0082448309425978156 0 0.033457682899954454 0.0081918525206311713 0 0.033198302664830266 0.0080283816926534912 0 0.033151391704129431 0.0079733268503890987 0 0.033457682899954454 0.0081918525206311713 0 0.033151391704129431 0.0079733268503890987 0 0.033206260536833052 0.0080437856042424524 0 0.033858063244480117 0.0083461000417001368 0 0.033457682899954454 0.0081918525206311713 0 0.033652846389630092 0.0083637292432807292 0 0.033457682899954454 0.0081918525206311713 0 0.033198302664830266 0.0080283816926534912 0 0.033652846389630092 0.0083637292432807292 0 0.033198302664830266 0.0080283816926534912 0 0.032408182803002381 0.007667237714191661 0 0.033021929645378222 0.0079026511975879409 0 0.033198302664830266 0.0080283816926534912 0 0.032862813938780905 0.0078803069764101178 0 0.032408182803002381 0.007667237714191661 0 0.032862813938780905 0.0078803069764101178 0 0.032598123397850044 0.0078678498088579785 0 0.032408182803002381 0.007667237714191661 0 0.033198302664830266 0.0080283816926534912 0 0.032862813938780905 0.0078803069764101178 0 0.033151391704129431 0.0079733268503890987 0 0.032598123397850044 0.0078678498088579785 0 0.033016971435593727 0.0078236204221159098 0 0.033151391704129431 0.0079733268503890987 0 0.032862813938780905 0.0078803069764101178 0 0.032598123397850044 0.0078678498088579785 0 0.033151391704129431 0.0079733268503890987 0 0.032598123397850044 0.0078678498088579785 0 0.032710579144156975 0.007784501636269636 0 0.031885959860159678 0.0078982331311917911 0 0.032598123397850044 0.0078678498088579785 0 0.032710579144156975 0.007784501636269636 0 0.033016971435593727 0.0078236204221159098 0 0.032710579144156975 0.007784501636269636 0 0.033016971435593727 0.0078236204221159098 0 0.033148302039388032 0.0076164545477421216 0 0.033016971435593727 0.0078236204221159098 0 0.03308736934684664 0.0077383764437849254 0 0.033148302039388032 0.0076164545477421216 0 0.033016971435593727 0.0078236204221159098 0 0.033151391704129431 0.0079733268503890987 0 0.03308736934684664 0.0077383764437849254 0 0.033151391704129431 0.0079733268503890987 0 0.033206260536833052 0.0080437856042424524 0 0.03308736934684664 0.0077383764437849254 0 0.03308736934684664 0.0077383764437849254 0 0.033123076120721566 0.0073373205663902928 0 0.032733666089715903 0.0072064200532285256 0 0.03308736934684664 0.0077383764437849254 0 0.033123076120721566 0.0073373205663902928 0 0.033148302039388032 0.0076164545477421216 0 0.033123076120721566 0.0073373205663902928 0 0.033046290752545206 0.006216838171787995 0 0.033463925307676043 0.0072730758769942215 0 0.033123076120721566 0.0073373205663902928 0 0.033463925307676043 0.0072730758769942215 0 0.033148302039388032 0.0076164545477421216 0 0.033123076120721566 0.0073373205663902928 0 0.032733666089715903 0.0072064200532285256 0 0.033046290752545206 0.006216838171787995 0 0.032346787774227642 0.0062851738540672776 0 0.033046290752545206 0.006216838171787995 0 0.03230803533003257 0.0050481086525265111 0 0.032346787774227642 0.0062851738540672776 0 0.032733666089715903 0.0072064200532285256 0 0.033046290752545206 0.006216838171787995 0 0.033046290752545206 0.006216838171787995 0 0.033950767845197176 0.0062146637571369153 0 0.033463925307676043 0.0072730758769942215 0 0.033046290752545206 0.006216838171787995 0 0.033730045456816973 0.0051885088083287317 0 0.033950767845197176 0.0062146637571369153 0 0.033046290752545206 0.006216838171787995 0 0.033730045456816973 0.0051885088083287317 0 0.03325325609186907 0.0047046032249020518 0 0.033842362575837288 0.0032316822469500143 0 0.033730045456816973 0.0051885088083287317 0 0.03325325609186907 0.0047046032249020518 0 0.033046290752545206 0.006216838171787995 0 0.03325325609186907 0.0047046032249020518 0 0.03230803533003257 0.0050481086525265111 0 0.032874440791005793 0.0032153815452036364 0 0.03325325609186907 0.0047046032249020518 0 0.03230803533003257 0.0050481086525265111 0 0.032512566909095895 0.0052494208671300764 0 0.031885551509776636 0.0060754205775535039 0 0.030658265467779295 0.0052092607736069323 0 0.030353145072743701 0.0052884932200187983 0 0.030670242573377585 0.0054710019107139371 0 0.030539852583514993 0.0050014382420461578 0 0.030658265467779295 0.0052092607736069323 0 0.030353145072743701 0.0052884932200187983 0 0.03257357709355585 0.0052668490032667312 0 0.032512566909095895 0.0052494208671300764 0 0.033842362575837288 0.0032316822469500143 0 0.033730045456816973 0.0051885088083287317 0 0.034711968849436454 0.0047935231442965218 0 0.033730045456816973 0.0051885088083287317 0 0.034711968849436454 0.0047935231442965218 0 0.033950767845197176 0.0062146637571369153 0 0.034711968849436454 0.0047935231442965218 0 0.035051879980159073 0.0051643841349709304 0 0.033950767845197176 0.0062146637571369153 0 0.035051879980159073 0.0051643841349709304 0 0.033792293593271412 0.0072957650623800526 0 0.033950767845197176 0.0062146637571369153 0 0.032512566909095895 0.0052494208671300764 0 0.032670872059043822 0.0057358261027806758 0 0.033792293593271412 0.0072957650623800526 0 0.033950767845197176 0.0062146637571369153 0 0.033463925307676043 0.0072730758769942215 0 0.033818472973991112 0.0084946053916589454 0 0.033792293593271412 0.0072957650623800526 0 0.032398308655843422 0.0081636228957282213 0 0.033792293593271412 0.0072957650623800526 0 0.032269289562309095 0.0078188728859416561 0 0.032398308655843422 0.0081636228957282213 0 0.033792293593271412 0.0072957650623800526 0 0.032983017329907445 0.0076067172408787985 0 0.032269289562309095 0.0078188728859416561 0 0.033792293593271412 0.0072957650623800526 0 0.032983017329907445 0.0076067172408787985 0 0.033463925307676043 0.0072730758769942215 0 0.032983017329907445 0.0076067172408787985 0 0.033463925307676043 0.0072730758769942215 0 0.033148302039388032 0.0076164545477421216 0 0.032710579144156975 0.007784501636269636 0 0.032983017329907445 0.0076067172408787985 0 0.033148302039388032 0.0076164545477421216 0 0.032710579144156975 0.007784501636269636 0 0.032983017329907445 0.0076067172408787985 0 0.032090370367092079 0.0078212525828243017 0 0.032090370367092079 0.0078212525828243017 0 0.031412293470268436 0.007888632382728699 0 0.032269289562309095 0.0078188728859416561 0 0.032090370367092079 0.0078212525828243017 0 0.031412293470268436 0.007888632382728699 0 0.031029286649769956 0.0080237466913310306 0 0.031412293470268436 0.007888632382728699 0 0.030722146089736228 0.0078296683782576471 0 0.031029286649769956 0.0080237466913310306 0 0.031412293470268436 0.007888632382728699 0 0.031278526057634898 0.0081554805970939833 0 0.032269289562309095 0.0078188728859416561 0 0.031412293470268436 0.007888632382728699 0 0.031278526057634898 0.0081554805970939833 0 0.030722146089736228 0.0078296683782576471 0 0.032983017329907445 0.0076067172408787985 0 0.032090370367092079 0.0078212525828243017 0 0.032269289562309095 0.0078188728859416561 0 0.031278526057634898 0.0081554805970939833 0 0.032269289562309095 0.0078188728859416561 0 0.032398308655843422 0.0081636228957282213 0 0.031509878196860103 0.0064981429084857746 0 0.031885551509776636 0.0060754205775535039 0 0.030575921342114253 0.0058689417998146406 0 0.030670242573377585 0.0054710019107139371 0 0.030838474064121928 0.0052929420777154193 0 0.030575921342114253 0.0058689417998146406 0 0.030838474064121928 0.0052929420777154193 0 0.030803197760698769 0.0056722198735983378 0 0.030854978238856145 0.0048801649135434564 0 0.030658265467779295 0.0052092607736069323 0 0.030838474064121928 0.0052929420777154193 0 0.030658265467779295 0.0052092607736069323 0 0.030670242573377585 0.0054710019107139371 0 0.030838474064121928 0.0052929420777154193 0 0.031056309123130486 0.005221437949222839 0 0.031017828474813013 0.0050998481478601986 0 0.030803197760698769 0.0056722198735983378 0 0.030838474064121928 0.0052929420777154193 0 0.031017828474813013 0.0050998481478601986 0 0.030803197760698769 0.0056722198735983378 0 0.031366703746917995 0.0058177968664213141 0 0.031056309123130486 0.005221437949222839 0 0.030803197760698769 0.0056722198735983378 0 0.031366703746917995 0.0058177968664213141 0 0.030803197760698769 0.0056722198735983378 0 0.030651597418216079 0.0070401499307529017 0 0.029538279316809541 0.0070757810910162351 0 0.029803084479521739 0.0069108030615356534 0 0.030535851663539854 0.0071252476668499844 0 0.030279032726069813 0.0063122080895644016 0 0.030330859069881262 0.006482118157909905 0 0.031366703746917995 0.0058177968664213141 0 0.030651597418216079 0.0070401499307529017 0 0.030535851663539854 0.0071252476668499844 0 0.031509878196860103 0.0064981429084857746 0 0.031423053504261965 0.0066539453008939023 0 0.030575921342114253 0.0058689417998146406 0 0.030803197760698769 0.0056722198735983378 0 0.030651597418216079 0.0070401499307529017 0 0.031278526057634898 0.0081554805970939833 0 0.030651597418216079 0.0070401499307529017 0 0.030722146089736228 0.0078296683782576471 0 0.030722146089736228 0.0078296683782576471 0 0.030122934279486976 0.008222343131532802 0 0.031029286649769956 0.0080237466913310306 0 0.030651597418216079 0.0070401499307529017 0 0.030722146089736228 0.0078296683782576471 0 0.030535851663539854 0.0071252476668499844 0 0.030722146089736228 0.0078296683782576471 0 0.029166336074249944 0.0089498941490684051 0 0.030122934279486976 0.008222343131532802 0 0.030722146089736228 0.0078296683782576471 0 0.030535851663539854 0.0071252476668499844 0 0.030272422939595322 0.0066601742881240667 0 0.029803084479521739 0.0069108030615356534 0 0.030535851663539854 0.0071252476668499844 0 0.030272422939595322 0.0066601742881240667 0 0.02943189096343924 0.0075630222676136317 0 0.02910459968892596 0.0074770090241511392 0 0.028492755911973578 0.0081651902649379788 0 0.029107177103090673 0.0084268583879158025 0 0.02995145293693954 0.0080194666493154515 0 0.029107177103090673 0.0084268583879158025 0 0.02995145293693954 0.0080194666493154515 0 0.030122934279486976 0.008222343131532802 0 0.029166336074249944 0.0089498941490684051 0 0.029107177103090673 0.0084268583879158025 0 0.030122934279486976 0.008222343131532802 0 0.028492755911973578 0.0081651902649379788 0 0.02995145293693954 0.0080194666493154515 0 0.028887855149129039 0.007745337348592317 0 0.02995145293693954 0.0080194666493154515 0 0.030122934279486976 0.008222343131532802 0 0.031029286649769956 0.0080237466913310306 0 0.02995145293693954 0.0080194666493154515 0 0.031029286649769956 0.0080237466913310306 0 0.031569538355900685 0.0078781755411202418 0 0.031029286649769956 0.0080237466913310306 0 0.031885959860159678 0.0078982331311917911 0 0.031569538355900685 0.0078781755411202418 0 0.032090370367092079 0.0078212525828243017 0 0.031029286649769956 0.0080237466913310306 0 0.031885959860159678 0.0078982331311917911 0 0.032710579144156975 0.007784501636269636 0 0.032090370367092079 0.0078212525828243017 0 0.031885959860159678 0.0078982331311917911 0 0.032598123397850044 0.0078678498088579785 0 0.031569538355900685 0.0078781755411202418 0 0.032408182803002381 0.007667237714191661 0 0.032598123397850044 0.0078678498088579785 0 0.031885959860159678 0.0078982331311917911 0 0.031569538355900685 0.0078781755411202418 0 0.02995145293693954 0.0080194666493154515 0 0.031569538355900685 0.0078781755411202418 0 0.029885999333568367 0.0073744951766749238 0 0.031569538355900685 0.0078781755411202418 0 0.032408182803002381 0.007667237714191661 0 0.029885999333568367 0.0073744951766749238 0 0.032408182803002381 0.007667237714191661 0 0.029885999333568367 0.0073744951766749238 0 0.031958592294331997 0.0073115678715532 0 0.029849546839214113 0.0078819483664864 0 0.030029637112703737 0.0077140713096419391 0 0.028227911446947865 0.0073411804786221073 0 0.029885999333568367 0.0073744951766749238 0 0.028167148853803347 0.0068021012009186355 0 0.027301093052166544 0.0070046714122893681 0 0.028227911446947865 0.0073411804786221073 0 0.028167148853803347 0.0068021012009186355 0 0.027953840362951812 0.0078087379136802283 0 0.028227911446947865 0.0073411804786221073 0 0.028887855149129039 0.007745337348592317 0 0.028227911446947865 0.0073411804786221073 0 0.028887855149129039 0.007745337348592317 0 0.029885999333568367 0.0073744951766749238 0 0.02995145293693954 0.0080194666493154515 0 0.028887855149129039 0.007745337348592317 0 0.029885999333568367 0.0073744951766749238 0 0.028167148853803347 0.0068021012009186355 0 0.027967244517852066 0.0065363497014520799 0 0.027383305899165711 0.0064869598907893074 0 0.026935841057323211 0.0066686329497363068 0 0.028167148853803347 0.0068021012009186355 0 0.027383305899165711 0.0064869598907893074 0 0.026935841057323211 0.0066686329497363068 0 0.027301093052166544 0.0070046714122893681 0 0.028167148853803347 0.0068021012009186355 0 0.029885999333568367 0.0073744951766749238 0 0.028167148853803347 0.0068021012009186355 0 0.02844670153624165 0.0067723474743531728 0 0.032408182803002381 0.007667237714191661 0 0.031958592294331997 0.0073115678715532 0 0.033021929645378222 0.0079026511975879409 0 0.031958592294331997 0.0073115678715532 0 0.033088295398004758 0.008010617108632611 0 0.033021929645378222 0.0079026511975879409 0 0.030029637112703737 0.0077140713096419391 0 0.030209777791414382 0.0077890065328455414 0 0.02844670153624165 0.0067723474743531728 0 0.027967244517852066 0.0065363497014520799 0 0.027869921462599506 0.0063727566146492545 0 0.028167148853803347 0.0068021012009186355 0 0.02844670153624165 0.0067723474743531728 0 0.027967244517852066 0.0065363497014520799 0 0.027967244517852066 0.0065363497014520799 0 0.02780380622443232 0.0064885319171640657 0 0.027869921462599506 0.0063727566146492545 0 0.027967244517852066 0.0065363497014520799 0 0.02780380622443232 0.0064885319171640657 0 0.027535844872770689 0.0063565078751676536 0 0.02780380622443232 0.0064885319171640657 0 0.027869921462599506 0.0063727566146492545 0 0.027761725424670574 0.0066401008659565794 0 0.027869921462599506 0.0063727566146492545 0 0.027761725424670574 0.0066401008659565794 0 0.027527781047264381 0.0071709071933794364 0 0.027761725424670574 0.0066401008659565794 0 0.027617257714909044 0.0067715328454297794 0 0.027555189848453746 0.0064784313913919611 0 0.027761725424670574 0.0066401008659565794 0 0.027617257714909044 0.0067715328454297794 0 0.027527781047264381 0.0071709071933794364 0 0.02780380622443232 0.0064885319171640657 0 0.027644945499677321 0.0064247981607293498 0 0.027535844872770689 0.0063565078751676536 0 0.02780380622443232 0.0064885319171640657 0 0.027761725424670574 0.0066401008659565794 0 0.027644945499677321 0.0064247981607293498 0 0.027761725424670574 0.0066401008659565794 0 0.027644945499677321 0.0064247981607293498 0 0.027555189848453746 0.0064784313913919611 0 0.027644945499677321 0.0064247981607293498 0 0.027412847789775898 0.0061626648138894558 0 0.027555189848453746 0.0064784313913919611 0 0.027283341293171774 0.0061272575916560329 0 0.027535844872770689 0.0063565078751676536 0 0.027412847789775898 0.0061626648138894558 0 0.027644945499677321 0.0064247981607293498 0 0.027535844872770689 0.0063565078751676536 0 0.027412847789775898 0.0061626648138894558 0 0.027283341293171774 0.0061272575916560329 0 0.027535844872770689 0.0063565078751676536 0 0.026916634224552861 0.0061879058272685788 0 0.027535844872770689 0.0063565078751676536 0 0.027383305899165711 0.0064869598907893074 0 0.026916634224552861 0.0061879058272685788 0 0.027967244517852066 0.0065363497014520799 0 0.027535844872770689 0.0063565078751676536 0 0.027383305899165711 0.0064869598907893074 0 0.026286322688077009 0.0062691085105112043 0 0.027383305899165711 0.0064869598907893074 0 0.026916634224552861 0.0061879058272685788 0 0.026935841057323211 0.0066686329497363068 0 0.026286322688077009 0.0062691085105112043 0 0.027383305899165711 0.0064869598907893074 0 0.025657266346996398 0.0056958681962275418 0 0.026286322688077009 0.0062691085105112043 0 0.026916634224552861 0.0061879058272685788 0 0.025657266346996398 0.0056958681962275418 0 0.026916634224552861 0.0061879058272685788 0 0.027197120752532201 0.0058042314077748 0 0.027283341293171774 0.0061272575916560329 0 0.026916634224552861 0.0061879058272685788 0 0.027197120752532201 0.0058042314077748 0 0.025657266346996398 0.0056958681962275418 0 0.027197120752532201 0.0058042314077748 0 0.026630004280169824 0.0050432747833349693 0 0.024612961808742225 0.0066346549681571129 0 0.024044347181355237 0.0072951093061542419 0 0.027197120752532201 0.0058042314077748 0 0.027384577615879421 0.0060552633900893332 0 0.02729177451322384 0.0060833026218544356 0 0.024245977951274141 0.0072865218151167976 0 0.024044347181355237 0.0072951093061542419 0 0.027197120752532201 0.0058042314077748 0 0.027412847789775898 0.0061626648138894558 0 0.02729177451322384 0.0060833026218544356 0 0.027283341293171774 0.0061272575916560329 0 0.027197120752532201 0.0058042314077748 0 0.027412847789775898 0.0061626648138894558 0 0.027412847789775898 0.0061626648138894558 0 0.02729177451322384 0.0060833026218544356 0 0.027376404444332675 0.0062353555060594848 0 0.02729177451322384 0.0060833026218544356 0 0.027329440458244484 0.0062233454948219169 0 0.027376404444332675 0.0062353555060594848 0 0.027329440458244484 0.0062233454948219169 0 0.027376404444332675 0.0062353555060594848 0 0.027422987465814459 0.0062589542048032219 0 0.022086114286725907 0.010550198104539294 0 0.021846295159440681 0.010223676926948816 0 0.021555605354350169 0.01060101306456643 0 0.024044347181355237 0.0072951093061542419 0 0.024501646791815622 0.0085783456900023307 0 0.027384577615879421 0.0060552633900893332 0 0.02729177451322384 0.0060833026218544356 0 0.027329440458244484 0.0062233454948219169 0 0.022842023788997384 0.007788176988217513 0 0.024044347181355237 0.0072951093061542419 0 0.022086114286725907 0.010550198104539294 0 0.021555605354350169 0.01060101306456643 0 0.021849055358709579 0.011009918746664514 0 0.021555605354350169 0.01060101306456643 0 0.021849055358709579 0.011009918746664514 0 0.021273204257517272 0.010979619013215636 0 0.027329440458244484 0.0062233454948219169 0 0.027406198305997664 0.0062092801863651865 0 0.027422987465814459 0.0062589542048032219 0 0.024501646791815622 0.0085783456900023307 0 0.024884612375331308 0.010048356196056854 0 0.021849055358709579 0.011009918746664514 0 0.021273204257517272 0.010979619013215636 0 0.021584803054116541 0.011340233486009606 0 0.021273204257517272 0.010979619013215636 0 0.021283331491609138 0.011538621621964685 0 0.021584803054116541 0.011340233486009606 0 0.021849055358709579 0.011009918746664514 0 0.021584803054116541 0.011340233486009606 0 0.021996687280803874 0.011566299399063644 0 0.025934375629745775 0.010665544189976169 0 0.024722954071310681 0.013033378356222614 0 0.027050689497902347 0.015595964723464095 0 0.028205136362433585 0.013761983540181219 0 0.02640943764255119 0.014527283601603583 0 0.027050689497902347 0.015595964723464095 0 0.028205136362433585 0.013761983540181219 0 0.02838980334786001 0.015866484935203057 0 0.027406198305997664 0.0062092801863651865 0 0.027497461303935138 0.0062156351426980155 0 0.027442665293125633 0.0062109672241854657 0 0.024884612375331308 0.010048356196056854 0 0.024722954071310681 0.013033378356222614 0 0.021273204257517272 0.010979619013215636 0 0.021283331491609138 0.011538621621964685 0 0.020990743552284134 0.011360023444607865 0 0.027406198305997664 0.0062092801863651865 0 0.027497461303935138 0.0062156351426980155 0 0.027422987465814459 0.0062589542048032219 0 0.025934375629745775 0.010665544189976169 0 0.026481112797210292 0.0091980058954721396 0 0.028205136362433585 0.013761983540181219 0 0.028363876771245737 0.011167460291093922 0 0.026726805523632907 0.012786676460322464 0 0.027652583943152495 0.006370080689654228 0 0.027422987465814459 0.0062589542048032219 0 0.027486885872947835 0.0064091330078473513 0 0.027497461303935138 0.0062156351426980155 0 0.027652583943152495 0.006370080689654228 0 0.027422987465814459 0.0062589542048032219 0 0.027376404444332675 0.0062353555060594848 0 0.027422987465814459 0.0062589542048032219 0 0.027486885872947835 0.0064091330078473513 0 0.027376404444332675 0.0062353555060594848 0 0.027486885872947835 0.0064091330078473513 0 0.027555189848453746 0.0064784313913919611 0 0.027486885872947835 0.0064091330078473513 0 0.027555189848453746 0.0064784313913919611 0 0.027556587638792016 0.0066693608695501325 0 0.027412847789775898 0.0061626648138894558 0 0.027376404444332675 0.0062353555060594848 0 0.027555189848453746 0.0064784313913919611 0 0.026481112797210292 0.0091980058954721396 0 0.026573253014709683 0.0084869418206854324 0 0.027652583943152495 0.006370080689654228 0 0.027556587638792016 0.0066693608695501325 0 0.027527781047264381 0.0071709071933794364 0 0.027652583943152495 0.006370080689654228 0 0.027486885872947835 0.0064091330078473513 0 0.027556587638792016 0.0066693608695501325 0 0.027617257714909044 0.0067715328454297794 0 0.027555189848453746 0.0064784313913919611 0 0.027556587638792016 0.0066693608695501325 0 0.027617257714909044 0.0067715328454297794 0 0.027556587638792016 0.0066693608695501325 0 0.027527781047264381 0.0071709071933794364 0 0.026901581688136868 0.0099609882083915528 0 0.027527781047264381 0.0071709071933794364 0 0.02671951379035618 0.0071681445068785508 0 0.028363876771245737 0.011167460291093922 0 0.026901581688136868 0.0099609882083915528 0 0.027527781047264381 0.0071709071933794364 0 0.026901581688136868 0.0099609882083915528 0 0.024638212484661547 0.01219333590491182 0 0.02671951379035618 0.0071681445068785508 0 0.029641121560407251 0.010149149920979445 0 0.030055819195684827 0.0086079098161278636 0 0.033552021042600466 0.009061705814634332 0 0.033582637477962002 0.009341475212891498 0 0.033600612167042875 0.008801020879514735 0 0.028363876771245737 0.011167460291093922 0 0.026901581688136868 0.0099609882083915528 0 0.026726805523632907 0.012786676460322464 0 0.026901581688136868 0.0099609882083915528 0 0.024638212484661547 0.01219333590491182 0 0.026726805523632907 0.012786676460322464 0 0.026726805523632907 0.012786676460322464 0 0.025700031520140543 0.013798933833874915 0 0.02640943764255119 0.014527283601603583 0 0.028205136362433585 0.013761983540181219 0 0.026726805523632907 0.012786676460322464 0 0.02640943764255119 0.014527283601603583 0 0.024638212484661547 0.01219333590491182 0 0.026726805523632907 0.012786676460322464 0 0.025700031520140543 0.013798933833874915 0 0.024638212484661547 0.01219333590491182 0 0.025466871342852106 0.013976224294853722 0 0.025700031520140543 0.013798933833874915 0 0.024638212484661547 0.01219333590491182 0 0.025466871342852106 0.013976224294853722 0 0.026303286490814377 0.014733850774592517 0 0.025466871342852106 0.013976224294853722 0 0.025700031520140543 0.013798933833874915 0 0.025073722758126381 0.014737392664111323 0 0.025466871342852106 0.013976224294853722 0 0.025073722758126381 0.014737392664111323 0 0.026303286490814377 0.014733850774592517 0 0.027050689497902347 0.015595964723464095 0 0.02640943764255119 0.014527283601603583 0 0.025854286918258428 0.016259992858465955 0 0.025073722758126381 0.014737392664111323 0 0.02640943764255119 0.014527283601603583 0 0.025854286918258428 0.016259992858465955 0 0.025700031520140543 0.013798933833874915 0 0.025073722758126381 0.014737392664111323 0 0.02640943764255119 0.014527283601603583 0 0.032776845682840908 0.010802073528404314 0 0.032715486048975284 0.011084339955008999 0 0.031657058062308029 0.010368089314664661 0 0.032733610815542893 0.0095388211603424714 0 0.029839642609985718 0.010380380293885423 0 0.030660472991492556 0.010959140188796073 0 0.031657058062308029 0.010368089314664661 0 0.029839642609985718 0.010380380293885423 0 0.030660472991492556 0.010959140188796073 0 0.029839642609985718 0.010380380293885423 0 0.029868482853553271 0.011302633600896617 0 0.031657058062308029 0.010368089314664661 0 0.032978702546992686 0.0097977983571848268 0 0.029464187362085607 0.012011235474032539 0 0.025073722758126381 0.014737392664111323 0 0.026303286490814377 0.014733850774592517 0 0.028344927245696514 0.012150437412916664 0 0.031657058062308029 0.010368089314664661 0 0.032978702546992686 0.0097977983571848268 0 0.032733610815542893 0.0095388211603424714 0 0.033582637477962002 0.009341475212891498 0 0.032978702546992686 0.0097977983571848268 0 0.033253686980126387 0.0094506084053007713 0 0.032978702546992686 0.0097977983571848268 0 0.032733610815542893 0.0095388211603424714 0 0.033253686980126387 0.0094506084053007713 0 0.029641121560407251 0.010149149920979445 0 0.029592334053449236 0.011099842380104684 0 0.032733610815542893 0.0095388211603424714 0 0.033520749257318308 0.0095089585528888316 0 0.033932270712255339 0.008887526491788679 0 0.032733610815542893 0.0095388211603424714 0 0.033520749257318308 0.0095089585528888316 0 0.033253686980126387 0.0094506084053007713 0 0.033520749257318308 0.0095089585528888316 0 0.033749788956664681 0.0096143682416578446 0 0.034151684624277277 0.0096958724940878968 0 0.033520749257318308 0.0095089585528888316 0 0.033749788956664681 0.0096143682416578446 0 0.033253686980126387 0.0094506084053007713 0 0.033749788956664681 0.0096143682416578446 0 0.033253686980126387 0.0094506084053007713 0 0.033527997426481493 0.0093384690678829617 0 0.033582637477962002 0.009341475212891498 0 0.033253686980126387 0.0094506084053007713 0 0.033527997426481493 0.0093384690678829617 0 0.033552021042600466 0.009061705814634332 0 0.033527997426481493 0.0093384690678829617 0 0.033702997215807808 0.0091245228681470624 0 0.033552021042600466 0.009061705814634332 0 0.033582637477962002 0.009341475212891498 0 0.033527997426481493 0.0093384690678829617 0 0.033749788956664681 0.0096143682416578446 0 0.033527997426481493 0.0093384690678829617 0 0.033939206355835472 0.009492702193168126 0 0.033749788956664681 0.0096143682416578446 0 0.033939206355835472 0.009492702193168126 0 0.034355933944589849 0.0099108303289279134 0 0.033527997426481493 0.0093384690678829617 0 0.033939206355835472 0.009492702193168126 0 0.033702997215807808 0.0091245228681470624 0 0.033939206355835472 0.009492702193168126 0 0.033969357004425577 0.009114323454216873 0 0.033702997215807808 0.0091245228681470624 0 0.033969357004425577 0.009114323454216873 0 0.033632115215855879 0.0087896165136614728 0 0.033702997215807808 0.0091245228681470624 0 0.033969357004425577 0.009114323454216873 0 0.033632115215855879 0.0087896165136614728 0 0.033638477797251397 0.0085434215843947382 0 0.033969357004425577 0.009114323454216873 0 0.033638477797251397 0.0085434215843947382 0 0.034030304678463637 0.0087827179124015872 0 0.033632115215855879 0.0087896165136614728 0 0.033416484383842954 0.0084064480680525657 0 0.033638477797251397 0.0085434215843947382 0 0.033632115215855879 0.0087896165136614728 0 0.033702997215807808 0.0091245228681470624 0 0.033512637551117941 0.008784071520374942 0 0.033552021042600466 0.009061705814634332 0 0.033702997215807808 0.0091245228681470624 0 0.033512637551117941 0.008784071520374942 0 0.033512637551117941 0.008784071520374942 0 0.033600612167042875 0.008801020879514735 0 0.03334813310854564 0.0083813341259781123 0 0.033552021042600466 0.009061705814634332 0 0.033512637551117941 0.008784071520374942 0 0.033600612167042875 0.008801020879514735 0 0.030209777791414382 0.0077890065328455414 0 0.030055819195684827 0.0086079098161278636 0 0.027869921462599506 0.0063727566146492545 0 0.027527781047264381 0.0071709071933794364 0 0.02671951379035618 0.0071681445068785508 0 0.033088295398004758 0.008010617108632611 0 0.033600612167042875 0.008801020879514735 0 0.03334813310854564 0.0083813341259781123 0 0.033512637551117941 0.008784071520374942 0 0.03334813310854564 0.0083813341259781123 0 0.033416484383842954 0.0084064480680525657 0 0.033632115215855879 0.0087896165136614728 0 0.033512637551117941 0.008784071520374942 0 0.033416484383842954 0.0084064480680525657 0 0.03334813310854564 0.0083813341259781123 0 0.033416484383842954 0.0084064480680525657 0 0.033021929645378222 0.0079026511975879409 0 0.033416484383842954 0.0084064480680525657 0 0.033021929645378222 0.0079026511975879409 0 0.033377431639115038 0.0082181472382986034 0 0.033088295398004758 0.008010617108632611 0 0.03334813310854564 0.0083813341259781123 0 0.033021929645378222 0.0079026511975879409 0 0.033198302664830266 0.0080283816926534912 0 0.033021929645378222 0.0079026511975879409 0 0.033377431639115038 0.0082181472382986034 0 0.033198302664830266 0.0080283816926534912 0 0.033377431639115038 0.0082181472382986034 0 0.033652846389630092 0.0083637292432807292 0 0.033652846389630092 0.0083637292432807292 0 0.033638477797251397 0.0085434215843947382 0 0.034030304678463637 0.0087827179124015872 0 0.033377431639115038 0.0082181472382986034 0 0.033652846389630092 0.0083637292432807292 0 0.033638477797251397 0.0085434215843947382 0 0.033416484383842954 0.0084064480680525657 0 0.033377431639115038 0.0082181472382986034 0 0.033638477797251397 0.0085434215843947382 0 0.034493487566135947 0.008993652391412723 0 0.034146153495682216 0.0085944944867387876 0 0.034507752580119018 0.0086937721502264934 0 0.034493487566135947 0.008993652391412723 0 0.034030304678463637 0.0087827179124015872 0 0.034146153495682216 0.0085944944867387876 0 0.033652846389630092 0.0083637292432807292 0 0.034030304678463637 0.0087827179124015872 0 0.034146153495682216 0.0085944944867387876 0 0.033858063244480117 0.0083461000417001368 0 0.033652846389630092 0.0083637292432807292 0 0.034146153495682216 0.0085944944867387876 0 0.0342410470664773 0.008333714062663521 0 0.034146153495682216 0.0085944944867387876 0 0.034507752580119018 0.0086937721502264934 0 0.034681219992501074 0.0083329340757937916 0 0.034507752580119018 0.0086937721502264934 0 0.034734141719924061 0.0087720680761887316 0 0.034681219992501074 0.0083329340757937916 0 0.0342410470664773 0.008333714062663521 0 0.034507752580119018 0.0086937721502264934 0 0.034681219992501074 0.0083329340757937916 0 0.034734141719924061 0.0087720680761887316 0 0.034730326010663358 0.0085403821029082731 0 0.034734141719924061 0.0087720680761887316 0 0.034934234515352693 0.0094720746978078866 0 0.034769108303207695 0.0089349180125118301 0 0.034734141719924061 0.0087720680761887316 0 0.034728580301235573 0.0091065402491059804 0 0.034934234515352693 0.0094720746978078866 0 0.034734141719924061 0.0087720680761887316 0 0.034769108303207695 0.0089349180125118301 0 0.034730326010663358 0.0085403821029082731 0 0.034507752580119018 0.0086937721502264934 0 0.034734141719924061 0.0087720680761887316 0 0.034728580301235573 0.0091065402491059804 0 0.034493487566135947 0.008993652391412723 0 0.034507752580119018 0.0086937721502264934 0 0.034728580301235573 0.0091065402491059804 0 0.034728580301235573 0.0091065402491059804 0 0.034843386518229311 0.0095770157732682718 0 0.034934234515352693 0.0094720746978078866 0 0.034493487566135947 0.008993652391412723 0 0.034728580301235573 0.0091065402491059804 0 0.034843386518229311 0.0095770157732682718 0 0.034934234515352693 0.0094720746978078866 0 0.035106370391670638 0.01024959094869895 0 0.034884457993772496 0.009515254228855019 0 0.034934234515352693 0.0094720746978078866 0 0.035139010825302588 0.010206930254404422 0 0.035106370391670638 0.01024959094869895 0 0.034843386518229311 0.0095770157732682718 0 0.034934234515352693 0.0094720746978078866 0 0.035139010825302588 0.010206930254404422 0 0.034843386518229311 0.0095770157732682718 0 0.035139010825302588 0.010206930254404422 0 0.034809876382993675 0.0098746703235835839 0 0.034843386518229311 0.0095770157732682718 0 0.034809876382993675 0.0098746703235835839 0 0.034449385207313735 0.0093348130778190958 0 0.034809876382993675 0.0098746703235835839 0 0.034449385207313735 0.0093348130778190958 0 0.034411578300556168 0.0096695879855320278 0 0.034493487566135947 0.008993652391412723 0 0.034843386518229311 0.0095770157732682718 0 0.034449385207313735 0.0093348130778190958 0 0.034493487566135947 0.008993652391412723 0 0.034030304678463637 0.0087827179124015872 0 0.034449385207313735 0.0093348130778190958 0 0.033969357004425577 0.009114323454216873 0 0.034030304678463637 0.0087827179124015872 0 0.034449385207313735 0.0093348130778190958 0 0.033969357004425577 0.009114323454216873 0 0.034449385207313735 0.0093348130778190958 0 0.034411578300556168 0.0096695879855320278 0 0.033939206355835472 0.009492702193168126 0 0.033969357004425577 0.009114323454216873 0 0.034411578300556168 0.0096695879855320278 0 0.034411578300556168 0.0096695879855320278 0 0.034355933944589849 0.0099108303289279134 0 0.034781556331425281 0.010091736520692125 0 0.033939206355835472 0.009492702193168126 0 0.034411578300556168 0.0096695879855320278 0 0.034355933944589849 0.0099108303289279134 0 0.034781556331425281 0.010091736520692125 0 0.035035225124218083 0.010312587580452745 0 0.03517711546806316 0.010512448359866124 0 0.034809876382993675 0.0098746703235835839 0 0.034781556331425281 0.010091736520692125 0 0.03517711546806316 0.010512448359866124 0 0.034809876382993675 0.0098746703235835839 0 0.034411578300556168 0.0096695879855320278 0 0.034781556331425281 0.010091736520692125 0 0.034355933944589849 0.0099108303289279134 0 0.034781556331425281 0.010091736520692125 0 0.035035225124218083 0.010312587580452745 0 0.033749788956664681 0.0096143682416578446 0 0.034355933944589849 0.0099108303289279134 0 0.034151684624277277 0.0096958724940878968 0 0.034355933944589849 0.0099108303289279134 0 0.035035225124218083 0.010312587580452745 0 0.034151684624277277 0.0096958724940878968 0 0.033520749257318308 0.0095089585528888316 0 0.034151684624277277 0.0096958724940878968 0 0.033932270712255339 0.008887526491788679 0 0.034151684624277277 0.0096958724940878968 0 0.034756705995160155 0.0093646909120002585 0 0.033932270712255339 0.008887526491788679 0 0.035035225124218083 0.010312587580452745 0 0.034151684624277277 0.0096958724940878968 0 0.034756705995160155 0.0093646909120002585 0 0.035035225124218083 0.010312587580452745 0 0.034756705995160155 0.0093646909120002585 0 0.035605647694340908 0.009322570690451365 0 0.035395990121717749 0.011440405462226145 0 0.035329921098106093 0.011770071254488663 0 0.034756705995160155 0.0093646909120002585 0 0.035057028227263011 0.0086597634622295645 0 0.035605647694340908 0.009322570690451365 0 0.033103980599138175 0.011926510718964289 0 0.032715486048975284 0.011084339955008999 0 0.034756705995160155 0.0093646909120002585 0 0.035057028227263011 0.0086597634622295645 0 0.033932270712255339 0.008887526491788679 0 0.029528167030854598 0.010995021968732668 0 0.029839642609985718 0.010380380293885423 0 0.02967635527709073 0.011235143052230084 0 0.029839642609985718 0.010380380293885423 0 0.029868482853553271 0.011302633600896617 0 0.02967635527709073 0.011235143052230084 0 0.03442158565743212 0.013648627289193456 0 0.035316569279736837 0.013879232893591369 0 0.03784446215104828 0.015955688165611805 0 0.039395131134685665 0.015498379855259906 0 0.036156596979749524 0.013106913943773625 0 0.035579797275266223 0.011708936597440232 0 0.035632222314498758 0.012116322609235125 0 0.036156596979749524 0.013106913943773625 0 0.034946699304695406 0.013643727966651854 0 0.03442158565743212 0.013648627289193456 0 0.033103980599138175 0.011926510718964289 0 0.03442158565743212 0.013648627289193456 0 0.035579797275266223 0.011708936597440232 0 0.035470607647592051 0.011716936088053166 0 0.035632222314498758 0.012116322609235125 0 0.03442158565743212 0.013648627289193456 0 0.035329921098106093 0.011770071254488663 0 0.035057028227263011 0.0086597634622295645 0 0.036185044348279835 0.0085303118915987623 0 0.035605647694340908 0.009322570690451365 0 0.035035225124218083 0.010312587580452745 0 0.035470607647592051 0.011716936088053166 0 0.035424766786902942 0.011286504439004684 0 0.035470607647592051 0.011716936088053166 0 0.035632222314498758 0.012116322609235125 0 0.035424766786902942 0.011286504439004684 0 0.035632222314498758 0.012116322609235125 0 0.035666855050981792 0.012027710366255306 0 0.036156596979749524 0.013106913943773625 0 0.035632222314498758 0.012116322609235125 0 0.035666855050981792 0.012027710366255306 0 0.035424766786902942 0.011286504439004684 0 0.035666855050981792 0.012027710366255306 0 0.03541017625438328 0.011116853416242661 0 0.035543263465812477 0.01210465478932385 0 0.035666855050981792 0.012027710366255306 0 0.035424766786902942 0.011286504439004684 0 0.03541017625438328 0.011116853416242661 0 0.035424766786902942 0.011286504439004684 0 0.03517711546806316 0.010512448359866124 0 0.03541017625438328 0.011116853416242661 0 0.035035225124218083 0.010312587580452745 0 0.035424766786902942 0.011286504439004684 0 0.03517711546806316 0.010512448359866124 0 0.035139010825302588 0.010206930254404422 0 0.03517711546806316 0.010512448359866124 0 0.03541017625438328 0.011116853416242661 0 0.035139010825302588 0.010206930254404422 0 0.034809876382993675 0.0098746703235835839 0 0.03517711546806316 0.010512448359866124 0 0.035139010825302588 0.010206930254404422 0 0.03541017625438328 0.011116853416242661 0 0.035106370391670638 0.01024959094869895 0 0.03541017625438328 0.011116853416242661 0 0.035085048855541298 0.011304547155601346 0 0.035543263465812477 0.01210465478932385 0 0.03541017625438328 0.011116853416242661 0 0.035085048855541298 0.011304547155601346 0 0.035106370391670638 0.01024959094869895 0 0.035085048855541298 0.011304547155601346 0 0.03514960763529338 0.012859879604116588 0 0.034016785823987136 0.011495056805240765 0 0.035085048855541298 0.011304547155601346 0 0.034016785823987136 0.011495056805240765 0 0.03459366408455708 0.010707128747773527 0 0.03514960763529338 0.012859879604116588 0 0.035543263465812477 0.01210465478932385 0 0.036156596979749524 0.013106913943773625 0 0.035085048855541298 0.011304547155601346 0 0.03514960763529338 0.012859879604116588 0 0.035543263465812477 0.01210465478932385 0 0.035666855050981792 0.012027710366255306 0 0.035543263465812477 0.01210465478932385 0 0.036156596979749524 0.013106913943773625 0 0.036156596979749524 0.013106913943773625 0 0.03520540149162963 0.014243648957606932 0 0.035599219672577863 0.015215198485138005 0 0.03514960763529338 0.012859879604116588 0 0.03520540149162963 0.014243648957606932 0 0.034652734178706478 0.014157363682400738 0 0.03514960763529338 0.012859879604116588 0 0.036156596979749524 0.013106913943773625 0 0.03520540149162963 0.014243648957606932 0 0.035599219672577863 0.015215198485138005 0 0.03492273947947664 0.015487424790926024 0 0.035199378716985981 0.016519151004187178 0 0.03520540149162963 0.014243648957606932 0 0.035599219672577863 0.015215198485138005 0 0.03492273947947664 0.015487424790926024 0 0.035599219672577863 0.015215198485138005 0 0.035199378716985981 0.016519151004187178 0 0.035655577790637924 0.016631468802614065 0 0.035599219672577863 0.015215198485138005 0 0.036209093772505259 0.016310904331070956 0 0.035655577790637924 0.016631468802614065 0 0.036156596979749524 0.013106913943773625 0 0.035599219672577863 0.015215198485138005 0 0.036459632085052561 0.015470252551500998 0 0.03784446215104828 0.015955688165611805 0 0.036156596979749524 0.013106913943773625 0 0.036459632085052561 0.015470252551500998 0 0.035599219672577863 0.015215198485138005 0 0.036459632085052561 0.015470252551500998 0 0.036209093772505259 0.016310904331070956 0 0.034992764180758952 0.016896658593034301 0 0.03492273947947664 0.015487424790926024 0 0.034996268881796369 0.016344793764062469 0 0.034992764180758952 0.016896658593034301 0 0.034996268881796369 0.016344793764062469 0 0.035000272087784202 0.017627330300764257 0 0.034992764180758952 0.016896658593034301 0 0.03492273947947664 0.015487424790926024 0 0.035199378716985981 0.016519151004187178 0 0.03492273947947664 0.015487424790926024 0 0.034652734178706478 0.014157363682400738 0 0.034996268881796369 0.016344793764062469 0 0.03520540149162963 0.014243648957606932 0 0.03492273947947664 0.015487424790926024 0 0.034652734178706478 0.014157363682400738 0 0.035000009257101165 0.016346989279893403 0 0.035756531169098799 0.014886491170826346 0 0.034999977107846365 0.015191996602431103 0 0.034999776805007966 0.016343941919869952 0 0.035278192015773882 0.01425474679119898 0 0.034652734178706478 0.014157363682400738 0 0.034996268881796369 0.016344793764062469 0 0.033976764260345453 0.013648781256383857 0 0.035756531169098799 0.014886491170826346 0 0.034999977107846365 0.015191996602431103 0 0.035000008051294586 0.014037132916759544 0 0.03514960763529338 0.012859879604116588 0 0.034652734178706478 0.014157363682400738 0 0.034016785823987136 0.011495056805240765 0 0.034652734178706478 0.014157363682400738 0 0.033976764260345453 0.013648781256383857 0 0.034016785823987136 0.011495056805240765 0 0.035278192015773882 0.01425474679119898 0 0.035427569207077528 0.012669863714534976 0 0.035756531169098799 0.014886491170826346 0 0.035000008051294586 0.014037132916759544 0 0.035634451625796856 0.013529060663556617 0 0.035756531169098799 0.014886491170826346 0 0.036466812584985221 0.013468192976521087 0 0.035634451625796856 0.013529060663556617 0 0.034999597742130711 0.014044551823603965 0 0.035526040594787936 0.01285445811299399 0 0.035000008051294586 0.014037132916759544 0 0.035634451625796856 0.013529060663556617 0 0.035104030325152691 0.012931319331154451 0 0.036466812584985221 0.013468192976521087 0 0.035634451625796856 0.013529060663556617 0 0.035950666476829402 0.01273725068148719 0 0.035104030325152691 0.012931319331154451 0 0.035950666476829402 0.01273725068148719 0 0.035197393372908413 0.011845935466538095 0 0.035526040594787936 0.01285445811299399 0 0.035035920462278047 0.011579560606597388 0 0.034903133024925079 0.012874581919886741 0 0.034999904386045042 0.011686000414561354 0 0.035183582491516284 0.0117122559089932 0 0.035634451625796856 0.013529060663556617 0 0.035104030325152691 0.012931319331154451 0 0.035950666476829402 0.01273725068148719 0 0.035950666476829402 0.01273725068148719 0 0.035197393372908413 0.011845935466538095 0 0.036185211469945258 0.011981245909332373 0 0.034440725043628551 0.0089938919490521133 0 0.034572580574330172 0.0088754536373398408 0 0.034552758992400387 0.0086704496110808355 0 0.035035920462278047 0.011579560606597388 0 0.035065947151018274 0.010122033950558461 0 0.035000207799984057 0.011686261355064793 0 0.0351931765916269 0.011712175013510571 0 0.035346955353328081 0.010236321664983738 0 0.035000452150038081 0.01168409962842344 0 0.035035920462278047 0.011579560606597388 0 0.035035920462278047 0.011579560606597388 0 0.035242621831335336 0.011490919508697879 0 0.034440725043628551 0.0089938919490521133 0 0.034572580574330172 0.0088754536373398408 0 0.034580717878993215 0.0090170572449716022 0 0.034571731531381232 0.0090381365197285037 0 0.034559950451357235 0.0090121778626193645 0 0.03459989179736539 0.008853114252775407 0 0.034572580574330172 0.0088754536373398408 0 0.034571731531381232 0.0090381365197285037 0 0.03459989179736539 0.008853114252775407 0 0.034572580574330172 0.0088754536373398408 0 0.034571731531381232 0.0090381365197285037 0 0.034580717878993215 0.0090170572449716022 0 0.035242621831335336 0.011490919508697879 0 0.035416823637485328 0.011592696054860695 0 0.034571731531381232 0.0090381365197285037 0 0.034580717878993215 0.0090170572449716022 0 0.034537695184971011 0.0090872892128572545 0 0.035950666476829402 0.01273725068148719 0 0.036185211469945258 0.011981245909332373 0 0.037168396959731037 0.012111565225591238 0 0.036466812584985221 0.013468192976521087 0 0.035950666476829402 0.01273725068148719 0 0.037168396959731037 0.012111565225591238 0 0.035427569207077528 0.012669863714534976 0 0.035416823637485328 0.011592696054860695 0 0.035085048855541298 0.011304547155601346 0 0.03459366408455708 0.010707128747773527 0 0.034804054186971488 0.0099236447943501851 0 0.034016785823987136 0.011495056805240765 0 0.03459366408455708 0.010707128747773527 0 0.034288493991686916 0.010064416871591602 0 0.03459366408455708 0.010707128747773527 0 0.034804054186971488 0.0099236447943501851 0 0.034288493991686916 0.010064416871591602 0 0.035207055979897331 0.01142682405224673 0 0.035416823637485328 0.011592696054860695 0 0.035085048855541298 0.011304547155601346 0 0.035106370391670638 0.01024959094869895 0 0.034804054186971488 0.0099236447943501851 0 0.035106370391670638 0.01024959094869895 0 0.034804054186971488 0.0099236447943501851 0 0.034884457993772496 0.009515254228855019 0 0.034804054186971488 0.0099236447943501851 0 0.034884457993772496 0.009515254228855019 0 0.034731754068327986 0.0091827531683455945 0 0.034884457993772496 0.009515254228855019 0 0.034731754068327986 0.0091827531683455945 0 0.034769108303207695 0.0089349180125118301 0 0.034934234515352693 0.0094720746978078866 0 0.034884457993772496 0.009515254228855019 0 0.034769108303207695 0.0089349180125118301 0 0.034571731531381232 0.0090381365197285037 0 0.034483041759083483 0.009228477139983109 0 0.034537695184971011 0.0090872892128572545 0 0.035441158360153401 0.011466037458310386 0 0.035416823637485328 0.011592696054860695 0 0.034804054186971488 0.0099236447943501851 0 0.034483041759083483 0.009228477139983109 0 0.034315394129370201 0.0095421921920900068 0 0.034804054186971488 0.0099236447943501851 0 0.034731754068327986 0.0091827531683455945 0 0.034483041759083483 0.009228477139983109 0 0.034731754068327986 0.0091827531683455945 0 0.034483041759083483 0.009228477139983109 0 0.034604761904543084 0.0090731507744822772 0 0.034571731531381232 0.0090381365197285037 0 0.034483041759083483 0.009228477139983109 0 0.034559950451357235 0.0090121778626193645 0 0.034483041759083483 0.009228477139983109 0 0.034604761904543084 0.0090731507744822772 0 0.034559950451357235 0.0090121778626193645 0 0.034627081722991712 0.0088270784516282837 0 0.034769108303207695 0.0089349180125118301 0 0.03469969890021888 0.0085169766857111345 0 0.034604761904543084 0.0090731507744822772 0 0.034559950451357235 0.0090121778626193645 0 0.034627081722991712 0.0088270784516282837 0 0.034559950451357235 0.0090121778626193645 0 0.034627081722991712 0.0088270784516282837 0 0.03459989179736539 0.008853114252775407 0 0.034731754068327986 0.0091827531683455945 0 0.034604761904543084 0.0090731507744822772 0 0.034627081722991712 0.0088270784516282837 0 0.034627081722991712 0.0088270784516282837 0 0.03469969890021888 0.0085169766857111345 0 0.034699287913764032 0.0085078950004726355 0 0.034731754068327986 0.0091827531683455945 0 0.034627081722991712 0.0088270784516282837 0 0.034769108303207695 0.0089349180125118301 0 0.034769108303207695 0.0089349180125118301 0 0.034730326010663358 0.0085403821029082731 0 0.03469969890021888 0.0085169766857111345 0 0.034699782929955875 0.0081734959347263599 0 0.034681219992501074 0.0083329340757937916 0 0.034730326010663358 0.0085403821029082731 0 0.034699782929955875 0.0081734959347263599 0 0.034730326010663358 0.0085403821029082731 0 0.03469969890021888 0.0085169766857111345 0 0.03469969890021888 0.0085169766857111345 0 0.034745836081248767 0.0082701204549245032 0 0.034699287913764032 0.0085078950004726355 0 0.034699782929955875 0.0081734959347263599 0 0.03469969890021888 0.0085169766857111345 0 0.034745836081248767 0.0082701204549245032 0 0.034745836081248767 0.0082701204549245032 0 0.034809412084886512 0.008276888168902638 0 0.034699287913764032 0.0085078950004726355 0 0.034809412084886512 0.008276888168902638 0 0.034699287913764032 0.0085078950004726355 0 0.034733652142966927 0.0085338627622657901 0 0.034699287913764032 0.0085078950004726355 0 0.034733652142966927 0.0085338627622657901 0 0.034656403373855615 0.0086563126846295434 0 0.035059652331860133 0.008565259573181553 0 0.034733652142966927 0.0085338627622657901 0 0.034552758992400387 0.0086704496110808355 0 0.035082058087430888 0.0096421905872273207 0 0.035065947151018274 0.010122033950558461 0 0.035059652331860133 0.008565259573181553 0 0.034809412084886512 0.008276888168902638 0 0.034733652142966927 0.0085338627622657901 0 0.035059652331860133 0.008565259573181553 0 0.034999668531329936 0.009616457951802642 0 0.035346955353328081 0.010236321664983738 0 0.034733652142966927 0.0085338627622657901 0 0.034552758992400387 0.0086704496110808355 0 0.034630355882182613 0.0087135447382841614 0 0.035000207799984057 0.011686261355064793 0 0.034999668531329936 0.009616457951802642 0 0.035346955353328081 0.010236321664983738 0 0.034572580574330172 0.0088754536373398408 0 0.034552758992400387 0.0086704496110808355 0 0.034630355882182613 0.0087135447382841614 0 0.034572580574330172 0.0088754536373398408 0 0.03459989179736539 0.008853114252775407 0 0.034630355882182613 0.0087135447382841614 0 0.034627081722991712 0.0088270784516282837 0 0.03459989179736539 0.008853114252775407 0 0.034656403373855615 0.0086563126846295434 0 0.034627081722991712 0.0088270784516282837 0 0.034699287913764032 0.0085078950004726355 0 0.034656403373855615 0.0086563126846295434 0 0.034733652142966927 0.0085338627622657901 0 0.034656403373855615 0.0086563126846295434 0 0.034630355882182613 0.0087135447382841614 0 0.03459989179736539 0.008853114252775407 0 0.034656403373855615 0.0086563126846295434 0 0.034630355882182613 0.0087135447382841614 0 0.036176700142397378 0.025383255580805598 0 0.03716618724409744 0.024480345841080411 0 0.036049714772466705 0.023750769000055971 0 0.036176700142397378 0.025383255580805598 0 0.034999732914876659 0.025095896581446592 0 0.036049714772466705 0.023750769000055971 0 0.034999732914876659 0.025095896581446592 0 0.036087567656018192 0.026698909446189124 0 0.034999949902253975 0.027158279123177583 0 0.036176700142397378 0.025383255580805598 0 0.034999732914876659 0.025095896581446592 0 0.036087567656018192 0.026698909446189124 0 0.036176700142397378 0.025383255580805598 0 0.036971542230077807 0.026654486195506692 0 0.036087567656018192 0.026698909446189124 0 0.036971542230077807 0.026654486195506692 0 0.036815403366205472 0.027072068778549566 0 0.036867277293809883 0.027014217695272461 0 0.036176700142397378 0.025383255580805598 0 0.036971542230077807 0.026654486195506692 0 0.03716618724409744 0.024480345841080411 0 0.036971542230077807 0.026654486195506692 0 0.036815403366205472 0.027072068778549566 0 0.036990227066115336 0.027021721175072011 0 0.036898708185351924 0.025861908771976177 0 0.036803263043235515 0.025439920495250189 0 0.036990227066115336 0.027021721175072011 0 0.036878112986343033 0.027115885900257739 0 0.036914335016570238 0.027129816844613117 0 0.036815403366205472 0.027072068778549566 0 0.036990227066115336 0.027021721175072011 0 0.036878112986343033 0.027115885900257739 0 0.036803263043235515 0.025439920495250189 0 0.036488626494299917 0.024414187340207446 0 0.036815403366205472 0.027072068778549566 0 0.036878112986343033 0.027115885900257739 0 0.036798708830209997 0.027153597384655153 0 0.036815403366205472 0.027072068778549566 0 0.036798708830209997 0.027153597384655153 0 0.036727433478715786 0.027154352172058548 0 0.035958558016661687 0.022185454697057672 0 0.034561090123335185 0.021424450228476642 0 0.036878112986343033 0.027115885900257739 0 0.036798708830209997 0.027153597384655153 0 0.036847548016140687 0.027163634338605257 0 0.036798708830209997 0.027153597384655153 0 0.036847548016140687 0.027163634338605257 0 0.036738822520253012 0.027138537826924426 0 0.036878112986343033 0.027115885900257739 0 0.036914335016570238 0.027129816844613117 0 0.036847548016140687 0.027163634338605257 0 0.036926120254562558 0.022642257871414332 0 0.036049714772466705 0.023750769000055971 0 0.0358042572703677 0.021988729637310821 0 0.03716618724409744 0.024480345841080411 0 0.036926120254562558 0.022642257871414332 0 0.036049714772466705 0.023750769000055971 0 0.034999732914876659 0.025095896581446592 0 0.036049714772466705 0.023750769000055971 0 0.034999923693984837 0.023032889241994668 0 0.034999923693984837 0.023032889241994668 0 0.0358042572703677 0.021988729637310821 0 0.034999906963124335 0.020970007659505761 0 0.036049714772466705 0.023750769000055971 0 0.034999923693984837 0.023032889241994668 0 0.0358042572703677 0.021988729637310821 0 0.0358042572703677 0.021988729637310821 0 0.035753931111205138 0.021100264630034921 0 0.034999906963124335 0.020970007659505761 0 0.0358042572703677 0.021988729637310821 0 0.035753931111205138 0.021100264630034921 0 0.036600579031107985 0.020930238357057891 0 0.035753931111205138 0.021100264630034921 0 0.034999906963124335 0.020970007659505761 0 0.035309427624037423 0.020237659424747517 0 0.036488626494299917 0.024414187340207446 0 0.0357022250798446 0.022046034925501008 0 0.036926120254562558 0.022642257871414332 0 0.0358042572703677 0.021988729637310821 0 0.036600579031107985 0.020930238357057891 0 0.036830147138259828 0.020815844088584542 0 0.036536187481217022 0.019528048810673757 0 0.035309427624037423 0.020237659424747517 0 0.036584907472414718 0.018618661417453108 0 0.036357824827462588 0.019001323451224104 0 0.03613051950659063 0.018563883839852403 0 0.036584907472414718 0.018618661417453108 0 0.036357824827462588 0.019001323451224104 0 0.036536187481217022 0.019528048810673757 0 0.0357022250798446 0.022046034925501008 0 0.035670577125827919 0.021359371347284946 0 0.036357824827462588 0.019001323451224104 0 0.036536187481217022 0.019528048810673757 0 0.036588532642017453 0.019379658749190891 0 0.036536187481217022 0.019528048810673757 0 0.035309427624037423 0.020237659424747517 0 0.035000183418208895 0.018907075623186012 0 0.034999906963124335 0.020970007659505761 0 0.035309427624037423 0.020237659424747517 0 0.035000183418208895 0.018907075623186012 0 0.035753931111205138 0.021100264630034921 0 0.036600579031107985 0.020930238357057891 0 0.035309427624037423 0.020237659424747517 0 0.0357022250798446 0.022046034925501008 0 0.035510480924046371 0.021701421953615099 0 0.036536187481217022 0.019528048810673757 0 0.035000183418208895 0.018907075623186012 0 0.036588532642017453 0.019379658749190891 0 0.034998910573513335 0.018904725270675989 0 0.035093662574641367 0.018118104985389741 0 0.035040624655123309 0.017951368994153637 0 0.034998910573513335 0.018904725270675989 0 0.035092155100082609 0.018126695355315952 0 0.035093662574641367 0.018118104985389741 0 0.035000572808816299 0.018907230163815559 0 0.035533796449754712 0.01894441290402394 0 0.035092155100082609 0.018126695355315952 0 0.035144658161368497 0.018027916493161749 0 0.035093662574641367 0.018118104985389741 0 0.035092155100082609 0.018126695355315952 0 0.035144658161368497 0.018027916493161749 0 0.035435238460473951 0.01815245714439449 0 0.035216720571232318 0.017806797090256826 0 0.035144658161368497 0.018027916493161749 0 0.035435238460473951 0.01815245714439449 0 0.035216720571232318 0.017806797090256826 0 0.035093662574641367 0.018118104985389741 0 0.035111521478180079 0.017466673293866371 0 0.035216720571232318 0.017806797090256826 0 0.035144658161368497 0.018027916493161749 0 0.035093662574641367 0.018118104985389741 0 0.034992764180758952 0.016896658593034301 0 0.035111521478180079 0.017466673293866371 0 0.035199378716985981 0.016519151004187178 0 0.035216720571232318 0.017806797090256826 0 0.035111521478180079 0.017466673293866371 0 0.03539117028770556 0.017299522842582984 0 0.035111521478180079 0.017466673293866371 0 0.035199378716985981 0.016519151004187178 0 0.03539117028770556 0.017299522842582984 0 0.034998910573513335 0.018904725270675989 0 0.035000272087784202 0.017627330300764257 0 0.035040624655123309 0.017951368994153637 0 0.034992764180758952 0.016896658593034301 0 0.035111521478180079 0.017466673293866371 0 0.035040624655123309 0.017951368994153637 0 0.034992764180758952 0.016896658593034301 0 0.035000272087784202 0.017627330300764257 0 0.035040624655123309 0.017951368994153637 0 0.035093662574641367 0.018118104985389741 0 0.035111521478180079 0.017466673293866371 0 0.035040624655123309 0.017951368994153637 0 0.036021856271094638 0.017490774106537876 0 0.036942792659755232 0.016576270420305537 0 0.037531521631906282 0.017332885458449271 0 0.03784446215104828 0.015955688165611805 0 0.036459632085052561 0.015470252551500998 0 0.036942792659755232 0.016576270420305537 0 0.036459632085052561 0.015470252551500998 0 0.036942792659755232 0.016576270420305537 0 0.036209093772505259 0.016310904331070956 0 0.036021856271094638 0.017490774106537876 0 0.036942792659755232 0.016576270420305537 0 0.036209093772505259 0.016310904331070956 0 0.036021856271094638 0.017490774106537876 0 0.036209093772505259 0.016310904331070956 0 0.035655577790637924 0.016631468802614065 0 0.035199378716985981 0.016519151004187178 0 0.035655577790637924 0.016631468802614065 0 0.03539117028770556 0.017299522842582984 0 0.036021856271094638 0.017490774106537876 0 0.035655577790637924 0.016631468802614065 0 0.03539117028770556 0.017299522842582984 0 0.036021856271094638 0.017490774106537876 0 0.035551153062178639 0.017946621422433962 0 0.035811155259235485 0.018335278135855088 0 0.036021856271094638 0.017490774106537876 0 0.03539117028770556 0.017299522842582984 0 0.035551153062178639 0.017946621422433962 0 0.035216720571232318 0.017806797090256826 0 0.035551153062178639 0.017946621422433962 0 0.035435238460473951 0.01815245714439449 0 0.035216720571232318 0.017806797090256826 0 0.03539117028770556 0.017299522842582984 0 0.035551153062178639 0.017946621422433962 0 0.035551153062178639 0.017946621422433962 0 0.035435238460473951 0.01815245714439449 0 0.035811155259235485 0.018335278135855088 0 0.035435238460473951 0.01815245714439449 0 0.035811155259235485 0.018335278135855088 0 0.035929896603272574 0.018758098591956318 0 0.034595676766684222 0.016648084584327406 0 0.034533712305397223 0.016050246467721862 0 0.036021856271094638 0.017490774106537876 0 0.036118674459793991 0.018735611681542572 0 0.037531521631906282 0.017332885458449271 0 0.036021856271094638 0.017490774106537876 0 0.035811155259235485 0.018335278135855088 0 0.036118674459793991 0.018735611681542572 0 0.036118674459793991 0.018735611681542572 0 0.035786294409331683 0.018555791402978618 0 0.035150134048188821 0.018899464167989599 0 0.035811155259235485 0.018335278135855088 0 0.036118674459793991 0.018735611681542572 0 0.035929896603272574 0.018758098591956318 0 0.036118674459793991 0.018735611681542572 0 0.035786294409331683 0.018555791402978618 0 0.035929896603272574 0.018758098591956318 0 0.035786294409331683 0.018555791402978618 0 0.035929896603272574 0.018758098591956318 0 0.035897819058696538 0.01844647768320307 0 0.035092155100082609 0.018126695355315952 0 0.035435238460473951 0.01815245714439449 0 0.035929896603272574 0.018758098591956318 0 0.036357824827462588 0.019001323451224104 0 0.036588532642017453 0.019379658749190891 0 0.035929896603272574 0.018758098591956318 0 0.035533796449754712 0.01894441290402394 0 0.035776106422665578 0.018978203231721266 0 0.035929896603272574 0.018758098591956318 0 0.03613051950659063 0.018563883839852403 0 0.035897819058696538 0.01844647768320307 0 0.036357824827462588 0.019001323451224104 0 0.035929896603272574 0.018758098591956318 0 0.03613051950659063 0.018563883839852403 0 0.036584907472414718 0.018618661417453108 0 0.03613051950659063 0.018563883839852403 0 0.035965655794402154 0.01799786206608147 0 0.0357022250798446 0.022046034925501008 0 0.035958558016661687 0.022185454697057672 0 0.036914335016570238 0.027129816844613117 0 0.036901143252635028 0.027131763620126429 0 0.036847548016140687 0.027163634338605257 0 0.03613051950659063 0.018563883839852403 0 0.035897819058696538 0.01844647768320307 0 0.035965655794402154 0.01799786206608147 0 0.035669563112519523 0.018256512208516425 0 0.035965655794402154 0.01799786206608147 0 0.035344184120987117 0.01788513628419356 0 0.035786294409331683 0.018555791402978618 0 0.035669563112519523 0.018256512208516425 0 0.035221165886774111 0.018338469727383747 0 0.035786294409331683 0.018555791402978618 0 0.035669563112519523 0.018256512208516425 0 0.035897819058696538 0.01844647768320307 0 0.035669563112519523 0.018256512208516425 0 0.035897819058696538 0.01844647768320307 0 0.035965655794402154 0.01799786206608147 0 0.035344184120987117 0.01788513628419356 0 0.035221165886774111 0.018338469727383747 0 0.034652092879835575 0.017893686295387692 0 0.035221165886774111 0.018338469727383747 0 0.034652092879835575 0.017893686295387692 0 0.0345178193337662 0.01853413013607063 0 0.035669563112519523 0.018256512208516425 0 0.035344184120987117 0.01788513628419356 0 0.035221165886774111 0.018338469727383747 0 0.034652092879835575 0.017893686295387692 0 0.033815962003885161 0.018419163145106741 0 0.033224032476676595 0.016734864933908279 0 0.034652092879835575 0.017893686295387692 0 0.033815962003885161 0.018419163145106741 0 0.0345178193337662 0.01853413013607063 0 0.033815962003885161 0.018419163145106741 0 0.033972817108492329 0.018730420792092892 0 0.0345178193337662 0.01853413013607063 0 0.033972817108492329 0.018730420792092892 0 0.0345178193337662 0.01853413013607063 0 0.034369712143393447 0.018975200836296811 0 0.0345178193337662 0.01853413013607063 0 0.034369712143393447 0.018975200836296811 0 0.035150134048188821 0.018899464167989599 0 0.033972817108492329 0.018730420792092892 0 0.034369712143393447 0.018975200836296811 0 0.033818772520291369 0.01910441190272897 0 0.035221165886774111 0.018338469727383747 0 0.0345178193337662 0.01853413013607063 0 0.035150134048188821 0.018899464167989599 0 0.035786294409331683 0.018555791402978618 0 0.035221165886774111 0.018338469727383747 0 0.035150134048188821 0.018899464167989599 0 0.035150134048188821 0.018899464167989599 0 0.03450233230378446 0.0194898339882272 0 0.035369205737193703 0.019810187336212981 0 0.036118674459793991 0.018735611681542572 0 0.035150134048188821 0.018899464167989599 0 0.035369205737193703 0.019810187336212981 0 0.03450233230378446 0.0194898339882272 0 0.033752445645367689 0.019767052081773557 0 0.033818772520291369 0.01910441190272897 0 0.034369712143393447 0.018975200836296811 0 0.035150134048188821 0.018899464167989599 0 0.03450233230378446 0.0194898339882272 0 0.034369712143393447 0.018975200836296811 0 0.03450233230378446 0.0194898339882272 0 0.033818772520291369 0.01910441190272897 0 0.034736235023352463 0.020577392580606754 0 0.034666201607284279 0.020190604301132366 0 0.033752445645367689 0.019767052081773557 0 0.03450233230378446 0.0194898339882272 0 0.034666201607284279 0.020190604301132366 0 0.033752445645367689 0.019767052081773557 0 0.03442158565743212 0.013648627289193456 0 0.031827935070424605 0.015386477400701579 0 0.029528167030854598 0.010995021968732668 0 0.029147236909078705 0.011098626238134715 0 0.029616785077002706 0.011462880519652063 0 0.03784446215104828 0.015955688165611805 0 0.038884410709560238 0.015654701256468121 0 0.037531521631906282 0.017332885458449271 0 0.034736235023352463 0.020577392580606754 0 0.034666201607284279 0.020190604301132366 0 0.035369205737193703 0.019810187336212981 0 0.03442158565743212 0.013648627289193456 0 0.034533712305397223 0.016050246467721862 0 0.03450233230378446 0.0194898339882272 0 0.034666201607284279 0.020190604301132366 0 0.035369205737193703 0.019810187336212981 0 0.03784446215104828 0.015955688165611805 0 0.036942792659755232 0.016576270420305537 0 0.037531521631906282 0.017332885458449271 0 0.029944382400080419 0.011539930183596427 0 0.02967635527709073 0.011235143052230084 0 0.029616785077002706 0.011462880519652063 0 0.029944382400080419 0.011539930183596427 0 0.029868482853553271 0.011302633600896617 0 0.029921926723355901 0.011540110510905257 0 0.029944382400080419 0.011539930183596427 0 0.029868482853553271 0.011302633600896617 0 0.02967635527709073 0.011235143052230084 0 0.029528167030854598 0.010995021968732668 0 0.02967635527709073 0.011235143052230084 0 0.029616785077002706 0.011462880519652063 0 0.033752445645367689 0.019767052081773557 0 0.033818772520291369 0.01910441190272897 0 0.032955105017659088 0.019089418335932862 0 0.029944382400080419 0.011539930183596427 0 0.030325629466363614 0.011118040145695621 0 0.029464187362085607 0.012011235474032539 0 0.031827935070424605 0.015386477400701579 0 0.02961567336058972 0.017066747969942894 0 0.029944382400080419 0.011539930183596427 0 0.029616785077002706 0.011462880519652063 0 0.030325629466363614 0.011118040145695621 0 0.029755851681414289 0.022319258534763967 0 0.031872966007264025 0.020504003956610388 0 0.029674633889439514 0.01952400263238591 0 0.02961567336058972 0.017066747969942894 0 0.030725670422068984 0.017528248100180499 0 0.033818772520291369 0.01910441190272897 0 0.032955105017659088 0.019089418335932862 0 0.033516758041669245 0.018680130714847455 0 0.033972817108492329 0.018730420792092892 0 0.033818772520291369 0.01910441190272897 0 0.033516758041669245 0.018680130714847455 0 0.033815962003885161 0.018419163145106741 0 0.033972817108492329 0.018730420792092892 0 0.033516758041669245 0.018680130714847455 0 0.033815962003885161 0.018419163145106741 0 0.031693643903396525 0.018295883513328323 0 0.033224032476676595 0.016734864933908279 0 0.031264564682746208 0.017495218220443341 0 0.030725670422068984 0.017528248100180499 0 0.033815962003885161 0.018419163145106741 0 0.031872966007264025 0.020504003956610388 0 0.031693643903396525 0.018295883513328323 0 0.031693643903396525 0.018295883513328323 0 0.029674633889439514 0.01952400263238591 0 0.029668965504187805 0.016830723291699545 0 0.031872966007264025 0.020504003956610388 0 0.031693643903396525 0.018295883513328323 0 0.029674633889439514 0.01952400263238591 0 0.028078551711751939 0.017627690950390459 0 0.028916542374584363 0.016573715018931238 0 0.030237681449594701 0.017460752615316259 0 0.028078551711751939 0.017627690950390459 0 0.028916542374584363 0.016573715018931238 0 0.026956069285614632 0.016126765032206024 0 0.028916542374584363 0.016573715018931238 0 0.028553672566086995 0.015393394553241702 0 0.026956069285614632 0.016126765032206024 0 0.028916542374584363 0.016573715018931238 0 0.028553672566086995 0.015393394553241702 0 0.030484408703632941 0.016247863955951094 0 0.032426950797148843 0.021694775513561335 0 0.033519963314632167 0.021607848609797132 0 0.036349495138039908 0.027255688511599391 0 0.036512111430305048 0.027245426893710779 0 0.036528766919406527 0.027193623156155883 0 0.029490270936516846 0.018750690904463806 0 0.031870702918404971 0.019513683687509779 0 0.028916542374584363 0.016573715018931238 0 0.030484408703632941 0.016247863955951094 0 0.030237681449594701 0.017460752615316259 0 0.031693643903396525 0.018295883513328323 0 0.029668965504187805 0.016830723291699545 0 0.033224032476676595 0.016734864933908279 0 0.031870702918404971 0.019513683687509779 0 0.034561090123335185 0.021424450228476642 0 0.034652092879835575 0.017893686295387692 0 0.033224032476676595 0.016734864933908279 0 0.035035304919893651 0.017031508759664363 0 0.030484408703632941 0.016247863955951094 0 0.030237681449594701 0.017460752615316259 0 0.032509643793237702 0.017215643593690103 0 0.033519963314632167 0.021607848609797132 0 0.034561090123335185 0.021424450228476642 0 0.035091349389930367 0.021938313948987386 0 0.034561090123335185 0.021424450228476642 0 0.035965655794402154 0.01799786206608147 0 0.035344184120987117 0.01788513628419356 0 0.035035304919893651 0.017031508759664363 0 0.036798708830209997 0.027153597384655153 0 0.036679874954253025 0.027230120833673578 0 0.036727433478715786 0.027154352172058548 0 0.035344184120987117 0.01788513628419356 0 0.034652092879835575 0.017893686295387692 0 0.035035304919893651 0.017031508759664363 0 0.036815403366205472 0.027072068778549566 0 0.036727433478715786 0.027154352172058548 0 0.036692010594931865 0.027141953970499493 0 0.036679874954253025 0.027230120833673578 0 0.036727433478715786 0.027154352172058548 0 0.036634086850069712 0.027192542961985689 0 0.036727433478715786 0.027154352172058548 0 0.036634086850069712 0.027192542961985689 0 0.036692010594931865 0.027141953970499493 0 0.036512111430305048 0.027245426893710779 0 0.036679874954253025 0.027230120833673578 0 0.036634086850069712 0.027192542961985689 0 0.036512111430305048 0.027245426893710779 0 0.036634086850069712 0.027192542961985689 0 0.036528766919406527 0.027193623156155883 0 0.036634086850069712 0.027192542961985689 0 0.036528766919406527 0.027193623156155883 0 0.036692010594931865 0.027141953970499493 0 0.036528766919406527 0.027193623156155883 0 0.036692010594931865 0.027141953970499493 0 0.03657545584508344 0.027124559163768047 0 0.036528766919406527 0.027193623156155883 0 0.03657545584508344 0.027124559163768047 0 0.03644689380606559 0.027188323507756611 0 0.036815403366205472 0.027072068778549566 0 0.036692010594931865 0.027141953970499493 0 0.036867277293809883 0.027014217695272461 0 0.036692010594931865 0.027141953970499493 0 0.036867277293809883 0.027014217695272461 0 0.03657545584508344 0.027124559163768047 0 0.036867277293809883 0.027014217695272461 0 0.03657545584508344 0.027124559163768047 0 0.036491262263957026 0.027060325848621617 0 0.03657545584508344 0.027124559163768047 0 0.036382991223423963 0.02716550363780456 0 0.036491262263957026 0.027060325848621617 0 0.036382991223423963 0.02716550363780456 0 0.03633064643250529 0.027228151349029069 0 0.03644689380606559 0.027188323507756611 0 0.03657545584508344 0.027124559163768047 0 0.036382991223423963 0.02716550363780456 0 0.03644689380606559 0.027188323507756611 0 0.036382991223423963 0.02716550363780456 0 0.03633064643250529 0.027228151349029069 0 0.036275402811744663 0.027257303381332306 0 0.036349495138039908 0.027255688511599391 0 0.03633064643250529 0.027228151349029069 0 0.03644689380606559 0.027188323507756611 0 0.036349495138039908 0.027255688511599391 0 0.03633064643250529 0.027228151349029069 0 0.036246215225441664 0.027283797030732571 0 0.036349495138039908 0.027255688511599391 0 0.036528766919406527 0.027193623156155883 0 0.03644689380606559 0.027188323507756611 0 0.031526359264527716 0.022051405812352071 0 0.031491666698819226 0.023335110447266487 0 0.025876683104454665 0.014803341248681294 0 0.026803805210387922 0.014626343698846054 0 0.025234911023808915 0.013772963326037476 0 0.025876683104454665 0.014803341248681294 0 0.025331600507855195 0.014695681820582427 0 0.025234911023808915 0.013772963326037476 0 0.025876683104454665 0.014803341248681294 0 0.025331600507855195 0.014695681820582427 0 0.025353073612163875 0.01543808510438131 0 0.025876683104454665 0.014803341248681294 0 0.026803805210387922 0.014626343698846054 0 0.026956069285614632 0.016126765032206024 0 0.032426950797148843 0.021694775513561335 0 0.031526359264527716 0.022051405812352071 0 0.03633064643250529 0.027228151349029069 0 0.036246215225441664 0.027283797030732571 0 0.036275402811744663 0.027257303381332306 0 0.036246215225441664 0.027283797030732571 0 0.036275402811744663 0.027257303381332306 0 0.036224566025054257 0.02730892994636467 0 0.036275402811744663 0.027257303381332306 0 0.036222405542957123 0.027307447388318837 0 0.036224566025054257 0.02730892994636467 0 0.036246215225441664 0.027283797030732571 0 0.036224566025054257 0.02730892994636467 0 0.036173514268532284 0.027367443936888849 0 0.036222405542957123 0.027307447388318837 0 0.036224566025054257 0.02730892994636467 0 0.036189137842319377 0.027336585059308274 0 0.036224566025054257 0.02730892994636467 0 0.036189137842319377 0.027336585059308274 0 0.036173514268532284 0.027367443936888849 0 0.036189137842319377 0.027336585059308274 0 0.036173514268532284 0.027367443936888849 0 0.036170418188639662 0.027354306929446834 0 0.036222405542957123 0.027307447388318837 0 0.036189137842319377 0.027336585059308274 0 0.036189055037357865 0.027326675552322582 0 0.036189055037357865 0.027326675552322582 0 0.0361669683795319 0.027337484637453106 0 0.036159519168602217 0.027335660077445853 0 0.036189137842319377 0.027336585059308274 0 0.036189055037357865 0.027326675552322582 0 0.0361669683795319 0.027337484637453106 0 0.024630298589680067 0.013815860000738067 0 0.025234911023808915 0.013772963326037476 0 0.023856751628987531 0.013448890020708917 0 0.0361669683795319 0.027337484637453106 0 0.036158074303811044 0.027346860619540468 0 0.036134212471469307 0.02734260824416964 0 0.0361669683795319 0.027337484637453106 0 0.036134212471469307 0.02734260824416964 0 0.036159519168602217 0.027335660077445853 0 0.031491666698819226 0.023335110447266487 0 0.028176164739372307 0.023434133595779297 0 0.036116427000553848 0.027359875622120337 0 0.036173514268532284 0.027367443936888849 0 0.035939033723589052 0.027369708652752494 0 0.036116427000553848 0.027359875622120337 0 0.036085593300755642 0.027358159067885062 0 0.035939033723589052 0.027369708652752494 0 0.031491666698819226 0.023335110447266487 0 0.034413340138779863 0.025143487069743932 0 0.025234911023808915 0.013772963326037476 0 0.022991489108512269 0.01275817275056282 0 0.023856751628987531 0.013448890020708917 0 0.036189137842319377 0.027336585059308274 0 0.036158074303811044 0.027346860619540468 0 0.036170418188639662 0.027354306929446834 0 0.036189137842319377 0.027336585059308274 0 0.0361669683795319 0.027337484637453106 0 0.036158074303811044 0.027346860619540468 0 0.036158074303811044 0.027346860619540468 0 0.036170418188639662 0.027354306929446834 0 0.036147925711758573 0.027355589331950259 0 0.036158074303811044 0.027346860619540468 0 0.036125807474265123 0.027351334373106301 0 0.036147925711758573 0.027355589331950259 0 0.036158074303811044 0.027346860619540468 0 0.036125807474265123 0.027351334373106301 0 0.036134212471469307 0.02734260824416964 0 0.036116427000553848 0.027359875622120337 0 0.036125807474265123 0.027351334373106301 0 0.036147925711758573 0.027355589331950259 0 0.036125807474265123 0.027351334373106301 0 0.036134212471469307 0.02734260824416964 0 0.036098963845842352 0.027350444441561365 0 0.036098963845842352 0.027350444441561365 0 0.036050826340420977 0.027355718851927339 0 0.03609290759282708 0.027346126157888222 0 0.036134212471469307 0.02734260824416964 0 0.036098963845842352 0.027350444441561365 0 0.03609290759282708 0.027346126157888222 0 0.036098963845842352 0.027350444441561365 0 0.036050826340420977 0.027355718851927339 0 0.036085593300755642 0.027358159067885062 0 0.036050826340420977 0.027355718851927339 0 0.036046233111570555 0.027348397969777696 0 0.03609290759282708 0.027346126157888222 0 0.036125807474265123 0.027351334373106301 0 0.036098963845842352 0.027350444441561365 0 0.036085593300755642 0.027358159067885062 0 0.036116427000553848 0.027359875622120337 0 0.036125807474265123 0.027351334373106301 0 0.036085593300755642 0.027358159067885062 0 0.024278892591791536 0.013767792707745171 0 0.024630298589680067 0.013815860000738067 0 0.023856751628987531 0.013448890020708917 0 0.024093022373500066 0.013724628460690211 0 0.024278892591791536 0.013767792707745171 0 0.023856751628987531 0.013448890020708917 0 0.024093022373500066 0.013724628460690211 0 0.023862797002873609 0.013847784647322819 0 0.024212091970636025 0.014030024789919037 0 0.024278892591791536 0.013767792707745171 0 0.024543268468471768 0.014006448899731253 0 0.024212091970636025 0.014030024789919037 0 0.024093022373500066 0.013724628460690211 0 0.024278892591791536 0.013767792707745171 0 0.024212091970636025 0.014030024789919037 0 0.024278892591791536 0.013767792707745171 0 0.024630298589680067 0.013815860000738067 0 0.024543268468471768 0.014006448899731253 0 0.024630298589680067 0.013815860000738067 0 0.024842084333644172 0.013950120828895013 0 0.024543268468471768 0.014006448899731253 0 0.024630298589680067 0.013815860000738067 0 0.024842084333644172 0.013950120828895013 0 0.025234911023808915 0.013772963326037476 0 0.024842084333644172 0.013950120828895013 0 0.025234911023808915 0.013772963326037476 0 0.024927173150577315 0.014111925762528716 0 0.036173514268532284 0.027367443936888849 0 0.036170418188639662 0.027354306929446834 0 0.036147925711758573 0.027355589331950259 0 0.036116427000553848 0.027359875622120337 0 0.036173514268532284 0.027367443936888849 0 0.036147925711758573 0.027355589331950259 0 0.034464260797315335 0.026476074444471271 0 0.035939033723589052 0.027369708652752494 0 0.03605532910487471 0.027213417925202984 0 0.022991489108512269 0.01275817275056282 0 0.022809286251655899 0.013157936384393725 0 0.022383942655566803 0.013099778877103396 0 0.036007483435778941 0.027326859852440467 0 0.03605532910487471 0.027213417925202984 0 0.03602933928929216 0.027315793732649179 0 0.036007483435778941 0.027326859852440467 0 0.035939033723589052 0.027369708652752494 0 0.03605532910487471 0.027213417925202984 0 0.022991489108512269 0.01275817275056282 0 0.023297816558908696 0.013157066969170053 0 0.02307491203559792 0.013190465812180113 0 0.022991489108512269 0.01275817275056282 0 0.02307491203559792 0.013190465812180113 0 0.022809286251655899 0.013157936384393725 0 0.036050826340420977 0.027355718851927339 0 0.036085593300755642 0.027358159067885062 0 0.035939033723589052 0.027369708652752494 0 0.036050826340420977 0.027355718851927339 0 0.035939033723589052 0.027369708652752494 0 0.036012777468697514 0.027353690077999749 0 0.036050826340420977 0.027355718851927339 0 0.036046233111570555 0.027348397969777696 0 0.036012777468697514 0.027353690077999749 0 0.022991489108512269 0.01275817275056282 0 0.023856751628987531 0.013448890020708917 0 0.023297816558908696 0.013157066969170053 0 0.023856751628987531 0.013448890020708917 0 0.023862797002873609 0.013847784647322819 0 0.023557430613539331 0.01368613246062636 0 0.024093022373500066 0.013724628460690211 0 0.023856751628987531 0.013448890020708917 0 0.023862797002873609 0.013847784647322819 0 0.023557430613539331 0.01368613246062636 0 0.023328764411454851 0.013453979600141408 0 0.023184840229473473 0.013818761378622051 0 0.023856751628987531 0.013448890020708917 0 0.023557430613539331 0.01368613246062636 0 0.023328764411454851 0.013453979600141408 0 0.023856751628987531 0.013448890020708917 0 0.023328764411454851 0.013453979600141408 0 0.023297816558908696 0.013157066969170053 0 0.023328764411454851 0.013453979600141408 0 0.023297816558908696 0.013157066969170053 0 0.02307491203559792 0.013190465812180113 0 0.02307491203559792 0.013190465812180113 0 0.022970136466025907 0.013427970081736351 0 0.022809286251655899 0.013157936384393725 0 0.023328764411454851 0.013453979600141408 0 0.02307491203559792 0.013190465812180113 0 0.022970136466025907 0.013427970081736351 0 0.023328764411454851 0.013453979600141408 0 0.022970136466025907 0.013427970081736351 0 0.023184840229473473 0.013818761378622051 0 0.022970136466025907 0.013427970081736351 0 0.023184840229473473 0.013818761378622051 0 0.022617812525763253 0.013859074484954015 0 0.022970136466025907 0.013427970081736351 0 0.022588538157200199 0.013411771095836555 0 0.022617812525763253 0.013859074484954015 0 0.022588538157200199 0.013411771095836555 0 0.022809286251655899 0.013157936384393725 0 0.022383942655566803 0.013099778877103396 0 0.022970136466025907 0.013427970081736351 0 0.022588538157200199 0.013411771095836555 0 0.022809286251655899 0.013157936384393725 0 0.022617812525763253 0.013859074484954015 0 0.02302663749187276 0.014245123970774898 0 0.022500958976231271 0.014625492611086055 0 0.02302663749187276 0.014245123970774898 0 0.023253143728131788 0.014766930096756918 0 0.022500958976231271 0.014625492611086055 0 0.023184840229473473 0.013818761378622051 0 0.022617812525763253 0.013859074484954015 0 0.02302663749187276 0.014245123970774898 0 0.023184840229473473 0.013818761378622051 0 0.02302663749187276 0.014245123970774898 0 0.023496499489404778 0.014122306846167743 0 0.02302663749187276 0.014245123970774898 0 0.023496499489404778 0.014122306846167743 0 0.023253143728131788 0.014766930096756918 0 0.023496499489404778 0.014122306846167743 0 0.023822908539819956 0.014720098951564507 0 0.023253143728131788 0.014766930096756918 0 0.023862797002873609 0.013847784647322819 0 0.023557430613539331 0.01368613246062636 0 0.023496499489404778 0.014122306846167743 0 0.023557430613539331 0.01368613246062636 0 0.023184840229473473 0.013818761378622051 0 0.023496499489404778 0.014122306846167743 0 0.023862797002873609 0.013847784647322819 0 0.023496499489404778 0.014122306846167743 0 0.023918643137641613 0.014197516099268998 0 0.023862797002873609 0.013847784647322819 0 0.023918643137641613 0.014197516099268998 0 0.024212091970636025 0.014030024789919037 0 0.023918643137641613 0.014197516099268998 0 0.023822908539819956 0.014720098951564507 0 0.024256528986208566 0.014432744305621484 0 0.023496499489404778 0.014122306846167743 0 0.023918643137641613 0.014197516099268998 0 0.023822908539819956 0.014720098951564507 0 0.023822908539819956 0.014720098951564507 0 0.024108660310942252 0.015230291262851144 0 0.023649229596364205 0.015436013317510378 0 0.023822908539819956 0.014720098951564507 0 0.023253143728131788 0.014766930096756918 0 0.023649229596364205 0.015436013317510378 0 0.023253143728131788 0.014766930096756918 0 0.022965106698703979 0.015239078203469572 0 0.022500958976231271 0.014625492611086055 0 0.023253143728131788 0.014766930096756918 0 0.022965106698703979 0.015239078203469572 0 0.023649229596364205 0.015436013317510378 0 0.025331600507855195 0.014695681820582427 0 0.025234911023808915 0.013772963326037476 0 0.025041205797716935 0.014338676804443022 0 0.024681563753704037 0.014542888271758005 0 0.025041205797716935 0.014338676804443022 0 0.02475740242249546 0.014225954090736173 0 0.024974722847664811 0.01464074621048048 0 0.024681563753704037 0.014542888271758005 0 0.025041205797716935 0.014338676804443022 0 0.025331600507855195 0.014695681820582427 0 0.024974722847664811 0.01464074621048048 0 0.025041205797716935 0.014338676804443022 0 0.025234911023808915 0.013772963326037476 0 0.025041205797716935 0.014338676804443022 0 0.024927173150577315 0.014111925762528716 0 0.025041205797716935 0.014338676804443022 0 0.024927173150577315 0.014111925762528716 0 0.02475740242249546 0.014225954090736173 0 0.024842084333644172 0.013950120828895013 0 0.024927173150577315 0.014111925762528716 0 0.02475740242249546 0.014225954090736173 0 0.024842084333644172 0.013950120828895013 0 0.02475740242249546 0.014225954090736173 0 0.024543268468471768 0.014006448899731253 0 0.024543268468471768 0.014006448899731253 0 0.024500851720411443 0.014232628019338866 0 0.024212091970636025 0.014030024789919037 0 0.02475740242249546 0.014225954090736173 0 0.024543268468471768 0.014006448899731253 0 0.024500851720411443 0.014232628019338866 0 0.023918643137641613 0.014197516099268998 0 0.024212091970636025 0.014030024789919037 0 0.024256528986208566 0.014432744305621484 0 0.024500851720411443 0.014232628019338866 0 0.024212091970636025 0.014030024789919037 0 0.024256528986208566 0.014432744305621484 0 0.024681563753704037 0.014542888271758005 0 0.024500851720411443 0.014232628019338866 0 0.024256528986208566 0.014432744305621484 0 0.024681563753704037 0.014542888271758005 0 0.024256528986208566 0.014432744305621484 0 0.024385151876859384 0.014866199381855892 0 0.024681563753704037 0.014542888271758005 0 0.02475740242249546 0.014225954090736173 0 0.024500851720411443 0.014232628019338866 0 0.024681563753704037 0.014542888271758005 0 0.024385151876859384 0.014866199381855892 0 0.024896320263450605 0.014997327187589355 0 0.023822908539819956 0.014720098951564507 0 0.024385151876859384 0.014866199381855892 0 0.024108660310942252 0.015230291262851144 0 0.023822908539819956 0.014720098951564507 0 0.024256528986208566 0.014432744305621484 0 0.024385151876859384 0.014866199381855892 0 0.024385151876859384 0.014866199381855892 0 0.024108660310942252 0.015230291262851144 0 0.024528932127150693 0.015269785719719374 0 0.024385151876859384 0.014866199381855892 0 0.024528932127150693 0.015269785719719374 0 0.024896320263450605 0.014997327187589355 0 0.024528932127150693 0.015269785719719374 0 0.024896320263450605 0.014997327187589355 0 0.024816393751215454 0.015630952369319735 0 0.025331600507855195 0.014695681820582427 0 0.024896320263450605 0.014997327187589355 0 0.025353073612163875 0.01543808510438131 0 0.024974722847664811 0.01464074621048048 0 0.024681563753704037 0.014542888271758005 0 0.024896320263450605 0.014997327187589355 0 0.025331600507855195 0.014695681820582427 0 0.024974722847664811 0.01464074621048048 0 0.024896320263450605 0.014997327187589355 0 0.024816393751215454 0.015630952369319735 0 0.02520064802036924 0.016240973876738868 0 0.025353073612163875 0.01543808510438131 0 0.024896320263450605 0.014997327187589355 0 0.024816393751215454 0.015630952369319735 0 0.025353073612163875 0.01543808510438131 0 0.024528932127150693 0.015269785719719374 0 0.024816393751215454 0.015630952369319735 0 0.024255707893665591 0.015738813138734726 0 0.024108660310942252 0.015230291262851144 0 0.024528932127150693 0.015269785719719374 0 0.024255707893665591 0.015738813138734726 0 0.024816393751215454 0.015630952369319735 0 0.024255707893665591 0.015738813138734726 0 0.024537453236276704 0.016305281067503001 0 0.024255707893665591 0.015738813138734726 0 0.024537453236276704 0.016305281067503001 0 0.023892567992508836 0.016174504616711119 0 0.024537453236276704 0.016305281067503001 0 0.023892567992508836 0.016174504616711119 0 0.024185759580163571 0.016977434231291073 0 0.024816393751215454 0.015630952369319735 0 0.024537453236276704 0.016305281067503001 0 0.02520064802036924 0.016240973876738868 0 0.024537453236276704 0.016305281067503001 0 0.02520064802036924 0.016240973876738868 0 0.024873842027631085 0.016836205454783489 0 0.022965106698703979 0.015239078203469572 0 0.023199960189642158 0.015914528196249673 0 0.022170477395963256 0.015514151087735475 0 0.022965106698703979 0.015239078203469572 0 0.023199960189642158 0.015914528196249673 0 0.023649229596364205 0.015436013317510378 0 0.024255707893665591 0.015738813138734726 0 0.023649229596364205 0.015436013317510378 0 0.023892567992508836 0.016174504616711119 0 0.023199960189642158 0.015914528196249673 0 0.023649229596364205 0.015436013317510378 0 0.023892567992508836 0.016174504616711119 0 0.024108660310942252 0.015230291262851144 0 0.024255707893665591 0.015738813138734726 0 0.023649229596364205 0.015436013317510378 0 0.023199960189642158 0.015914528196249673 0 0.023892567992508836 0.016174504616711119 0 0.023456182817362208 0.016605995889563383 0 0.023892567992508836 0.016174504616711119 0 0.023456182817362208 0.016605995889563383 0 0.024185759580163571 0.016977434231291073 0 0.023199960189642158 0.015914528196249673 0 0.023456182817362208 0.016605995889563383 0 0.022577332848311701 0.016787912215942998 0 0.023485580907200772 0.017281754109866272 0 0.023003739171080305 0.0178816763408986 0 0.022577332848311701 0.016787912215942998 0 0.023456182817362208 0.016605995889563383 0 0.023485580907200772 0.017281754109866272 0 0.022577332848311701 0.016787912215942998 0 0.023485580907200772 0.017281754109866272 0 0.024124300061662943 0.017764654369364797 0 0.024185759580163571 0.016977434231291073 0 0.023456182817362208 0.016605995889563383 0 0.023485580907200772 0.017281754109866272 0 0.024185759580163571 0.016977434231291073 0 0.023485580907200772 0.017281754109866272 0 0.024124300061662943 0.017764654369364797 0 0.023003739171080305 0.0178816763408986 0 0.024873842027631085 0.016836205454783489 0 0.024185759580163571 0.016977434231291073 0 0.024735205313994549 0.017526165957442802 0 0.024873842027631085 0.016836205454783489 0 0.024735205313994549 0.017526165957442802 0 0.025490814265891549 0.017003668121287306 0 0.024537453236276704 0.016305281067503001 0 0.024873842027631085 0.016836205454783489 0 0.024185759580163571 0.016977434231291073 0 0.024124300061662943 0.017764654369364797 0 0.024735205313994549 0.017526165957442802 0 0.024758568152711137 0.018330450072019576 0 0.024124300061662943 0.017764654369364797 0 0.024185759580163571 0.016977434231291073 0 0.024735205313994549 0.017526165957442802 0 0.024735205313994549 0.017526165957442802 0 0.025152472131340038 0.017830511391049495 0 0.025490814265891549 0.017003668121287306 0 0.025152472131340038 0.017830511391049495 0 0.025956743748642194 0.017645317949309694 0 0.025490814265891549 0.017003668121287306 0 0.025490814265891549 0.017003668121287306 0 0.025866389967747497 0.016108079612384606 0 0.026433883391533585 0.016889717458475607 0 0.025956743748642194 0.017645317949309694 0 0.025490814265891549 0.017003668121287306 0 0.026433883391533585 0.016889717458475607 0 0.02520064802036924 0.016240973876738868 0 0.024873842027631085 0.016836205454783489 0 0.025490814265891549 0.017003668121287306 0 0.025876683104454665 0.014803341248681294 0 0.025866389967747497 0.016108079612384606 0 0.026956069285614632 0.016126765032206024 0 0.02520064802036924 0.016240973876738868 0 0.025490814265891549 0.017003668121287306 0 0.025866389967747497 0.016108079612384606 0 0.025876683104454665 0.014803341248681294 0 0.025866389967747497 0.016108079612384606 0 0.025353073612163875 0.01543808510438131 0 0.02520064802036924 0.016240973876738868 0 0.025866389967747497 0.016108079612384606 0 0.025353073612163875 0.01543808510438131 0 0.028553672566086995 0.015393394553241702 0 0.026803805210387922 0.014626343698846054 0 0.026956069285614632 0.016126765032206024 0 0.025866389967747497 0.016108079612384606 0 0.026956069285614632 0.016126765032206024 0 0.026433883391533585 0.016889717458475607 0 0.028078551711751939 0.017627690950390459 0 0.026956069285614632 0.016126765032206024 0 0.026433883391533585 0.016889717458475607 0 0.028078551711751939 0.017627690950390459 0 0.025956743748642194 0.017645317949309694 0 0.026433883391533585 0.016889717458475607 0 0.029490270936516846 0.018750690904463806 0 0.028204142553717202 0.018607482420845155 0 0.029668965504187805 0.016830723291699545 0 0.025956743748642194 0.017645317949309694 0 0.027538524819239778 0.018596424412064588 0 0.029674633889439514 0.01952400263238591 0 0.029668965504187805 0.016830723291699545 0 0.027538524819239778 0.018596424412064588 0 0.027538524819239778 0.018596424412064588 0 0.025113549688186403 0.018722331102190067 0 0.027497809469806067 0.02059061439127834 0 0.029674633889439514 0.01952400263238591 0 0.027538524819239778 0.018596424412064588 0 0.027497809469806067 0.02059061439127834 0 0.025152472131340038 0.017830511391049495 0 0.025113549688186403 0.018722331102190067 0 0.024758568152711137 0.018330450072019576 0 0.025152472131340038 0.017830511391049495 0 0.025956743748642194 0.017645317949309694 0 0.025113549688186403 0.018722331102190067 0 0.025956743748642194 0.017645317949309694 0 0.027538524819239778 0.018596424412064588 0 0.025113549688186403 0.018722331102190067 0 0.027281978670385846 0.017313057063038352 0 0.027910233247131919 0.017339407435083744 0 0.025113549688186403 0.018722331102190067 0 0.02478236413798264 0.018679151152997141 0 0.024474084495582814 0.018553519222259032 0 0.025113549688186403 0.018722331102190067 0 0.02478236413798264 0.018679151152997141 0 0.024758568152711137 0.018330450072019576 0 0.02478236413798264 0.018679151152997141 0 0.024474084495582814 0.018553519222259032 0 0.024650137776363594 0.018644188271107736 0 0.025113549688186403 0.018722331102190067 0 0.024474084495582814 0.018553519222259032 0 0.023800167357653362 0.018612993260518608 0 0.024474084495582814 0.018553519222259032 0 0.023800167357653362 0.018612993260518608 0 0.023954892747604799 0.018112013356458456 0 0.024474084495582814 0.018553519222259032 0 0.023954892747604799 0.018112013356458456 0 0.024516195083980966 0.018358645840592058 0 0.024474084495582814 0.018553519222259032 0 0.024516195083980966 0.018358645840592058 0 0.024650137776363594 0.018644188271107736 0 0.02315988053261538 0.018164105202629257 0 0.023800167357653362 0.018612993260518608 0 0.023954892747604799 0.018112013356458456 0 0.029755851681414289 0.022319258534763967 0 0.029674633889439514 0.01952400263238591 0 0.027497809469806067 0.02059061439127834 0 0.02961567336058972 0.017066747969942894 0 0.027910233247131919 0.017339407435083744 0 0.02315988053261538 0.018164105202629257 0 0.023954892747604799 0.018112013356458456 0 0.02360217308641073 0.017263952390551861 0 0.02961567336058972 0.017066747969942894 0 0.027393812604220844 0.016076142122572575 0 0.030325629466363614 0.011118040145695621 0 0.028344927245696514 0.012150437412916664 0 0.029464187362085607 0.012011235474032539 0 0.023954892747604799 0.018112013356458456 0 0.024180756282268019 0.017742720028402069 0 0.02360217308641073 0.017263952390551861 0 0.023954892747604799 0.018112013356458456 0 0.024180756282268019 0.017742720028402069 0 0.024516195083980966 0.018358645840592058 0 0.02670375296900708 0.015804715283658361 0 0.027393812604220844 0.016076142122572575 0 0.024180756282268019 0.017742720028402069 0 0.02360217308641073 0.017263952390551861 0 0.024728815620678725 0.017069751785823321 0 0.026303286490814377 0.014733850774592517 0 0.028344927245696514 0.012150437412916664 0 0.029464187362085607 0.012011235474032539 0 0.029592334053449236 0.011099842380104684 0 0.029629736078128497 0.011286737069984266 0 0.030660472991492556 0.010959140188796073 0 0.031657058062308029 0.010368089314664661 0 0.029464187362085607 0.012011235474032539 0 0.030660472991492556 0.010959140188796073 0 0.029921926723355901 0.011540110510905257 0 0.029464187362085607 0.012011235474032539 0 0.030660472991492556 0.010959140188796073 0 0.029868482853553271 0.011302633600896617 0 0.029921926723355901 0.011540110510905257 0 0.029944382400080419 0.011539930183596427 0 0.029921926723355901 0.011540110510905257 0 0.029464187362085607 0.012011235474032539 0 0.027050689497902347 0.015595964723464095 0 0.025854286918258428 0.016259992858465955 0 0.026340672846568703 0.017568691418239017 0 0.025854286918258428 0.016259992858465955 0 0.024728815620678725 0.017069751785823321 0 0.025441202668540212 0.017491657783145261 0 0.025854286918258428 0.016259992858465955 0 0.025441202668540212 0.017491657783145261 0 0.026340672846568703 0.017568691418239017 0 0.025073722758126381 0.014737392664111323 0 0.025854286918258428 0.016259992858465955 0 0.024728815620678725 0.017069751785823321 0 0.025073722758126381 0.014737392664111323 0 0.02360217308641073 0.017263952390551861 0 0.024728815620678725 0.017069751785823321 0 0.024728815620678725 0.017069751785823321 0 0.024578967383353356 0.017892249737113914 0 0.024840760879884304 0.018201092640312409 0 0.024728815620678725 0.017069751785823321 0 0.024840760879884304 0.018201092640312409 0 0.025441202668540212 0.017491657783145261 0 0.024180756282268019 0.017742720028402069 0 0.024728815620678725 0.017069751785823321 0 0.024578967383353356 0.017892249737113914 0 0.024180756282268019 0.017742720028402069 0 0.024578967383353356 0.017892249737113914 0 0.024516195083980966 0.018358645840592058 0 0.024578967383353356 0.017892249737113914 0 0.024516195083980966 0.018358645840592058 0 0.024840760879884304 0.018201092640312409 0 0.024516195083980966 0.018358645840592058 0 0.024840760879884304 0.018201092640312409 0 0.024676607046556432 0.018755536972681446 0 0.024840760879884304 0.018201092640312409 0 0.025441202668540212 0.017491657783145261 0 0.024799003834613226 0.019391695321933376 0 0.024840760879884304 0.018201092640312409 0 0.024799003834613226 0.019391695321933376 0 0.024676607046556432 0.018755536972681446 0 0.025441202668540212 0.017491657783145261 0 0.024799003834613226 0.019391695321933376 0 0.026340672846568703 0.017568691418239017 0 0.024799003834613226 0.019391695321933376 0 0.024479439365044021 0.018878111125594239 0 0.023190647843485762 0.018805895392787007 0 0.024799003834613226 0.019391695321933376 0 0.024479439365044021 0.018878111125594239 0 0.024676607046556432 0.018755536972681446 0 0.024516195083980966 0.018358645840592058 0 0.024676607046556432 0.018755536972681446 0 0.024650137776363594 0.018644188271107736 0 0.024479439365044021 0.018878111125594239 0 0.024676607046556432 0.018755536972681446 0 0.024631385263759575 0.018699407653794832 0 0.02478236413798264 0.018679151152997141 0 0.024631385263759575 0.018699407653794832 0 0.024650137776363594 0.018644188271107736 0 0.024676607046556432 0.018755536972681446 0 0.024631385263759575 0.018699407653794832 0 0.024650137776363594 0.018644188271107736 0 0.02478236413798264 0.018679151152997141 0 0.024631385263759575 0.018699407653794832 0 0.024758568152711137 0.018330450072019576 0 0.024631385263759575 0.018699407653794832 0 0.024758568152711137 0.018330450072019576 0 0.024169481390748475 0.018379428877369184 0 0.024479439365044021 0.018878111125594239 0 0.024631385263759575 0.018699407653794832 0 0.024169481390748475 0.018379428877369184 0 0.024124300061662943 0.017764654369364797 0 0.024758568152711137 0.018330450072019576 0 0.024169481390748475 0.018379428877369184 0 0.024735205313994549 0.017526165957442802 0 0.025152472131340038 0.017830511391049495 0 0.024758568152711137 0.018330450072019576 0 0.024169481390748475 0.018379428877369184 0 0.023190647843485762 0.018805895392787007 0 0.023003739171080305 0.0178816763408986 0 0.024479439365044021 0.018878111125594239 0 0.024169481390748475 0.018379428877369184 0 0.023190647843485762 0.018805895392787007 0 0.024124300061662943 0.017764654369364797 0 0.024169481390748475 0.018379428877369184 0 0.023003739171080305 0.0178816763408986 0 0.022019161323769073 0.018323659989392407 0 0.023190647843485762 0.018805895392787007 0 0.023003739171080305 0.0178816763408986 0 0.022019161323769073 0.018323659989392407 0 0.02067102540673427 0.018949043751354099 0 0.023190647843485762 0.018805895392787007 0 0.022019161323769073 0.018323659989392407 0 0.02067102540673427 0.018949043751354099 0 0.021159696448350987 0.01768787482707115 0 0.02067102540673427 0.018949043751354099 0 0.023190647843485762 0.018805895392787007 0 0.021690659851368494 0.020806311244804816 0 0.017974807540315302 0.022405140170775623 0 0.018192816123297376 0.024771654682283241 0 0.016313630546253895 0.02383288125387626 0 0.020533702083441185 0.019060566280175214 0 0.021608806332682712 0.017258691009400636 0 0.024799003834613226 0.019391695321933376 0 0.023190647843485762 0.018805895392787007 0 0.021690659851368494 0.020806311244804816 0 0.024799003834613226 0.019391695321933376 0 0.026340672846568703 0.017568691418239017 0 0.02938116388876489 0.018490495487932003 0 0.023488951881356093 0.017494226631789921 0 0.021608806332682712 0.017258691009400636 0 0.021608806332682712 0.017258691009400636 0 0.024722954071310681 0.013033378356222614 0 0.021114133639629891 0.011876178862652128 0 0.021283331491609138 0.011538621621964685 0 0.020990743552284134 0.011360023444607865 0 0.026340672846568703 0.017568691418239017 0 0.02938116388876489 0.018490495487932003 0 0.028430605481830937 0.014912373720034502 0 0.024844876885442839 0.014026112740000584 0 0.024722954071310681 0.013033378356222614 0 0.027050689497902347 0.015595964723464095 0 0.026340672846568703 0.017568691418239017 0 0.02838980334786001 0.015866484935203057 0 0.021584803054116541 0.011340233486009606 0 0.021570693962412606 0.011714654475348594 0 0.021996687280803874 0.011566299399063644 0 0.018918343741962301 0.016273986127139532 0 0.017590338567329174 0.014161502833149313 0 0.021283331491609138 0.011538621621964685 0 0.021584803054116541 0.011340233486009606 0 0.021570693962412606 0.011714654475348594 0 0.018192816123297376 0.024771654682283241 0 0.016000245401589553 0.025240588142224542 0 0.016313630546253895 0.02383288125387626 0 0.021114133639629891 0.011876178862652128 0 0.021283331491609138 0.011538621621964685 0 0.021570693962412606 0.011714654475348594 0 0.021608806332682712 0.017258691009400636 0 0.018918343741962301 0.016273986127139532 0 0.016000245401589553 0.025240588142224542 0 0.01449500279168104 0.023860994946558824 0 0.013987484597525982 0.025549412186902338 0 0.016000245401589553 0.025240588142224542 0 0.01449500279168104 0.023860994946558824 0 0.016313630546253895 0.02383288125387626 0 0.01449500279168104 0.023860994946558824 0 0.016313630546253895 0.02383288125387626 0 0.014975682197874329 0.022502218532405728 0 0.01449500279168104 0.023860994946558824 0 0.014975682197874329 0.022502218532405728 0 0.013472295744010796 0.021985251774826166 0 0.017974807540315302 0.022405140170775623 0 0.016313630546253895 0.02383288125387626 0 0.014975682197874329 0.022502218532405728 0 0.017974807540315302 0.022405140170775623 0 0.014975682197874329 0.022502218532405728 0 0.013885605606170246 0.020471730212248233 0 0.014975682197874329 0.022502218532405728 0 0.013885605606170246 0.020471730212248233 0 0.013472295744010796 0.021985251774826166 0 0.013885605606170246 0.020471730212248233 0 0.012972120841062029 0.021831540621045059 0 0.013329696285352705 0.021319370301422409 0 0.013885605606170246 0.020471730212248233 0 0.012349391845294997 0.022190627633653006 0 0.010783816400820396 0.022623713635139091 0 0.016144854777498354 0.021406306007404143 0 0.016835701488719358 0.021275008427277677 0 0.013885605606170246 0.020471730212248233 0 0.012349391845294997 0.022190627633653006 0 0.012972120841062029 0.021831540621045059 0 0.012349391845294997 0.022190627633653006 0 0.010783816400820396 0.022623713635139091 0 0.011554135692127312 0.023260471363236564 0 0.012349391845294997 0.022190627633653006 0 0.01231734765506572 0.023005119946124551 0 0.012972120841062029 0.021831540621045059 0 0.012349391845294997 0.022190627633653006 0 0.01231734765506572 0.023005119946124551 0 0.011554135692127312 0.023260471363236564 0 0.013885605606170246 0.020471730212248233 0 0.016544476418185482 0.015605188397510744 0 0.018291907788732253 0.01792842120389981 0 0.016544476418185482 0.015605188397510744 0 0.018291907788732253 0.01792842120389981 0 0.019084361060720166 0.015622999982656829 0 0.020533702083441185 0.019060566280175214 0 0.019861804319134504 0.018220521009070258 0 0.017974807540315302 0.022405140170775623 0 0.013885605606170246 0.020471730212248233 0 0.018291907788732253 0.01792842120389981 0 0.018291907788732253 0.01792842120389981 0 0.021159696448350987 0.01768787482707115 0 0.020097145171087256 0.016688139560566691 0 0.02067102540673427 0.018949043751354099 0 0.018291907788732253 0.01792842120389981 0 0.021159696448350987 0.01768787482707115 0 0.021159696448350987 0.01768787482707115 0 0.023003739171080305 0.0178816763408986 0 0.022577332848311701 0.016787912215942998 0 0.022019161323769073 0.018323659989392407 0 0.021159696448350987 0.01768787482707115 0 0.023003739171080305 0.0178816763408986 0 0.022577332848311701 0.016787912215942998 0 0.021218102001397083 0.016313109062787802 0 0.022170477395963256 0.015514151087735475 0 0.021159696448350987 0.01768787482707115 0 0.022577332848311701 0.016787912215942998 0 0.021218102001397083 0.016313109062787802 0 0.021218102001397083 0.016313109062787802 0 0.02132173740675327 0.015408273907270243 0 0.022170477395963256 0.015514151087735475 0 0.023199960189642158 0.015914528196249673 0 0.022577332848311701 0.016787912215942998 0 0.022170477395963256 0.015514151087735475 0 0.018291907788732253 0.01792842120389981 0 0.020097145171087256 0.016688139560566691 0 0.019084361060720166 0.015622999982656829 0 0.021159696448350987 0.01768787482707115 0 0.021218102001397083 0.016313109062787802 0 0.020097145171087256 0.016688139560566691 0 0.021218102001397083 0.016313109062787802 0 0.020097145171087256 0.016688139560566691 0 0.020518049405119369 0.015220738673632621 0 0.021218102001397083 0.016313109062787802 0 0.02132173740675327 0.015408273907270243 0 0.020518049405119369 0.015220738673632621 0 0.020097145171087256 0.016688139560566691 0 0.019084361060720166 0.015622999982656829 0 0.020518049405119369 0.015220738673632621 0 0.019084361060720166 0.015622999982656829 0 0.019797259608842634 0.014522855902720358 0 0.020518049405119369 0.015220738673632621 0 0.019084361060720166 0.015622999982656829 0 0.019797259608842634 0.014522855902720358 0 0.018812563884920249 0.014154830992745851 0 0.020518049405119369 0.015220738673632621 0 0.0206079187821584 0.014235729567525177 0 0.021496034480451714 0.014683665868619578 0 0.019797259608842634 0.014522855902720358 0 0.020518049405119369 0.015220738673632621 0 0.0206079187821584 0.014235729567525177 0 0.019797259608842634 0.014522855902720358 0 0.0206079187821584 0.014235729567525177 0 0.019919149719638058 0.013783299721385452 0 0.0206079187821584 0.014235729567525177 0 0.021284643991052701 0.013802818717834425 0 0.020608554947897855 0.013486002263518294 0 0.0206079187821584 0.014235729567525177 0 0.019919149719638058 0.013783299721385452 0 0.020608554947897855 0.013486002263518294 0 0.019797259608842634 0.014522855902720358 0 0.019919149719638058 0.013783299721385452 0 0.018812563884920249 0.014154830992745851 0 0.019919149719638058 0.013783299721385452 0 0.019407760918593288 0.013365227347277714 0 0.018812563884920249 0.014154830992745851 0 0.022965106698703979 0.015239078203469572 0 0.022170477395963256 0.015514151087735475 0 0.022500958976231271 0.014625492611086055 0 0.022170477395963256 0.015514151087735475 0 0.022500958976231271 0.014625492611086055 0 0.021496034480451714 0.014683665868619578 0 0.02132173740675327 0.015408273907270243 0 0.020518049405119369 0.015220738673632621 0 0.021496034480451714 0.014683665868619578 0 0.02132173740675327 0.015408273907270243 0 0.022170477395963256 0.015514151087735475 0 0.021496034480451714 0.014683665868619578 0 0.021496034480451714 0.014683665868619578 0 0.021284643991052701 0.013802818717834425 0 0.021960166243596081 0.013963949053205211 0 0.0206079187821584 0.014235729567525177 0 0.021496034480451714 0.014683665868619578 0 0.021284643991052701 0.013802818717834425 0 0.022500958976231271 0.014625492611086055 0 0.021496034480451714 0.014683665868619578 0 0.021960166243596081 0.013963949053205211 0 0.022617812525763253 0.013859074484954015 0 0.022500958976231271 0.014625492611086055 0 0.021960166243596081 0.013963949053205211 0 0.028176164739372307 0.023434133595779297 0 0.024075928200942846 0.025742903838717548 0 0.022991489108512269 0.01275817275056282 0 0.021233605610436485 0.012533701232365777 0 0.021860005415438474 0.01284329098993889 0 0.03605532910487471 0.027213417925202984 0 0.03598642855266506 0.027363047231385045 0 0.03602933928929216 0.027315793732649179 0 0.022991489108512269 0.01275817275056282 0 0.021233605610436485 0.012533701232365777 0 0.020227891422962573 0.011799131931205274 0 0.022383942655566803 0.013099778877103396 0 0.022191311381919415 0.01348179979028747 0 0.02192090126172358 0.013148448339776547 0 0.022588538157200199 0.013411771095836555 0 0.022383942655566803 0.013099778877103396 0 0.022191311381919415 0.01348179979028747 0 0.022588538157200199 0.013411771095836555 0 0.022617812525763253 0.013859074484954015 0 0.022191311381919415 0.01348179979028747 0 0.022617812525763253 0.013859074484954015 0 0.021960166243596081 0.013963949053205211 0 0.022191311381919415 0.01348179979028747 0 0.021960166243596081 0.013963949053205211 0 0.022191311381919415 0.01348179979028747 0 0.021663386513662564 0.01339876682417817 0 0.022383942655566803 0.013099778877103396 0 0.02192090126172358 0.013148448339776547 0 0.021860005415438474 0.01284329098993889 0 0.022191311381919415 0.01348179979028747 0 0.02192090126172358 0.013148448339776547 0 0.021663386513662564 0.01339876682417817 0 0.02192090126172358 0.013148448339776547 0 0.021601201417630989 0.013058153281644093 0 0.021860005415438474 0.01284329098993889 0 0.021601201417630989 0.013058153281644093 0 0.021663386513662564 0.01339876682417817 0 0.021192608404622837 0.013074357962737726 0 0.021601201417630989 0.013058153281644093 0 0.021192608404622837 0.013074357962737726 0 0.021365766715876817 0.012826361429853106 0 0.02192090126172358 0.013148448339776547 0 0.021601201417630989 0.013058153281644093 0 0.021663386513662564 0.01339876682417817 0 0.021284643991052701 0.013802818717834425 0 0.021960166243596081 0.013963949053205211 0 0.021663386513662564 0.01339876682417817 0 0.021284643991052701 0.013802818717834425 0 0.021663386513662564 0.01339876682417817 0 0.021192608404622837 0.013074357962737726 0 0.021284643991052701 0.013802818717834425 0 0.021192608404622837 0.013074357962737726 0 0.020608554947897855 0.013486002263518294 0 0.02102334074824027 0.012755145604214818 0 0.021233605610436485 0.012533701232365777 0 0.020760253893900571 0.01259625522414784 0 0.021192608404622837 0.013074357962737726 0 0.02102334074824027 0.012755145604214818 0 0.020580611435326492 0.012861868865870422 0 0.021192608404622837 0.013074357962737726 0 0.02102334074824027 0.012755145604214818 0 0.021365766715876817 0.012826361429853106 0 0.02102334074824027 0.012755145604214818 0 0.021233605610436485 0.012533701232365777 0 0.021365766715876817 0.012826361429853106 0 0.021233605610436485 0.012533701232365777 0 0.021365766715876817 0.012826361429853106 0 0.021860005415438474 0.01284329098993889 0 0.021601201417630989 0.013058153281644093 0 0.021365766715876817 0.012826361429853106 0 0.021860005415438474 0.01284329098993889 0 0.022991489108512269 0.01275817275056282 0 0.022383942655566803 0.013099778877103396 0 0.021860005415438474 0.01284329098993889 0 0.019511470324139364 0.012747215926647126 0 0.018683849202740504 0.013438897925875954 0 0.019493702416248874 0.011636573503769169 0 0.019407760918593288 0.013365227347277714 0 0.019511470324139364 0.012747215926647126 0 0.018683849202740504 0.013438897925875954 0 0.020058126090692852 0.013142945799313653 0 0.020117840662149895 0.012668184488835702 0 0.019511470324139364 0.012747215926647126 0 0.019407760918593288 0.013365227347277714 0 0.020058126090692852 0.013142945799313653 0 0.019511470324139364 0.012747215926647126 0 0.019919149719638058 0.013783299721385452 0 0.019407760918593288 0.013365227347277714 0 0.020058126090692852 0.013142945799313653 0 0.019919149719638058 0.013783299721385452 0 0.020608554947897855 0.013486002263518294 0 0.020058126090692852 0.013142945799313653 0 0.021192608404622837 0.013074357962737726 0 0.020608554947897855 0.013486002263518294 0 0.020580611435326492 0.012861868865870422 0 0.020608554947897855 0.013486002263518294 0 0.020058126090692852 0.013142945799313653 0 0.020580611435326492 0.012861868865870422 0 0.020058126090692852 0.013142945799313653 0 0.020117840662149895 0.012668184488835702 0 0.020580611435326492 0.012861868865870422 0 0.020117840662149895 0.012668184488835702 0 0.020437780035163635 0.012568029144700007 0 0.020580611435326492 0.012861868865870422 0 0.021233605610436485 0.012533701232365777 0 0.020508563729919212 0.012287872263384434 0 0.020227891422962573 0.011799131931205274 0 0.020117840662149895 0.012668184488835702 0 0.020437780035163635 0.012568029144700007 0 0.020197277930849269 0.012348127411306881 0 0.02102334074824027 0.012755145604214818 0 0.020580611435326492 0.012861868865870422 0 0.020760253893900571 0.01259625522414784 0 0.020437780035163635 0.012568029144700007 0 0.020580611435326492 0.012861868865870422 0 0.020760253893900571 0.01259625522414784 0 0.021233605610436485 0.012533701232365777 0 0.020760253893900571 0.01259625522414784 0 0.020508563729919212 0.012287872263384434 0 0.020437780035163635 0.012568029144700007 0 0.020760253893900571 0.01259625522414784 0 0.020508563729919212 0.012287872263384434 0 0.020117840662149895 0.012668184488835702 0 0.020197277930849269 0.012348127411306881 0 0.019907957605947581 0.012245784319573856 0 0.020508563729919212 0.012287872263384434 0 0.020197277930849269 0.012348127411306881 0 0.020227891422962573 0.011799131931205274 0 0.020197277930849269 0.012348127411306881 0 0.019907957605947581 0.012245784319573856 0 0.020227891422962573 0.011799131931205274 0 0.020437780035163635 0.012568029144700007 0 0.020508563729919212 0.012287872263384434 0 0.020197277930849269 0.012348127411306881 0 0.019907957605947581 0.012245784319573856 0 0.019511470324139364 0.012747215926647126 0 0.019493702416248874 0.011636573503769169 0 0.020117840662149895 0.012668184488835702 0 0.019907957605947581 0.012245784319573856 0 0.019511470324139364 0.012747215926647126 0 0.018849395344541411 0.022102766111685934 0 0.02172543422608406 0.025465995181053067 0 0.0096081829373725926 0.024939619708978719 0 0.01096024422034632 0.026203766571809263 0 0.010815396767618531 0.024118976988473907 0 0.018849395344541411 0.022102766111685934 0 0.018560256168892703 0.026177424630359158 0 0.0096081829373725926 0.024939619708978719 0 0.01096024422034632 0.026203766571809263 0 0.010939887678929078 0.028132330140610916 0 0.010815396767618531 0.024118976988473907 0 0.010379660972251169 0.027005819794429099 0 0.011240471938058837 0.025980485608889957 0 0.01096024422034632 0.026203766571809263 0 0.010815396767618531 0.024118976988473907 0 0.01247963291404206 0.027679693413167731 0 0.010815396767618531 0.024118976988473907 0 0.011240471938058837 0.025980485608889957 0 0.011653370133879206 0.024957883622297908 0 0.011104008288275539 0.026290879291063617 0 0.011565724415799252 0.027912611055079421 0 0.010815396767618531 0.024118976988473907 0 0.011740365275367926 0.023890981252779626 0 0.011653370133879206 0.024957883622297908 0 0.01231734765506572 0.023005119946124551 0 0.011740365275367926 0.023890981252779626 0 0.011554135692127312 0.023260471363236564 0 0.010783816400820396 0.022623713635139091 0 0.010815396767618531 0.024118976988473907 0 0.011554135692127312 0.023260471363236564 0 0.010815396767618531 0.024118976988473907 0 0.011740365275367926 0.023890981252779626 0 0.011554135692127312 0.023260471363236564 0 0.016835701488719358 0.021275008427277677 0 0.018849395344541411 0.022102766111685934 0 0.010783816400820396 0.022623713635139091 0 0.0096081829373725926 0.024939619708978719 0 0.010815396767618531 0.024118976988473907 0 0.016544476418185482 0.015605188397510744 0 0.018370680129657667 0.012889569188043402 0 0.018812563884920249 0.014154830992745851 0 0.016544476418185482 0.015605188397510744 0 0.019084361060720166 0.015622999982656829 0 0.018812563884920249 0.014154830992745851 0 0.019407760918593288 0.013365227347277714 0 0.018683849202740504 0.013438897925875954 0 0.018812563884920249 0.014154830992745851 0 0.018849395344541411 0.022102766111685934 0 0.018564549411442172 0.021086139065662503 0 0.022209428069943304 0.02850429035397067 0 0.022271996239121468 0.028330650199378807 0 0.022369230072823532 0.02861112207764149 0 0.022209428069943304 0.02850429035397067 0 0.022266091109954905 0.028626262181056884 0 0.022369230072823532 0.02861112207764149 0 0.022209428069943304 0.02850429035397067 0 0.022271996239121468 0.028330650199378807 0 0.022187280757423777 0.028397725004494105 0 0.022209428069943304 0.02850429035397067 0 0.022187280757423777 0.028397725004494105 0 0.022125641729962061 0.02844342637372077 0 0.022209428069943304 0.02850429035397067 0 0.022118674795286685 0.028545370837367016 0 0.022158444688118291 0.028623394226813981 0 0.022209428069943304 0.02850429035397067 0 0.022266091109954905 0.028626262181056884 0 0.022158444688118291 0.028623394226813981 0 0.022209428069943304 0.02850429035397067 0 0.022125641729962061 0.02844342637372077 0 0.022118674795286685 0.028545370837367016 0 0.012514203556171511 0.028508009377035508 0 0.01247963291404206 0.027679693413167731 0 0.013748845586671299 0.031110044624524012 0 0.018560256168892703 0.026177424630359158 0 0.01881481505587702 0.030080618484491291 0 0.012514203556171511 0.028508009377035508 0 0.012370451444179798 0.030949604581874846 0 0.013748845586671299 0.031110044624524012 0 0.012514203556171511 0.028508009377035508 0 0.011188779280473148 0.028109065110887354 0 0.012370451444179798 0.030949604581874846 0 0.011565724415799252 0.027912611055079421 0 0.012379082261692223 0.03068762819574249 0 0.012514203556171511 0.028508009377035508 0 0.01247963291404206 0.027679693413167731 0 0.010939887678929078 0.028132330140610916 0 0.017475518787070984 0.026074327292733544 0 0.018560256168892703 0.026177424630359158 0 0.010379660972251169 0.027005819794429099 0 0.011240471938058837 0.025980485608889957 0 0.011339117399804617 0.027072737158030481 0 0.01096024422034632 0.026203766571809263 0 0.01247963291404206 0.027679693413167731 0 0.010939887678929078 0.028132330140610916 0 0.018953758889714584 0.024574220468036229 0 0.019530941336922316 0.026075712705840384 0 0.018483687909902669 0.025763925140984203 0 0.022271996239121468 0.028330650199378807 0 0.022187280757423777 0.028397725004494105 0 0.022099956327926079 0.028279999101234781 0 0.018560256168892703 0.026177424630359158 0 0.02172543422608406 0.025465995181053067 0 0.022187280757423777 0.028397725004494105 0 0.022099956327926079 0.028279999101234781 0 0.022125641729962061 0.02844342637372077 0 0.02229127522932867 0.027872208074595946 0 0.022096115855109538 0.027820210046071821 0 0.022024951258952527 0.028514320659913862 0 0.024075928200942846 0.025742903838717548 0 0.026184776024606175 0.027711805449800016 0 0.02172543422608406 0.025465995181053067 0 0.024075928200942846 0.025742903838717548 0 0.019907957605947581 0.012245784319573856 0 0.019493702416248874 0.011636573503769169 0 0.020227891422962573 0.011799131931205274 0 0.03598642855266506 0.027363047231385045 0 0.03602933928929216 0.027315793732649179 0 0.03601540794034834 0.027358425572896711 0 0.03598642855266506 0.027363047231385045 0 0.03601540794034834 0.027358425572896711 0 0.036004161082323641 0.027373741741521976 0 0.03602933928929216 0.027315793732649179 0 0.03601540794034834 0.027358425572896711 0 0.036027752953119482 0.027363401991618727 0 0.03601540794034834 0.027358425572896711 0 0.036004161082323641 0.027373741741521976 0 0.036027752953119482 0.027363401991618727 0 0.036004161082323641 0.027373741741521976 0 0.036067947573498974 0.027370371782404639 0 0.036027752953119482 0.027363401991618727 0 0.02172543422608406 0.025465995181053067 0 0.021437214442752345 0.026976124074834008 0 0.022099956327926079 0.028279999101234781 0 0.022125641729962061 0.02844342637372077 0 0.022024951258952527 0.028514320659913862 0 0.022096115855109538 0.027820210046071821 0 0.0218545069907259 0.028520207224132104 0 0.022024951258952527 0.028514320659913862 0 0.0218545069907259 0.028520207224132104 0 0.022024951258952527 0.028514320659913862 0 0.022015968802842595 0.028652957231999003 0 0.022024951258952527 0.028514320659913862 0 0.022118674795286685 0.028545370837367016 0 0.022015968802842595 0.028652957231999003 0 0.022125641729962061 0.02844342637372077 0 0.022024951258952527 0.028514320659913862 0 0.022118674795286685 0.028545370837367016 0 0.022118674795286685 0.028545370837367016 0 0.022015968802842595 0.028652957231999003 0 0.022158444688118291 0.028623394226813981 0 0.022015968802842595 0.028652957231999003 0 0.021759016963738054 0.028913849686622931 0 0.022117721754987846 0.028790967102468416 0 0.022015968802842595 0.028652957231999003 0 0.022117721754987846 0.028790967102468416 0 0.022158444688118291 0.028623394226813981 0 0.0218545069907259 0.028520207224132104 0 0.022015968802842595 0.028652957231999003 0 0.021759016963738054 0.028913849686622931 0 0.036004161082323641 0.027373741741521976 0 0.036013875434997622 0.027374086563245734 0 0.036073962495555674 0.027389003255776392 0 0.026184776024606175 0.027711805449800016 0 0.025317106154835602 0.032260013400627223 0 0.025317106154835602 0.032260013400627223 0 0.021160795860581838 0.032842282656186418 0 0.021827967646984168 0.039769029596785861 0 0.01986331532231797 0.04012287252020473 0 0.02014458823146088 0.038890919548075123 0 0.01986331532231797 0.04012287252020473 0 0.018985464463190188 0.039589696709846071 0 0.02014458823146088 0.038890919548075123 0 0.01986331532231797 0.04012287252020473 0 0.018985464463190188 0.039589696709846071 0 0.017887808728361803 0.04046852270320158 0 0.018985464463190188 0.039589696709846071 0 0.018571422837290789 0.039151697946282107 0 0.018987743132678224 0.038716815085296195 0 0.022117721754987846 0.028790967102468416 0 0.022266091109954905 0.028626262181056884 0 0.022401004687752125 0.028711345689759686 0 0.021160795860581838 0.032842282656186418 0 0.019186825818899932 0.031749056165799795 0 0.022117721754987846 0.028790967102468416 0 0.022266091109954905 0.028626262181056884 0 0.022158444688118291 0.028623394226813981 0 0.012370451444179798 0.030949604581874846 0 0.012883206386325247 0.031909163640652091 0 0.013748845586671299 0.031110044624524012 0 0.01881481505587702 0.030080618484491291 0 0.019186825818899932 0.031749056165799795 0 0.022266091109954905 0.028626262181056884 0 0.022369230072823532 0.02861112207764149 0 0.022401004687752125 0.028711345689759686 0 0.018071397925345768 0.039747672134463931 0 0.017578575830718333 0.03809803975377947 0 0.017474443301129874 0.039516687522032384 0 0.017887808728361803 0.04046852270320158 0 0.018071397925345768 0.039747672134463931 0 0.017474443301129874 0.039516687522032384 0 0.018985464463190188 0.039589696709846071 0 0.017887808728361803 0.04046852270320158 0 0.018071397925345768 0.039747672134463931 0 0.019186825818899932 0.031749056165799795 0 0.018142161368238985 0.033982972826818073 0 0.018071397925345768 0.039747672134463931 0 0.018571422837290789 0.039151697946282107 0 0.018310501676849434 0.038660857749504986 0 0.018985464463190188 0.039589696709846071 0 0.018071397925345768 0.039747672134463931 0 0.018571422837290789 0.039151697946282107 0 0.017751148602493941 0.03872792887528427 0 0.017547255672513525 0.037958041267763899 0 0.018071397925345768 0.039747672134463931 0 0.018310501676849434 0.038660857749504986 0 0.017696679857857799 0.038208721534791636 0 0.018571422837290789 0.039151697946282107 0 0.018310501676849434 0.038660857749504986 0 0.018987743132678224 0.038716815085296195 0 0.018310501676849434 0.038660857749504986 0 0.018987743132678224 0.038716815085296195 0 0.018545817848505487 0.037984385314031428 0 0.018310501676849434 0.038660857749504986 0 0.017696679857857799 0.038208721534791636 0 0.018545817848505487 0.037984385314031428 0 0.018987743132678224 0.038716815085296195 0 0.019348197997281096 0.038007147068101481 0 0.02014458823146088 0.038890919548075123 0 0.018985464463190188 0.039589696709846071 0 0.018987743132678224 0.038716815085296195 0 0.02014458823146088 0.038890919548075123 0 0.018987743132678224 0.038716815085296195 0 0.019348197997281096 0.038007147068101481 0 0.018545817848505487 0.037984385314031428 0 0.019348197997281096 0.038007147068101481 0 0.01902761299202502 0.037228036930563653 0 0.020187375288728757 0.037540212542397158 0 0.019348197997281096 0.038007147068101481 0 0.01902761299202502 0.037228036930563653 0 0.018545817848505487 0.037984385314031428 0 0.017696679857857799 0.038208721534791636 0 0.018147410317710149 0.037237775319329411 0 0.017236527043033332 0.036628200495977169 0 0.017696679857857799 0.038208721534791636 0 0.018545817848505487 0.037984385314031428 0 0.018147410317710149 0.037237775319329411 0 0.01902761299202502 0.037228036930563653 0 0.018545817848505487 0.037984385314031428 0 0.018147410317710149 0.037237775319329411 0 0.01902761299202502 0.037228036930563653 0 0.018147410317710149 0.037237775319329411 0 0.018235877437556135 0.036119514915355387 0 0.018147410317710149 0.037237775319329411 0 0.018235877437556135 0.036119514915355387 0 0.017236527043033332 0.036628200495977169 0 0.01902761299202502 0.037228036930563653 0 0.018235877437556135 0.036119514915355387 0 0.01970502873494866 0.036251456512496616 0 0.01902761299202502 0.037228036930563653 0 0.01970502873494866 0.036251456512496616 0 0.020187375288728757 0.037540212542397158 0 0.018669983645516655 0.034999965498414429 0 0.020594801429328156 0.034999973549694759 0 0.01970502873494866 0.036251456512496616 0 0.018235877437556135 0.036119514915355387 0 0.018669983645516655 0.034999965498414429 0 0.01970502873494866 0.036251456512496616 0 0.018235877437556135 0.036119514915355387 0 0.018669983645516655 0.034999965498414429 0 0.016745211092812518 0.034999986951703567 0 0.020594801429328156 0.034999973549694759 0 0.021510417390235129 0.036641629103754736 0 0.022519697906576961 0.034999937428482703 0 0.020594801429328156 0.034999973549694759 0 0.01970502873494866 0.036251456512496616 0 0.021510417390235129 0.036641629103754736 0 0.01970502873494866 0.036251456512496616 0 0.021510417390235129 0.036641629103754736 0 0.020187375288728757 0.037540212542397158 0 0.021510417390235129 0.036641629103754736 0 0.021255096972066793 0.038187540470409183 0 0.02260538351660531 0.038066088025103799 0 0.021510417390235129 0.036641629103754736 0 0.020187375288728757 0.037540212542397158 0 0.021255096972066793 0.038187540470409183 0 0.020187375288728757 0.037540212542397158 0 0.02014458823146088 0.038890919548075123 0 0.021255096972066793 0.038187540470409183 0 0.019348197997281096 0.038007147068101481 0 0.020187375288728757 0.037540212542397158 0 0.02014458823146088 0.038890919548075123 0 0.021827967646984168 0.039769029596785861 0 0.02014458823146088 0.038890919548075123 0 0.021255096972066793 0.038187540470409183 0 0.0223100490007088 0.039484765499527834 0 0.022926323658114575 0.037960723232020308 0 0.023909965198441251 0.039253466126940161 0 0.021827967646984168 0.039769029596785861 0 0.021255096972066793 0.038187540470409183 0 0.02260538351660531 0.038066088025103799 0 0.025317106154835602 0.032260013400627223 0 0.023260737131667299 0.036960885859891719 0 0.022926323658114575 0.037960723232020308 0 0.024371501961721821 0.037637448268664636 0 0.023909965198441251 0.039253466126940161 0 0.023260737131667299 0.036960885859891719 0 0.023281130185698846 0.0368735958168009 0 0.022926323658114575 0.037960723232020308 0 0.02347081967038998 0.036303692578620851 0 0.024371501961721821 0.037637448268664636 0 0.021510417390235129 0.036641629103754736 0 0.02260538351660531 0.038066088025103799 0 0.02347081967038998 0.036303692578620851 0 0.02347081967038998 0.036303692578620851 0 0.022519697906576961 0.034999937428482703 0 0.024444596409488383 0.034999966389609609 0 0.021510417390235129 0.036641629103754736 0 0.02347081967038998 0.036303692578620851 0 0.022519697906576961 0.034999937428482703 0 0.024444596409488383 0.034999966389609609 0 0.02468598120531482 0.036163567039108384 0 0.026369390107991043 0.034999954317826168 0 0.02347081967038998 0.036303692578620851 0 0.024444596409488383 0.034999966389609609 0 0.02468598120531482 0.036163567039108384 0 0.02468598120531482 0.036163567039108384 0 0.025670230365914433 0.036999084285153146 0 0.024371501961721821 0.037637448268664636 0 0.02347081967038998 0.036303692578620851 0 0.02468598120531482 0.036163567039108384 0 0.024371501961721821 0.037637448268664636 0 0.02468598120531482 0.036163567039108384 0 0.025670230365914433 0.036999084285153146 0 0.026369390107991043 0.034999954317826168 0 0.025670230365914433 0.036999084285153146 0 0.025662548208072514 0.039026881116081512 0 0.0268107374741921 0.037732859206868544 0 0.025670230365914433 0.036999084285153146 0 0.024371501961721821 0.037637448268664636 0 0.025662548208072514 0.039026881116081512 0 0.024371501961721821 0.037637448268664636 0 0.025662548208072514 0.039026881116081512 0 0.023909965198441251 0.039253466126940161 0 0.036446023452313646 0.027442896508782871 0 0.036323854776663507 0.027534366647929381 0 0.03673951421173003 0.027671066123724861 0 0.036539878257464256 0.027458117382720033 0 0.036621683132655944 0.027442853835956089 0 0.036323854776663507 0.027534366647929381 0 0.036281734886868096 0.027375573673406674 0 0.036281647492613506 0.027225110663536719 0 0.036323854776663507 0.027534366647929381 0 0.036175190256449039 0.027413707360091737 0 0.036281734886868096 0.027375573673406674 0 0.036323854776663507 0.027534366647929381 0 0.036144607059473477 0.027388839070925559 0 0.036175190256449039 0.027413707360091737 0 0.036446023452313646 0.027442896508782871 0 0.036323854776663507 0.027534366647929381 0 0.036144607059473477 0.027388839070925559 0 0.030878073377379526 0.032647612354162539 0 0.029307688421218055 0.032532744638745545 0 0.025317106154835602 0.032260013400627223 0 0.029307688421218055 0.032532744638745545 0 0.036013875434997622 0.027374086563245734 0 0.036144607059473477 0.027388839070925559 0 0.036073962495555674 0.027389003255776392 0 0.036144607059473477 0.027388839070925559 0 0.036073962495555674 0.027389003255776392 0 0.036175190256449039 0.027413707360091737 0 0.036175190256449039 0.027413707360091737 0 0.036138393605745625 0.027362204022651389 0 0.036210779802054983 0.027347682277507907 0 0.036175190256449039 0.027413707360091737 0 0.036138393605745625 0.027362204022651389 0 0.036067947573498974 0.027370371782404639 0 0.036138393605745625 0.027362204022651389 0 0.036067947573498974 0.027370371782404639 0 0.036079370164963216 0.027345765329668904 0 0.036138393605745625 0.027362204022651389 0 0.036148331228498053 0.027344696349679218 0 0.036210779802054983 0.027347682277507907 0 0.036073962495555674 0.027389003255776392 0 0.036175190256449039 0.027413707360091737 0 0.036067947573498974 0.027370371782404639 0 0.036004161082323641 0.027373741741521976 0 0.036073962495555674 0.027389003255776392 0 0.036067947573498974 0.027370371782404639 0 0.036067947573498974 0.027370371782404639 0 0.036027752953119482 0.027363401991618727 0 0.036034523563354896 0.027352860628377208 0 0.036027752953119482 0.027363401991618727 0 0.036034523563354896 0.027352860628377208 0 0.036006079703176597 0.02734251441797075 0 0.036067947573498974 0.027370371782404639 0 0.036034523563354896 0.027352860628377208 0 0.036079370164963216 0.027345765329668904 0 0.036034523563354896 0.027352860628377208 0 0.036013099763119831 0.027345004960513827 0 0.036079370164963216 0.027345765329668904 0 0.036046233111570555 0.027348397969777696 0 0.036013099763119831 0.027345004960513827 0 0.036079370164963216 0.027345765329668904 0 0.036046233111570555 0.027348397969777696 0 0.036012777468697514 0.027353690077999749 0 0.036013099763119831 0.027345004960513827 0 0.035939033723589052 0.027369708652752494 0 0.036012777468697514 0.027353690077999749 0 0.036013099763119831 0.027345004960513827 0 0.03602933928929216 0.027315793732649179 0 0.036027752953119482 0.027363401991618727 0 0.036006079703176597 0.02734251441797075 0 0.036034523563354896 0.027352860628377208 0 0.036013099763119831 0.027345004960513827 0 0.036006079703176597 0.02734251441797075 0 0.035939033723589052 0.027369708652752494 0 0.036013099763119831 0.027345004960513827 0 0.036006079703176597 0.02734251441797075 0 0.036007483435778941 0.027326859852440467 0 0.035939033723589052 0.027369708652752494 0 0.036006079703176597 0.02734251441797075 0 0.036007483435778941 0.027326859852440467 0 0.03602933928929216 0.027315793732649179 0 0.036006079703176597 0.02734251441797075 0 0.036148331228498053 0.027344696349679218 0 0.036123745288403619 0.027340299253728963 0 0.036181889332690606 0.027332943904756445 0 0.036138393605745625 0.027362204022651389 0 0.036148331228498053 0.027344696349679218 0 0.036079370164963216 0.027345765329668904 0 0.036148331228498053 0.027344696349679218 0 0.036079370164963216 0.027345765329668904 0 0.036123745288403619 0.027340299253728963 0 0.036046233111570555 0.027348397969777696 0 0.036079370164963216 0.027345765329668904 0 0.036085597063558135 0.027344459557446854 0 0.036079370164963216 0.027345765329668904 0 0.036085597063558135 0.027344459557446854 0 0.036123745288403619 0.027340299253728963 0 0.036046233111570555 0.027348397969777696 0 0.036085597063558135 0.027344459557446854 0 0.03609290759282708 0.027346126157888222 0 0.036085597063558135 0.027344459557446854 0 0.03609290759282708 0.027346126157888222 0 0.036123745288403619 0.027340299253728963 0 0.036134212471469307 0.02734260824416964 0 0.036123745288403619 0.027340299253728963 0 0.036159519168602217 0.027335660077445853 0 0.036123745288403619 0.027340299253728963 0 0.036159519168602217 0.027335660077445853 0 0.036181889332690606 0.027332943904756445 0 0.036134212471469307 0.02734260824416964 0 0.03609290759282708 0.027346126157888222 0 0.036123745288403619 0.027340299253728963 0 0.036226792069474066 0.027308492414529751 0 0.036268263008203877 0.027293300852872536 0 0.036210779802054983 0.027347682277507907 0 0.036189055037357865 0.027326675552322582 0 0.036159519168602217 0.027335660077445853 0 0.036181889332690606 0.027332943904756445 0 0.036189055037357865 0.027326675552322582 0 0.036181889332690606 0.027332943904756445 0 0.036226792069474066 0.027308492414529751 0 0.036181889332690606 0.027332943904756445 0 0.036226792069474066 0.027308492414529751 0 0.036210779802054983 0.027347682277507907 0 0.036148331228498053 0.027344696349679218 0 0.036181889332690606 0.027332943904756445 0 0.036210779802054983 0.027347682277507907 0 0.036222405542957123 0.027307447388318837 0 0.036189055037357865 0.027326675552322582 0 0.036226792069474066 0.027308492414529751 0 0.036275402811744663 0.027257303381332306 0 0.036226792069474066 0.027308492414529751 0 0.036268263008203877 0.027293300852872536 0 0.036275402811744663 0.027257303381332306 0 0.036268263008203877 0.027293300852872536 0 0.036281647492613506 0.027225110663536719 0 0.036275402811744663 0.027257303381332306 0 0.036222405542957123 0.027307447388318837 0 0.036226792069474066 0.027308492414529751 0 0.036268263008203877 0.027293300852872536 0 0.036281734886868096 0.027375573673406674 0 0.036281647492613506 0.027225110663536719 0 0.036268263008203877 0.027293300852872536 0 0.036281734886868096 0.027375573673406674 0 0.036210779802054983 0.027347682277507907 0 0.036175190256449039 0.027413707360091737 0 0.036281734886868096 0.027375573673406674 0 0.036210779802054983 0.027347682277507907 0 0.036621683132655944 0.027442853835956089 0 0.036713648315582867 0.027353622141314968 0 0.036860060524168702 0.027861488661222556 0 0.037115015632430998 0.027628524304748967 0 0.036997058079463026 0.027821824570834888 0 0.036382991223423963 0.02716550363780456 0 0.036275402811744663 0.027257303381332306 0 0.036281647492613506 0.027225110663536719 0 0.036382991223423963 0.02716550363780456 0 0.036281647492613506 0.027225110663536719 0 0.036491262263957026 0.027060325848621617 0 0.036728576829701778 0.027272964484069524 0 0.036713648315582867 0.027353622141314968 0 0.036867277293809883 0.027014217695272461 0 0.037115015632430998 0.027628524304748967 0 0.036965474231006136 0.0274964190058089 0 0.036965474231006136 0.0274964190058089 0 0.037015426946406901 0.027756140702034162 0 0.036931153007582873 0.027674886076564376 0 0.037015426946406901 0.027756140702034162 0 0.036928700196766848 0.027903986516357223 0 0.036931153007582873 0.027674886076564376 0 0.037115015632430998 0.027628524304748967 0 0.036965474231006136 0.0274964190058089 0 0.037015426946406901 0.027756140702034162 0 0.037115015632430998 0.027628524304748967 0 0.037015426946406901 0.027756140702034162 0 0.036997058079463026 0.027821824570834888 0 0.037015426946406901 0.027756140702034162 0 0.036962763813044662 0.027954447300706231 0 0.036997058079463026 0.027821824570834888 0 0.037015426946406901 0.027756140702034162 0 0.036928700196766848 0.027903986516357223 0 0.036962763813044662 0.027954447300706231 0 0.036928700196766848 0.027903986516357223 0 0.036962763813044662 0.027954447300706231 0 0.036821717877780179 0.028112362599994629 0 0.036962763813044662 0.027954447300706231 0 0.036809073914295533 0.028227811368077591 0 0.036821717877780179 0.028112362599994629 0 0.036962763813044662 0.027954447300706231 0 0.036809073914295533 0.028227811368077591 0 0.036942779748539767 0.028060885385270542 0 0.036962763813044662 0.027954447300706231 0 0.036974451292221822 0.027894228346276067 0 0.036997058079463026 0.027821824570834888 0 0.036962763813044662 0.027954447300706231 0 0.036974451292221822 0.027894228346276067 0 0.036942779748539767 0.028060885385270542 0 0.036974451292221822 0.027894228346276067 0 0.036942779748539767 0.028060885385270542 0 0.03696110305298151 0.027875151456539848 0 0.036916588110434426 0.027791213938356134 0 0.03673951421173003 0.027671066123724861 0 0.036843789886664424 0.027691885000193248 0 0.036916588110434426 0.027791213938356134 0 0.036997058079463026 0.027821824570834888 0 0.03673951421173003 0.027671066123724861 0 0.036974451292221822 0.027894228346276067 0 0.036916588110434426 0.027791213938356134 0 0.03696110305298151 0.027875151456539848 0 0.036974451292221822 0.027894228346276067 0 0.036916588110434426 0.027791213938356134 0 0.036997058079463026 0.027821824570834888 0 0.036323854776663507 0.027534366647929381 0 0.036860060524168702 0.027861488661222556 0 0.03673951421173003 0.027671066123724861 0 0.036860060524168702 0.027861488661222556 0 0.036997058079463026 0.027821824570834888 0 0.03673951421173003 0.027671066123724861 0 0.036446023452313646 0.027442896508782871 0 0.03673951421173003 0.027671066123724861 0 0.036843789886664424 0.027691885000193248 0 0.030878073377379526 0.032647612354162539 0 0.032182925302396942 0.032390033362131303 0 0.025662548208072514 0.039026881116081512 0 0.027516890688908651 0.038742881164940436 0 0.0268107374741921 0.037732859206868544 0 0.027516890688908651 0.038742881164940436 0 0.028270565527739388 0.037724115547911177 0 0.029376779201926259 0.038404890442735568 0 0.032182925302396942 0.032390033362131303 0 0.034290445569914951 0.031432731525331922 0 0.036916588110434426 0.027791213938356134 0 0.036843789886664424 0.027691885000193248 0 0.03696110305298151 0.027875151456539848 0 0.027516890688908651 0.038742881164940436 0 0.028270565527739388 0.037724115547911177 0 0.0268107374741921 0.037732859206868544 0 0.028270565527739388 0.037724115547911177 0 0.0268107374741921 0.037732859206868544 0 0.027346213513750443 0.036505311861836122 0 0.025670230365914433 0.036999084285153146 0 0.0268107374741921 0.037732859206868544 0 0.027346213513750443 0.036505311861836122 0 0.025670230365914433 0.036999084285153146 0 0.027346213513750443 0.036505311861836122 0 0.026369390107991043 0.034999954317826168 0 0.027346213513750443 0.036505311861836122 0 0.02829427567456104 0.034999949599837168 0 0.029038305862413249 0.036760861724615873 0 0.028270565527739388 0.037724115547911177 0 0.027346213513750443 0.036505311861836122 0 0.029038305862413249 0.036760861724615873 0 0.027346213513750443 0.036505311861836122 0 0.02829427567456104 0.034999949599837168 0 0.026369390107991043 0.034999954317826168 0 0.029788533163260397 0.035957457560450476 0 0.030218965205762206 0.034999941766400519 0 0.030867280707787673 0.035976377094698954 0 0.030223323697627005 0.034998495174404773 0 0.031991419267929498 0.034685883002766149 0 0.02829427567456104 0.034999949599837168 0 0.029788533163260397 0.035957457560450476 0 0.029038305862413249 0.036760861724615873 0 0.02829427567456104 0.034999949599837168 0 0.029788533163260397 0.035957457560450476 0 0.030218965205762206 0.034999941766400519 0 0.029788533163260397 0.035957457560450476 0 0.030347302945244372 0.036665954412245891 0 0.030867280707787673 0.035976377094698954 0 0.029038305862413249 0.036760861724615873 0 0.030347302945244372 0.036665954412245891 0 0.030472763853089696 0.037684372474091309 0 0.029788533163260397 0.035957457560450476 0 0.029038305862413249 0.036760861724615873 0 0.030347302945244372 0.036665954412245891 0 0.033813151438652878 0.032725127879969958 0 0.034290445569914951 0.031432731525331922 0 0.029038305862413249 0.036760861724615873 0 0.030472763853089696 0.037684372474091309 0 0.029376779201926259 0.038404890442735568 0 0.03674493188355854 0.028545363428895174 0 0.036828860804281438 0.028460087272737099 0 0.036750893346634263 0.028465718841371449 0 0.028270565527739388 0.037724115547911177 0 0.029038305862413249 0.036760861724615873 0 0.029376779201926259 0.038404890442735568 0 0.036843789886664424 0.027691885000193248 0 0.037053943591493478 0.027932877194695657 0 0.03696110305298151 0.027875151456539848 0 0.036942779748539767 0.028060885385270542 0 0.036949973134758042 0.028226304550861253 0 0.03696110305298151 0.027875151456539848 0 0.034290445569914951 0.031432731525331922 0 0.035306787675655885 0.030591716880289721 0 0.036949973134758042 0.028226304550861253 0 0.036750893346634263 0.028465718841371449 0 0.03684481166833603 0.028262169536100938 0 0.034290445569914951 0.031432731525331922 0 0.035241537555696964 0.030986684570644889 0 0.036750893346634263 0.028465718841371449 0 0.03684481166833603 0.028262169536100938 0 0.036747796222009466 0.02836570874719118 0 0.036942779748539767 0.028060885385270542 0 0.036949973134758042 0.028226304550861253 0 0.03684481166833603 0.028262169536100938 0 0.036809073914295533 0.028227811368077591 0 0.036942779748539767 0.028060885385270542 0 0.03684481166833603 0.028262169536100938 0 0.036809073914295533 0.028227811368077591 0 0.03684481166833603 0.028262169536100938 0 0.036747796222009466 0.02836570874719118 0 0.036809073914295533 0.028227811368077591 0 0.036747796222009466 0.02836570874719118 0 0.036667475203044912 0.028409123683122411 0 0.036809073914295533 0.028227811368077591 0 0.036667475203044912 0.028409123683122411 0 0.036667822854491938 0.028339715555846023 0 0.036667475203044912 0.028409123683122411 0 0.036566730270261708 0.028460910228251333 0 0.036667822854491938 0.028339715555846023 0 0.036667475203044912 0.028409123683122411 0 0.036597544163899452 0.028523853149237888 0 0.036677361762394063 0.028489150475448491 0 0.036667475203044912 0.028409123683122411 0 0.036597544163899452 0.028523853149237888 0 0.036566730270261708 0.028460910228251333 0 0.036747796222009466 0.02836570874719118 0 0.036667475203044912 0.028409123683122411 0 0.036677361762394063 0.028489150475448491 0 0.036750893346634263 0.028465718841371449 0 0.036747796222009466 0.02836570874719118 0 0.036677361762394063 0.028489150475448491 0 0.036597544163899452 0.028523853149237888 0 0.036488326419156496 0.028519159739465727 0 0.036566730270261708 0.028460910228251333 0 0.036488326419156496 0.028519159739465727 0 0.036566730270261708 0.028460910228251333 0 0.036491042069342991 0.028519727678867141 0 0.034221537992669082 0.033600351784578174 0 0.034817727617952619 0.033024319485411485 0 0.036597544163899452 0.028523853149237888 0 0.036488326419156496 0.028519159739465727 0 0.036591447549532634 0.028653191180330956 0 0.038364843108761128 0.032984191818934 0 0.03806049100373645 0.033185280817382534 0 0.03686752808251953 0.032462443094054404 0 0.037194084810676001 0.0311187425093487 0 0.038364843108761128 0.032984191818934 0 0.03686752808251953 0.032462443094054404 0 0.035000270237578679 0.031114674856049844 0 0.033795832658305699 0.033630851821026111 0 0.033813151438652878 0.032725127879969958 0 0.033795832658305699 0.033630851821026111 0 0.03674493188355854 0.028545363428895174 0 0.036647744695407068 0.028561076632816974 0 0.036591447549532634 0.028653191180330956 0 0.030347302945244372 0.036665954412245891 0 0.030472763853089696 0.037684372474091309 0 0.031552246524000085 0.036959564242345179 0 0.036597544163899452 0.028523853149237888 0 0.036647744695407068 0.028561076632816974 0 0.036591447549532634 0.028653191180330956 0 0.03674493188355854 0.028545363428895174 0 0.036677361762394063 0.028489150475448491 0 0.036647744695407068 0.028561076632816974 0 0.03674493188355854 0.028545363428895174 0 0.036750893346634263 0.028465718841371449 0 0.036677361762394063 0.028489150475448491 0 0.036597544163899452 0.028523853149237888 0 0.036677361762394063 0.028489150475448491 0 0.036647744695407068 0.028561076632816974 0 0.030347302945244372 0.036665954412245891 0 0.031552246524000085 0.036959564242345179 0 0.030867280707787673 0.035976377094698954 0 0.031586072720274048 0.036226089476887241 0 0.031746859710769938 0.03671997607710268 0 0.030944418266372845 0.036019069002216915 0 0.033795832658305699 0.033630851821026111 0 0.031991419267929498 0.034685883002766149 0 0.031657075932439036 0.037016973232399969 0 0.031746859710769938 0.03671997607710268 0 0.030944418266372845 0.036019069002216915 0 0.034206030687455119 0.033252201554765499 0 0.034485003752453246 0.033066516610303381 0 0.034613078995556427 0.033489864709181215 0 0.033795832658305699 0.033630851821026111 0 0.034221537992669082 0.033600351784578174 0 0.031657075932439036 0.037016973232399969 0 0.031746859710769938 0.03671997607710268 0 0.03193664453188743 0.036827574799621593 0 0.031746859710769938 0.03671997607710268 0 0.031936802577606199 0.036831204800645008 0 0.031963299487384716 0.036384763388275752 0 0.034206389517033323 0.033610723335861598 0 0.034221537992669082 0.033600351784578174 0 0.034221537992669082 0.033600351784578174 0 0.033802917548060578 0.034119793203973944 0 0.031936802577606199 0.036831204800645008 0 0.032712420429888749 0.036316513511016932 0 0.031963299487384716 0.036384763388275752 0 0.031586072720274048 0.036226089476887241 0 0.031963299487384716 0.036384763388275752 0 0.031833250818921369 0.035828248412999933 0 0.032712420429888749 0.036316513511016932 0 0.031963299487384716 0.036384763388275752 0 0.031833250818921369 0.035828248412999933 0 0.031586072720274048 0.036226089476887241 0 0.031746859710769938 0.03671997607710268 0 0.031963299487384716 0.036384763388275752 0 0.032712420429888749 0.036316513511016932 0 0.031833250818921369 0.035828248412999933 0 0.032327976575028644 0.03499996375942023 0 0.033802917548060578 0.034119793203973944 0 0.032331719049622822 0.034998864989716508 0 0.030219188071523125 0.034999990280223638 0 0.031833250818921369 0.035828248412999933 0 0.032327976575028644 0.03499996375942023 0 0.030219188071523125 0.034999990280223638 0 0.031833250818921369 0.035828248412999933 0 0.030944418266372845 0.036019069002216915 0 0.031586072720274048 0.036226089476887241 0 0.031833250818921369 0.035828248412999933 0 0.030944418266372845 0.036019069002216915 0 0.032329072807653736 0.034999530456292345 0 0.034999747190827317 0.034999850143623071 0 0.034690237675358532 0.034985967366682628 0 0.034999747190827317 0.034999850143623071 0 0.035575630734393862 0.033350301126384804 0 0.034999427584333574 0.031284107777704302 0 0.034999747190827317 0.034999850143623071 0 0.034690237675358532 0.034985967366682628 0 0.035575630734393862 0.033350301126384804 0 0.034690237675358532 0.034985967366682628 0 0.035958426751342476 0.034382759406546261 0 0.035575630734393862 0.033350301126384804 0 0.034206117639484515 0.034299509383442485 0 0.034121532725401534 0.034252869687654112 0 0.032783230837812254 0.036352131689703797 0 0.032329072807653736 0.034999530456292345 0 0.033717705126703974 0.035721965001272414 0 0.032329072807653736 0.034999530456292345 0 0.034690237675358532 0.034985967366682628 0 0.033717705126703974 0.035721965001272414 0 0.033802917548060578 0.034119793203973944 0 0.034121532725401534 0.034252869687654112 0 0.033802917548060578 0.034119793203973944 0 0.034817727617952619 0.033024319485411485 0 0.035958426751342476 0.034382759406546261 0 0.036267753846228934 0.033489279584459762 0 0.035575630734393862 0.033350301126384804 0 0.036939536642017462 0.033753661641639045 0 0.036267753846228934 0.033489279584459762 0 0.036593484988154762 0.032499415587468203 0 0.036939536642017462 0.033753661641639045 0 0.035958426751342476 0.034382759406546261 0 0.036267753846228934 0.033489279584459762 0 0.036267753846228934 0.033489279584459762 0 0.035575630734393862 0.033350301126384804 0 0.036593484988154762 0.032499415587468203 0 0.035575630734393862 0.033350301126384804 0 0.035733914424089262 0.031922176369606071 0 0.034999427584333574 0.031284107777704302 0 0.035575630734393862 0.033350301126384804 0 0.035733914424089262 0.031922176369606071 0 0.036593484988154762 0.032499415587468203 0 0.03510910102082445 0.032193735692295833 0 0.034817727617952619 0.033024319485411485 0 0.034817727617952619 0.033024319485411485 0 0.035093075398622796 0.031963651964260265 0 0.037194084810676001 0.0311187425093487 0 0.03686752808251953 0.032462443094054404 0 0.036321923974469233 0.030390698077250925 0 0.035923332972080502 0.031795810812254265 0 0.036928240049648821 0.032398517318012937 0 0.036321923974469233 0.030390698077250925 0 0.035923332972080502 0.031795810812254265 0 0.034999934945332607 0.031283477439743274 0 0.036321923974469233 0.030390698077250925 0 0.03510910102082445 0.032193735692295833 0 0.034999662081948234 0.031285730851355484 0 0.036013108034428427 0.029055368094280162 0 0.034999925603531254 0.029219692907140177 0 0.036321923974469233 0.030390698077250925 0 0.034999934945332607 0.031283477439743274 0 0.034999925603531254 0.029219692907140177 0 0.036321923974469233 0.030390698077250925 0 0.036013108034428427 0.029055368094280162 0 0.034999925603531254 0.029219692907140177 0 0.035882460049432241 0.027966297308672866 0 0.036013108034428427 0.029055368094280162 0 0.036273898763150576 0.02830636988286514 0 0.035882460049432241 0.027966297308672866 0 0.036013108034428427 0.029055368094280162 0 0.036273898763150576 0.02830636988286514 0 0.036457855735280625 0.0284213948038936 0 0.036488326419156496 0.028519159739465727 0 0.036013108034428427 0.029055368094280162 0 0.036491042069342991 0.028519727678867141 0 0.037194084810676001 0.0311187425093487 0 0.036013108034428427 0.029055368094280162 0 0.036321923974469233 0.030390698077250925 0 0.035000270237578679 0.031114674856049844 0 0.035107461763174884 0.03019504104124628 0 0.036013108034428427 0.029055368094280162 0 0.036491042069342991 0.028519727678867141 0 0.036457855735280625 0.0284213948038936 0 0.036566730270261708 0.028460910228251333 0 0.036491042069342991 0.028519727678867141 0 0.036667822854491938 0.028339715555846023 0 0.036491042069342991 0.028519727678867141 0 0.036667822854491938 0.028339715555846023 0 0.036666199569393453 0.028245091551559579 0 0.036491042069342991 0.028519727678867141 0 0.036457855735280625 0.0284213948038936 0 0.036666199569393453 0.028245091551559579 0 0.036809073914295533 0.028227811368077591 0 0.036667822854491938 0.028339715555846023 0 0.036821717877780179 0.028112362599994629 0 0.036667822854491938 0.028339715555846023 0 0.036821717877780179 0.028112362599994629 0 0.036666199569393453 0.028245091551559579 0 0.036928700196766848 0.027903986516357223 0 0.036821717877780179 0.028112362599994629 0 0.036817298772353943 0.027976784388269716 0 0.036821717877780179 0.028112362599994629 0 0.036817298772353943 0.027976784388269716 0 0.036666199569393453 0.028245091551559579 0 0.036817298772353943 0.027976784388269716 0 0.036666199569393453 0.028245091551559579 0 0.036677330966296648 0.027940968820723295 0 0.036928700196766848 0.027903986516357223 0 0.036817298772353943 0.027976784388269716 0 0.036931153007582873 0.027674886076564376 0 0.036273898763150576 0.02830636988286514 0 0.036457855735280625 0.0284213948038936 0 0.036677330966296648 0.027940968820723295 0 0.036457855735280625 0.0284213948038936 0 0.036666199569393453 0.028245091551559579 0 0.036677330966296648 0.027940968820723295 0 0.036273898763150576 0.02830636988286514 0 0.036677330966296648 0.027940968820723295 0 0.036498698033500074 0.027581089428033872 0 0.036677330966296648 0.027940968820723295 0 0.036896418240535862 0.02732958824874435 0 0.036498698033500074 0.027581089428033872 0 0.036677330966296648 0.027940968820723295 0 0.036931153007582873 0.027674886076564376 0 0.036896418240535862 0.02732958824874435 0 0.036965474231006136 0.0274964190058089 0 0.036931153007582873 0.027674886076564376 0 0.036896418240535862 0.02732958824874435 0 0.036817298772353943 0.027976784388269716 0 0.036677330966296648 0.027940968820723295 0 0.036931153007582873 0.027674886076564376 0 0.036971542230077807 0.026654486195506692 0 0.036867277293809883 0.027014217695272461 0 0.036896418240535862 0.02732958824874435 0 0.036867277293809883 0.027014217695272461 0 0.036965474231006136 0.0274964190058089 0 0.036896418240535862 0.02732958824874435 0 0.036971542230077807 0.026654486195506692 0 0.036896418240535862 0.02732958824874435 0 0.036498698033500074 0.027581089428033872 0 0.036971542230077807 0.026654486195506692 0 0.036087567656018192 0.026698909446189124 0 0.036498698033500074 0.027581089428033872 0 0.036087567656018192 0.026698909446189124 0 0.034999949902253975 0.027158279123177583 0 0.035882460049432241 0.027966297308672866 0 0.034999925603531254 0.029219692907140177 0 0.034999949902253975 0.027158279123177583 0 0.035882460049432241 0.027966297308672866 0 0.036273898763150576 0.02830636988286514 0 0.035882460049432241 0.027966297308672866 0 0.036498698033500074 0.027581089428033872 0 0.036087567656018192 0.026698909446189124 0 0.035882460049432241 0.027966297308672866 0 0.036498698033500074 0.027581089428033872 0 0.005216946815686848 0.040308865702757928 0 0.0049193001989452567 0.041157822593789202 0 0.0066045030594745141 0.040148708131466801 0 0.01119384799280294 0.032065515440478871 0 0.015664526804292946 0.03078579038922331 0 0.005216946815686848 0.040308865702757928 0 0.0066045030594745141 0.040148708131466801 0 0.0057659595728771704 0.039606442047524282 0 0.005216946815686848 0.040308865702757928 0 0.0044891215520734915 0.039854877742438302 0 0.0050919099239151774 0.039624091641082299 0 0.005216946815686848 0.040308865702757928 0 0.0044891215520734915 0.039854877742438302 0 0.004403797430237665 0.04028446649294791 0 0.005216946815686848 0.040308865702757928 0 0.004403797430237665 0.04028446649294791 0 0.0042693030387649395 0.040261285934798857 0 0.0041342745466025344 0.039768147608055471 0 0.004403797430237665 0.04028446649294791 0 0.0042693030387649395 0.040261285934798857 0 0.030732553716320114 0.017738369800633886 0 0.028996665682634523 0.017213760777551306 0 0.028489489328046673 0.021426830762243089 0 0.030732553716320114 0.017738369800633886 0 0.028996665682634523 0.017213760777551306 0 0.02932639680359804 0.015149867735112293 0 0.01031040707571274 0.034570764074980311 0 0.01119384799280294 0.032065515440478871 0 0.028996665682634523 0.017213760777551306 0 0.027375519967213015 0.017764453267046464 0 0.028489489328046673 0.021426830762243089 0 0.028996665682634523 0.017213760777551306 0 0.027375519967213015 0.017764453267046464 0 0.027617906933242658 0.015650581753929065 0 0.027375519967213015 0.017764453267046464 0 0.025471001201827909 0.016212493118066416 0 0.027617906933242658 0.015650581753929065 0 0.02566286625541056 0.018682427249755478 0 0.025471001201827909 0.016212493118066416 0 0.022905763420189972 0.017389821113312012 0 0.027375519967213015 0.017764453267046464 0 0.02566286625541056 0.018682427249755478 0 0.025471001201827909 0.016212493118066416 0 0.025140818920143804 0.02083549865173313 0 0.028489489328046673 0.021426830762243089 0 0.02424635148391845 0.023328842186406084 0 0.02566286625541056 0.018682427249755478 0 0.025140818920143804 0.02083549865173313 0 0.028489489328046673 0.021426830762243089 0 0.02566286625541056 0.018682427249755478 0 0.025140818920143804 0.02083549865173313 0 0.022891894880572899 0.02013150192842671 0 0.025140818920143804 0.02083549865173313 0 0.02424635148391845 0.023328842186406084 0 0.022891894880572899 0.02013150192842671 0 0.027375519967213015 0.017764453267046464 0 0.02566286625541056 0.018682427249755478 0 0.028489489328046673 0.021426830762243089 0 0.0066045030594745141 0.040148708131466801 0 0.0067553152632874886 0.039419504124027629 0 0.0085540030810771425 0.03951107173596452 0 0.015664526804292946 0.03078579038922331 0 0.016002527786928736 0.032597997093214613 0 0.0066045030594745141 0.040148708131466801 0 0.0067553152632874886 0.039419504124027629 0 0.0057659595728771704 0.039606442047524282 0 0.028489489328046673 0.021426830762243089 0 0.02424635148391845 0.023328842186406084 0 0.02540852931167285 0.026499889361159178 0 0.0085540030810771425 0.03951107173596452 0 0.006754100271690852 0.038641496059968118 0 0.0091467974596771504 0.039076676779286793 0 0.0067553152632874886 0.039419504124027629 0 0.0085540030810771425 0.03951107173596452 0 0.006754100271690852 0.038641496059968118 0 0.0067553152632874886 0.039419504124027629 0 0.006754100271690852 0.038641496059968118 0 0.0059864244957688233 0.039161983798903219 0 0.0075502924293207171 0.039721497889149644 0 0.0056927972398958691 0.039363294267913247 0 0.0061950685947895082 0.039143121909995207 0 0.006754100271690852 0.038641496059968118 0 0.0059864244957688233 0.039161983798903219 0 0.0048515729722534871 0.038953880311244575 0 0.0075502924293207171 0.039721497889149644 0 0.0053563056569053595 0.039674880574869384 0 0.0056927972398958691 0.039363294267913247 0 0.006843850694686922 0.039095883960020263 0 0.0055439280275401742 0.039321396676452007 0 0.0067553152632874886 0.039419504124027629 0 0.0059864244957688233 0.039161983798903219 0 0.0057659595728771704 0.039606442047524282 0 0.0059864244957688233 0.039161983798903219 0 0.0054711382892250636 0.039325182289934563 0 0.0048515729722534871 0.038953880311244575 0 0.005216946815686848 0.040308865702757928 0 0.0057659595728771704 0.039606442047524282 0 0.0050919099239151774 0.039624091641082299 0 0.0059864244957688233 0.039161983798903219 0 0.0054711382892250636 0.039325182289934563 0 0.0057659595728771704 0.039606442047524282 0 0.0054711382892250636 0.039325182289934563 0 0.0057659595728771704 0.039606442047524282 0 0.0050919099239151774 0.039624091641082299 0 0.0044891215520734915 0.039854877742438302 0 0.0050919099239151774 0.039624091641082299 0 0.0048515729722534871 0.038953880311244575 0 0.0051072791106577158 0.039334958034352677 0 0.0053563056569053595 0.039674880574869384 0 0.0035506290529185177 0.039157716901744008 0 0.0054711382892250636 0.039325182289934563 0 0.0050919099239151774 0.039624091641082299 0 0.0048515729722534871 0.038953880311244575 0 0.0051072791106577158 0.039334958034352677 0 0.0053563056569053595 0.039674880574869384 0 0.0056927972398958691 0.039363294267913247 0 0.0056927972398958691 0.039363294267913247 0 0.0052547299263012888 0.039120871727741487 0 0.0061950685947895082 0.039143121909995207 0 0.0051072791106577158 0.039334958034352677 0 0.0056927972398958691 0.039363294267913247 0 0.0051750414354890042 0.039254727740374799 0 0.0056927972398958691 0.039363294267913247 0 0.0051750414354890042 0.039254727740374799 0 0.0052547299263012888 0.039120871727741487 0 0.0051072791106577158 0.039334958034352677 0 0.0051750414354890042 0.039254727740374799 0 0.00475242135523139 0.03920489456029657 0 0.0051750414354890042 0.039254727740374799 0 0.00475242135523139 0.03920489456029657 0 0.0052547299263012888 0.039120871727741487 0 0.0051072791106577158 0.039334958034352677 0 0.00475242135523139 0.03920489456029657 0 0.003970782722715698 0.039308604096450567 0 0.0051072791106577158 0.039334958034352677 0 0.00292729078367338 0.037365717553580841 0 0.0035506290529185177 0.039157716901744008 0 0.0038569035558925239 0.038654040665692641 0 0.0029354582135549291 0.038358890711273984 0 0.00292729078367338 0.037365717553580841 0 0.0021725407833745238 0.038560050826595117 0 0.001236659188315609 0.0377906437687009 0 0.00292729078367338 0.037365717553580841 0 0.0021725407833745238 0.038560050826595117 0 0.0035506290529185177 0.039157716901744008 0 0.0021725407833745238 0.038560050826595117 0 0.0035506290529185177 0.039157716901744008 0 0.0017681966486088004 0.040171473656707389 0 0.0055439280275401742 0.039321396676452007 0 0.0048141323490456201 0.039444383846047239 0 0.0044891215520734915 0.039854877742438302 0 0.0048515729722534871 0.038953880311244575 0 0.0035506290529185177 0.039157716901744008 0 0.001236659188315609 0.0377906437687009 0 -0.00014536296209856445 0.037977975085144167 0 0.00020894223933461722 0.036192288500279633 0 -0.00014536296209856445 0.037977975085144167 0 0.00020894223933461722 0.036192288500279633 0 -0.0012485578008763483 0.037231784684419671 0 -0.00014536296209856445 0.037977975085144167 0 -0.0012485578008763483 0.037231784684419671 0 -0.0014063422807739174 0.038257684337418725 0 0.00292729078367338 0.037365717553580841 0 0.001236659188315609 0.0377906437687009 0 0.00020894223933461722 0.036192288500279633 0 0.0029354582135549291 0.038358890711273984 0 0.0009225062110981777 0.037859715232459241 0 0.0021725407833745238 0.038560050826595117 0 0.00093604073242044218 0.038782310810637488 0 0.0017681966486088004 0.040171473656707389 0 0.0021725407833745238 0.038560050826595117 0 0.001236659188315609 0.0377906437687009 0 0.00093604073242044218 0.038782310810637488 0 0.001236659188315609 0.0377906437687009 0 0.00093604073242044218 0.038782310810637488 0 -0.00014536296209856445 0.037977975085144167 0 -0.00014536296209856445 0.037977975085144167 0 -0.00071487333223744641 0.039804043253211067 0 -0.0014063422807739174 0.038257684337418725 0 0.00093604073242044218 0.038782310810637488 0 -0.00014536296209856445 0.037977975085144167 0 -0.00071487333223744641 0.039804043253211067 0 -0.00071487333223744641 0.039804043253211067 0 0.0017681966486088004 0.040171473656707389 0 -0.00089011207958977659 0.042548699998253926 0 0.00093604073242044218 0.038782310810637488 0 -0.00071487333223744641 0.039804043253211067 0 0.0017681966486088004 0.040171473656707389 0 0.0017681966486088004 0.040171473656707389 0 0.0043071460413814959 0.040651226058184449 0 0.0023582930872943927 0.042947881961616266 0 0.0044891215520734915 0.039854877742438302 0 0.004403797430237665 0.04028446649294791 0 0.0043071460413814959 0.040651226058184449 0 0.0044891215520734915 0.039854877742438302 0 0.0035506290529185177 0.039157716901744008 0 0.0043071460413814959 0.040651226058184449 0 0.0035506290529185177 0.039157716901744008 0 0.0017681966486088004 0.040171473656707389 0 0.0043071460413814959 0.040651226058184449 0 0.0041342745466025344 0.039768147608055471 0 0.004403797430237665 0.04028446649294791 0 0.0043071460413814959 0.040651226058184449 0 0.0041342745466025344 0.039768147608055471 0 0.0043071460413814959 0.040651226058184449 0 0.0038322408880134369 0.03838397265406189 0 0.0043071460413814959 0.040651226058184449 0 0.0038322408880134369 0.03838397265406189 0 0.0068422794154267969 0.038412876565469357 0 0.0031570902350638317 0.039445657536550903 0 0.0027095246720600713 0.039016984663960037 0 0.0068422794154267969 0.038412876565469357 0 0.0059520101815384672 0.036172375438912385 0 0.0093156489323234226 0.03528874676926938 0 0.0038322408880134369 0.03838397265406189 0 0.0068422794154267969 0.038412876565469357 0 0.0059520101815384672 0.036172375438912385 0 0.0038322408880134369 0.03838397265406189 0 0.0059520101815384672 0.036172375438912385 0 0.0038245666638123568 0.036196991450529417 0 0.0017681966486088004 0.040171473656707389 0 0.0023582930872943927 0.042947881961616266 0 -0.00089011207958977659 0.042548699998253926 0 0.0027095246720600713 0.039016984663960037 0 0.00093537385519112102 0.037416103845744814 0 0.0023582930872943927 0.042947881961616266 0 -0.00089011207958977659 0.042548699998253926 0 0.00065526342740104479 0.045139187238511319 0 -0.00089011207958977659 0.042548699998253926 0 0.00065526342740104479 0.045139187238511319 0 -0.0016605230906235364 0.045162469846420326 0 0.00093537385519112102 0.037416103845744814 0 -0.0037735508031672381 0.033911882052629461 0 0.00065526342740104479 0.045139187238511319 0 -0.0017219311129933431 0.047047123659507757 0 -0.0016605230906235364 0.045162469846420326 0 0.0093156489323234226 0.03528874676926938 0 0.0092707045602608094 0.032779627424879866 0 0.0067548116998739013 0.033439711819482035 0 0.0092707045602608094 0.032779627424879866 0 0.0067548116998739013 0.033439711819482035 0 0.0074763447653168743 0.031378060586225116 0 0.0093156489323234226 0.03528874676926938 0 0.0092707045602608094 0.032779627424879866 0 0.011565588598149264 0.031983999118471641 0 0.00065526342740104479 0.045139187238511319 0 -0.0011817032459707669 0.04769099813425149 0 -0.0017219311129933431 0.047047123659507757 0 -0.0037735508031672381 0.033911882052629461 0 -0.0032428558070212278 0.034815742601047271 0 0.0038245666638123568 0.036196991450529417 0 0.0045746050726579446 0.034245507544378488 0 0.0023973324849468464 0.033497194281794714 0 0.0059520101815384672 0.036172375438912385 0 0.0038245666638123568 0.036196991450529417 0 0.0045746050726579446 0.034245507544378488 0 0.0059520101815384672 0.036172375438912385 0 0.0093156489323234226 0.03528874676926938 0 0.0067548116998739013 0.033439711819482035 0 0.0059520101815384672 0.036172375438912385 0 0.0045746050726579446 0.034245507544378488 0 0.0067548116998739013 0.033439711819482035 0 0.0067548116998739013 0.033439711819482035 0 0.005919576459361503 0.031530123040835849 0 0.0048598699036124333 0.032550334566076547 0 0.0067548116998739013 0.033439711819482035 0 0.0074763447653168743 0.031378060586225116 0 0.005919576459361503 0.031530123040835849 0 0.005919576459361503 0.031530123040835849 0 0.0047406093409865981 0.031378355896158165 0 0.0048598699036124333 0.032550334566076547 0 0.0045746050726579446 0.034245507544378488 0 0.0067548116998739013 0.033439711819482035 0 0.0048598699036124333 0.032550334566076547 0 0.0045746050726579446 0.034245507544378488 0 0.0048598699036124333 0.032550334566076547 0 0.0036386086197257883 0.032762704740964821 0 0.0045746050726579446 0.034245507544378488 0 0.0036386086197257883 0.032762704740964821 0 0.0023973324849468464 0.033497194281794714 0 0.0048598699036124333 0.032550334566076547 0 0.0036386086197257883 0.032762704740964821 0 0.0037383520961955575 0.031772490708667507 0 0.0047406093409865981 0.031378355896158165 0 0.0048598699036124333 0.032550334566076547 0 0.0037383520961955575 0.031772490708667507 0 0.0038732739048762971 0.030666246806909041 0 0.0047406093409865981 0.031378355896158165 0 0.0037383520961955575 0.031772490708667507 0 0.0027502321373055662 0.030779059464410796 0 0.0037383520961955575 0.031772490708667507 0 0.0017450069688978965 0.031925668033805261 0 0.009585109472551312 0.022289979659662784 0 0.010144129594050135 0.022098748717642024 0 0.0036386086197257883 0.032762704740964821 0 0.0037383520961955575 0.031772490708667507 0 0.0027399657683999531 0.03172056127574626 0 0.010144129594050135 0.022098748717642024 0 0.01303947808419334 0.020157105765792448 0 0.0012388811579757948 0.030696915443625822 0 0.0017450069688978965 0.031925668033805261 0 -0.00079822792110222508 0.031874841688590401 0 0.012911528689282026 0.019444081632826279 0 0.011203567176793758 0.019377804073470985 0 0.01240954424951075 0.021960043482118347 0 0.030731677590725676 0.0087494928716111697 0 0.031503990326601103 0.010346641591881003 0 0.029602460426961744 0.010191563035830232 0 0.01303947808419334 0.020157105765792448 0 0.011264191973097708 0.023271504712779143 0 0.0036386086197257883 0.032762704740964821 0 0.0027399657683999531 0.03172056127574626 0 0.0023973324849468464 0.033497194281794714 0 0.010144129594050135 0.022098748717642024 0 0.011264191973097708 0.023271504712779143 0 0.030731677590725676 0.0087494928716111697 0 0.029602460426961744 0.010191563035830232 0 0.027876513384144489 0.0085863011377553013 0 0.01303947808419334 0.020157105765792448 0 0.019348889629252141 0.014244326981593652 0 0.029602460426961744 0.010191563035830232 0 0.028905770343242727 0.011614267398178592 0 0.027900326011648689 0.010389348132742313 0 0.029602460426961744 0.010191563035830232 0 0.030168134424315349 0.011768800386931474 0 0.028905770343242727 0.011614267398178592 0 0.031503990326601103 0.010346641591881003 0 0.029602460426961744 0.010191563035830232 0 0.030168134424315349 0.011768800386931474 0 0.030168134424315349 0.011768800386931474 0 0.028905770343242727 0.011614267398178592 0 0.029490556993589122 0.013136366200134395 0 0.0038245666638123568 0.036196991450529417 0 0.0027525787035187045 0.033732342170179938 0 0.0021464550678833988 0.037478907332104211 0 0.031503990326601103 0.010346641591881003 0 0.030168134424315349 0.011768800386931474 0 0.031053038400522603 0.013840916550044947 0 0.011088059078584097 0.027117086707530696 0 0.011264191973097708 0.023271504712779143 0 0.011264191973097708 0.023271504712779143 0 0.012874361237745527 0.025915227150225255 0 0.0038322408880134369 0.03838397265406189 0 0.0038245666638123568 0.036196991450529417 0 0.0021464550678833988 0.037478907332104211 0 0.030168134424315349 0.011768800386931474 0 0.031053038400522603 0.013840916550044947 0 0.029490556993589122 0.013136366200134395 0 0.028905770343242727 0.011614267398178592 0 0.029490556993589122 0.013136366200134395 0 0.027971571813171402 0.01341162607991086 0 0.029490556993589122 0.013136366200134395 0 0.02932639680359804 0.015149867735112293 0 0.027971571813171402 0.01341162607991086 0 0.031053038400522603 0.013840916550044947 0 0.029490556993589122 0.013136366200134395 0 0.02932639680359804 0.015149867735112293 0 0.030732553716320114 0.017738369800633886 0 0.031053038400522603 0.013840916550044947 0 0.02932639680359804 0.015149867735112293 0 0.01119384799280294 0.032065515440478871 0 0.012874361237745527 0.025915227150225255 0 0.0016817139521418092 0.040813664989870102 0 0.0038322408880134369 0.03838397265406189 0 0.0021464550678833988 0.037478907332104211 0 0.01119384799280294 0.032065515440478871 0 0.0064762025353128057 0.037031871099902386 0 0.0041342745466025344 0.039768147608055471 0 0.0042693030387649395 0.040261285934798857 0 0.0038322408880134369 0.03838397265406189 0 0.026443688850541013 0.0144192042547813 0 0.025471001201827909 0.016212493118066416 0 0.024842692995643918 0.013743323517618788 0 0.025471001201827909 0.016212493118066416 0 0.024842692995643918 0.013743323517618788 0 0.02340359797044626 0.014861003159885653 0 0.026443688850541013 0.0144192042547813 0 0.025471001201827909 0.016212493118066416 0 0.027617906933242658 0.015650581753929065 0 0.02932639680359804 0.015149867735112293 0 0.027617906933242658 0.015650581753929065 0 0.027971571813171402 0.01341162607991086 0 0.026443688850541013 0.0144192042547813 0 0.027617906933242658 0.015650581753929065 0 0.027971571813171402 0.01341162607991086 0 0.028996665682634523 0.017213760777551306 0 0.02932639680359804 0.015149867735112293 0 0.027617906933242658 0.015650581753929065 0 0.026443688850541013 0.0144192042547813 0 0.027971571813171402 0.01341162607991086 0 0.026135657772282522 0.012957942159468404 0 0.027971571813171402 0.01341162607991086 0 0.026135657772282522 0.012957942159468404 0 0.02682332233110624 0.011562058760336134 0 0.026443688850541013 0.0144192042547813 0 0.026135657772282522 0.012957942159468404 0 0.024842692995643918 0.013743323517618788 0 0.026135657772282522 0.012957942159468404 0 0.024842692995643918 0.013743323517618788 0 0.024964389842102898 0.012056377336130865 0 0.024964389842102898 0.012056377336130865 0 0.02525043828265694 0.010782147713001728 0 0.02682332233110624 0.011562058760336134 0 0.026135657772282522 0.012957942159468404 0 0.024964389842102898 0.012056377336130865 0 0.02682332233110624 0.011562058760336134 0 0.02525043828265694 0.010782147713001728 0 0.02682332233110624 0.011562058760336134 0 0.026293175100705501 0.0099792949530117248 0 0.028905770343242727 0.011614267398178592 0 0.02682332233110624 0.011562058760336134 0 0.027900326011648689 0.010389348132742313 0 0.028905770343242727 0.011614267398178592 0 0.027971571813171402 0.01341162607991086 0 0.02682332233110624 0.011562058760336134 0 0.02682332233110624 0.011562058760336134 0 0.027900326011648689 0.010389348132742313 0 0.026293175100705501 0.0099792949530117248 0 0.019348889629252141 0.014244326981593652 0 0.020555610656102102 0.011721903293186398 0 0.027538602937817944 0.008807505230472178 0 0.026293175100705501 0.0099792949530117248 0 0.025715368569706586 0.0086890843555645844 0 0.029602460426961744 0.010191563035830232 0 0.027900326011648689 0.010389348132742313 0 0.027876513384144489 0.0085863011377553013 0 0.027900326011648689 0.010389348132742313 0 0.027876513384144489 0.0085863011377553013 0 0.026293175100705501 0.0099792949530117248 0 0.019348889629252141 0.014244326981593652 0 0.021630785176377409 0.012388614414914303 0 0.020555610656102102 0.011721903293186398 0 0.021411905472330926 0.0096870505898486899 0 0.024862347716790679 0.0097203285332686813 0 0.025715368569706586 0.0086890843555645844 0 0.023745766793839197 0.0085978724929204869 0 0.02525043828265694 0.010782147713001728 0 0.024862347716790679 0.0097203285332686813 0 0.026293175100705501 0.0099792949530117248 0 0.024862347716790679 0.0097203285332686813 0 0.026293175100705501 0.0099792949530117248 0 0.025715368569706586 0.0086890843555645844 0 0.02525043828265694 0.010782147713001728 0 0.024862347716790679 0.0097203285332686813 0 0.02318698663335279 0.010457801048946603 0 0.024862347716790679 0.0097203285332686813 0 0.023745766793839197 0.0085978724929204869 0 0.02318698663335279 0.010457801048946603 0 0.021411905472330926 0.0096870505898486899 0 0.021905370002527833 0.0098512825881052323 0 0.024089700306858919 0.0071603940856470047 0 0.023688351464732499 0.00939184235572375 0 0.022971869974926985 0.0079653224629775421 0 0.023080523149984683 0.0070973402217501267 0 0.024089700306858919 0.0071603940856470047 0 0.022971869974926985 0.0079653224629775421 0 0.021543260696305237 0.0096392738578076481 0 0.021411905472330926 0.0096870505898486899 0 0.021905370002527833 0.0098512825881052323 0 0.021948725609945742 0.010265201022497708 0 0.02318698663335279 0.010457801048946603 0 0.023742692828081082 0.012644050293623092 0 0.022759067397117534 0.012074534459548585 0 0.024964389842102898 0.012056377336130865 0 0.02525043828265694 0.010782147713001728 0 0.02318698663335279 0.010457801048946603 0 0.024964389842102898 0.012056377336130865 0 0.02318698663335279 0.010457801048946603 0 0.023742692828081082 0.012644050293623092 0 0.023688351464732499 0.00939184235572375 0 0.021697795383225745 0.010552989520435079 0 0.02206171263489334 0.0084392286394408909 0 0.023688351464732499 0.00939184235572375 0 0.021697795383225745 0.010552989520435079 0 0.022759067397117534 0.012074534459548585 0 0.023688351464732499 0.00939184235572375 0 0.02206171263489334 0.0084392286394408909 0 0.022971869974926985 0.0079653224629775421 0 0.022287601768408685 0.007149913636342986 0 0.023080523149984683 0.0070973402217501267 0 0.022971869974926985 0.0079653224629775421 0 0.021508582445165035 0.0067241152132751988 0 0.022287601768408685 0.007149913636342986 0 0.02206171263489334 0.0084392286394408909 0 0.022287601768408685 0.007149913636342986 0 0.02206171263489334 0.0084392286394408909 0 0.022971869974926985 0.0079653224629775421 0 0.021508582445165035 0.0067241152132751988 0 0.020432035963900221 0.0071896663799259491 0 0.020614286741144777 0.0092308502329136229 0 0.021508582445165035 0.0067241152132751988 0 0.02206171263489334 0.0084392286394408909 0 0.020614286741144777 0.0092308502329136229 0 0.019866198552610223 0.0055206009775162004 0 0.020432035963900221 0.0071896663799259491 0 0.018955309248480975 0.0092159530384547887 0 0.020432035963900221 0.0071896663799259491 0 0.018955309248480975 0.0092159530384547887 0 0.020614286741144777 0.0092308502329136229 0 0.019031944235284148 0.010898814481382531 0 0.020614286741144777 0.0092308502329136229 0 0.019940425088466902 0.011924086314918916 0 0.018955309248480975 0.0092159530384547887 0 0.019031944235284148 0.010898814481382531 0 0.020614286741144777 0.0092308502329136229 0 0.021697795383225745 0.010552989520435079 0 0.02206171263489334 0.0084392286394408909 0 0.020614286741144777 0.0092308502329136229 0 0.021697795383225745 0.010552989520435079 0 0.020614286741144777 0.0092308502329136229 0 0.019940425088466902 0.011924086314918916 0 0.021697795383225745 0.010552989520435079 0 0.019940425088466902 0.011924086314918916 0 0.021003012680404453 0.01301966920015615 0 0.019940425088466902 0.011924086314918916 0 0.019895962181507708 0.013284090081555393 0 0.021003012680404453 0.01301966920015615 0 0.019895962181507708 0.013284090081555393 0 0.021003012680404453 0.01301966920015615 0 0.020053678792316672 0.014270106073730077 0 0.019940425088466902 0.011924086314918916 0 0.017961342611396577 0.012472462685945377 0 0.018834048722510058 0.013926956233189045 0 0.019031944235284148 0.010898814481382531 0 0.019940425088466902 0.011924086314918916 0 0.017961342611396577 0.012472462685945377 0 0.019940425088466902 0.011924086314918916 0 0.019895962181507708 0.013284090081555393 0 0.018834048722510058 0.013926956233189045 0 0.017961342611396577 0.012472462685945377 0 0.018834048722510058 0.013926956233189045 0 0.016966210856241757 0.014317185752546998 0 0.018834048722510058 0.013926956233189045 0 0.017814315134266866 0.015713820953521314 0 0.016966210856241757 0.014317185752546998 0 0.018834048722510058 0.013926956233189045 0 0.019128970488756451 0.015800478200297275 0 0.020053678792316672 0.014270106073730077 0 0.018834048722510058 0.013926956233189045 0 0.019128970488756451 0.015800478200297275 0 0.017814315134266866 0.015713820953521314 0 0.020053678792316672 0.014270106073730077 0 0.020881000010673195 0.014811071692970674 0 0.018174649550999039 0.018632699052124953 0 0.021003012680404453 0.01301966920015615 0 0.020053678792316672 0.014270106073730077 0 0.020881000010673195 0.014811071692970674 0 0.019895962181507708 0.013284090081555393 0 0.018834048722510058 0.013926956233189045 0 0.020053678792316672 0.014270106073730077 0 0.021003012680404453 0.01301966920015615 0 0.020881000010673195 0.014811071692970674 0 0.022238009987139418 0.01380675707386728 0 0.020881000010673195 0.014811071692970674 0 0.021889868797960815 0.015572491355078514 0 0.022238009987139418 0.01380675707386728 0 0.020881000010673195 0.014811071692970674 0 0.021889868797960815 0.015572491355078514 0 0.020676569516539782 0.017395969856914963 0 0.021889868797960815 0.015572491355078514 0 0.02340359797044626 0.014861003159885653 0 0.022905763420189972 0.017389821113312012 0 0.025471001201827909 0.016212493118066416 0 0.02340359797044626 0.014861003159885653 0 0.022905763420189972 0.017389821113312012 0 0.021889868797960815 0.015572491355078514 0 0.02340359797044626 0.014861003159885653 0 0.022238009987139418 0.01380675707386728 0 0.024842692995643918 0.013743323517618788 0 0.02340359797044626 0.014861003159885653 0 0.023742692828081082 0.012644050293623092 0 0.02340359797044626 0.014861003159885653 0 0.023742692828081082 0.012644050293623092 0 0.022238009987139418 0.01380675707386728 0 0.024842692995643918 0.013743323517618788 0 0.024964389842102898 0.012056377336130865 0 0.023742692828081082 0.012644050293623092 0 0.023742692828081082 0.012644050293623092 0 0.022759067397117534 0.012074534459548585 0 0.022238009987139418 0.01380675707386728 0 0.021697795383225745 0.010552989520435079 0 0.021003012680404453 0.01301966920015615 0 0.022759067397117534 0.012074534459548585 0 0.021003012680404453 0.01301966920015615 0 0.022759067397117534 0.012074534459548585 0 0.022238009987139418 0.01380675707386728 0 0.01449500279168104 0.023860994946558824 0 0.013987484597525982 0.025549412186902338 0 0.012973756040014928 0.023295087133171053 0 0.010943826013755301 0.011103917647816552 0 0.012155591058888761 0.011659192120482102 0 0.01205857313529587 0.013113001020538233 0 0.017590338567329174 0.014161502833149313 0 0.01537227535967337 0.016819797496880513 0 0.022163944876956616 0.011206149114185052 0 0.021996687280803874 0.011566299399063644 0 0.022467053511271748 0.011395163513858485 0 0.010943826013755301 0.011103917647816552 0 0.01300018290734177 0.010466900986869792 0 0.012155591058888761 0.011659192120482102 0 0.017590338567329174 0.014161502833149313 0 0.018238555769364534 0.0099419385901642864 0 0.018238555769364534 0.0099419385901642864 0 0.018887281510118016 0.008663055887676378 0 0.018238555769364534 0.0099419385901642864 0 0.016465803037995854 0.01136645835708399 0 0.01300018290734177 0.010466900986869792 0 0.012155591058888761 0.011659192120482102 0 0.013777671772424387 0.012597782322636794 0 0.012155591058888761 0.011659192120482102 0 0.013777671772424387 0.012597782322636794 0 0.01205857313529587 0.013113001020538233 0 0.012895973903378424 0.0076460183925628616 0 0.014086966687943465 0.01136788225556497 0 0.016098934397432561 0.0094102650814007777 0 0.014086966687943465 0.01136788225556497 0 0.016098934397432561 0.0094102650814007777 0 0.016964392917883517 0.010999872723862767 0 0.019866198552610223 0.0055206009775162004 0 0.016098934397432561 0.0094102650814007777 0 0.013951648915537735 0.006598914528668399 0 0.012895973903378424 0.0076460183925628616 0 0.016098934397432561 0.0094102650814007777 0 0.014345859983211961 0.0072295334836316189 0 0.018111883082361484 0.0082011937943044198 0 0.018887281510118016 0.008663055887676378 0 0.019866198552610223 0.0055206009775162004 0 0.018955309248480975 0.0092159530384547887 0 0.016098934397432561 0.0094102650814007777 0 0.018955309248480975 0.0092159530384547887 0 0.016098934397432561 0.0094102650814007777 0 0.016964392917883517 0.010999872723862767 0 0.019031944235284148 0.010898814481382531 0 0.017961342611396577 0.012472462685945377 0 0.016964392917883517 0.010999872723862767 0 0.018955309248480975 0.0092159530384547887 0 0.019031944235284148 0.010898814481382531 0 0.016964392917883517 0.010999872723862767 0 0.017961342611396577 0.012472462685945377 0 0.016964392917883517 0.010999872723862767 0 0.016116205673108938 0.012814653111728141 0 0.017961342611396577 0.012472462685945377 0 0.016116205673108938 0.012814653111728141 0 0.016966210856241757 0.014317185752546998 0 0.017814315134266866 0.015713820953521314 0 0.016966210856241757 0.014317185752546998 0 0.016125375896655542 0.016147637326144187 0 0.016966210856241757 0.014317185752546998 0 0.016125375896655542 0.016147637326144187 0 0.014761999370188237 0.015007500053302668 0 0.016116205673108938 0.012814653111728141 0 0.016966210856241757 0.014317185752546998 0 0.014761999370188237 0.015007500053302668 0 0.016465803037995854 0.01136645835708399 0 0.016293957280715619 0.012743116348438225 0 0.013777671772424387 0.012597782322636794 0 0.014761999370188237 0.015007500053302668 0 0.01317361842175367 0.015376423403209528 0 0.014086966687943465 0.01136788225556497 0 0.016964392917883517 0.010999872723862767 0 0.016116205673108938 0.012814653111728141 0 0.014086966687943465 0.01136788225556497 0 0.016116205673108938 0.012814653111728141 0 0.014761999370188237 0.015007500053302668 0 0.014752124976902122 0.018532569498248032 0 0.01537227535967337 0.016819797496880513 0 0.013777671772424387 0.012597782322636794 0 0.01317361842175367 0.015376423403209528 0 0.01205857313529587 0.013113001020538233 0 0.013096851750561272 0.021651884154404097 0 0.013472295744010796 0.021985251774826166 0 0.012973756040014928 0.023295087133171053 0 0.013096851750561272 0.021651884154404097 0 0.013472295744010796 0.021985251774826166 0 0.013264338288181495 0.021589427665869333 0 0.01449500279168104 0.023860994946558824 0 0.013472295744010796 0.021985251774826166 0 0.012973756040014928 0.023295087133171053 0 0.01231734765506572 0.023005119946124551 0 0.012953500919454436 0.022903228941529921 0 0.012972120841062029 0.021831540621045059 0 0.012953500919454436 0.022903228941529921 0 0.013235344173252856 0.021947496723868191 0 0.012972120841062029 0.021831540621045059 0 0.013235344173252856 0.021947496723868191 0 0.012972120841062029 0.021831540621045059 0 0.013329696285352705 0.021319370301422409 0 0.013885605606170246 0.020471730212248233 0 0.013472295744010796 0.021985251774826166 0 0.013329696285352705 0.021319370301422409 0 0.013472295744010796 0.021985251774826166 0 0.013329696285352705 0.021319370301422409 0 0.013264338288181495 0.021589427665869333 0 0.013235344173252856 0.021947496723868191 0 0.013329696285352705 0.021319370301422409 0 0.013264338288181495 0.021589427665869333 0 0.013235344173252856 0.021947496723868191 0 0.013264338288181495 0.021589427665869333 0 0.013515065147596508 0.021845347651837821 0 0.013096851750561272 0.021651884154404097 0 0.013264338288181495 0.021589427665869333 0 0.013515065147596508 0.021845347651837821 0 0.013235344173252856 0.021947496723868191 0 0.013515065147596508 0.021845347651837821 0 0.013617697282189176 0.02268460898790467 0 0.012953500919454436 0.022903228941529921 0 0.013235344173252856 0.021947496723868191 0 0.013617697282189176 0.02268460898790467 0 0.013515065147596508 0.021845347651837821 0 0.013617697282189176 0.02268460898790467 0 0.014522645267152025 0.021978043163643671 0 0.013617697282189176 0.02268460898790467 0 0.014522645267152025 0.021978043163643671 0 0.014345036650151783 0.023727996732959264 0 0.014522645267152025 0.021978043163643671 0 0.01612576190198577 0.023384486840481979 0 0.014345036650151783 0.023727996732959264 0 0.013096851750561272 0.021651884154404097 0 0.013515065147596508 0.021845347651837821 0 0.014522645267152025 0.021978043163643671 0 0.016125375896655542 0.016147637326144187 0 0.014761999370188237 0.015007500053302668 0 0.014348983843289823 0.018797325537479061 0 0.014761999370188237 0.015007500053302668 0 0.01317361842175367 0.015376423403209528 0 0.014348983843289823 0.018797325537479061 0 0.014752124976902122 0.018532569498248032 0 0.015230588743124693 0.020431697979315325 0 0.014348983843289823 0.018797325537479061 0 0.017030988763727564 0.017387505042403065 0 0.017160377114718111 0.019853296091909375 0 0.016125375896655542 0.016147637326144187 0 0.014348983843289823 0.018797325537479061 0 0.017030988763727564 0.017387505042403065 0 0.017814315134266866 0.015713820953521314 0 0.016125375896655542 0.016147637326144187 0 0.017030988763727564 0.017387505042403065 0 0.014348983843289823 0.018797325537479061 0 0.017160377114718111 0.019853296091909375 0 0.01612576190198577 0.023384486840481979 0 0.015230588743124693 0.020431697979315325 0 0.015810743643413516 0.021702053144129346 0 0.017160377114718111 0.019853296091909375 0 0.01612576190198577 0.023384486840481979 0 0.018337610826916095 0.024281082832567399 0 0.01612576190198577 0.023384486840481979 0 0.015078878528191602 0.024611367553414327 0 0.014345036650151783 0.023727996732959264 0 0.01612576190198577 0.023384486840481979 0 0.01596649091335187 0.025311991130440647 0 0.015078878528191602 0.024611367553414327 0 0.01612576190198577 0.023384486840481979 0 0.01596649091335187 0.025311991130440647 0 0.018337610826916095 0.024281082832567399 0 0.01596649091335187 0.025311991130440647 0 0.018337610826916095 0.024281082832567399 0 0.016137304048278824 0.027997609710611191 0 0.01596649091335187 0.025311991130440647 0 0.014476091844886583 0.025915157696259319 0 0.016137304048278824 0.027997609710611191 0 0.01596649091335187 0.025311991130440647 0 0.014476091844886583 0.025915157696259319 0 0.015078878528191602 0.024611367553414327 0 0.014476091844886583 0.025915157696259319 0 0.013839397798726689 0.024912734251062562 0 0.015078878528191602 0.024611367553414327 0 0.014476091844886583 0.025915157696259319 0 0.013839397798726689 0.024912734251062562 0 0.013001600938187894 0.026240299383336888 0 0.013839397798726689 0.024912734251062562 0 0.015078878528191602 0.024611367553414327 0 0.014345036650151783 0.023727996732959264 0 0.012953500919454436 0.022903228941529921 0 0.013617697282189176 0.02268460898790467 0 0.013176153030974804 0.024213978959726171 0 0.013839397798726689 0.024912734251062562 0 0.014345036650151783 0.023727996732959264 0 0.013176153030974804 0.024213978959726171 0 0.013617697282189176 0.02268460898790467 0 0.014345036650151783 0.023727996732959264 0 0.013176153030974804 0.024213978959726171 0 0.013839397798726689 0.024912734251062562 0 0.013176153030974804 0.024213978959726171 0 0.013001600938187894 0.026240299383336888 0 0.013176153030974804 0.024213978959726171 0 0.013001600938187894 0.026240299383336888 0 0.012314924784872693 0.025374851903454568 0 0.013001600938187894 0.026240299383336888 0 0.012314924784872693 0.025374851903454568 0 0.011897954950336489 0.026498006369327018 0 0.012314924784872693 0.025374851903454568 0 0.011240471938058837 0.025980485608889957 0 0.011897954950336489 0.026498006369327018 0 0.012314924784872693 0.025374851903454568 0 0.011240471938058837 0.025980485608889957 0 0.011653370133879206 0.024957883622297908 0 0.012314924784872693 0.025374851903454568 0 0.011653370133879206 0.024957883622297908 0 0.012382634700831936 0.024045584109255086 0 0.011740365275367926 0.023890981252779626 0 0.011653370133879206 0.024957883622297908 0 0.012382634700831936 0.024045584109255086 0 0.013176153030974804 0.024213978959726171 0 0.012314924784872693 0.025374851903454568 0 0.012382634700831936 0.024045584109255086 0 0.012953500919454436 0.022903228941529921 0 0.013176153030974804 0.024213978959726171 0 0.012382634700831936 0.024045584109255086 0 0.01231734765506572 0.023005119946124551 0 0.012953500919454436 0.022903228941529921 0 0.012382634700831936 0.024045584109255086 0 0.01231734765506572 0.023005119946124551 0 0.011740365275367926 0.023890981252779626 0 0.012382634700831936 0.024045584109255086 0 0.020471793341878177 0.019947212253627958 0 0.020676569516539782 0.017395969856914963 0 0.017470497620187674 0.019805982064516552 0 0.020471793341878177 0.019947212253627958 0 0.017470497620187674 0.019805982064516552 0 0.018721094791666941 0.023013238156778359 0 0.020471793341878177 0.019947212253627958 0 0.018721094791666941 0.023013238156778359 0 0.021537553914234855 0.022558707339140421 0 0.020471793341878177 0.019947212253627958 0 0.022891894880572899 0.02013150192842671 0 0.021537553914234855 0.022558707339140421 0 0.02424635148391845 0.023328842186406084 0 0.022891894880572899 0.02013150192842671 0 0.021537553914234855 0.022558707339140421 0 0.020471793341878177 0.019947212253627958 0 0.022891894880572899 0.02013150192842671 0 0.022905763420189972 0.017389821113312012 0 0.02566286625541056 0.018682427249755478 0 0.022891894880572899 0.02013150192842671 0 0.022905763420189972 0.017389821113312012 0 0.021889868797960815 0.015572491355078514 0 0.022905763420189972 0.017389821113312012 0 0.020676569516539782 0.017395969856914963 0 0.020881000010673195 0.014811071692970674 0 0.020676569516539782 0.017395969856914963 0 0.017470497620187674 0.019805982064516552 0 0.020471793341878177 0.019947212253627958 0 0.022905763420189972 0.017389821113312012 0 0.020676569516539782 0.017395969856914963 0 0.019164547431930183 0.018101805577545593 0 0.018519403467567787 0.020844366993335674 0 0.020881000010673195 0.014811071692970674 0 0.018174649550999039 0.018632699052124953 0 0.020625434313552699 0.019567154336687459 0 0.019401486231340838 0.017051393636165948 0 0.018788050288237837 0.019345106706165374 0 0.019128970488756451 0.015800478200297275 0 0.020053678792316672 0.014270106073730077 0 0.019972217498842103 0.018782452396136594 0 0.019128970488756451 0.015800478200297275 0 0.018401061769704821 0.017354245925636037 0 0.019972217498842103 0.018782452396136594 0 0.017160377114718111 0.019853296091909375 0 0.018401061769704821 0.017354245925636037 0 0.019972217498842103 0.018782452396136594 0 0.019128970488756451 0.015800478200297275 0 0.017814315134266866 0.015713820953521314 0 0.018401061769704821 0.017354245925636037 0 0.017814315134266866 0.015713820953521314 0 0.017030988763727564 0.017387505042403065 0 0.018401061769704821 0.017354245925636037 0 0.017030988763727564 0.017387505042403065 0 0.017160377114718111 0.019853296091909375 0 0.018401061769704821 0.017354245925636037 0 0.018174649550999039 0.018632699052124953 0 0.018774364763006694 0.021640890121254402 0 0.016725456641431716 0.023760793510604089 0 0.017160377114718111 0.019853296091909375 0 0.019972217498842103 0.018782452396136594 0 0.018337610826916095 0.024281082832567399 0 0.018788050288237837 0.019345106706165374 0 0.017688187322960805 0.023262780825454035 0 0.018174649550999039 0.018632699052124953 0 0.020625434313552699 0.019567154336687459 0 0.018774364763006694 0.021640890121254402 0 0.020625434313552699 0.019567154336687459 0 0.018774364763006694 0.021640890121254402 0 0.019905090162473698 0.024781027594504044 0 0.018774364763006694 0.021640890121254402 0 0.016725456641431716 0.023760793510604089 0 0.019905090162473698 0.024781027594504044 0 0.018519403467567787 0.020844366993335674 0 0.017281143344464296 0.02600167489161 0 0.016725456641431716 0.023760793510604089 0 0.017785784708826576 0.026400886207112128 0 0.016137304048278824 0.027997609710611191 0 0.017688187322960805 0.023262780825454035 0 0.017046955905046349 0.025457574876369515 0 0.016725456641431716 0.023760793510604089 0 0.017785784708826576 0.026400886207112128 0 0.019905090162473698 0.024781027594504044 0 0.014703176081130601 0.026612326002757109 0 0.020579975847253594 0.027265096115375444 0 0.016723488245756413 0.030524596105192307 0 0.014703176081130601 0.026612326002757109 0 0.018721094791666941 0.023013238156778359 0 0.020579975847253594 0.027265096115375444 0 0.018721094791666941 0.023013238156778359 0 0.021537553914234855 0.022558707339140421 0 0.020579975847253594 0.027265096115375444 0 0.017470497620187674 0.019805982064516552 0 0.014703176081130601 0.026612326002757109 0 0.018721094791666941 0.023013238156778359 0 0.02424635148391845 0.023328842186406084 0 0.021537553914234855 0.022558707339140421 0 0.020579975847253594 0.027265096115375444 0 0.02424635148391845 0.023328842186406084 0 0.02540852931167285 0.026499889361159178 0 0.020579975847253594 0.027265096115375444 0 0.02540852931167285 0.026499889361159178 0 0.020579975847253594 0.027265096115375444 0 0.020316106245936678 0.032740213108737738 0 0.016002527786928736 0.032597997093214613 0 0.015094060398797259 0.034768153602630858 0 0.0085540030810771425 0.03951107173596452 0 0.010402058819631419 0.039288871330804651 0 0.0091467974596771504 0.039076676779286793 0 0.010402058819631419 0.039288871330804651 0 0.0096204031585425589 0.038631407312667815 0 0.0091467974596771504 0.039076676779286793 0 0.010402058819631419 0.039288871330804651 0 0.0096204031585425589 0.038631407312667815 0 0.010757077327852563 0.03808508595940454 0 0.0096204031585425589 0.038631407312667815 0 0.010757077327852563 0.03808508595940454 0 0.0096284091827764737 0.038054983582265674 0 0.015094060398797259 0.034768153602630858 0 0.014362080650482573 0.035853428894845052 0 0.010402058819631419 0.039288871330804651 0 0.010757077327852563 0.03808508595940454 0 0.013121138618088573 0.037619929695656223 0 0.020316106245936678 0.032740213108737738 0 0.01230495480267664 0.035025563168228677 0 0.013121138618088573 0.037619929695656223 0 0.020579975847253594 0.027265096115375444 0 0.020316106245936678 0.032740213108737738 0 0.016723488245756413 0.030524596105192307 0 0.020316106245936678 0.032740213108737738 0 0.016723488245756413 0.030524596105192307 0 0.01230495480267664 0.035025563168228677 0 0.017281143344464296 0.02600167489161 0 0.016063295108628986 0.031016293741662537 0 0.014703176081130601 0.026612326002757109 0 0.016723488245756413 0.030524596105192307 0 0.01230495480267664 0.035025563168228677 0 0.017785784708826576 0.026400886207112128 0 0.019905090162473698 0.024781027594504044 0 0.018773476184554994 0.028946411601272419 0 0.017785784708826576 0.026400886207112128 0 0.018773476184554994 0.028946411601272419 0 0.016137304048278824 0.027997609710611191 0 0.016457259086962064 0.030695888204156016 0 0.018773476184554994 0.028946411601272419 0 0.016137304048278824 0.027997609710611191 0 0.01230495480267664 0.035025563168228677 0 0.01269182259364621 0.038310810218792325 0 0.013121138618088573 0.037619929695656223 0 0.016457259086962064 0.030695888204156016 0 0.018773476184554994 0.028946411601272419 0 0.017269966974987842 0.032617191389539703 0 0.01269182259364621 0.038310810218792325 0 0.013121138618088573 0.037619929695656223 0 0.011926440571504535 0.037623606803736408 0 0.016063295108628986 0.031016293741662537 0 0.015273298574882964 0.033925772508615469 0 0.016457259086962064 0.030695888204156016 0 0.017269966974987842 0.032617191389539703 0 0.015448067183111459 0.033385905257452719 0 0.016457259086962064 0.030695888204156016 0 0.015448067183111459 0.033385905257452719 0 0.014911493807215685 0.032401660802851097 0 0.017269966974987842 0.032617191389539703 0 0.015448067183111459 0.033385905257452719 0 0.013753610431485765 0.035851078110149606 0 0.015448067183111459 0.033385905257452719 0 0.014911493807215685 0.032401660802851097 0 0.0144773574662093 0.034332891416195735 0 0.015273298574882964 0.033925772508615469 0 0.014940200752351118 0.03465059433142554 0 0.01269182259364621 0.038310810218792325 0 0.012285001930085087 0.037094937921534309 0 0.01142188198123977 0.037399433890543114 0 0.01269182259364621 0.038310810218792325 0 0.012285001930085087 0.037094937921534309 0 0.013753610431485765 0.035851078110149606 0 0.012285001930085087 0.037094937921534309 0 0.01142188198123977 0.037399433890543114 0 0.010896722864494997 0.036831392636326149 0 0.01142188198123977 0.037399433890543114 0 0.0097690385720114875 0.037196811343009943 0 0.010529061869225852 0.037599779785953892 0 0.01142188198123977 0.037399433890543114 0 0.0097690385720114875 0.037196811343009943 0 0.010896722864494997 0.036831392636326149 0 0.0097690385720114875 0.037196811343009943 0 0.010529061869225852 0.037599779785953892 0 0.0094804633903019277 0.037626132184681749 0 0.010529061869225852 0.037599779785953892 0 0.0094804633903019277 0.037626132184681749 0 0.0096284091827764737 0.038054983582265674 0 0.010757077327852563 0.03808508595940454 0 0.010529061869225852 0.037599779785953892 0 0.0096284091827764737 0.038054983582265674 0 0.010757077327852563 0.03808508595940454 0 0.010529061869225852 0.037599779785953892 0 0.011926440571504535 0.037623606803736408 0 0.01269182259364621 0.038310810218792325 0 0.01142188198123977 0.037399433890543114 0 0.011926440571504535 0.037623606803736408 0 0.010757077327852563 0.03808508595940454 0 0.013121138618088573 0.037619929695656223 0 0.011926440571504535 0.037623606803736408 0 0.01142188198123977 0.037399433890543114 0 0.010529061869225852 0.037599779785953892 0 0.011926440571504535 0.037623606803736408 0 0.011354311254020566 0.028424753872653637 0 0.012284329996132198 0.029918138046582221 0 0.010643761273303553 0.030489907956960653 0 0.010379660972251169 0.027005819794429099 0 0.011354311254020566 0.028424753872653637 0 0.010643761273303553 0.030489907956960653 0 0.010379660972251169 0.027005819794429099 0 0.011354311254020566 0.028424753872653637 0 0.011339117399804617 0.027072737158030481 0 0.011240471938058837 0.025980485608889957 0 0.011339117399804617 0.027072737158030481 0 0.011897954950336489 0.026498006369327018 0 0.013001600938187894 0.026240299383336888 0 0.011897954950336489 0.026498006369327018 0 0.011826597928068805 0.027555216491978361 0 0.011339117399804617 0.027072737158030481 0 0.011897954950336489 0.026498006369327018 0 0.011826597928068805 0.027555216491978361 0 0.011354311254020566 0.028424753872653637 0 0.011339117399804617 0.027072737158030481 0 0.011826597928068805 0.027555216491978361 0 0.011354311254020566 0.028424753872653637 0 0.011826597928068805 0.027555216491978361 0 0.012630038895728845 0.028115927534558511 0 0.013001600938187894 0.026240299383336888 0 0.011826597928068805 0.027555216491978361 0 0.012630038895728845 0.028115927534558511 0 0.013001600938187894 0.026240299383336888 0 0.012630038895728845 0.028115927534558511 0 0.01396851266778004 0.027676781575390105 0 0.012630038895728845 0.028115927534558511 0 0.013273920113687226 0.029232472182100743 0 0.01396851266778004 0.027676781575390105 0 0.012630038895728845 0.028115927534558511 0 0.013273920113687226 0.029232472182100743 0 0.012284329996132198 0.029918138046582221 0 0.011354311254020566 0.028424753872653637 0 0.012630038895728845 0.028115927534558511 0 0.012284329996132198 0.029918138046582221 0 0.013273920113687226 0.029232472182100743 0 0.012284329996132198 0.029918138046582221 0 0.013384046170077737 0.030961602774117157 0 0.014351766142970401 0.029274671760255465 0 0.015095656383466131 0.030506031800383335 0 0.013384046170077737 0.030961602774117157 0 0.013273920113687226 0.029232472182100743 0 0.014351766142970401 0.029274671760255465 0 0.013384046170077737 0.030961602774117157 0 0.013273920113687226 0.029232472182100743 0 0.014351766142970401 0.029274671760255465 0 0.01396851266778004 0.027676781575390105 0 0.014476091844886583 0.025915157696259319 0 0.013001600938187894 0.026240299383336888 0 0.01396851266778004 0.027676781575390105 0 0.014476091844886583 0.025915157696259319 0 0.01396851266778004 0.027676781575390105 0 0.016137304048278824 0.027997609710611191 0 0.014351766142970401 0.029274671760255465 0 0.01396851266778004 0.027676781575390105 0 0.016137304048278824 0.027997609710611191 0 0.014351766142970401 0.029274671760255465 0 0.016137304048278824 0.027997609710611191 0 0.015095656383466131 0.030506031800383335 0 0.016457259086962064 0.030695888204156016 0 0.016137304048278824 0.027997609710611191 0 0.015095656383466131 0.030506031800383335 0 0.015095656383466131 0.030506031800383335 0 0.014911493807215685 0.032401660802851097 0 0.013887657599851605 0.032669515620643158 0 0.016457259086962064 0.030695888204156016 0 0.015095656383466131 0.030506031800383335 0 0.014911493807215685 0.032401660802851097 0 0.014911493807215685 0.032401660802851097 0 0.013887657599851605 0.032669515620643158 0 0.0144773574662093 0.034332891416195735 0 0.013887657599851605 0.032669515620643158 0 0.013720673961180025 0.03429024985982012 0 0.0144773574662093 0.034332891416195735 0 0.013887657599851605 0.032669515620643158 0 0.012953470855410329 0.033092693844342325 0 0.013720673961180025 0.03429024985982012 0 0.013887657599851605 0.032669515620643158 0 0.013384046170077737 0.030961602774117157 0 0.012953470855410329 0.033092693844342325 0 0.015095656383466131 0.030506031800383335 0 0.013887657599851605 0.032669515620643158 0 0.013384046170077737 0.030961602774117157 0 0.013384046170077737 0.030961602774117157 0 0.012210795672159866 0.031640598374604333 0 0.012953470855410329 0.033092693844342325 0 0.012284329996132198 0.029918138046582221 0 0.013384046170077737 0.030961602774117157 0 0.012210795672159866 0.031640598374604333 0 0.012953470855410329 0.033092693844342325 0 0.011641220545259323 0.033634442880217982 0 0.013078042682639212 0.034430044466273506 0 0.012210795672159866 0.031640598374604333 0 0.012953470855410329 0.033092693844342325 0 0.011641220545259323 0.033634442880217982 0 0.014541191209947969 0.033717762461139993 0 0.013490646533825241 0.033267891710599802 0 0.013748845586671299 0.031110044624524012 0 0.013201511197655381 0.033132147396121039 0 0.012379082261692223 0.03068762819574249 0 0.012210795672159866 0.031640598374604333 0 0.011641220545259323 0.033634442880217982 0 0.010643761273303553 0.030489907956960653 0 0.012883206386325247 0.031909163640652091 0 0.013490646533825241 0.033267891710599802 0 0.013748845586671299 0.031110044624524012 0 0.012284329996132198 0.029918138046582221 0 0.012210795672159866 0.031640598374604333 0 0.010643761273303553 0.030489907956960653 0 0.017578575830718333 0.03809803975377947 0 0.016808082377134131 0.037955284409558365 0 0.017132548998747391 0.03656364563302298 0 0.017547255672513525 0.037958041267763899 0 0.017164047857841744 0.036540044315149442 0 0.016906797220233898 0.035337551444039488 0 0.016097319504758453 0.035401355393354976 0 0.017578575830718333 0.03809803975377947 0 0.017474443301129874 0.039516687522032384 0 0.016808082377134131 0.037955284409558365 0 0.014541191209947969 0.033717762461139993 0 0.013490646533825241 0.033267891710599802 0 0.014347227575095994 0.034846315202131356 0 0.018142161368238985 0.033982972826818073 0 0.016906797220233898 0.035337551444039488 0 0.013201511197655381 0.033132147396121039 0 0.013849829768602889 0.034608551160157888 0 0.011641220545259323 0.033634442880217982 0 0.013078042682639212 0.034430044466273506 0 0.013135502063945212 0.035501910040157285 0 0.014541191209947969 0.033717762461139993 0 0.014347227575095994 0.034846315202131356 0 0.014960491493311204 0.035287374176915666 0 0.013078042682639212 0.034430044466273506 0 0.013135502063945212 0.035501910040157285 0 0.013723358319778001 0.03519507580128399 0 0.014347227575095994 0.034846315202131356 0 0.014960491493311204 0.035287374176915666 0 0.014911960344404476 0.03550792613823063 0 0.013135502063945212 0.035501910040157285 0 0.013723358319778001 0.03519507580128399 0 0.013964070835558647 0.035567191693719455 0 0.013723358319778001 0.03519507580128399 0 0.013862034670286077 0.035533717246459866 0 0.013964070835558647 0.035567191693719455 0 0.013078042682639212 0.034430044466273506 0 0.013723358319778001 0.03519507580128399 0 0.013720673961180025 0.03429024985982012 0 0.012953470855410329 0.033092693844342325 0 0.013078042682639212 0.034430044466273506 0 0.013720673961180025 0.03429024985982012 0 0.013723358319778001 0.03519507580128399 0 0.013720673961180025 0.03429024985982012 0 0.014061186669594009 0.035116309663780362 0 0.013720673961180025 0.03429024985982012 0 0.0144773574662093 0.034332891416195735 0 0.014061186669594009 0.035116309663780362 0 0.013723358319778001 0.03519507580128399 0 0.014061186669594009 0.035116309663780362 0 0.013862034670286077 0.035533717246459866 0 0.014061186669594009 0.035116309663780362 0 0.013862034670286077 0.035533717246459866 0 0.013753610431485765 0.035851078110149606 0 0.013862034670286077 0.035533717246459866 0 0.013895383158319086 0.035472218323674934 0 0.012987214695724694 0.035550105783308195 0 0.013862034670286077 0.035533717246459866 0 0.013895383158319086 0.035472218323674934 0 0.013964070835558647 0.035567191693719455 0 0.013895383158319086 0.035472218323674934 0 0.013609921796838887 0.034999670200135793 0 0.012987214695724694 0.035550105783308195 0 0.013895383158319086 0.035472218323674934 0 0.013609921796838887 0.034999670200135793 0 0.014856907536874808 0.035402634891627281 0 0.013609921796838887 0.034999670200135793 0 0.014856907536874808 0.035402634891627281 0 0.015503204938804756 0.035000035751897543 0 0.013895383158319086 0.035472218323674934 0 0.014856907536874808 0.035402634891627281 0 0.013964070835558647 0.035567191693719455 0 0.013135502063945212 0.035501910040157285 0 0.014856907536874808 0.035402634891627281 0 0.013964070835558647 0.035567191693719455 0 0.013849829768602889 0.034608551160157888 0 0.014106306787450121 0.03497581232234824 0 0.014960491493311204 0.035287374176915666 0 0.014856907536874808 0.035402634891627281 0 0.014911960344404476 0.03550792613823063 0 0.016182680157049139 0.036502449020786761 0 0.015506006607441851 0.034999976094856874 0 0.016744928082012923 0.034999977777028575 0 0.014856907536874808 0.035402634891627281 0 0.014911960344404476 0.03550792613823063 0 0.015503204938804756 0.035000035751897543 0 0.016097319504758453 0.035401355393354976 0 0.015506646481652304 0.03500021959682547 0 0.016745546636958202 0.03500153299917752 0 0.017164047857841744 0.036540044315149442 0 0.018235877437556135 0.036119514915355387 0 0.016745211092812518 0.034999986951703567 0 0.017236527043033332 0.036628200495977169 0 0.016182680157049139 0.036502449020786761 0 0.016744928082012923 0.034999977777028575 0 0.017132548998747391 0.03656364563302298 0 0.016808082377134131 0.037955284409558365 0 0.016182680157049139 0.036502449020786761 0 0.017132548998747391 0.03656364563302298 0 0.010642453871740157 0.036104805466749046 0 0.013753610431485765 0.035851078110149606 0 0.011348358789536189 0.035544258407719152 0 0.010642453871740157 0.036104805466749046 0 0.0091186755886533844 0.035804474478155233 0 0.0093169947021796932 0.036686523670232458 0 0.010642453871740157 0.036104805466749046 0 0.010896722864494997 0.036831392636326149 0 0.0093169947021796932 0.036686523670232458 0 0.0097690385720114875 0.037196811343009943 0 0.010896722864494997 0.036831392636326149 0 0.0093169947021796932 0.036686523670232458 0 0.010642453871740157 0.036104805466749046 0 0.010896722864494997 0.036831392636326149 0 0.013753610431485765 0.035851078110149606 0 0.012285001930085087 0.037094937921534309 0 0.010896722864494997 0.036831392636326149 0 0.013753610431485765 0.035851078110149606 0 0.015448067183111459 0.033385905257452719 0 0.0144773574662093 0.034332891416195735 0 0.013753610431485765 0.035851078110149606 0 0.0144773574662093 0.034332891416195735 0 0.014061186669594009 0.035116309663780362 0 0.013753610431485765 0.035851078110149606 0 0.013862034670286077 0.035533717246459866 0 0.013753610431485765 0.035851078110149606 0 0.012987214695724694 0.035550105783308195 0 0.013753610431485765 0.035851078110149606 0 0.012987214695724694 0.035550105783308195 0 0.011348358789536189 0.035544258407719152 0 0.013609921796838887 0.034999670200135793 0 0.012987214695724694 0.035550105783308195 0 0.011713975828585937 0.034999363702715863 0 0.012987214695724694 0.035550105783308195 0 0.011713975828585937 0.034999363702715863 0 0.011348358789536189 0.035544258407719152 0 0.011713975828585937 0.034999363702715863 0 0.011348358789536189 0.035544258407719152 0 0.0098176820441607075 0.034999345634489275 0 0.010642453871740157 0.036104805466749046 0 0.011348358789536189 0.035544258407719152 0 0.0091186755886533844 0.035804474478155233 0 0.0098176820441607075 0.034999345634489275 0 0.007921131989693575 0.034999558824322985 0 0.0091186755886533844 0.035804474478155233 0 0.011348358789536189 0.035544258407719152 0 0.0098176820441607075 0.034999345634489275 0 0.0091186755886533844 0.035804474478155233 0 0.007921131989693575 0.034999558824322985 0 0.0071313917971554449 0.035740462366563544 0 0.0091186755886533844 0.035804474478155233 0 0.007921131989693575 0.034999558824322985 0 0.0071313917971554449 0.035740462366563544 0 0.0060247318446087252 0.034999610771024987 0 0.0071313917971554449 0.035740462366563544 0 0.0061435105134518258 0.036524150860594226 0 0.0080452066338887809 0.036622393888723348 0 0.0071313917971554449 0.035740462366563544 0 0.0091186755886533844 0.035804474478155233 0 0.0080452066338887809 0.036622393888723348 0 0.0060247318446087252 0.034999610771024987 0 0.005159301859305878 0.035829192480208549 0 0.0041283594778618012 0.034999742885115766 0 0.0071313917971554449 0.035740462366563544 0 0.0060247318446087252 0.034999610771024987 0 0.005159301859305878 0.035829192480208549 0 0.0071313917971554449 0.035740462366563544 0 0.005159301859305878 0.035829192480208549 0 0.0061435105134518258 0.036524150860594226 0 0.005159301859305878 0.035829192480208549 0 0.004703183456432114 0.036865544466478342 0 0.0061435105134518258 0.036524150860594226 0 0.0041876328311020415 0.036674166900382416 0 0.0047028476926191977 0.037165279481557172 0 0.004703183456432114 0.036865544466478342 0 0.0061435105134518258 0.036524150860594226 0 0.0056692646018451668 0.037750755628734534 0 0.0061435105134518258 0.036524150860594226 0 0.0056692646018451668 0.037750755628734534 0 0.0080452066338887809 0.036622393888723348 0 0.0056692646018451668 0.037750755628734534 0 0.0080452066338887809 0.036622393888723348 0 0.0063875322354712835 0.038420621996231086 0 0.0056692646018451668 0.037750755628734534 0 0.0063875322354712835 0.038420621996231086 0 0.0050328257898530895 0.038595590567518358 0 0.0056692646018451668 0.037750755628734534 0 0.0050328257898530895 0.038595590567518358 0 0.0041553108890550203 0.037656046100356041 0 0.0042559557095512342 0.036395545760419278 0 0.0056692646018451668 0.037750755628734534 0 0.0041553108890550203 0.037656046100356041 0 0.0091186755886533844 0.035804474478155233 0 0.0080452066338887809 0.036622393888723348 0 0.0093169947021796932 0.036686523670232458 0 0.0073115967196859715 0.036905861107668775 0 0.0066973981078150557 0.037463797877308955 0 0.0080452066338887809 0.036622393888723348 0 0.0087280533060779646 0.037069408648715212 0 0.0083253562392373096 0.037185844119237782 0 0.0080452066338887809 0.036622393888723348 0 0.0083253562392373096 0.037185844119237782 0 0.0079892958462442262 0.037094720574108286 0 0.0097690385720114875 0.037196811343009943 0 0.0093169947021796932 0.036686523670232458 0 0.0087280533060779646 0.037069408648715212 0 0.0080452066338887809 0.036622393888723348 0 0.0093169947021796932 0.036686523670232458 0 0.0087280533060779646 0.037069408648715212 0 0.0097690385720114875 0.037196811343009943 0 0.0087280533060779646 0.037069408648715212 0 0.0088399988413812337 0.037430974000699842 0 0.0097690385720114875 0.037196811343009943 0 0.0088399988413812337 0.037430974000699842 0 0.0094804633903019277 0.037626132184681749 0 0.0088399988413812337 0.037430974000699842 0 0.0094804633903019277 0.037626132184681749 0 0.0087833767215900888 0.037868677068190963 0 0.0094804633903019277 0.037626132184681749 0 0.0087833767215900888 0.037868677068190963 0 0.0096284091827764737 0.038054983582265674 0 0.0087833767215900888 0.037868677068190963 0 0.0082658687877843456 0.037668741931238411 0 0.0081018142917972588 0.038180744861492012 0 0.0082658687877843456 0.037668741931238411 0 0.007861455078792606 0.037888648074849471 0 0.0081018142917972588 0.038180744861492012 0 0.0088399988413812337 0.037430974000699842 0 0.0087833767215900888 0.037868677068190963 0 0.0082658687877843456 0.037668741931238411 0 0.0082658687877843456 0.037668741931238411 0 0.0083253562392373096 0.037185844119237782 0 0.007932718093191805 0.037541123789280366 0 0.0088399988413812337 0.037430974000699842 0 0.0082658687877843456 0.037668741931238411 0 0.0083253562392373096 0.037185844119237782 0 0.0087280533060779646 0.037069408648715212 0 0.0088399988413812337 0.037430974000699842 0 0.0083253562392373096 0.037185844119237782 0 0.0079892958462442262 0.037094720574108286 0 0.007932718093191805 0.037541123789280366 0 0.0072875250339045653 0.037850829149949111 0 0.0066973981078150557 0.037463797877308955 0 0.005479241198512781 0.038085784750184051 0 0.0083253562392373096 0.037185844119237782 0 0.0079892958462442262 0.037094720574108286 0 0.007932718093191805 0.037541123789280366 0 0.0050328257898530895 0.038595590567518358 0 0.004996891427413953 0.040119540614473564 0 0.003820967535956597 0.038919900587407692 0 0.0063875322354712835 0.038420621996231086 0 0.0050328257898530895 0.038595590567518358 0 0.004996891427413953 0.040119540614473564 0 0.007932718093191805 0.037541123789280366 0 0.0072875250339045653 0.037850829149949111 0 0.007861455078792606 0.037888648074849471 0 0.0072875250339045653 0.037850829149949111 0 0.007861455078792606 0.037888648074849471 0 0.0076529740214380613 0.038240176963877791 0 0.0082658687877843456 0.037668741931238411 0 0.007932718093191805 0.037541123789280366 0 0.007861455078792606 0.037888648074849471 0 0.007861455078792606 0.037888648074849471 0 0.0076529740214380613 0.038240176963877791 0 0.0081018142917972588 0.038180744861492012 0 0.0076529740214380613 0.038240176963877791 0 0.0076456235957321718 0.038601376151057305 0 0.0081018142917972588 0.038180744861492012 0 0.0062264246391423392 0.038372581469831676 0 0.0065666213794485654 0.038570580843926852 0 0.0051955128824535879 0.036541752276227912 0 0.0052787258024175766 0.037917179050967233 0 0.0041661015739143069 0.038119294387375963 0 0.005479241198512781 0.038085784750184051 0 0.0052469263087365769 0.038161741649293347 0 0.005479241198512781 0.038085784750184051 0 0.0062264246391423392 0.038372581469831676 0 0.0051955128824535879 0.036541752276227912 0 0.0063020246511678972 0.037577634411042768 0 0.0052787258024175766 0.037917179050967233 0 0.0063020246511678972 0.037577634411042768 0 0.0052787258024175766 0.037917179050967233 0 0.0056755904874763279 0.038637983554862851 0 0.0052787258024175766 0.037917179050967233 0 0.0045885030433282332 0.038913034516081246 0 0.0041661015739143069 0.038119294387375963 0 0.0052787258024175766 0.037917179050967233 0 0.0056755904874763279 0.038637983554862851 0 0.0045885030433282332 0.038913034516081246 0 0.0056755904874763279 0.038637983554862851 0 0.0052547299263012888 0.039120871727741487 0 0.0061950685947895082 0.039143121909995207 0 0.00475242135523139 0.03920489456029657 0 0.0052547299263012888 0.039120871727741487 0 0.0045885030433282332 0.038913034516081246 0 0.0056755904874763279 0.038637983554862851 0 0.0052547299263012888 0.039120871727741487 0 0.0045885030433282332 0.038913034516081246 0 0.0063020246511678972 0.037577634411042768 0 0.0066860964659356684 0.038777273164087883 0 0.0076456235957321718 0.038601376151057305 0 0.0063020246511678972 0.037577634411042768 0 0.0056755904874763279 0.038637983554862851 0 0.0066860964659356684 0.038777273164087883 0 0.0075502924293207171 0.039721497889149644 0 0.0066860964659356684 0.038777273164087883 0 0.0076456235957321718 0.038601376151057305 0 0.0056755904874763279 0.038637983554862851 0 0.0066860964659356684 0.038777273164087883 0 0.0061950685947895082 0.039143121909995207 0 0.0075502924293207171 0.039721497889149644 0 0.0066860964659356684 0.038777273164087883 0 0.0061950685947895082 0.039143121909995207 0 0.006843850694686922 0.039095883960020263 0 0.0076200080492662805 0.038947203397270709 0 0.0075502924293207171 0.039721497889149644 0 0.0076456235957321718 0.038601376151057305 0 0.0084989326827278108 0.038676084749867307 0 0.0075502924293207171 0.039721497889149644 0 0.0084989326827278108 0.038676084749867307 0 0.0091467974596771504 0.039076676779286793 0 0.0096204031585425589 0.038631407312667815 0 0.0084989326827278108 0.038676084749867307 0 0.0091467974596771504 0.039076676779286793 0 0.0096204031585425589 0.038631407312667815 0 0.0084989326827278108 0.038676084749867307 0 0.0088819457257895279 0.038321288481704387 0 0.0096204031585425589 0.038631407312667815 0 0.0096284091827764737 0.038054983582265674 0 0.0088819457257895279 0.038321288481704387 0 0.0087833767215900888 0.037868677068190963 0 0.0096284091827764737 0.038054983582265674 0 0.0088819457257895279 0.038321288481704387 0 0.0087833767215900888 0.037868677068190963 0 0.0088819457257895279 0.038321288481704387 0 0.0081018142917972588 0.038180744861492012 0 0.0076456235957321718 0.038601376151057305 0 0.0084989326827278108 0.038676084749867307 0 0.0081018142917972588 0.038180744861492012 0 0.0084989326827278108 0.038676084749867307 0 0.0088819457257895279 0.038321288481704387 0 0.0081018142917972588 0.038180744861492012 0 0.0024842875595646077 0.03878712821660827 0 0.002420247311997191 0.038319856969556039 0 0.001968418912731717 0.03867215787954624 0 0.0024842875595646077 0.03878712821660827 0 0.002420247311997191 0.038319856969556039 0 0.0028086017128386514 0.038456209349893376 0 0.002420247311997191 0.038319856969556039 0 0.0028086017128386514 0.038456209349893376 0 0.0029219968458030678 0.038135673385004717 0 0.002420247311997191 0.038319856969556039 0 0.001968418912731717 0.03867215787954624 0 0.0019637124934293983 0.038225165674105631 0 0.0015724252068924837 0.038499382274043314 0 0.001968418912731717 0.03867215787954624 0 0.0019637124934293983 0.038225165674105631 0 0.0015724252068924837 0.038499382274043314 0 0.0015468263316102658 0.038115713495403568 0 0.0011899296698616429 0.038359383461007403 0 0.0015724252068924837 0.038499382274043314 0 0.0015468263316102658 0.038115713495403568 0 0.0019637124934293983 0.038225165674105631 0 0.0015724252068924837 0.038499382274043314 0 0.0015421655349681421 0.038913146719920022 0 0.0012183235993863384 0.038730790179586298 0 0.0015724252068924837 0.038499382274043314 0 0.001968418912731717 0.03867215787954624 0 0.0015421655349681421 0.038913146719920022 0 0.0009225062110981777 0.037859715232459241 0 -0.00059412872672848693 0.037768777521077199 0 0.0019086328520934845 0.039371935414697863 0 0.0015421655349681421 0.038913146719920022 0 0.0010661778361902635 0.039215314479089422 0 0.001968418912731717 0.03867215787954624 0 0.0019086328520934845 0.039371935414697863 0 0.0015421655349681421 0.038913146719920022 0 0.0024842875595646077 0.03878712821660827 0 0.0019086328520934845 0.039371935414697863 0 0.0029521263407046344 0.039256633567899428 0 0.0009225062110981777 0.037859715232459241 0 0.0028650862179814746 0.038282575785874962 0 0.003970782722715698 0.039308604096450567 0 0.002881388740516095 0.039055038579108921 0 0.0038198141206536923 0.038978334155199162 0 0.0024842875595646077 0.03878712821660827 0 0.001968418912731717 0.03867215787954624 0 0.0019086328520934845 0.039371935414697863 0 0.003970782722715698 0.039308604096450567 0 0.0038198141206536923 0.038978334155199162 0 0.0045885030433282332 0.038913034516081246 0 0.0024842875595646077 0.03878712821660827 0 0.0029521263407046344 0.039256633567899428 0 0.0029652575169420046 0.038729220525061378 0 0.0029521263407046344 0.039256633567899428 0 0.0034462404194412644 0.038770496450623651 0 0.0029652575169420046 0.038729220525061378 0 0.0034462404194412644 0.038770496450623651 0 0.0045885030433282332 0.038913034516081246 0 0.0038357293896921591 0.038542693013907579 0 0.00475242135523139 0.03920489456029657 0 0.003970782722715698 0.039308604096450567 0 0.0045885030433282332 0.038913034516081246 0 0.0029521263407046344 0.039256633567899428 0 0.0034462404194412644 0.038770496450623651 0 0.0045885030433282332 0.038913034516081246 0 0.0028650862179814746 0.038282575785874962 0 0.0035657934793684007 0.038383063210654531 0 0.0045885030433282332 0.038913034516081246 0 0.0041661015739143069 0.038119294387375963 0 0.0038357293896921591 0.038542693013907579 0 0.0041558061957046658 0.037849920391605715 0 0.0041661015739143069 0.038119294387375963 0 0.0036003971253170388 0.037939132874037024 0 0.0041661015739143069 0.038119294387375963 0 0.0038357293896921591 0.038542693013907579 0 0.0033584857013820432 0.038385257668675503 0 0.0041661015739143069 0.038119294387375963 0 0.0033584857013820432 0.038385257668675503 0 0.0036003971253170388 0.037939132874037024 0 0.0029652575169420046 0.038729220525061378 0 0.0028086017128386514 0.038456209349893376 0 0.0033584857013820432 0.038385257668675503 0 0.0024842875595646077 0.03878712821660827 0 0.0029652575169420046 0.038729220525061378 0 0.0028086017128386514 0.038456209349893376 0 0.0034462404194412644 0.038770496450623651 0 0.0029652575169420046 0.038729220525061378 0 0.0033584857013820432 0.038385257668675503 0 0.0034462404194412644 0.038770496450623651 0 0.0038357293896921591 0.038542693013907579 0 0.0033584857013820432 0.038385257668675503 0 0.0033584857013820432 0.038385257668675503 0 0.0029219968458030678 0.038135673385004717 0 0.0036003971253170388 0.037939132874037024 0 0.0028086017128386514 0.038456209349893376 0 0.0033584857013820432 0.038385257668675503 0 0.0029219968458030678 0.038135673385004717 0 0.0029219968458030678 0.038135673385004717 0 0.0030954708701197834 0.037799834821291782 0 0.0023839499931759814 0.037916443521399903 0 0.0030954708701197834 0.037799834821291782 0 0.0026964681357405916 0.037589421067073095 0 0.0023839499931759814 0.037916443521399903 0 0.0029219968458030678 0.038135673385004717 0 0.0030954708701197834 0.037799834821291782 0 0.0036003971253170388 0.037939132874037024 0 0.0041558061957046658 0.037849920391605715 0 0.0036003971253170388 0.037939132874037024 0 0.0035305378815316613 0.037511958798451032 0 0.0030954708701197834 0.037799834821291782 0 0.0036003971253170388 0.037939132874037024 0 0.0035305378815316613 0.037511958798451032 0 0.005479241198512781 0.038085784750184051 0 0.0045297024110647595 0.037842945813051622 0 0.0050328257898530895 0.038595590567518358 0 0.003820967535956597 0.038919900587407692 0 0.0041553108890550203 0.037656046100356041 0 0.0030954708701197834 0.037799834821291782 0 0.0035305378815316613 0.037511958798451032 0 0.0026964681357405916 0.037589421067073095 0 0.0035305378815316613 0.037511958798451032 0 0.0026964681357405916 0.037589421067073095 0 0.0028082489275779187 0.037421007209347296 0 0.0045297024110647595 0.037842945813051622 0 0.0041041413292504641 0.037633804392242322 0 0.0026964681357405916 0.037589421067073095 0 0.0022929949266017875 0.037397855206947016 0 0.0028082489275779187 0.037421007209347296 0 0.0026964681357405916 0.037589421067073095 0 0.0023839499931759814 0.037916443521399903 0 0.001950304574914687 0.037614413136090742 0 0.0022929949266017875 0.037397855206947016 0 0.001950304574914687 0.037614413136090742 0 0.0018982290272675736 0.03707568930636914 0 0.0026964681357405916 0.037589421067073095 0 0.0022929949266017875 0.037397855206947016 0 0.001950304574914687 0.037614413136090742 0 0.0023839499931759814 0.037916443521399903 0 0.0018571826425886166 0.037913381697570137 0 0.001950304574914687 0.037614413136090742 0 0.0023839499931759814 0.037916443521399903 0 0.0019637124934293983 0.038225165674105631 0 0.0018571826425886166 0.037913381697570137 0 0.002420247311997191 0.038319856969556039 0 0.0023839499931759814 0.037916443521399903 0 0.0019637124934293983 0.038225165674105631 0 0.002420247311997191 0.038319856969556039 0 0.0029219968458030678 0.038135673385004717 0 0.0023839499931759814 0.037916443521399903 0 0.0015468263316102658 0.038115713495403568 0 0.0019637124934293983 0.038225165674105631 0 0.0018571826425886166 0.037913381697570137 0 0.0018571826425886166 0.037913381697570137 0 0.0014458650868377147 0.037715367541314021 0 0.001950304574914687 0.037614413136090742 0 0.0015468263316102658 0.038115713495403568 0 0.0018571826425886166 0.037913381697570137 0 0.0014458650868377147 0.037715367541314021 0 0.0014458650868377147 0.037715367541314021 0 0.001950304574914687 0.037614413136090742 0 0.0012741040531986853 0.037226418712894858 0 0.001950304574914687 0.037614413136090742 0 0.0018982290272675736 0.03707568930636914 0 0.0012741040531986853 0.037226418712894858 0 0.0014182491063192324 0.036857618056054274 0 0.0018982290272675736 0.03707568930636914 0 0.0012741040531986853 0.037226418712894858 0 0.0014182491063192324 0.036857618056054274 0 0.0018982290272675736 0.03707568930636914 0 0.0018759136467029467 0.036677667827512403 0 0.0022929949266017875 0.037397855206947016 0 0.0023051354305290324 0.03696999717921904 0 0.0018982290272675736 0.03707568930636914 0 0.0022929949266017875 0.037397855206947016 0 0.0023051354305290324 0.03696999717921904 0 0.0028082489275779187 0.037421007209347296 0 0.0023051354305290324 0.03696999717921904 0 0.0018982290272675736 0.03707568930636914 0 0.0018759136467029467 0.036677667827512403 0 0.0023051354305290324 0.03696999717921904 0 0.0018759136467029467 0.036677667827512403 0 0.0021859300741073578 0.036402888678639223 0 0.0018759136467029467 0.036677667827512403 0 0.0021859300741073578 0.036402888678639223 0 0.0016679014411626659 0.036204922556211869 0 0.0018759136467029467 0.036677667827512403 0 0.0014410979742517397 0.036509960614937477 0 0.0016679014411626659 0.036204922556211869 0 0.0014410979742517397 0.036509960614937477 0 0.0013161044179663096 0.036164481985462446 0 0.0010205182415006797 0.036714212305501259 0 0.0014410979742517397 0.036509960614937477 0 0.0013161044179663096 0.036164481985462446 0 0.0016679014411626659 0.036204922556211869 0 0.0014182491063192324 0.036857618056054274 0 0.0014410979742517397 0.036509960614937477 0 0.0010205182415006797 0.036714212305501259 0 0.0014182491063192324 0.036857618056054274 0 0.0018759136467029467 0.036677667827512403 0 0.0014410979742517397 0.036509960614937477 0 0.003820967535956597 0.038919900587407692 0 0.0041553108890550203 0.037656046100356041 0 0.0028082489275779187 0.037421007209347296 0 0.0041553108890550203 0.037656046100356041 0 0.0028082489275779187 0.037421007209347296 0 0.0029991542049230464 0.036586224080084093 0 0.0023051354305290324 0.03696999717921904 0 0.0028082489275779187 0.037421007209347296 0 0.0029991542049230464 0.036586224080084093 0 0.0023051354305290324 0.03696999717921904 0 0.0021859300741073578 0.036402888678639223 0 0.0029991542049230464 0.036586224080084093 0 0.0021859300741073578 0.036402888678639223 0 0.0029991542049230464 0.036586224080084093 0 0.0025121083547141186 0.035935779315804516 0 0.0042559557095512342 0.036395545760419278 0 0.0041553108890550203 0.037656046100356041 0 0.0029991542049230464 0.036586224080084093 0 0.005159301859305878 0.035829192480208549 0 0.004703183456432114 0.036865544466478342 0 0.0034948162663798552 0.036023750053194289 0 0.0042559557095512342 0.036395545760419278 0 0.0029991542049230464 0.036586224080084093 0 0.0031252712310680967 0.035630141095186002 0 0.0041876328311020415 0.036674166900382416 0 0.003246651578332324 0.035850515152966222 0 0.0029991542049230464 0.036586224080084093 0 0.0031252712310680967 0.035630141095186002 0 0.0025121083547141186 0.035935779315804516 0 0.003246651578332324 0.035850515152966222 0 0.0022330173895944109 0.035000734334128376 0 0.0034948162663798552 0.036023750053194289 0 0.0022319857796441649 0.035000006362035631 0 0.0041283594778618012 0.034999742885115766 0 0.0031252712310680967 0.035630141095186002 0 0.0025121083547141186 0.035935779315804516 0 0.0022310594583204411 0.034999641680128736 0 0.005159301859305878 0.035829192480208549 0 0.0034948162663798552 0.036023750053194289 0 0.0041283594778618012 0.034999742885115766 0 0.0010794743348589199 0.03585548141559889 0 0.0013161044179663096 0.036164481985462446 0 0.0010205182415006797 0.036714212305501259 0 0.0014308359271710724 0.035854948380430997 0 0.0011490741533958526 0.035878152892530463 0 0.0013161044179663096 0.036164481985462446 0 0.0011490741533958526 0.035878152892530463 0 0.00096610994991147645 0.03585473191538345 0 0.0012545841017236772 0.035511750081336467 0 0.0014308359271710724 0.035854948380430997 0 0.0011490741533958526 0.035878152892530463 0 0.0012545841017236772 0.035511750081336467 0 0.0011490741533958526 0.035878152892530463 0 0.0010794743348589199 0.03585548141559889 0 0.0013161044179663096 0.036164481985462446 0 -9.4023208572676543e-06 0.035807945863871982 0 -4.0896209327869406e-05 0.035802778414235632 0 0.0014308359271710724 0.035854948380430997 0 0.0013161044179663096 0.036164481985462446 0 0.0016679014411626659 0.036204922556211869 0 0.0021859300741073578 0.036402888678639223 0 0.0016679014411626659 0.036204922556211869 0 0.0018719869957649021 0.035821869338499068 0 0.0021859300741073578 0.036402888678639223 0 0.0025121083547141186 0.035935779315804516 0 0.0018719869957649021 0.035821869338499068 0 0.0014308359271710724 0.035854948380430997 0 0.0016679014411626659 0.036204922556211869 0 0.0018719869957649021 0.035821869338499068 0 0.0014308359271710724 0.035854948380430997 0 0.0018719869957649021 0.035821869338499068 0 0.0012545841017236772 0.035511750081336467 0 0.0022310594583204411 0.034999641680128736 0 0.00067343523864698326 0.034999947098281997 0 0.0012545841017236772 0.035511750081336467 0 0.0025121083547141186 0.035935779315804516 0 0.0022310594583204411 0.034999641680128736 0 0.0018719869957649021 0.035821869338499068 0 0.0022310594583204411 0.034999641680128736 0 0.0018719869957649021 0.035821869338499068 0 0.0012545841017236772 0.035511750081336467 0 0.00096610994991147645 0.03585473191538345 0 0.00067343523864698326 0.034999947098281997 0 0.0012545841017236772 0.035511750081336467 0 -4.0896209327869406e-05 0.035802778414235632 0 0.00067052026551433857 0.035000747940710619 0 0.00016771252990891458 0.036269634397830597 0 0.00067171696989750534 0.034999994464452247 0 -0.0010876924242721152 0.034999993946280651 0 0.00016771252990891458 0.036269634397830597 0 -0.0010876924242721152 0.034999993946280651 0 -0.0017307511195329061 0.03588805332729994 0 -4.0896209327869406e-05 0.035802778414235632 0 -0.0019044056004608198 0.035666185755128484 0 -0.00077548492848991723 0.036148876794007689 0 -0.0020827237476456579 0.036811151933571803 0 -0.0013372332753256984 0.037550150229828855 0 -0.00077548492848991723 0.036148876794007689 0 -0.0020827237476456579 0.036811151933571803 0 -0.002223061782464677 0.035845138348269509 0 -0.0020827237476456579 0.036811151933571803 0 -0.002223061782464677 0.035845138348269509 0 -0.0030683706409629524 0.036631613396110395 0 -0.0010876924242721152 0.034999993946280651 0 -0.0017307511195329061 0.03588805332729994 0 -0.0028471135721835879 0.035000002340157745 0 -0.002223061782464677 0.035845138348269509 0 -0.0037788753058926911 0.035486615175155202 0 -0.0036767296266647905 0.036225796183494217 0 -0.0019044056004608198 0.035666185755128484 0 -0.0035423540920730304 0.035429551077148444 0 -0.0017307511195329061 0.03588805332729994 0 -0.0028471135721835879 0.035000002340157745 0 -0.0036336546875842097 0.035507815423258537 0 -0.0028471135721835879 0.035000002340157745 0 -0.0036336546875842097 0.035507815423258537 0 -0.0046065650275254133 0.034999977682643971 0 -0.0037788753058926911 0.035486615175155202 0 -0.0044290199702079888 0.036031126401266302 0 -0.0036767296266647905 0.036225796183494217 0 -0.0036767296266647905 0.036225796183494217 0 -0.0043114922536336819 0.036853802027677504 0 -0.0030683706409629524 0.036631613396110395 0 -0.0037380760534292258 0.03658264679443906 0 -0.0036174954325160153 0.036589240297322752 0 -0.0044290199702079888 0.036031126401266302 0 -0.0036767296266647905 0.036225796183494217 0 -0.0043114922536336819 0.036853802027677504 0 -0.002223061782464677 0.035845138348269509 0 -0.0036767296266647905 0.036225796183494217 0 -0.0030683706409629524 0.036631613396110395 0 -0.0020827237476456579 0.036811151933571803 0 -0.0030683706409629524 0.036631613396110395 0 -0.0030158989697619664 0.037852919253078342 0 -0.0041295978234168881 0.036772641122875649 0 -0.0030683706409629524 0.036631613396110395 0 -0.0030158989697619664 0.037852919253078342 0 -0.0037380760534292258 0.03658264679443906 0 -0.0020367997238471295 0.037228620761391017 0 -0.0014249794081263743 0.035289604956444266 0 -0.0011518356065008473 0.036762461726557283 0 -0.00038505937532205418 0.036278632815700942 0 -0.0011518356065008473 0.036762461726557283 0 -0.00038505937532205418 0.036278632815700942 0 -0.0005250612275206029 0.037499207569521797 0 -0.0020827237476456579 0.036811151933571803 0 -0.0030158989697619664 0.037852919253078342 0 -0.0013372332753256984 0.037550150229828855 0 -0.0020367997238471295 0.037228620761391017 0 -0.001020897140092537 0.037595784927542425 0 -0.0030158989697619664 0.037852919253078342 0 -0.0013372332753256984 0.037550150229828855 0 -0.0018842602750255739 0.038935438262308823 0 -0.00047036095645694459 0.036895656988127294 0 -0.001020897140092537 0.037595784927542425 0 0.0014182491063192324 0.036857618056054274 0 0.0012741040531986853 0.037226418712894858 0 0.0010205182415006797 0.036714212305501259 0 0.0012741040531986853 0.037226418712894858 0 0.0010205182415006797 0.036714212305501259 0 0.00073975823045816891 0.037482223215898558 0 -4.0896209327869406e-05 0.035802778414235632 0 -0.00047036095645694459 0.036895656988127294 0 -0.008589524785537702 0.036916979544829968 0 -0.0081109619040127083 0.036897469582946749 0 -0.0085380568729259195 0.036290309088371532 0 -0.0081109619040127083 0.036897469582946749 0 -0.0085380568729259195 0.036290309088371532 0 -0.0075077891878348275 0.036444019380148712 0 -0.0085380568729259195 0.036290309088371532 0 -0.0080059850497385936 0.035724744566502965 0 -0.0075077891878348275 0.036444019380148712 0 -0.0078554386529550765 0.034999965729451528 0 -0.0080059850497385936 0.035724744566502965 0 -0.0093448775757555471 0.034999994993863713 0 -0.0085380568729259195 0.036290309088371532 0 -0.0080059850497385936 0.035724744566502965 0 -0.0093448775757555471 0.034999994993863713 0 -0.0078554386529550765 0.034999965729451528 0 -0.0080059850497385936 0.035724744566502965 0 -0.006863130209476701 0.035785967150299504 0 -0.0080059850497385936 0.035724744566502965 0 -0.006863130209476701 0.035785967150299504 0 -0.0075077891878348275 0.036444019380148712 0 -0.0078554386529550765 0.034999965729451528 0 -0.006863130209476701 0.035785967150299504 0 -0.0063661328027826087 0.034999975174815651 0 -0.0064539719060750372 0.036571443379932268 0 -0.0061064346266049372 0.037239938654756326 0 -0.0072964271178508518 0.03739151260249466 0 -0.006863130209476701 0.035785967150299504 0 -0.0075077891878348275 0.036444019380148712 0 -0.0064539719060750372 0.036571443379932268 0 -0.0081109619040127083 0.036897469582946749 0 -0.0075077891878348275 0.036444019380148712 0 -0.0072964271178508518 0.03739151260249466 0 -0.0075077891878348275 0.036444019380148712 0 -0.0064539719060750372 0.036571443379932268 0 -0.0072964271178508518 0.03739151260249466 0 -0.006863130209476701 0.035785967150299504 0 -0.0064539719060750372 0.036571443379932268 0 -0.0053776307782675611 0.035992524034484594 0 -0.0064539719060750372 0.036571443379932268 0 -0.0053776307782675611 0.035992524034484594 0 -0.0061111119961664113 0.037220836348678649 0 -0.0055153605805051947 0.036451563961316519 0 -0.0054697444291951077 0.036446244615276811 0 -0.0063658930073708523 0.034999999163783796 0 -0.0055357715630762992 0.03511863511644344 0 -0.0046065650275254133 0.034999977682643971 0 -0.006863130209476701 0.035785967150299504 0 -0.0063661328027826087 0.034999975174815651 0 -0.0053776307782675611 0.035992524034484594 0 -0.0063643185996513736 0.035000693885500145 0 -0.0051240123952267748 0.035795221887674748 0 -0.0063658930073708523 0.034999999163783796 0 -0.0055357715630762992 0.03511863511644344 0 -0.0052995029313459754 0.03596007173285163 0 -0.0035423540920730304 0.035429551077148444 0 -0.0044709464342771793 0.035266019701039104 0 -0.0044290199702079888 0.036031126401266302 0 -0.0055357715630762992 0.03511863511644344 0 -0.0052995029313459754 0.03596007173285163 0 -0.0037788753058926911 0.035486615175155202 0 -0.0044290199702079888 0.036031126401266302 0 -0.0055357715630762992 0.03511863511644344 0 -0.0036336546875842097 0.035507815423258537 0 -0.0055357715630762992 0.03511863511644344 0 -0.0046065650275254133 0.034999977682643971 0 -0.0037380760534292258 0.03658264679443906 0 -0.0051240123952267748 0.035795221887674748 0 -0.0043571491473146659 0.036982970164569674 0 -0.0053776307782675611 0.035992524034484594 0 -0.0061111119961664113 0.037220836348678649 0 -0.0044290199702079888 0.036031126401266302 0 -0.0043114922536336819 0.036853802027677504 0 -0.0052995029313459754 0.03596007173285163 0 -0.0037380760534292258 0.03658264679443906 0 -0.0054697444291951077 0.036446244615276811 0 -0.0014249794081263743 0.035289604956444266 0 -0.0020647914923192377 0.036628630982276145 0 -0.0026949117105817275 0.035461038779511886 0 -0.0014249794081263743 0.035289604956444266 0 -0.0011518356065008473 0.036762461726557283 0 -0.0020647914923192377 0.036628630982276145 0 -0.0069491804961931162 0.038103262696355111 0 -0.0074692739136250812 0.03719745135554723 0 -0.0077518866104386453 0.037844531087587473 0 -0.0069491804961931162 0.038103262696355111 0 -0.0077518866104386453 0.037844531087587473 0 -0.0079561922473593196 0.038672093619923964 0 -0.0047318310559501522 0.037415593320300089 0 -0.0054697444291951077 0.036446244615276811 0 -0.0074692739136250812 0.03719745135554723 0 -0.0080928505787391525 0.037321900490100091 0 -0.0077518866104386453 0.037844531087587473 0 -0.0054697444291951077 0.036446244615276811 0 -0.0068679593109196987 0.036790671331779629 0 -0.0080928505787391525 0.037321900490100091 0 -0.0077518866104386453 0.037844531087587473 0 -0.0083909595831462031 0.037994358243545377 0 -0.0077518866104386453 0.037844531087587473 0 -0.0083909595831462031 0.037994358243545377 0 -0.0079561922473593196 0.038672093619923964 0 -0.0083909595831462031 0.037994358243545377 0 -0.0091888305267493666 0.036968647858604542 0 -0.0091905596148130417 0.03751218810115424 0 -0.0083909595831462031 0.037994358243545377 0 -0.0089282814437012647 0.03865520655246954 0 -0.0091820320756631178 0.037967680835782475 0 -0.0083909595831462031 0.037994358243545377 0 -0.0091905596148130417 0.03751218810115424 0 -0.0091820320756631178 0.037967680835782475 0 -0.0083909595831462031 0.037994358243545377 0 -0.0085622392450185117 0.037455216029897639 0 -0.0087396337766275645 0.037451561580530104 0 -0.0068679593109196987 0.036790671331779629 0 -0.0073582414737121335 0.036904374039767512 0 -0.0080928505787391525 0.037321900490100091 0 -0.0083909595831462031 0.037994358243545377 0 -0.0085622392450185117 0.037455216029897639 0 -0.0088528687298511828 0.037423505359576829 0 -0.0091993173340467974 0.036992185954975235 0 -0.0081109619040127083 0.036897469582946749 0 -0.0072964271178508518 0.03739151260249466 0 -0.0085622392450185117 0.037455216029897639 0 -0.008589524785537702 0.036916979544829968 0 -0.0085622392450185117 0.037455216029897639 0 -0.0087396337766275645 0.037451561580530104 0 -0.008589524785537702 0.036916979544829968 0 -0.0081109619040127083 0.036897469582946749 0 -0.0085622392450185117 0.037455216029897639 0 -0.0083909595831462031 0.037994358243545377 0 -0.0089282814437012647 0.03865520655246954 0 -0.0079561922473593196 0.038672093619923964 0 -0.0088777937137720676 0.03945731064291174 0 -0.0089282814437012647 0.03865520655246954 0 -0.0079561922473593196 0.038672093619923964 0 -0.010447282125718346 0.036972182090667223 0 -0.0090034173132306702 0.037079880494830353 0 -0.0088777937137720676 0.03945731064291174 0 -0.0079561922473593196 0.038672093619923964 0 -0.0078286218311184423 0.039631729477313533 0 -0.0079561922473593196 0.038672093619923964 0 -0.0071987355074838357 0.039061194323432108 0 -0.0078286218311184423 0.039631729477313533 0 -0.0071987355074838357 0.039061194323432108 0 -0.0068602536663183488 0.0398229715838299 0 -0.0078286218311184423 0.039631729477313533 0 -0.0069491804961931162 0.038103262696355111 0 -0.0079561922473593196 0.038672093619923964 0 -0.0071987355074838357 0.039061194323432108 0 -0.0047318310559501522 0.037415593320300089 0 -0.0042450752890179763 0.038221916183189444 0 -0.0011518356065008473 0.036762461726557283 0 -0.0020647914923192377 0.036628630982276145 0 -0.0014236297017140196 0.037783420486423754 0 -0.0069491804961931162 0.038103262696355111 0 -0.0071987355074838357 0.039061194323432108 0 -0.0064217982909713037 0.0390836921450472 0 -0.0071987355074838357 0.039061194323432108 0 -0.0068602536663183488 0.0398229715838299 0 -0.0064217982909713037 0.0390836921450472 0 -0.0083090071320405662 0.034303007462844579 0 -0.0067700785084530909 0.035420690965321279 0 -0.0078163774504359049 0.036744267791871704 0 -0.0083090071320405662 0.034303007462844579 0 -0.0099287029813765731 0.036294297275973428 0 -0.0078163774504359049 0.036744267791871704 0 -0.0083090071320405662 0.034303007462844579 0 -0.0099287029813765731 0.036294297275973428 0 -0.010665735006692505 0.034069701630145312 0 -0.0072119223340991294 0.037344041140826414 0 -0.0090034173132306702 0.037079880494830353 0 -0.010665735006692505 0.034069701630145312 0 -0.011694115330013587 0.035428780786525137 0 -0.012455059100976695 0.035001717347989666 0 -0.0099287029813765731 0.036294297275973428 0 -0.010665735006692505 0.034069701630145312 0 -0.011694115330013587 0.035428780786525137 0 -0.0099287029813765731 0.036294297275973428 0 -0.011694115330013587 0.035428780786525137 0 -0.011486880629696883 0.036369658126800798 0 -0.011694115330013587 0.035428780786525137 0 -0.011486880629696883 0.036369658126800798 0 -0.013034624383554086 0.036040982060106051 0 -0.011694115330013587 0.035428780786525137 0 -0.013034624383554086 0.036040982060106051 0 -0.01319234744028432 0.035677865355008796 0 -0.011694115330013587 0.035428780786525137 0 -0.012455059100976695 0.035001717347989666 0 -0.01319234744028432 0.035677865355008796 0 -0.012564013511929198 0.034296920378451057 0 -0.012455059100976695 0.035001717347989666 0 -0.013318341990864463 0.035024417867614968 0 -0.012564013511929198 0.034296920378451057 0 -0.010665735006692505 0.034069701630145312 0 -0.012455059100976695 0.035001717347989666 0 0.0004975577386704921 0.03772582500364343 0 0.00016782821100798267 0.037982738843860865 0 0.00063638890684999711 0.038014649365929229 0 0.0004975577386704921 0.03772582500364343 0 0.00063638890684999711 0.038014649365929229 0 0.00077454361068378147 0.037787024987619849 0 0.0004975577386704921 0.03772582500364343 0 0.00077454361068378147 0.037787024987619849 0 0.00083949458695838509 0.037573014054382466 0 0.0004975577386704921 0.03772582500364343 0 0.00016782821100798267 0.037982738843860865 0 8.0710861723330257e-05 0.03735313923677866 0 0.00016782821100798267 0.037982738843860865 0 0.00055342296869817867 0.038355753829300079 0 0.00013340673658938671 0.038567236381175554 0 0.00016782821100798267 0.037982738843860865 0 0.00063638890684999711 0.038014649365929229 0 0.00055342296869817867 0.038355753829300079 0 0.00063638890684999711 0.038014649365929229 0 0.00087994214399213558 0.038232141469844383 0 0.00055342296869817867 0.038355753829300079 0 0.00087994214399213558 0.038232141469844383 0 0.0011767664960808987 0.038018814696073024 0 0.00091234260155791894 0.037958943210592178 0 0.00063638890684999711 0.038014649365929229 0 0.00087994214399213558 0.038232141469844383 0 0.00091234260155791894 0.037958943210592178 0 0.0015468263316102658 0.038115713495403568 0 0.0011767664960808987 0.038018814696073024 0 0.0011899296698616429 0.038359383461007403 0 0.00087994214399213558 0.038232141469844383 0 0.0011767664960808987 0.038018814696073024 0 0.0011899296698616429 0.038359383461007403 0 0.0015468263316102658 0.038115713495403568 0 0.0014458650868377147 0.037715367541314021 0 0.0011767664960808987 0.038018814696073024 0 0.0014458650868377147 0.037715367541314021 0 0.0011767664960808987 0.038018814696073024 0 0.0010608616931104186 0.037738389034717622 0 0.00063638890684999711 0.038014649365929229 0 0.00091234260155791894 0.037958943210592178 0 0.00077454361068378147 0.037787024987619849 0 0.0011767664960808987 0.038018814696073024 0 0.00091234260155791894 0.037958943210592178 0 0.0010608616931104186 0.037738389034717622 0 0.00091234260155791894 0.037958943210592178 0 0.0010608616931104186 0.037738389034717622 0 0.00077454361068378147 0.037787024987619849 0 0.00083949458695838509 0.037573014054382466 0 0.0010761650648701843 0.037513535802415274 0 0.00073975823045816891 0.037482223215898558 0 0.0012741040531986853 0.037226418712894858 0 0.0010761650648701843 0.037513535802415274 0 0.00073975823045816891 0.037482223215898558 0 0.0010608616931104186 0.037738389034717622 0 0.00077454361068378147 0.037787024987619849 0 0.00083949458695838509 0.037573014054382466 0 0.0014458650868377147 0.037715367541314021 0 0.0012741040531986853 0.037226418712894858 0 0.0010761650648701843 0.037513535802415274 0 0.0010608616931104186 0.037738389034717622 0 0.00083949458695838509 0.037573014054382466 0 0.0010761650648701843 0.037513535802415274 0 0.0014458650868377147 0.037715367541314021 0 0.0010608616931104186 0.037738389034717622 0 0.0010761650648701843 0.037513535802415274 0 -0.00038505937532205418 0.036278632815700942 0 0.00066094602294873627 0.037274682306237483 0 8.0710861723330257e-05 0.03735313923677866 0 0.0004975577386704921 0.03772582500364343 0 0.00066094602294873627 0.037274682306237483 0 8.0710861723330257e-05 0.03735313923677866 0 0.0004975577386704921 0.03772582500364343 0 0.00083949458695838509 0.037573014054382466 0 0.00067995463638924293 0.037417578396527734 0 -0.00094552795707120304 0.037549042422360165 0 -0.001020897140092537 0.037595784927542425 0 -0.00097280343504233479 0.037622721197519908 0 -0.001020897140092537 0.037595784927542425 0 -0.00038505937532205418 0.036278632815700942 0 8.0710861723330257e-05 0.03735313923677866 0 -0.0005250612275206029 0.037499207569521797 0 0.00016782821100798267 0.037982738843860865 0 8.0710861723330257e-05 0.03735313923677866 0 -0.0005250612275206029 0.037499207569521797 0 -0.0011518356065008473 0.036762461726557283 0 -0.0005250612275206029 0.037499207569521797 0 -0.0014236297017140196 0.037783420486423754 0 -0.0014236297017140196 0.037783420486423754 0 -0.00075298016656475167 0.03810315140461272 0 -0.00079503507672586159 0.038888431095840531 0 -0.0005250612275206029 0.037499207569521797 0 -0.0014236297017140196 0.037783420486423754 0 -0.00075298016656475167 0.03810315140461272 0 0.00016782821100798267 0.037982738843860865 0 -0.0005250612275206029 0.037499207569521797 0 -0.00026614573370889124 0.038236731770006208 0 -0.0005250612275206029 0.037499207569521797 0 -0.00075298016656475167 0.03810315140461272 0 -0.00026614573370889124 0.038236731770006208 0 0.00016782821100798267 0.037982738843860865 0 -0.00026614573370889124 0.038236731770006208 0 0.00013340673658938671 0.038567236381175554 0 -0.00075298016656475167 0.03810315140461272 0 -0.00026614573370889124 0.038236731770006208 0 -0.00079503507672586159 0.038888431095840531 0 -0.00026614573370889124 0.038236731770006208 0 -0.00079503507672586159 0.038888431095840531 0 0.00013340673658938671 0.038567236381175554 0 -0.004468020237213351 0.037933790826523449 0 -0.0022876855083554699 0.037770539719305461 0 -0.00079503507672586159 0.038888431095840531 0 0.00016786546843384727 0.039074820271610362 0 0.00013340673658938671 0.038567236381175554 0 -0.0083090071320405662 0.034303007462844579 0 -0.0059212926234767172 0.034714030621445069 0 -0.0067700785084530909 0.035420690965321279 0 -0.0042450752890179763 0.038221916183189444 0 -0.004468020237213351 0.037933790826523449 0 -0.0072119223340991294 0.037344041140826414 0 -0.004468020237213351 0.037933790826523449 0 -0.0068602536663183488 0.0398229715838299 0 -0.0064217982909713037 0.0390836921450472 0 -0.0059094867394230682 0.040037400128656565 0 -0.004468020237213351 0.037933790826523449 0 -0.0045326994282930255 0.037803658073808623 0 -0.0067700785084530909 0.035420690965321279 0 -0.0060807253831680098 0.036169120663642251 0 -0.0078163774504359049 0.036744267791871704 0 -0.0067700785084530909 0.035420690965321279 0 -0.0060807253831680098 0.036169120663642251 0 -0.005662809193847867 0.035173208481265344 0 -0.0059212926234767172 0.034714030621445069 0 -0.0067700785084530909 0.035420690965321279 0 -0.005662809193847867 0.035173208481265344 0 -0.0059060840524731845 0.034711342515988466 0 -0.005662809193847867 0.035173208481265344 0 -0.0039041420664792871 0.035179195693512445 0 -0.0047892494098976911 0.035678630010104406 0 -0.005662809193847867 0.035173208481265344 0 -0.0039041420664792871 0.035179195693512445 0 -0.0060807253831680098 0.036169120663642251 0 -0.0047892494098976911 0.035678630010104406 0 -0.005662809193847867 0.035173208481265344 0 -0.0060807253831680098 0.036169120663642251 0 -0.0047892494098976911 0.035678630010104406 0 -0.0051094993261589531 0.036593769876010714 0 -0.0022876855083554699 0.037770539719305461 0 -0.00059412872672848693 0.037768777521077199 0 -0.0047892494098976911 0.035678630010104406 0 -0.002508710049950603 0.036427036985368179 0 -0.0051094993261589531 0.036593769876010714 0 -0.0047892494098976911 0.035678630010104406 0 -0.0039041420664792871 0.035179195693512445 0 -0.002508710049950603 0.036427036985368179 0 -0.0039041420664792871 0.035179195693512445 0 -0.002508710049950603 0.036427036985368179 0 -0.0018837680953709807 0.035683431442080749 0 0.00016786546843384727 0.039074820271610362 0 0.00078754161478040844 0.038702964001966607 0 0.0010661778361902635 0.039215314479089422 0 0.00016786546843384727 0.039074820271610362 0 0.00013340673658938671 0.038567236381175554 0 0.00078754161478040844 0.038702964001966607 0 0.00055342296869817867 0.038355753829300079 0 0.00013340673658938671 0.038567236381175554 0 0.00078754161478040844 0.038702964001966607 0 0.00087994214399213558 0.038232141469844383 0 0.00055342296869817867 0.038355753829300079 0 0.00078754161478040844 0.038702964001966607 0 0.0015724252068924837 0.038499382274043314 0 0.0011899296698616429 0.038359383461007403 0 0.0012183235993863384 0.038730790179586298 0 0.00087994214399213558 0.038232141469844383 0 0.0011899296698616429 0.038359383461007403 0 0.00078754161478040844 0.038702964001966607 0 0.0011899296698616429 0.038359383461007403 0 0.00078754161478040844 0.038702964001966607 0 0.0012183235993863384 0.038730790179586298 0 0.00078754161478040844 0.038702964001966607 0 0.0012183235993863384 0.038730790179586298 0 0.0010661778361902635 0.039215314479089422 0 0.0015421655349681421 0.038913146719920022 0 0.0012183235993863384 0.038730790179586298 0 0.0010661778361902635 0.039215314479089422 0 0.0009225062110981777 0.037859715232459241 0 -0.0019964336467403372 0.037284199604813446 0 0.00017671365541271775 0.036214842925265472 0 -0.002508710049950603 0.036427036985368179 0 -0.0018837680953709807 0.035683431442080749 0 -0.0024650973684587933 0.036292975998831301 0 -0.0012485578008763483 0.037231784684419671 0 -0.0024612267181184969 0.037954124777390769 0 0.00020894223933461722 0.036192288500279633 0 -0.0024650973684587933 0.036292975998831301 0 -0.0012485578008763483 0.037231784684419671 0 -0.0012485578008763483 0.037231784684419671 0 -0.0014063422807739174 0.038257684337418725 0 -0.0024612267181184969 0.037954124777390769 0 -0.0019964336467403372 0.037284199604813446 0 -0.0033980108804374781 0.037177505199993063 0 -0.0024650973684587933 0.036292975998831301 0 -0.0037192826841314971 0.037443673142991026 0 -0.0024612267181184969 0.037954124777390769 0 -0.0024650973684587933 0.036292975998831301 0 -0.0037192826841314971 0.037443673142991026 0 -0.0051094993261589531 0.036593769876010714 0 -0.003786331819141165 0.038927876048743933 0 -0.0024612267181184969 0.037954124777390769 0 -0.0022611360907198335 0.039225698060241974 0 -0.0037192826841314971 0.037443673142991026 0 -0.003786331819141165 0.038927876048743933 0 -0.0024612267181184969 0.037954124777390769 0 -0.0037192826841314971 0.037443673142991026 0 -0.003786331819141165 0.038927876048743933 0 -0.0049491337893979989 0.037814919759808656 0 -0.00071487333223744641 0.039804043253211067 0 -0.0014063422807739174 0.038257684337418725 0 -0.0022611360907198335 0.039225698060241974 0 -0.0014063422807739174 0.038257684337418725 0 -0.0024612267181184969 0.037954124777390769 0 -0.0022611360907198335 0.039225698060241974 0 -0.00071487333223744641 0.039804043253211067 0 -0.0022611360907198335 0.039225698060241974 0 -0.0031451119501435805 0.040793076401207273 0 -0.00071487333223744641 0.039804043253211067 0 -0.00089011207958977659 0.042548699998253926 0 -0.0031451119501435805 0.040793076401207273 0 -0.003786331819141165 0.038927876048743933 0 -0.0022611360907198335 0.039225698060241974 0 -0.0031451119501435805 0.040793076401207273 0 -0.003786331819141165 0.038927876048743933 0 -0.0031451119501435805 0.040793076401207273 0 -0.0053176792121497184 0.040052156651563246 0 -0.0073232263316787552 0.038575648056440433 0 -0.011702699297075972 0.035332572080810101 0 -0.010705095207717129 0.039004116432662161 0 -0.0069418434053365435 0.040085885292253903 0 -0.0091520601620287256 0.038527537889206008 0 -0.0052264658992763145 0.041731969865125305 0 -0.0053176792121497184 0.040052156651563246 0 -0.0071564473679275866 0.040589742568934821 0 -0.0031451119501435805 0.040793076401207273 0 -0.0052264658992763145 0.041731969865125305 0 -0.0053176792121497184 0.040052156651563246 0 -0.0053176792121497184 0.040052156651563246 0 -0.0069909639411569963 0.039364661419441102 0 -0.0058068262792721316 0.038704523844313783 0 -0.0053176792121497184 0.040052156651563246 0 -0.0069909639411569963 0.039364661419441102 0 -0.0071564473679275866 0.040589742568934821 0 -0.0058068262792721316 0.038704523844313783 0 -0.0063361294663958406 0.037371965362184331 0 -0.0075525103163237937 0.038197788779223286 0 -0.0069909639411569963 0.039364661419441102 0 -0.0058068262792721316 0.038704523844313783 0 -0.0075525103163237937 0.038197788779223286 0 -0.0058068262792721316 0.038704523844313783 0 -0.0049491337893979989 0.037814919759808656 0 -0.0063361294663958406 0.037371965362184331 0 -0.003786331819141165 0.038927876048743933 0 -0.0053176792121497184 0.040052156651563246 0 -0.0058068262792721316 0.038704523844313783 0 -0.003786331819141165 0.038927876048743933 0 -0.0058068262792721316 0.038704523844313783 0 -0.0049491337893979989 0.037814919759808656 0 -0.0037192826841314971 0.037443673142991026 0 -0.0049491337893979989 0.037814919759808656 0 -0.0051094993261589531 0.036593769876010714 0 -0.0049491337893979989 0.037814919759808656 0 -0.0051094993261589531 0.036593769876010714 0 -0.0063361294663958406 0.037371965362184331 0 -0.0060807253831680098 0.036169120663642251 0 -0.0063361294663958406 0.037371965362184331 0 -0.0078163774504359049 0.036744267791871704 0 -0.0060807253831680098 0.036169120663642251 0 -0.0051094993261589531 0.036593769876010714 0 -0.0063361294663958406 0.037371965362184331 0 -0.0063361294663958406 0.037371965362184331 0 -0.0078163774504359049 0.036744267791871704 0 -0.0075525103163237937 0.038197788779223286 0 -0.0078163774504359049 0.036744267791871704 0 -0.0091499948488495565 0.03765525683151856 0 -0.0075525103163237937 0.038197788779223286 0 -0.0099287029813765731 0.036294297275973428 0 -0.0078163774504359049 0.036744267791871704 0 -0.0091499948488495565 0.03765525683151856 0 -0.0099287029813765731 0.036294297275973428 0 -0.0091499948488495565 0.03765525683151856 0 -0.011218545865995005 0.037793558921365877 0 -0.010976973777114726 0.037409131959582162 0 -0.012061597871699003 0.036759791148409882 0 -0.0091499948488495565 0.03765525683151856 0 -0.0092110922158432883 0.039256584676509193 0 -0.011218545865995005 0.037793558921365877 0 -0.0069909639411569963 0.039364661419441102 0 -0.0092110922158432883 0.039256584676509193 0 -0.0075525103163237937 0.038197788779223286 0 -0.0091499948488495565 0.03765525683151856 0 -0.0092110922158432883 0.039256584676509193 0 -0.0075525103163237937 0.038197788779223286 0 -0.013034624383554086 0.036040982060106051 0 -0.013080048149135048 0.036169400784954717 0 -0.013628821808337322 0.036015297947094703 0 -0.011486880629696883 0.036369658126800798 0 -0.013034624383554086 0.036040982060106051 0 -0.011218545865995005 0.037793558921365877 0 -0.01251245400773897 0.036438263225075013 0 -0.012061597871699003 0.036759791148409882 0 -0.0099287029813765731 0.036294297275973428 0 -0.011486880629696883 0.036369658126800798 0 -0.011218545865995005 0.037793558921365877 0 -0.014154604691227389 0.035114178416588419 0 -0.013628821808337322 0.036015297947094703 0 -0.013868058997759041 0.035349353410188605 0 -0.013628821808337322 0.036015297947094703 0 -0.013419629272392273 0.035717991422045507 0 -0.013868058997759041 0.035349353410188605 0 -0.013492648838988505 0.035225851407406465 0 -0.013577785262101792 0.034487015571270388 0 -0.013080048149135048 0.036169400784954717 0 -0.013419629272392273 0.035717991422045507 0 -0.01310213800698568 0.035308284597809721 0 -0.013080048149135048 0.036169400784954717 0 -0.013628821808337322 0.036015297947094703 0 -0.013419629272392273 0.035717991422045507 0 -0.013419629272392273 0.035717991422045507 0 -0.01310213800698568 0.035308284597809721 0 -0.013868058997759041 0.035349353410188605 0 -0.01310213800698568 0.035308284597809721 0 -0.013868058997759041 0.035349353410188605 0 -0.013837785116196289 0.034880019294963253 0 -0.013868058997759041 0.035349353410188605 0 -0.013837785116196289 0.034880019294963253 0 -0.014295714380432778 0.035693270368196972 0 -0.01310213800698568 0.035308284597809721 0 -0.013837785116196289 0.034880019294963253 0 -0.013019251952873161 0.034247451079944369 0 -0.013577785262101792 0.034487015571270388 0 -0.013627835732684555 0.03362736454065321 0 -0.014154604691227389 0.035114178416588419 0 -0.011702699297075972 0.035332572080810101 0 -0.014295714380432778 0.035693270368196972 0 -0.010976973777114726 0.037409131959582162 0 -0.0091520601620287256 0.038527537889206008 0 -0.0069909639411569963 0.039364661419441102 0 -0.0092110922158432883 0.039256584676509193 0 -0.0071564473679275866 0.040589742568934821 0 -0.014154604691227389 0.035114178416588419 0 -0.013868058997759041 0.035349353410188605 0 -0.014295714380432778 0.035693270368196972 0 -0.013837785116196289 0.034880019294963253 0 -0.014295714380432778 0.035693270368196972 0 -0.014372285487073731 0.034543699042629071 0 -0.014119521535621675 0.036299108564152562 0 -0.0140032367955859 0.036610418274709643 0 -0.014295714380432778 0.035693270368196972 0 -0.015403881569400297 0.033838119656908534 0 -0.014372285487073731 0.034543699042629071 0 -0.011702699297075972 0.035332572080810101 0 -0.014295714380432778 0.035693270368196972 0 -0.010705095207717129 0.039004116432662161 0 -0.014295714380432778 0.035693270368196972 0 -0.01347572912741983 0.040526592975059374 0 -0.010705095207717129 0.039004116432662161 0 -0.01347572912741983 0.040526592975059374 0 -0.010705095207717129 0.039004116432662161 0 -0.010491631617836582 0.04248055650034905 0 -0.014372285487073731 0.034543699042629071 0 -0.014590733333318277 0.033279467257922087 0 -0.013976744746243733 0.033868072237835681 0 -0.015403881569400297 0.033838119656908534 0 -0.014372285487073731 0.034543699042629071 0 -0.014590733333318277 0.033279467257922087 0 -0.014590733333318277 0.033279467257922087 0 -0.015236100654793944 0.032839863803733826 0 -0.014679551323721219 0.032251277832502992 0 -0.015403881569400297 0.033838119656908534 0 -0.014590733333318277 0.033279467257922087 0 -0.015236100654793944 0.032839863803733826 0 -0.01347572912741983 0.040526592975059374 0 -0.012172131699488498 0.044794643517051945 0 -0.010491631617836582 0.04248055650034905 0 -0.0140032367955859 0.036610418274709643 0 -0.013874377603835019 0.036015656360604081 0 -0.015403881569400297 0.033838119656908534 0 -0.015236100654793944 0.032839863803733826 0 -0.015779679010489898 0.032352069848046401 0 -0.015236100654793944 0.032839863803733826 0 -0.015749420092494387 0.032383367096859093 0 -0.01525120919518568 0.032301237610724842 0 -0.014276262216045393 0.035552381100494822 0 -0.013874377603835019 0.036015656360604081 0 -0.012172131699488498 0.044794643517051945 0 -0.009390821486293709 0.044832933647726621 0 -0.010491631617836582 0.04248055650034905 0 -0.013837785116196289 0.034880019294963253 0 -0.013019251952873161 0.034247451079944369 0 -0.013976744746243733 0.033868072237835681 0 -0.013019251952873161 0.034247451079944369 0 -0.013976744746243733 0.033868072237835681 0 -0.013997711895202634 0.032796712673910405 0 -0.013837785116196289 0.034880019294963253 0 -0.014372285487073731 0.034543699042629071 0 -0.013976744746243733 0.033868072237835681 0 -0.013997711895202634 0.032796712673910405 0 -0.013607984823553038 0.032196881443213948 0 -0.013955012277253863 0.031934896321961108 0 -0.014590733333318277 0.033279467257922087 0 -0.013997711895202634 0.032796712673910405 0 -0.014679551323721219 0.032251277832502992 0 -0.014590733333318277 0.033279467257922087 0 -0.013976744746243733 0.033868072237835681 0 -0.013997711895202634 0.032796712673910405 0 -0.013627835732684555 0.03362736454065321 0 -0.013649161159581863 0.033131735161317705 0 -0.013019251952873161 0.034247451079944369 0 -0.013997711895202634 0.032796712673910405 0 -0.013607984823553038 0.032196881443213948 0 -0.014256731820226066 0.032613731767571541 0 -0.013607984823553038 0.032196881443213948 0 -0.013961181692066706 0.032004856757177652 0 -0.013607984823553038 0.032196881443213948 0 -0.013467726898596653 0.031824423355513914 0 -0.013961181692066706 0.032004856757177652 0 -0.013607984823553038 0.032196881443213948 0 -0.013467726898596653 0.031824423355513914 0 -0.013955012277253863 0.031934896321961108 0 -0.013467726898596653 0.031824423355513914 0 -0.013955012277253863 0.031934896321961108 0 -0.013709422747624458 0.031318662236050426 0 -0.013997711895202634 0.032796712673910405 0 -0.013955012277253863 0.031934896321961108 0 -0.014679551323721219 0.032251277832502992 0 -0.013955012277253863 0.031934896321961108 0 -0.014679551323721219 0.032251277832502992 0 -0.014584056265583628 0.031363346753049255 0 -0.014217149729382388 0.031096604376215978 0 -0.013709422747624458 0.031318662236050426 0 -0.013166360954326736 0.030236242293607732 0 -0.013955012277253863 0.031934896321961108 0 -0.014217149729382388 0.031096604376215978 0 -0.014584056265583628 0.031363346753049255 0 -0.014217149729382388 0.031096604376215978 0 -0.01471222793462868 0.030746071780570448 0 -0.014299188102978821 0.030034919847650485 0 -0.014217149729382388 0.031096604376215978 0 -0.014584056265583628 0.031363346753049255 0 -0.01471222793462868 0.030746071780570448 0 -0.013955012277253863 0.031934896321961108 0 -0.014217149729382388 0.031096604376215978 0 -0.013709422747624458 0.031318662236050426 0 -0.013467726898596653 0.031824423355513914 0 -0.014065663246082384 0.032200030106260547 0 -0.013210418976978248 0.032988508234854705 0 -0.014483460400177253 0.03051131420509727 0 -0.015119161032241075 0.028743537573177911 0 -0.013467726898596653 0.031824423355513914 0 -0.013709422747624458 0.031318662236050426 0 -0.013166360954326736 0.030236242293607732 0 -0.015032355639176384 0.03492222295032528 0 -0.015610355278067988 0.03233052985819037 0 -0.017129165846318 0.032953434234677177 0 -0.013874377603835019 0.036015656360604081 0 -0.015147478697547659 0.032332650777955878 0 -0.015366038294602084 0.031732240658294643 0 -0.015749420092494387 0.032383367096859093 0 -0.016069116720907495 0.031065261818798925 0 -0.015366038294602084 0.031732240658294643 0 -0.015749420092494387 0.032383367096859093 0 -0.01525120919518568 0.032301237610724842 0 -0.015366038294602084 0.031732240658294643 0 -0.01525120919518568 0.032301237610724842 0 -0.014679551323721219 0.032251277832502992 0 -0.015366038294602084 0.031732240658294643 0 -0.014679551323721219 0.032251277832502992 0 -0.015197848229361455 0.030652858695767414 0 -0.015236100654793944 0.032839863803733826 0 -0.01525120919518568 0.032301237610724842 0 -0.014679551323721219 0.032251277832502992 0 -0.014679551323721219 0.032251277832502992 0 -0.014584056265583628 0.031363346753049255 0 -0.015553870794959408 0.030692890079863495 0 -0.015081743871158083 0.031212422950223483 0 -0.015457860081613546 0.030326851702982088 0 -0.014584056265583628 0.031363346753049255 0 -0.01471222793462868 0.030746071780570448 0 -0.015553870794959408 0.030692890079863495 0 -0.01471222793462868 0.030746071780570448 0 -0.015553870794959408 0.030692890079863495 0 -0.01494887028093932 0.030240916727307422 0 -0.015366038294602084 0.031732240658294643 0 -0.015197848229361455 0.030652858695767414 0 -0.016069116720907495 0.031065261818798925 0 -0.015610355278067988 0.03233052985819037 0 -0.017129165846318 0.032953434234677177 0 -0.017192408161404552 0.031204390382771313 0 -0.017129165846318 0.032953434234677177 0 -0.017192408161404552 0.031204390382771313 0 -0.019106872155629763 0.031015188343507954 0 -0.012172131699488498 0.044794643517051945 0 -0.0087511054350112114 0.047184710440147874 0 -0.009390821486293709 0.044832933647726621 0 -0.013874377603835019 0.036015656360604081 0 -0.011983595887320321 0.037560302225388663 0 -0.0087511054350112114 0.047184710440147874 0 -0.009390821486293709 0.044832933647726621 0 -0.007283972775731274 0.045650736916524548 0 -0.009390821486293709 0.044832933647726621 0 -0.007283972775731274 0.045650736916524548 0 -0.0084116670320863677 0.04378770645636134 0 -0.0087511054350112114 0.047184710440147874 0 -0.007283972775731274 0.045650736916524548 0 -0.0061567359850648751 0.046991875555832882 0 -0.007283972775731274 0.045650736916524548 0 -0.0048107194822794635 0.045756593446728201 0 -0.0056840186411225161 0.044040673642964538 0 -0.007283972775731274 0.045650736916524548 0 -0.0061567359850648751 0.046991875555832882 0 -0.0048107194822794635 0.045756593446728201 0 -0.007283972775731274 0.045650736916524548 0 -0.0084116670320863677 0.04378770645636134 0 -0.0056840186411225161 0.044040673642964538 0 -0.0061567359850648751 0.046991875555832882 0 -0.0041102887886860905 0.047317110101400502 0 -0.0060168285834807152 0.048964956678699156 0 -0.011983595887320321 0.037560302225388663 0 -0.010776604307626697 0.036842636718681925 0 -0.0087511054350112114 0.047184710440147874 0 -0.0061567359850648751 0.046991875555832882 0 -0.0060168285834807152 0.048964956678699156 0 -0.0041102887886860905 0.047317110101400502 0 -0.0060168285834807152 0.048964956678699156 0 -0.0040682284694780512 0.04871630008965256 0 -0.0041102887886860905 0.047317110101400502 0 -0.0024755494396272596 0.047673578874051589 0 -0.0040682284694780512 0.04871630008965256 0 -0.0061567359850648751 0.046991875555832882 0 -0.0041102887886860905 0.047317110101400502 0 -0.0048107194822794635 0.045756593446728201 0 -0.0020026098104351103 0.047599190090935974 0 -0.0024755494396272596 0.047673578874051589 0 -0.0022948309816593297 0.048023767905719349 0 -0.0020026098104351103 0.047599190090935974 0 -0.0024755494396272596 0.047673578874051589 0 -0.0017219311129933431 0.047047123659507757 0 -0.0016159130493872032 0.047566751583524497 0 -0.0020026098104351103 0.047599190090935974 0 -0.0017219311129933431 0.047047123659507757 0 -0.0041102887886860905 0.047317110101400502 0 -0.0024755494396272596 0.047673578874051589 0 -0.002550255302170202 0.046592188153418417 0 -0.0041102887886860905 0.047317110101400502 0 -0.002550255302170202 0.046592188153418417 0 -0.003009667567507797 0.04578603002574904 0 -0.0024755494396272596 0.047673578874051589 0 -0.002550255302170202 0.046592188153418417 0 -0.0017219311129933431 0.047047123659507757 0 -0.002550255302170202 0.046592188153418417 0 -0.0017219311129933431 0.047047123659507757 0 -0.0016605230906235364 0.045162469846420326 0 -0.002550255302170202 0.046592188153418417 0 -0.003009667567507797 0.04578603002574904 0 -0.0016605230906235364 0.045162469846420326 0 -0.003009667567507797 0.04578603002574904 0 -0.0016605230906235364 0.045162469846420326 0 -0.0030028269038733157 0.044206266712491706 0 -0.0048107194822794635 0.045756593446728201 0 -0.0030028269038733157 0.044206266712491706 0 -0.0056840186411225161 0.044040673642964538 0 -0.0041102887886860905 0.047317110101400502 0 -0.003009667567507797 0.04578603002574904 0 -0.0048107194822794635 0.045756593446728201 0 -0.003009667567507797 0.04578603002574904 0 -0.0048107194822794635 0.045756593446728201 0 -0.0030028269038733157 0.044206266712491706 0 -0.0030028269038733157 0.044206266712491706 0 -0.0038074019940211234 0.042615974888112411 0 -0.0056840186411225161 0.044040673642964538 0 -0.00089011207958977659 0.042548699998253926 0 -0.0030028269038733157 0.044206266712491706 0 -0.0038074019940211234 0.042615974888112411 0 -0.00089011207958977659 0.042548699998253926 0 -0.0016605230906235364 0.045162469846420326 0 -0.0030028269038733157 0.044206266712491706 0 -0.00089011207958977659 0.042548699998253926 0 -0.0031451119501435805 0.040793076401207273 0 -0.0038074019940211234 0.042615974888112411 0 -0.0031451119501435805 0.040793076401207273 0 -0.0052264658992763145 0.041731969865125305 0 -0.0038074019940211234 0.042615974888112411 0 -0.0073232263316787552 0.038575648056440433 0 -0.0038074019940211234 0.042615974888112411 0 -0.0076959639150929876 0.041861951833040506 0 -0.0069418434053365435 0.040085885292253903 0 -0.0056865254148398764 0.041063553677108254 0 -0.0073232263316787552 0.038575648056440433 0 -0.0076959639150929876 0.041861951833040506 0 -0.010705095207717129 0.039004116432662161 0 -0.0076959639150929876 0.041861951833040506 0 -0.010705095207717129 0.039004116432662161 0 -0.010491631617836582 0.04248055650034905 0 -0.0076959639150929876 0.041861951833040506 0 -0.010491631617836582 0.04248055650034905 0 -0.0084116670320863677 0.04378770645636134 0 -0.009390821486293709 0.044832933647726621 0 -0.010491631617836582 0.04248055650034905 0 -0.0084116670320863677 0.04378770645636134 0 -0.0076959639150929876 0.041861951833040506 0 -0.0084116670320863677 0.04378770645636134 0 -0.0056840186411225161 0.044040673642964538 0 -0.0038074019940211234 0.042615974888112411 0 -0.0076959639150929876 0.041861951833040506 0 -0.0056840186411225161 0.044040673642964538 0 -0.013551555988937425 0.030914892093332404 0 -0.012052889646811242 0.031307403012593403 0 -0.012243900135419473 0.029843077393684473 0 -0.013551555988937425 0.030914892093332404 0 -0.012243900135419473 0.029843077393684473 0 -0.013429580754661169 0.029742106790947097 0 -0.013551555988937425 0.030914892093332404 0 -0.013429580754661169 0.029742106790947097 0 -0.014495969600930497 0.02990766051877981 0 -0.012312555055922603 0.032540054188924715 0 -0.012178903166259795 0.032892592116982734 0 -0.012647680246425486 0.032822365404283238 0 -0.013065445488385575 0.031464833059245093 0 -0.012537712215561743 0.031379056969823127 0 -0.012178903166259795 0.032892592116982734 0 -0.011809666134865247 0.032852066289287322 0 -0.011985236592142135 0.033141674081920362 0 -0.012312555055922603 0.032540054188924715 0 -0.012178903166259795 0.032892592116982734 0 -0.011809666134865247 0.032852066289287322 0 -0.016948225603505382 0.021526003707573436 0 -0.017529307708644495 0.020968334628331468 0 -0.017613629239433687 0.021408435784296086 0 -0.012052889646811242 0.031307403012593403 0 -0.01153631346526938 0.030863803539979074 0 -0.010890430055849595 0.031671140651492055 0 -0.012537712215561743 0.031379056969823127 0 -0.015738038339460404 0.029562235337780136 0 -0.015277154173007283 0.027419624852146763 0 -0.015738038339460404 0.029562235337780136 0 -0.016948225603505382 0.021526003707573436 0 -0.017613629239433687 0.021408435784296086 0 -0.017663336977224772 0.021876337302297096 0 -0.016948225603505382 0.021526003707573436 0 -0.017030269018052883 0.022113006984055168 0 -0.017663336977224772 0.021876337302297096 0 -0.012052889646811242 0.031307403012593403 0 -0.01153631346526938 0.030863803539979074 0 -0.012243900135419473 0.029843077393684473 0 -0.016948225603505382 0.021526003707573436 0 -0.017030269018052883 0.022113006984055168 0 -0.016330119408381881 0.022185243831219628 0 -0.015277154173007283 0.027419624852146763 0 -0.014950251861650025 0.026486847169391255 0 -0.016885807526106984 0.02252326302852849 0 -0.017030269018052883 0.022113006984055168 0 -0.016330119408381881 0.022185243831219628 0 -0.016885807526106984 0.02252326302852849 0 -0.016447455155306566 0.022874104264146166 0 -0.016330119408381881 0.022185243831219628 0 -0.017030269018052883 0.022113006984055168 0 -0.017663336977224772 0.021876337302297096 0 -0.017522806338021286 0.022445090990269107 0 -0.016885807526106984 0.02252326302852849 0 -0.017030269018052883 0.022113006984055168 0 -0.017522806338021286 0.022445090990269107 0 -0.016885807526106984 0.02252326302852849 0 -0.017088797664430753 0.022961883671618107 0 -0.017522806338021286 0.022445090990269107 0 -0.017088797664430753 0.022961883671618107 0 -0.016447455155306566 0.022874104264146166 0 -0.016570806966747779 0.023190234260543615 0 -0.016885807526106984 0.02252326302852849 0 -0.017088797664430753 0.022961883671618107 0 -0.016447455155306566 0.022874104264146166 0 -0.016447455155306566 0.022874104264146166 0 -0.016330119408381881 0.022185243831219628 0 -0.015863130593391415 0.022963408263701586 0 -0.016447455155306566 0.022874104264146166 0 -0.015863130593391415 0.022963408263701586 0 -0.016092368625654659 0.023433427089815016 0 -0.014950251861650025 0.026486847169391255 0 -0.014956684658600826 0.025860002110675028 0 -0.012243900135419473 0.029843077393684473 0 -0.013429580754661169 0.029742106790947097 0 -0.013018085226532463 0.028577526486287304 0 -0.013429580754661169 0.029742106790947097 0 -0.013018085226532463 0.028577526486287304 0 -0.014362796613952563 0.029122086410681203 0 -0.013018085226532463 0.028577526486287304 0 -0.014362796613952563 0.029122086410681203 0 -0.013990387517450307 0.026852869340410809 0 -0.014362796613952563 0.029122086410681203 0 -0.015625113137654238 0.028273543857034053 0 -0.013990387517450307 0.026852869340410809 0 -0.014362796613952563 0.029122086410681203 0 -0.015625113137654238 0.028273543857034053 0 -0.015356961122740986 0.029758114426666361 0 -0.015625113137654238 0.028273543857034053 0 -0.015356961122740986 0.029758114426666361 0 -0.01618701870949597 0.02916154716695896 0 -0.015356961122740986 0.029758114426666361 0 -0.014495969600930497 0.02990766051877981 0 -0.015661680331792067 0.030230143860624867 0 -0.015356961122740986 0.029758114426666361 0 -0.015071837991431261 0.030888438157957974 0 -0.015661680331792067 0.030230143860624867 0 -0.014362796613952563 0.029122086410681203 0 -0.015356961122740986 0.029758114426666361 0 -0.014495969600930497 0.02990766051877981 0 -0.013429580754661169 0.029742106790947097 0 -0.014362796613952563 0.029122086410681203 0 -0.014495969600930497 0.02990766051877981 0 -0.018419096317716026 0.028936769017890159 0 -0.020222825830588001 0.026998226814485448 0 -0.017452648823846711 0.027624223056324112 0 -0.015394349948447444 0.029625636408019237 0 -0.015119161032241075 0.028743537573177911 0 -0.015625113137654238 0.028273543857034053 0 -0.01618701870949597 0.02916154716695896 0 -0.017452648823846711 0.027624223056324112 0 -0.018419096317716026 0.028936769017890159 0 -0.01618701870949597 0.02916154716695896 0 -0.017452648823846711 0.027624223056324112 0 -0.015356961122740986 0.029758114426666361 0 -0.01618701870949597 0.02916154716695896 0 -0.015071837991431261 0.030888438157957974 0 -0.014276808561922698 0.031205937443669 0 -0.014006542481096803 0.031242391209913116 0 -0.014065663246082384 0.032200030106260547 0 -0.015071837991431261 0.030888438157957974 0 -0.014262984802077992 0.031464049481411169 0 -0.015071837991431261 0.030888438157957974 0 -0.014262984802077992 0.031464049481411169 0 -0.015661680331792067 0.030230143860624867 0 -0.018419096317716026 0.028936769017890159 0 -0.01618701870949597 0.02916154716695896 0 -0.015071837991431261 0.030888438157957974 0 -0.015394349948447444 0.029625636408019237 0 -0.015282407206162913 0.030001549977052896 0 -0.013467726898596653 0.031824423355513914 0 -0.014262984802077992 0.031464049481411169 0 -0.013961181692066706 0.032004856757177652 0 -0.013467726898596653 0.031824423355513914 0 -0.014065663246082384 0.032200030106260547 0 -0.014262984802077992 0.031464049481411169 0 -0.014262984802077992 0.031464049481411169 0 -0.013961181692066706 0.032004856757177652 0 -0.013679353215284669 0.03209079219134902 0 -0.013961181692066706 0.032004856757177652 0 -0.013679353215284669 0.03209079219134902 0 -0.01377200612941293 0.032388906397317181 0 -0.013679353215284669 0.03209079219134902 0 -0.01377200612941293 0.032388906397317181 0 -0.013109965261575584 0.03246058837863907 0 -0.014262984802077992 0.031464049481411169 0 -0.013679353215284669 0.03209079219134902 0 -0.012849647361130112 0.032066346521022526 0 -0.013380586250028706 0.032836927810258203 0 -0.01377200612941293 0.032388906397317181 0 -0.013109965261575584 0.03246058837863907 0 -0.013380586250028706 0.032836927810258203 0 -0.013109965261575584 0.03246058837863907 0 -0.012949491659796485 0.033036528787989808 0 -0.013380586250028706 0.032836927810258203 0 -0.01377200612941293 0.032388906397317181 0 -0.013811753507981432 0.033126674681723513 0 -0.014256731820226066 0.032613731767571541 0 -0.013961181692066706 0.032004856757177652 0 -0.01377200612941293 0.032388906397317181 0 -0.014256731820226066 0.032613731767571541 0 -0.01377200612941293 0.032388906397317181 0 -0.013811753507981432 0.033126674681723513 0 -0.013551555988937425 0.030914892093332404 0 -0.014495969600930497 0.02990766051877981 0 -0.015661680331792067 0.030230143860624867 0 -0.013065445488385575 0.031464833059245093 0 -0.014006542481096803 0.031242391209913116 0 -0.012312555055922603 0.032540054188924715 0 -0.012849647361130112 0.032066346521022526 0 -0.012748464205425936 0.032471564689670655 0 -0.013679353215284669 0.03209079219134902 0 -0.012849647361130112 0.032066346521022526 0 -0.013109965261575584 0.03246058837863907 0 -0.012849647361130112 0.032066346521022526 0 -0.013109965261575584 0.03246058837863907 0 -0.012748464205425936 0.032471564689670655 0 -0.013109965261575584 0.03246058837863907 0 -0.01242220544797908 0.033020545454677225 0 -0.012949491659796485 0.033036528787989808 0 -0.013109965261575584 0.03246058837863907 0 -0.012647680246425486 0.032822365404283238 0 -0.012748464205425936 0.032471564689670655 0 -0.01277034844984625 0.032820342499467157 0 -0.0125467175932316 0.032994397774173186 0 -0.012312555055922603 0.032540054188924715 0 -0.012647680246425486 0.032822365404283238 0 -0.012748464205425936 0.032471564689670655 0 -0.01242220544797908 0.033020545454677225 0 -0.012716437673462467 0.033650366135297226 0 -0.012162545517048739 0.033885715680296545 0 -0.0125467175932316 0.032994397774173186 0 -0.012193996663543968 0.0332861590659514 0 -0.012949491659796485 0.033036528787989808 0 -0.012716437673462467 0.033650366135297226 0 -0.013202130703049899 0.033329353708494061 0 -0.01242220544797908 0.033020545454677225 0 -0.012949491659796485 0.033036528787989808 0 -0.012716437673462467 0.033650366135297226 0 -0.012716437673462467 0.033650366135297226 0 -0.013188396833547587 0.034118978707054881 0 -0.012498044073230722 0.034234409154247469 0 -0.012716437673462467 0.033650366135297226 0 -0.012498044073230722 0.034234409154247469 0 -0.012162545517048739 0.033885715680296545 0 -0.014247218308551643 0.033805346201381634 0 -0.014256731820226066 0.032613731767571541 0 -0.013811753507981432 0.033126674681723513 0 -0.013380586250028706 0.032836927810258203 0 -0.013811753507981432 0.033126674681723513 0 -0.013202130703049899 0.033329353708494061 0 -0.013380586250028706 0.032836927810258203 0 -0.012949491659796485 0.033036528787989808 0 -0.013202130703049899 0.033329353708494061 0 -0.012716437673462467 0.033650366135297226 0 -0.013202130703049899 0.033329353708494061 0 -0.013188396833547587 0.034118978707054881 0 -0.013811753507981432 0.033126674681723513 0 -0.013202130703049899 0.033329353708494061 0 -0.013188396833547587 0.034118978707054881 0 -0.014247218308551643 0.033805346201381634 0 -0.013811753507981432 0.033126674681723513 0 -0.013188396833547587 0.034118978707054881 0 -0.013980860747216689 0.035198110678937272 0 -0.014247218308551643 0.033805346201381634 0 -0.013569577582966012 0.034730239720808388 0 -0.014247218308551643 0.033805346201381634 0 -0.013188396833547587 0.034118978707054881 0 -0.013569577582966012 0.034730239720808388 0 -0.013188396833547587 0.034118978707054881 0 -0.013569577582966012 0.034730239720808388 0 -0.012918703161179457 0.034857972693271122 0 -0.013569577582966012 0.034730239720808388 0 -0.01373135366409059 0.035326885719490823 0 -0.012918703161179457 0.034857972693271122 0 -0.013848841698051121 0.035359674161675257 0 -0.013682624303096231 0.035370554537791074 0 -0.01373135366409059 0.035326885719490823 0 -0.0139389523990604 0.036114092967875544 0 -0.013694205355022922 0.035752451904579229 0 -0.01373135366409059 0.035326885719490823 0 -0.01351389421554222 0.035565793315902268 0 -0.013694205355022922 0.035752451904579229 0 -0.013980860747216689 0.035198110678937272 0 -0.01373135366409059 0.035326885719490823 0 -0.01351389421554222 0.035565793315902268 0 -0.013980860747216689 0.035198110678937272 0 -0.013569577582966012 0.034730239720808388 0 -0.01373135366409059 0.035326885719490823 0 -0.012498044073230722 0.034234409154247469 0 -0.012259051120077899 0.034577525064281911 0 -0.012013697158444581 0.034193024558487883 0 -0.012498044073230722 0.034234409154247469 0 -0.012013697158444581 0.034193024558487883 0 -0.012162545517048739 0.033885715680296545 0 -0.013188396833547587 0.034118978707054881 0 -0.012498044073230722 0.034234409154247469 0 -0.012918703161179457 0.034857972693271122 0 -0.013682624303096231 0.035370554537791074 0 -0.013497475570278831 0.035326458802987369 0 -0.012498044073230722 0.034234409154247469 0 -0.012918703161179457 0.034857972693271122 0 -0.012259051120077899 0.034577525064281911 0 -0.0139389523990604 0.036114092967875544 0 -0.014384763630259695 0.03649366321606675 0 -0.014340572941440401 0.036313427450141864 0 -0.014384763630259695 0.03649366321606675 0 -0.01454468270830718 0.036892353474902419 0 -0.014496480970764659 0.036733684273597925 0 -0.013497475570278831 0.035326458802987369 0 -0.013483158155888625 0.03512786869825546 0 -0.012259051120077899 0.034577525064281911 0 -0.011805370370221124 0.034370790111549337 0 -0.012013697158444581 0.034193024558487883 0 -0.011805370370221124 0.034370790111549337 0 -0.011749023498354211 0.034100073476582962 0 -0.012013697158444581 0.034193024558487883 0 -0.011749023498354211 0.034100073476582962 0 -0.012013697158444581 0.034193024558487883 0 -0.01172157697227817 0.03380040818085879 0 -0.012013697158444581 0.034193024558487883 0 -0.012162545517048739 0.033885715680296545 0 -0.01172157697227817 0.03380040818085879 0 -0.012162545517048739 0.033885715680296545 0 -0.01172157697227817 0.03380040818085879 0 -0.012003917245329549 0.0334698320260612 0 -0.011885961382114141 0.033545914068321379 0 -0.012193996663543968 0.0332861590659514 0 -0.011976071285554385 0.033513002210326097 0 -0.011985236592142135 0.033141674081920362 0 -0.01231238912791115 0.033162383707061677 0 -0.012178903166259795 0.032892592116982734 0 -0.011985236592142135 0.033141674081920362 0 -0.01231238912791115 0.033162383707061677 0 -0.01242220544797908 0.033020545454677225 0 -0.012162545517048739 0.033885715680296545 0 -0.012003917245329549 0.0334698320260612 0 -0.012178903166259795 0.032892592116982734 0 -0.012647680246425486 0.032822365404283238 0 -0.01231238912791115 0.033162383707061677 0 -0.011639296740576614 0.033303990657802165 0 -0.011338840431900848 0.033560137830360146 0 -0.011276380407234523 0.033134736562691683 0 -0.011809666134865247 0.032852066289287322 0 -0.011639296740576614 0.033303990657802165 0 -0.011276380407234523 0.033134736562691683 0 -0.011809666134865247 0.032852066289287322 0 -0.011985236592142135 0.033141674081920362 0 -0.011639296740576614 0.033303990657802165 0 -0.011976071285554385 0.033513002210326097 0 -0.011985236592142135 0.033141674081920362 0 -0.011639296740576614 0.033303990657802165 0 -0.011976071285554385 0.033513002210326097 0 -0.011639296740576614 0.033303990657802165 0 -0.011564757256803501 0.033892708623751981 0 -0.011885961382114141 0.033545914068321379 0 -0.011734863116231285 0.033668549669300329 0 -0.011639296740576614 0.033303990657802165 0 -0.011338840431900848 0.033560137830360146 0 -0.011564757256803501 0.033892708623751981 0 -0.011338840431900848 0.033560137830360146 0 -0.011564757256803501 0.033892708623751981 0 -0.011242753375241629 0.033899303485799441 0 -0.011564757256803501 0.033892708623751981 0 -0.011431216768572573 0.034083615295126282 0 -0.011242753375241629 0.033899303485799441 0 -0.011564757256803501 0.033892708623751981 0 -0.011611226048930294 0.034158257155596596 0 -0.011431216768572573 0.034083615295126282 0 -0.011749023498354211 0.034100073476582962 0 -0.011564757256803501 0.033892708623751981 0 -0.011611226048930294 0.034158257155596596 0 -0.011749023498354211 0.034100073476582962 0 -0.01172157697227817 0.03380040818085879 0 -0.011564757256803501 0.033892708623751981 0 -0.011805370370221124 0.034370790111549337 0 -0.011749023498354211 0.034100073476582962 0 -0.011611226048930294 0.034158257155596596 0 -0.01454468270830718 0.036892353474902419 0 -0.01542776144249685 0.036883877035946991 0 -0.014833586890740212 0.036842335268032385 0 -0.013483158155888625 0.03512786869825546 0 -0.014226155737234895 0.034550439045669547 0 -0.011805370370221124 0.034370790111549337 0 -0.011611226048930294 0.034158257155596596 0 -0.011463592057745695 0.03429208914126592 0 -0.011431216768572573 0.034083615295126282 0 -0.011463592057745695 0.03429208914126592 0 -0.011255593402678185 0.03413654239380623 0 -0.011611226048930294 0.034158257155596596 0 -0.011431216768572573 0.034083615295126282 0 -0.011463592057745695 0.03429208914126592 0 -0.01542776144249685 0.036883877035946991 0 -0.015279723267409022 0.036183625072214967 0 -0.015895483761585179 0.036394139295985145 0 -0.014937005683974828 0.036933464990835344 0 -0.015339321777080061 0.036974235286088127 0 -0.015022456860339494 0.036917493944962965 0 -0.015946697575390377 0.03689121966611645 0 -0.016674303899104934 0.036774977818471832 0 -0.015279723267409022 0.036183625072214967 0 -0.015895483761585179 0.036394139295985145 0 -0.015894880898730611 0.036043690789673614 0 -0.015279723267409022 0.036183625072214967 0 -0.015829957870370791 0.035483561462053261 0 -0.015894880898730611 0.036043690789673614 0 -0.014840122011568421 0.036864485758138818 0 -0.014793704059833195 0.036857158983511225 0 -0.014668590393487529 0.036820463061930181 0 -0.014840122011568421 0.036864485758138818 0 -0.014793704059833195 0.036857158983511225 0 -0.015022456860339494 0.036917493944962965 0 -0.014937005683974828 0.036933464990835344 0 -0.014793704059833195 0.036857158983511225 0 -0.015022456860339494 0.036917493944962965 0 -0.01542776144249685 0.036883877035946991 0 -0.015279723267409022 0.036183625072214967 0 -0.014833586890740212 0.036842335268032385 0 -0.014793704059833195 0.036857158983511225 0 -0.014833586890740212 0.036842335268032385 0 -0.014660381909672808 0.036798098315201797 0 -0.015946697575390377 0.03689121966611645 0 -0.015682610502112823 0.03698210327474831 0 -0.014937005683974828 0.036933464990835344 0 -0.014793704059833195 0.036857158983511225 0 -0.014833586890740212 0.036842335268032385 0 -0.01454468270830718 0.036892353474902419 0 -0.014833586890740212 0.036842335268032385 0 -0.014660381909672808 0.036798098315201797 0 -0.01454468270830718 0.036892353474902419 0 -0.014496480970764659 0.036733684273597925 0 -0.014660381909672808 0.036798098315201797 0 -0.014496480970764659 0.036733684273597925 0 -0.014410072122971379 0.036618106169268916 0 -0.014622609694932159 0.036780619545858713 0 -0.014496480970764659 0.036733684273597925 0 -0.014660381909672808 0.036798098315201797 0 -0.014622609694932159 0.036780619545858713 0 -0.014793704059833195 0.036857158983511225 0 -0.014660381909672808 0.036798098315201797 0 -0.014622609694932159 0.036780619545858713 0 -0.014384763630259695 0.03649366321606675 0 -0.014496480970764659 0.036733684273597925 0 -0.014410072122971379 0.036618106169268916 0 -0.014410072122971379 0.036618106169268916 0 -0.014306941098733412 0.036673366817621185 0 -0.014304498644281743 0.036465139393460716 0 -0.014410072122971379 0.036618106169268916 0 -0.014439005924971155 0.036744078438162991 0 -0.014526516047064895 0.036747358216265937 0 -0.014410072122971379 0.036618106169268916 0 -0.014439005924971155 0.036744078438162991 0 -0.014306941098733412 0.036673366817621185 0 -0.014410072122971379 0.036618106169268916 0 -0.014622609694932159 0.036780619545858713 0 -0.014526516047064895 0.036747358216265937 0 -0.014622609694932159 0.036780619545858713 0 -0.014526516047064895 0.036747358216265937 0 -0.014668590393487529 0.036820463061930181 0 -0.014793704059833195 0.036857158983511225 0 -0.014622609694932159 0.036780619545858713 0 -0.014668590393487529 0.036820463061930181 0 -0.014439005924971155 0.036744078438162991 0 -0.014526516047064895 0.036747358216265937 0 -0.014668590393487529 0.036820463061930181 0 -0.014668590393487529 0.036820463061930181 0 -0.014572860148332274 0.036823457562981513 0 -0.014870458535683567 0.03685934919765 0 -0.014439005924971155 0.036744078438162991 0 -0.014668590393487529 0.036820463061930181 0 -0.014572860148332274 0.036823457562981513 0 -0.014572860148332274 0.036823457562981513 0 -0.014762172707168709 0.036825181296097458 0 -0.014870458535683567 0.03685934919765 0 -0.014306941098733412 0.036673366817621185 0 -0.014374461209149671 0.036793258842045262 0 -0.014220201310114635 0.036771070248748892 0 -0.014439005924971155 0.036744078438162991 0 -0.014572860148332274 0.036823457562981513 0 -0.014374461209149671 0.036793258842045262 0 -0.014439005924971155 0.036744078438162991 0 -0.014306941098733412 0.036673366817621185 0 -0.014374461209149671 0.036793258842045262 0 -0.014572860148332274 0.036823457562981513 0 -0.014374461209149671 0.036793258842045262 0 -0.014333767994910557 0.036822814049121758 0 -0.014374461209149671 0.036793258842045262 0 -0.0142645376897447 0.036812368892641757 0 -0.014333767994910557 0.036822814049121758 0 -0.0142645376897447 0.036812368892641757 0 -0.014220201310114635 0.036771070248748892 0 -0.014145535205552191 0.036843740220064133 0 -0.014374461209149671 0.036793258842045262 0 -0.0142645376897447 0.036812368892641757 0 -0.014220201310114635 0.036771070248748892 0 -0.014333767994910557 0.036822814049121758 0 -0.01403397059635546 0.036780950283784898 0 -0.014471048193712008 0.036708936189415564 0 -0.0142645376897447 0.036812368892641757 0 -0.014333767994910557 0.036822814049121758 0 -0.014145535205552191 0.036843740220064133 0 -0.014333767994910557 0.036822814049121758 0 -0.014145535205552191 0.036843740220064133 0 -0.01403397059635546 0.036780950283784898 0 -0.014333767994910557 0.036822814049121758 0 -0.014651143543098816 0.036799524898355113 0 -0.014471048193712008 0.036708936189415564 0 -0.014572860148332274 0.036823457562981513 0 -0.014762172707168709 0.036825181296097458 0 -0.014651143543098816 0.036799524898355113 0 -0.014762172707168709 0.036825181296097458 0 -0.014651143543098816 0.036799524898355113 0 -0.014974529475468285 0.036797195869669751 0 -0.014572860148332274 0.036823457562981513 0 -0.014333767994910557 0.036822814049121758 0 -0.014651143543098816 0.036799524898355113 0 -0.014651143543098816 0.036799524898355113 0 -0.014974529475468285 0.036797195869669751 0 -0.014838315594595079 0.036715190672754208 0 -0.014762172707168709 0.036825181296097458 0 -0.014974529475468285 0.036797195869669751 0 -0.014870458535683567 0.03685934919765 0 -0.014974529475468285 0.036797195869669751 0 -0.015375577908039459 0.03674789670784516 0 -0.015169813337007154 0.036856671935820096 0 -0.014974529475468285 0.036797195869669751 0 -0.015169813337007154 0.036856671935820096 0 -0.014870458535683567 0.03685934919765 0 -0.014974529475468285 0.036797195869669751 0 -0.015375577908039459 0.03674789670784516 0 -0.015222758959490363 0.036655497975896151 0 -0.015375577908039459 0.03674789670784516 0 -0.015473182482548973 0.036823609496597583 0 -0.015666287155009489 0.036706624502075527 0 -0.015375577908039459 0.03674789670784516 0 -0.015473182482548973 0.036823609496597583 0 -0.015169813337007154 0.036856671935820096 0 -0.015473182482548973 0.036823609496597583 0 -0.015169813337007154 0.036856671935820096 0 -0.015339321777080061 0.036974235286088127 0 -0.015169813337007154 0.036856671935820096 0 -0.015339321777080061 0.036974235286088127 0 -0.015022456860339494 0.036917493944962965 0 -0.014840122011568421 0.036864485758138818 0 -0.015022456860339494 0.036917493944962965 0 -0.014870458535683567 0.03685934919765 0 -0.014840122011568421 0.036864485758138818 0 -0.014668590393487529 0.036820463061930181 0 -0.014870458535683567 0.03685934919765 0 -0.015169813337007154 0.036856671935820096 0 -0.015022456860339494 0.036917493944962965 0 -0.014870458535683567 0.03685934919765 0 -0.012455059100976695 0.035001717347989666 0 -0.013318341990864463 0.035024417867614968 0 -0.01319234744028432 0.035677865355008796 0 -0.013318341990864463 0.035024417867614968 0 -0.01319234744028432 0.035677865355008796 0 -0.013548110696225441 0.035600254542374192 0 -0.01319234744028432 0.035677865355008796 0 -0.01351389421554222 0.035565793315902268 0 -0.013548110696225441 0.035600254542374192 0 -0.013034624383554086 0.036040982060106051 0 -0.013080048149135048 0.036169400784954717 0 -0.01319234744028432 0.035677865355008796 0 -0.013980860747216689 0.035198110678937272 0 -0.01319234744028432 0.035677865355008796 0 -0.01351389421554222 0.035565793315902268 0 -0.013492648838988505 0.035225851407406465 0 -0.013440880421694163 0.035404873708844126 0 -0.01351389421554222 0.035565793315902268 0 -0.013548110696225441 0.035600254542374192 0 -0.013694205355022922 0.035752451904579229 0 -0.0139389523990604 0.036114092967875544 0 -0.013694205355022922 0.035752451904579229 0 -0.013894693288360311 0.035835043227226811 0 -0.013548110696225441 0.035600254542374192 0 -0.013694205355022922 0.035752451904579229 0 -0.013894693288360311 0.035835043227226811 0 -0.013318341990864463 0.035024417867614968 0 -0.013819117495624153 0.035395033022961021 0 -0.013607768592178784 0.034574750119501382 0 -0.013318341990864463 0.035024417867614968 0 -0.013548110696225441 0.035600254542374192 0 -0.013819117495624153 0.035395033022961021 0 -0.013548110696225441 0.035600254542374192 0 -0.013894693288360311 0.035835043227226811 0 -0.013819117495624153 0.035395033022961021 0 -0.013819117495624153 0.035395033022961021 0 -0.014333757020581598 0.036044675126119315 0 -0.014436916802773177 0.035113034932338756 0 -0.013053929080353723 0.036269218598588358 0 -0.012919859625430689 0.036398421469059229 0 -0.013894693288360311 0.035835043227226811 0 -0.013819117495624153 0.035395033022961021 0 -0.014333757020581598 0.036044675126119315 0 -0.014333757020581598 0.036044675126119315 0 -0.01424945035071034 0.036583292206118674 0 -0.014406430174603229 0.036604100338398837 0 -0.0139389523990604 0.036114092967875544 0 -0.013894693288360311 0.035835043227226811 0 -0.014333757020581598 0.036044675126119315 0 -0.0139389523990604 0.036114092967875544 0 -0.014333757020581598 0.036044675126119315 0 -0.014340572941440401 0.036313427450141864 0 -0.014333757020581598 0.036044675126119315 0 -0.014340572941440401 0.036313427450141864 0 -0.014304498644281743 0.036465139393460716 0 -0.014410072122971379 0.036618106169268916 0 -0.014340572941440401 0.036313427450141864 0 -0.014304498644281743 0.036465139393460716 0 -0.014384763630259695 0.03649366321606675 0 -0.014410072122971379 0.036618106169268916 0 -0.014340572941440401 0.036313427450141864 0 -0.014333757020581598 0.036044675126119315 0 -0.014304498644281743 0.036465139393460716 0 -0.01424945035071034 0.036583292206118674 0 -0.014306941098733412 0.036673366817621185 0 -0.014304498644281743 0.036465139393460716 0 -0.01424945035071034 0.036583292206118674 0 -0.014306941098733412 0.036673366817621185 0 -0.01424945035071034 0.036583292206118674 0 -0.014220201310114635 0.036771070248748892 0 -0.01424945035071034 0.036583292206118674 0 -0.014193062350340749 0.036751977807138424 0 -0.014220201310114635 0.036771070248748892 0 -0.01424945035071034 0.036583292206118674 0 -0.014193062350340749 0.036751977807138424 0 -0.014406430174603229 0.036604100338398837 0 -0.014193062350340749 0.036751977807138424 0 -0.014015895514352072 0.036923616241880626 0 -0.014274040563850799 0.036886430431040319 0 -0.014193062350340749 0.036751977807138424 0 -0.014123115953322919 0.036845359122767922 0 -0.014015895514352072 0.036923616241880626 0 -0.014193062350340749 0.036751977807138424 0 -0.014123115953322919 0.036845359122767922 0 -0.014220201310114635 0.036771070248748892 0 -0.014123115953322919 0.036845359122767922 0 -0.014220201310114635 0.036771070248748892 0 -0.014145535205552191 0.036843740220064133 0 -0.013989457429595231 0.036854348884660874 0 -0.014015895514352072 0.036923616241880626 0 -0.013303393383504053 0.036673008660804855 0 -0.014123115953322919 0.036845359122767922 0 -0.014145535205552191 0.036843740220064133 0 -0.013989457429595231 0.036854348884660874 0 -0.014145535205552191 0.036843740220064133 0 -0.013989457429595231 0.036854348884660874 0 -0.01403397059635546 0.036780950283784898 0 -0.014123115953322919 0.036845359122767922 0 -0.013989457429595231 0.036854348884660874 0 -0.014015895514352072 0.036923616241880626 0 -0.014015895514352072 0.036923616241880626 0 -0.013821565481073057 0.036976672114183012 0 -0.013303393383504053 0.036673008660804855 0 -0.011287780595779192 0.03895645565546433 0 -0.010522353060968289 0.038450742617494427 0 -0.011221650384068992 0.037674935293327196 0 -0.0124945153922218 0.037023514778826601 0 -0.012157456076804692 0.036792243794073594 0 -0.012656326810493945 0.036991211199464018 0 -0.0124945153922218 0.037023514778826601 0 -0.014406466514270376 0.034499792507522359 0 -0.014436916802773177 0.035113034932338756 0 -0.013607768592178784 0.034574750119501382 0 -0.014193062350340749 0.036751977807138424 0 -0.014274040563850799 0.036886430431040319 0 -0.014406430174603229 0.036604100338398837 0 -0.0124945153922218 0.037023514778826601 0 -0.012919859625430689 0.036398421469059229 0 -0.0124945153922218 0.037023514778826601 0 -0.011637478307967115 0.036948642835291354 0 -0.013819117495624153 0.035395033022961021 0 -0.014436916802773177 0.035113034932338756 0 -0.013607768592178784 0.034574750119501382 0 -0.010072959878914598 0.039241632901378658 0 -0.010522353060968289 0.038450742617494427 0 -0.0097220138981484253 0.038244287963214378 0 -0.011287780595779192 0.03895645565546433 0 -0.010072959878914598 0.039241632901378658 0 -0.010522353060968289 0.038450742617494427 0 -0.0089282814437012647 0.03865520655246954 0 -0.010072959878914598 0.039241632901378658 0 -0.0097220138981484253 0.038244287963214378 0 -0.0089282814437012647 0.03865520655246954 0 -0.0091820320756631178 0.037967680835782475 0 -0.0097220138981484253 0.038244287963214378 0 -0.0088777937137720676 0.03945731064291174 0 -0.0089282814437012647 0.03865520655246954 0 -0.010072959878914598 0.039241632901378658 0 -0.012564013511929198 0.034296920378451057 0 -0.013318341990864463 0.035024417867614968 0 -0.013607768592178784 0.034574750119501382 0 -0.010447282125718346 0.036972182090667223 0 -0.011637478307967115 0.036948642835291354 0 -0.0091888305267493666 0.036968647858604542 0 -0.0097772746726475547 0.036911795577651625 0 -0.009481590735761658 0.037183455547312914 0 -0.0097772746726475547 0.036911795577651625 0 -0.009481590735761658 0.037183455547312914 0 -0.0096753287619882455 0.037485732202726281 0 -0.0097772746726475547 0.036911795577651625 0 -0.0096753287619882455 0.037485732202726281 0 -0.010330144379642565 0.037043288038669055 0 -0.0091888305267493666 0.036968647858604542 0 -0.009481590735761658 0.037183455547312914 0 -0.0091905596148130417 0.03751218810115424 0 -0.009481590735761658 0.037183455547312914 0 -0.0091905596148130417 0.03751218810115424 0 -0.0096753287619882455 0.037485732202726281 0 -0.0091905596148130417 0.03751218810115424 0 -0.0091820320756631178 0.037967680835782475 0 -0.0096753287619882455 0.037485732202726281 0 -0.0091820320756631178 0.037967680835782475 0 -0.0097220138981484253 0.038244287963214378 0 -0.0096753287619882455 0.037485732202726281 0 -0.0097220138981484253 0.038244287963214378 0 -0.0096753287619882455 0.037485732202726281 0 -0.010296749832788358 0.037780335752438374 0 -0.010522353060968289 0.038450742617494427 0 -0.010296749832788358 0.037780335752438374 0 -0.011221650384068992 0.037674935293327196 0 -0.010296749832788358 0.037780335752438374 0 -0.010330144379642565 0.037043288038669055 0 -0.011221650384068992 0.037674935293327196 0 -0.010522353060968289 0.038450742617494427 0 -0.0097220138981484253 0.038244287963214378 0 -0.010296749832788358 0.037780335752438374 0 -0.0096753287619882455 0.037485732202726281 0 -0.010296749832788358 0.037780335752438374 0 -0.010330144379642565 0.037043288038669055 0 -0.010330144379642565 0.037043288038669055 0 -0.011221650384068992 0.037674935293327196 0 -0.011208624368891208 0.036386138427522814 0 -0.013303393383504053 0.036673008660804855 0 -0.013282090355171229 0.036265545434612564 0 -0.01247919355960489 0.036117594098774256 0 -0.012157456076804692 0.036792243794073594 0 -0.01174342158303221 0.035923343880396238 0 -0.013989457429595231 0.036854348884660874 0 -0.013303393383504053 0.036673008660804855 0 -0.01403397059635546 0.036780950283784898 0 -0.013303393383504053 0.036673008660804855 0 -0.01403397059635546 0.036780950283784898 0 -0.013947097289384446 0.0365536387964931 0 -0.013303393383504053 0.036673008660804855 0 -0.013282090355171229 0.036265545434612564 0 -0.013947097289384446 0.0365536387964931 0 -0.013282090355171229 0.036265545434612564 0 -0.01289938990875868 0.035747576306175928 0 -0.01247919355960489 0.036117594098774256 0 -0.013282090355171229 0.036265545434612564 0 -0.01289938990875868 0.035747576306175928 0 -0.014024842925208527 0.035969460744254431 0 -0.01289938990875868 0.035747576306175928 0 -0.011292095126968804 0.034999859790057687 0 -0.013341937629435039 0.034999718227132694 0 -0.011289709175844461 0.034999859177449695 0 -0.011208624368891208 0.036386138427522814 0 -0.010834920193684009 0.035000089757821588 0 -0.01289938990875868 0.035747576306175928 0 -0.011292095126968804 0.034999859790057687 0 -0.01247919355960489 0.036117594098774256 0 -0.01129121518210343 0.035000665373821821 0 -0.01174342158303221 0.035923343880396238 0 -0.010330144379642565 0.037043288038669055 0 -0.011208624368891208 0.036386138427522814 0 -0.0099879061559852433 0.036006550726422171 0 -0.0097772746726475547 0.036911795577651625 0 -0.010330144379642565 0.037043288038669055 0 -0.0099879061559852433 0.036006550726422171 0 -0.010833376991588083 0.035001127307027396 0 -0.0099517365694115241 0.036072610471643153 0 -0.01083430849859806 0.03499998959767095 0 -0.0093448775757555471 0.034999994993863713 0 -0.0097768324203714192 0.03627472609359271 0 -0.011208624368891208 0.036386138427522814 0 -0.010834920193684009 0.035000089757821588 0 -0.0099879061559852433 0.036006550726422171 0 -0.0085380568729259195 0.036290309088371532 0 -0.0093448775757555471 0.034999994993863713 0 -0.0097768324203714192 0.03627472609359271 0 -0.0091993173340467974 0.036992185954975235 0 -0.0099517365694115241 0.036072610471643153 0 -0.0091888305267493666 0.036968647858604542 0 -0.0097772746726475547 0.036911795577651625 0 -0.0099879061559852433 0.036006550726422171 0 -0.008589524785537702 0.036916979544829968 0 -0.0085380568729259195 0.036290309088371532 0 -0.0097768324203714192 0.03627472609359271 0 -0.008589524785537702 0.036916979544829968 0 -0.0087396337766275645 0.037451561580530104 0 -0.0097768324203714192 0.03627472609359271 0 -0.015467274985449687 0.036375501432556467 0 -0.014946424926794452 0.036576148307365011 0 -0.014675461250499823 0.03640986577461159 0 -0.015467274985449687 0.036375501432556467 0 -0.014675461250499823 0.03640986577461159 0 -0.015534071359989641 0.03590138710692678 0 -0.015467274985449687 0.036375501432556467 0 -0.015668976493972867 0.036578954669216027 0 -0.016554214068587488 0.036044735665356126 0 -0.015467274985449687 0.036375501432556467 0 -0.015668976493972867 0.036578954669216027 0 -0.015222758959490363 0.036655497975896151 0 -0.015375577908039459 0.03674789670784516 0 -0.015668976493972867 0.036578954669216027 0 -0.015666287155009489 0.036706624502075527 0 -0.015375577908039459 0.03674789670784516 0 -0.015668976493972867 0.036578954669216027 0 -0.015222758959490363 0.036655497975896151 0 -0.015467274985449687 0.036375501432556467 0 -0.015222758959490363 0.036655497975896151 0 -0.014946424926794452 0.036576148307365011 0 -0.015222758959490363 0.036655497975896151 0 -0.014946424926794452 0.036576148307365011 0 -0.014838315594595079 0.036715190672754208 0 -0.014974529475468285 0.036797195869669751 0 -0.015222758959490363 0.036655497975896151 0 -0.014838315594595079 0.036715190672754208 0 -0.014946424926794452 0.036576148307365011 0 -0.014471048193712008 0.036708936189415564 0 -0.014675461250499823 0.03640986577461159 0 -0.014651143543098816 0.036799524898355113 0 -0.014838315594595079 0.036715190672754208 0 -0.014471048193712008 0.036708936189415564 0 -0.014946424926794452 0.036576148307365011 0 -0.014838315594595079 0.036715190672754208 0 -0.014471048193712008 0.036708936189415564 0 -0.01403397059635546 0.036780950283784898 0 -0.014471048193712008 0.036708936189415564 0 -0.013947097289384446 0.0365536387964931 0 -0.013282090355171229 0.036265545434612564 0 -0.013947097289384446 0.0365536387964931 0 -0.014024842925208527 0.035969460744254431 0 -0.014471048193712008 0.036708936189415564 0 -0.013947097289384446 0.0365536387964931 0 -0.014675461250499823 0.03640986577461159 0 -0.013947097289384446 0.0365536387964931 0 -0.014675461250499823 0.03640986577461159 0 -0.014024842925208527 0.035969460744254431 0 -0.014675461250499823 0.03640986577461159 0 -0.014024842925208527 0.035969460744254431 0 -0.015534071359989641 0.03590138710692678 0 -0.01289938990875868 0.035747576306175928 0 -0.014024842925208527 0.035969460744254431 0 -0.013341937629435039 0.034999718227132694 0 -0.014024842925208527 0.035969460744254431 0 -0.013341937629435039 0.034999718227132694 0 -0.01539320202234357 0.034999668523746467 0 -0.014024842925208527 0.035969460744254431 0 -0.01539320202234357 0.034999668523746467 0 -0.015534071359989641 0.03590138710692678 0 -0.01539320202234357 0.034999668523746467 0 -0.015534071359989641 0.03590138710692678 0 -0.01744180786935556 0.035000003119227206 0 -0.015467274985449687 0.036375501432556467 0 -0.015534071359989641 0.03590138710692678 0 -0.016554214068587488 0.036044735665356126 0 -0.015534071359989641 0.03590138710692678 0 -0.01744180786935556 0.035000003119227206 0 -0.016554214068587488 0.036044735665356126 0 -0.017444604800279567 0.034999989246015037 0 -0.017981908638901454 0.035546658109147977 0 -0.019019617545346552 0.034999925383699816 0 -0.017444604800279567 0.034999989246015037 0 -0.017981908638901454 0.035546658109147977 0 -0.017955666076225903 0.036680006429162346 0 -0.017444298608201323 0.035000758365512447 0 -0.01759376253376168 0.035998138747621256 0 -0.017981908638901454 0.035546658109147977 0 -0.019084419254858247 0.036093844434616114 0 -0.01855764685030932 0.036277913191858892 0 -0.017981908638901454 0.035546658109147977 0 -0.019019617545346552 0.034999925383699816 0 -0.019084419254858247 0.036093844434616114 0 -0.019019617545346552 0.034999925383699816 0 -0.019084419254858247 0.036093844434616114 0 -0.019940580830155999 0.035676961050659657 0 -0.019084419254858247 0.036093844434616114 0 -0.020060545998395282 0.036610825841610954 0 -0.019940580830155999 0.035676961050659657 0 -0.019084419254858247 0.036093844434616114 0 -0.018803709367799709 0.036600428098526372 0 -0.01855764685030932 0.036277913191858892 0 -0.019084419254858247 0.036093844434616114 0 -0.018803709367799709 0.036600428098526372 0 -0.019362654290723667 0.036815123946488712 0 -0.018803709367799709 0.036600428098526372 0 -0.019362654290723667 0.036815123946488712 0 -0.019010264454989542 0.037220210912324754 0 -0.019084419254858247 0.036093844434616114 0 -0.019362654290723667 0.036815123946488712 0 -0.020060545998395282 0.036610825841610954 0 -0.018027107510346373 0.036343332489994815 0 -0.018052432531615852 0.036756032700260705 0 -0.017981908638901454 0.035546658109147977 0 -0.017955666076225903 0.036680006429162346 0 -0.018177340419189832 0.036938896564915447 0 -0.017981908638901454 0.035546658109147977 0 -0.01855764685030932 0.036277913191858892 0 -0.018366379714761603 0.036859432127715662 0 -0.018803709367799709 0.036600428098526372 0 -0.01855764685030932 0.036277913191858892 0 -0.018366379714761603 0.036859432127715662 0 -0.018803709367799709 0.036600428098526372 0 -0.018366379714761603 0.036859432127715662 0 -0.019010264454989542 0.037220210912324754 0 -0.018366379714761603 0.036859432127715662 0 -0.019010264454989542 0.037220210912324754 0 -0.018548627632435165 0.038148349740894573 0 -0.015668976493972867 0.036578954669216027 0 -0.016554214068587488 0.036044735665356126 0 -0.015977719629264427 0.036565424550746954 0 -0.01759376253376168 0.035998138747621256 0 -0.017973659371945595 0.036915283004821907 0 -0.018052432531615852 0.036756032700260705 0 -0.017973659371945595 0.036915283004821907 0 -0.017955666076225903 0.036680006429162346 0 -0.018177340419189832 0.036938896564915447 0 -0.018348245800120962 0.03825835605403588 0 -0.019362654290723667 0.036815123946488712 0 -0.019963928038323666 0.037714930707410846 0 -0.020060545998395282 0.036610825841610954 0 -0.019362654290723667 0.036815123946488712 0 -0.019010264454989542 0.037220210912324754 0 -0.019963928038323666 0.037714930707410846 0 -0.019010264454989542 0.037220210912324754 0 -0.018548627632435165 0.038148349740894573 0 -0.019963928038323666 0.037714930707410846 0 -0.018611232664679199 0.037202522054925601 0 -0.01819365580123249 0.036875615678957974 0 -0.019963928038323666 0.037714930707410846 0 -0.019657206623056082 0.038346596127947608 0 -0.020105001517407083 0.038217722953365785 0 -0.018548627632435165 0.038148349740894573 0 -0.019963928038323666 0.037714930707410846 0 -0.018795765026332303 0.039265106823543602 0 -0.017973659371945595 0.036915283004821907 0 -0.017972654934645442 0.036740005850439759 0 -0.015668976493972867 0.036578954669216027 0 -0.015977719629264427 0.036565424550746954 0 -0.015666287155009489 0.036706624502075527 0 -0.015977719629264427 0.036565424550746954 0 -0.015775200475846532 0.036821639968630943 0 -0.015666287155009489 0.036706624502075527 0 -0.017973659371945595 0.036915283004821907 0 -0.01819365580123249 0.036875615678957974 0 -0.020858676900378025 0.037805750874665665 0 -0.021252814773724624 0.037954391715085641 0 -0.020925923230072252 0.038334652798230125 0 -0.020858676900378025 0.037805750874665665 0 -0.020475663117367499 0.038127202028041658 0 -0.020925923230072252 0.038334652798230125 0 -0.020475663117367499 0.038127202028041658 0 -0.019963928038323666 0.037714930707410846 0 -0.020105001517407083 0.038217722953365785 0 -0.020858676900378025 0.037805750874665665 0 -0.020475663117367499 0.038127202028041658 0 -0.019963928038323666 0.037714930707410846 0 -0.019963928038323666 0.037714930707410846 0 -0.020828965778985662 0.037125552760184234 0 -0.020060545998395282 0.036610825841610954 0 -0.020858676900378025 0.037805750874665665 0 -0.019963928038323666 0.037714930707410846 0 -0.020828965778985662 0.037125552760184234 0 -0.021805015749332163 0.037002195817929656 0 -0.022348825524609987 0.037097793806117427 0 -0.020858676900378025 0.037805750874665665 0 -0.020828965778985662 0.037125552760184234 0 -0.021437500818500287 0.037421141094627276 0 -0.020828965778985662 0.037125552760184234 0 -0.021447048504473456 0.036025662544018788 0 -0.022323676552994467 0.037681896006486949 0 -0.020828965778985662 0.037125552760184234 0 -0.021447048504473456 0.036025662544018788 0 -0.020060545998395282 0.036610825841610954 0 -0.021447048504473456 0.036025662544018788 0 -0.020060545998395282 0.036610825841610954 0 -0.019940580830155999 0.035676961050659657 0 -0.021447048504473456 0.036025662544018788 0 -0.02059478899440309 0.035000002008555416 0 -0.019940580830155999 0.035676961050659657 0 -0.019019617545346552 0.034999925383699816 0 -0.02059478899440309 0.035000002008555416 0 -0.019940580830155999 0.035676961050659657 0 -0.021447048504473456 0.036025662544018788 0 -0.02059478899440309 0.035000002008555416 0 -0.022169628782517877 0.034999778881409059 0 -0.021447048504473456 0.036025662544018788 0 -0.022169628782517877 0.034999778881409059 0 -0.022751510656463577 0.035818405024645679 0 -0.02217153182480484 0.035000545302931556 0 -0.023622387690317045 0.035546246967609108 0 -0.022169628782517877 0.034999778881409059 0 -0.022751510656463577 0.035818405024645679 0 -0.023594626213391638 0.035485924087134156 0 -0.02216995030689195 0.034999994664462838 0 -0.024048256184671914 0.03499999505368781 0 -0.023693793866071105 0.035619120369301607 0 -0.022751510656463577 0.035818405024645679 0 -0.023594626213391638 0.035485924087134156 0 -0.023428899026611681 0.036231454306342302 0 -0.022751510656463577 0.035818405024645679 0 -0.023428899026611681 0.036231454306342302 0 -0.022766442918033463 0.036535412895977393 0 -0.023428899026611681 0.036231454306342302 0 -0.023712729260538072 0.037004814834698738 0 -0.022766442918033463 0.036535412895977393 0 -0.021447048504473456 0.036025662544018788 0 -0.022751510656463577 0.035818405024645679 0 -0.022766442918033463 0.036535412895977393 0 -0.021447048504473456 0.036025662544018788 0 -0.022766442918033463 0.036535412895977393 0 -0.022323676552994467 0.037681896006486949 0 -0.025926699858123705 0.034999923801684332 0 -0.026203523892814492 0.036001006416047587 0 -0.02524702077915612 0.03620788037422213 0 -0.024048256184671914 0.03499999505368781 0 -0.023693793866071105 0.035619120369301607 0 -0.02524702077915612 0.03620788037422213 0 -0.023594626213391638 0.035485924087134156 0 -0.023428899026611681 0.036231454306342302 0 -0.025169632465613156 0.036025982901402104 0 -0.024048256184671914 0.03499999505368781 0 -0.025926699858123705 0.034999923801684332 0 -0.02524702077915612 0.03620788037422213 0 -0.023622387690317045 0.035546246967609108 0 -0.024943339431414583 0.036041890148478514 0 -0.023428899026611681 0.036231454306342302 0 -0.023712729260538072 0.037004814834698738 0 -0.025169632465613156 0.036025982901402104 0 -0.023712729260538072 0.037004814834698738 0 -0.025169632465613156 0.036025982901402104 0 -0.025028185395430797 0.037493325206769547 0 -0.024943339431414583 0.036041890148478514 0 -0.025646268962226281 0.036305294159738051 0 -0.025169632465613156 0.036025982901402104 0 -0.02615855391474978 0.037063077015635292 0 -0.026804086115705238 0.036626542576618536 0 -0.026203523892814492 0.036001006416047587 0 -0.02524702077915612 0.03620788037422213 0 -0.026804086115705238 0.036626542576618536 0 -0.025169632465613156 0.036025982901402104 0 -0.02615855391474978 0.037063077015635292 0 -0.025028185395430797 0.037493325206769547 0 -0.026109809998210606 0.037867532191237507 0 -0.025028185395430797 0.037493325206769547 0 -0.025294580449269272 0.038781911319148051 0 -0.026109809998210606 0.037867532191237507 0 -0.02615855391474978 0.037063077015635292 0 -0.025028185395430797 0.037493325206769547 0 -0.023712729260538072 0.037004814834698738 0 -0.025028185395430797 0.037493325206769547 0 -0.023788052762798412 0.038226061280999528 0 -0.022308656818205645 0.038028885491063293 0 -0.022779467253444603 0.03789104774480867 0 -0.022092314487857149 0.037653999810139734 0 -0.025501425339509068 0.037113638853974049 0 -0.023555365483817432 0.037177056629334085 0 -0.025028185395430797 0.037493325206769547 0 -0.025294580449269272 0.038781911319148051 0 -0.023788052762798412 0.038226061280999528 0 -0.027837198770269234 0.036954250992119346 0 -0.027610264346895234 0.036540888882384562 0 -0.027196026122886279 0.036744485159441655 0 -0.027129094245199777 0.036927360965749126 0 -0.027276264396196091 0.036826283523496074 0 -0.027113148854094 0.036879246965578032 0 -0.025501425339509068 0.037113638853974049 0 -0.026046381697680646 0.037209557578653608 0 -0.027276264396196091 0.036826283523496074 0 -0.027196026122886279 0.036744485159441655 0 -0.027113148854094 0.036879246965578032 0 -0.025952188018476013 0.036976644948316775 0 -0.025501425339509068 0.037113638853974049 0 -0.023712729260538072 0.037004814834698738 0 -0.022323676552994467 0.037681896006486949 0 -0.023788052762798412 0.038226061280999528 0 -0.022348825524609987 0.037097793806117427 0 -0.023555365483817432 0.037177056629334085 0 -0.023712729260538072 0.037004814834698738 0 -0.022766442918033463 0.036535412895977393 0 -0.022323676552994467 0.037681896006486949 0 -0.022308656818205645 0.038028885491063293 0 -0.022092314487857149 0.037653999810139734 0 -0.021902920042847912 0.038158387172351385 0 -0.022092314487857149 0.037653999810139734 0 -0.021611174840413836 0.037871123976278669 0 -0.021902920042847912 0.038158387172351385 0 -0.021437500818500287 0.037421141094627276 0 -0.022092314487857149 0.037653999810139734 0 -0.021611174840413836 0.037871123976278669 0 -0.021437500818500287 0.037421141094627276 0 -0.021611174840413836 0.037871123976278669 0 -0.021252814773724624 0.037954391715085641 0 -0.021611174840413836 0.037871123976278669 0 -0.021252814773724624 0.037954391715085641 0 -0.021434083552296146 0.038328672749874559 0 -0.020858676900378025 0.037805750874665665 0 -0.021437500818500287 0.037421141094627276 0 -0.021252814773724624 0.037954391715085641 0 -0.021252814773724624 0.037954391715085641 0 -0.021434083552296146 0.038328672749874559 0 -0.020925923230072252 0.038334652798230125 0 -0.021434083552296146 0.038328672749874559 0 -0.021189942721223116 0.038674141705788007 0 -0.021457281628838854 0.038724743986500838 0 -0.021434083552296146 0.038328672749874559 0 -0.021189942721223116 0.038674141705788007 0 -0.020925923230072252 0.038334652798230125 0 -0.021434083552296146 0.038328672749874559 0 -0.02170883042820005 0.03862847460266168 0 -0.021457281628838854 0.038724743986500838 0 -0.021611174840413836 0.037871123976278669 0 -0.021434083552296146 0.038328672749874559 0 -0.021902920042847912 0.038158387172351385 0 -0.021902920042847912 0.038158387172351385 0 -0.02170883042820005 0.03862847460266168 0 -0.02223488491091347 0.038491089612734522 0 -0.022308656818205645 0.038028885491063293 0 -0.021902920042847912 0.038158387172351385 0 -0.02223488491091347 0.038491089612734522 0 -0.021434083552296146 0.038328672749874559 0 -0.021902920042847912 0.038158387172351385 0 -0.02170883042820005 0.03862847460266168 0 -0.028845637552551238 0.035486536698227829 0 -0.028473787467360137 0.036100595067786213 0 -0.028461816613835289 0.035615365960698753 0 -0.02170883042820005 0.03862847460266168 0 -0.021689276608292229 0.039062554729522005 0 -0.02223488491091347 0.038491089612734522 0 -0.025385544311416808 0.035297781259109422 0 -0.025184106257537992 0.036712720457004341 0 -0.02170883042820005 0.03862847460266168 0 -0.021689276608292229 0.039062554729522005 0 -0.021535417899916278 0.039004964690980665 0 -0.025385544311416808 0.035297781259109422 0 -0.025292736342521088 0.035311095849834044 0 -0.021676143277447126 0.039051666724943486 0 -0.021535417899916278 0.039004964690980665 0 -0.02135868600123917 0.039067964866801246 0 -0.021535417899916278 0.039004964690980665 0 -0.021330104530585047 0.038888304195301385 0 -0.021457281628838854 0.038724743986500838 0 -0.021535417899916278 0.039004964690980665 0 -0.021330104530585047 0.038888304195301385 0 -0.02135868600123917 0.039067964866801246 0 -0.021330104530585047 0.038888304195301385 0 -0.021189942721223116 0.038674141705788007 0 -0.021110161768273478 0.038967550212981948 0 -0.021330104530585047 0.038888304195301385 0 -0.02135868600123917 0.039067964866801246 0 -0.021110161768273478 0.038967550212981948 0 -0.021330104530585047 0.038888304195301385 0 -0.021189942721223116 0.038674141705788007 0 -0.021457281628838854 0.038724743986500838 0 -0.02170883042820005 0.03862847460266168 0 -0.021535417899916278 0.039004964690980665 0 -0.021457281628838854 0.038724743986500838 0 -0.027837198770269234 0.036954250992119346 0 -0.027610264346895234 0.036540888882384562 0 -0.027934944877706494 0.03624366915560439 0 -0.027438025922677665 0.036168198599033516 0 -0.027610264346895234 0.036540888882384562 0 -0.027196026122886279 0.036744485159441655 0 -0.027438025922677665 0.036168198599033516 0 -0.027610264346895234 0.036540888882384562 0 -0.027934944877706494 0.03624366915560439 0 -0.025501425339509068 0.037113638853974049 0 -0.025184106257537992 0.036712720457004341 0 -0.022308656818205645 0.038028885491063293 0 -0.022779467253444603 0.03789104774480867 0 -0.02223488491091347 0.038491089612734522 0 -0.027837198770269234 0.036954250992119346 0 -0.027934944877706494 0.03624366915560439 0 -0.028473787467360137 0.036100595067786213 0 -0.027934944877706494 0.03624366915560439 0 -0.028473787467360137 0.036100595067786213 0 -0.028162403190613857 0.035535779584812001 0 -0.028473787467360137 0.036100595067786213 0 -0.028461816613835289 0.035615365960698753 0 -0.028162403190613857 0.035535779584812001 0 -0.028461816613835289 0.035615365960698753 0 -0.028162403190613857 0.035535779584812001 0 -0.028394462929051307 0.035392470475104854 0 -0.027438025922677665 0.036168198599033516 0 -0.027934944877706494 0.03624366915560439 0 -0.028162403190613857 0.035535779584812001 0 -0.028259648837674293 0.035329125552733688 0 -0.028162403190613857 0.035535779584812001 0 -0.0282517767904432 0.035465730600954933 0 -0.028179474565244424 0.035980661460729452 0 -0.028202486579703347 0.035884963517344784 0 -0.028269674024289686 0.035489217189097387 0 -0.028192265544854902 0.035493329465712084 0 -0.028355942356651436 0.03556486610114127 0 -0.028162403190613857 0.035535779584812001 0 -0.0282517767904432 0.035465730600954933 0 -0.028202998523742411 0.035446457129064211 0 -0.0282517767904432 0.035465730600954933 0 -0.028269674024289686 0.035489217189097387 0 -0.028202998523742411 0.035446457129064211 0 -0.028960673135104177 0.033370031415427569 0 -0.02914820815003177 0.033243572348943304 0 -0.028289508112825958 0.033190624644030414 0 -0.027362032279358947 0.032835284851395349 0 -0.026845957670745813 0.033420090971117485 0 -0.02914820815003177 0.033243572348943304 0 -0.028546505349118245 0.032131574275784169 0 -0.02914820815003177 0.033243572348943304 0 -0.027475569699237336 0.034307665200392905 0 -0.028162403190613857 0.035535779584812001 0 -0.028202998523742411 0.035446457129064211 0 -0.028394462929051307 0.035392470475104854 0 -0.033211931285604318 0.025613924356616032 0 -0.03155998552949521 0.025844622380838986 0 -0.032413145678635687 0.026864365131075423 0 -0.02914820815003177 0.033243572348943304 0 -0.030392103581059565 0.032526206798061667 0 -0.033211931285604318 0.025613924356616032 0 -0.03458635708180282 0.026193027012892205 0 -0.033988738236732922 0.027205927473502933 0 -0.033211931285604318 0.025613924356616032 0 -0.033988738236732922 0.027205927473502933 0 -0.032413145678635687 0.026864365131075423 0 -0.021676143277447126 0.039051666724943486 0 -0.02135868600123917 0.039067964866801246 0 -0.021127112581665095 0.039281390317568617 0 -0.026441065272618303 0.032491053298761653 0 -0.026845957670745813 0.033420090971117485 0 -0.025416748279593258 0.033647853669658133 0 -0.025385544311416808 0.035297781259109422 0 -0.024821465593356018 0.032912191233693051 0 -0.021676143277447126 0.039051666724943486 0 -0.021099293702605593 0.039643987276167213 0 -0.021127112581665095 0.039281390317568617 0 -0.02135868600123917 0.039067964866801246 0 -0.021127112581665095 0.039281390317568617 0 -0.021110161768273478 0.038967550212981948 0 -0.026441065272618303 0.032491053298761653 0 -0.027362032279358947 0.032835284851395349 0 -0.026845957670745813 0.033420090971117485 0 -0.025385544311416808 0.035297781259109422 0 -0.027475569699237336 0.034307665200392905 0 -0.028845637552551238 0.035486536698227829 0 -0.028461816613835289 0.035615365960698753 0 -0.028394462929051307 0.035392470475104854 0 -0.03155998552949521 0.025844622380838986 0 -0.030983192097576252 0.02711988636948608 0 -0.032413145678635687 0.026864365131075423 0 -0.03155998552949521 0.025844622380838986 0 -0.029902301275270406 0.026117414705550467 0 -0.030983192097576252 0.02711988636948608 0 -0.028546505349118245 0.032131574275784169 0 -0.024821465593356018 0.032912191233693051 0 -0.023109342043761139 0.032346180598383574 0 -0.02214980603200491 0.032498854498086822 0 -0.022418340118549616 0.033106207972728723 0 -0.024821465593356018 0.032912191233693051 0 -0.021902074269366457 0.033859009909194333 0 -0.024821465593356018 0.032912191233693051 0 -0.024317653563608311 0.030973995113819906 0 -0.021099293702605593 0.039643987276167213 0 -0.020531973052107275 0.039344637832667603 0 -0.020549838420171742 0.039719452047315064 0 -0.021127112581665095 0.039281390317568617 0 -0.020794893325265223 0.039066021854085996 0 -0.020531973052107275 0.039344637832667603 0 -0.021099293702605593 0.039643987276167213 0 -0.021127112581665095 0.039281390317568617 0 -0.020531973052107275 0.039344637832667603 0 -0.021127112581665095 0.039281390317568617 0 -0.020794893325265223 0.039066021854085996 0 -0.021110161768273478 0.038967550212981948 0 -0.020531973052107275 0.039344637832667603 0 -0.019837483312614344 0.0390617123666663 0 -0.020401798148495791 0.038893063515607999 0 -0.020794893325265223 0.039066021854085996 0 -0.020531973052107275 0.039344637832667603 0 -0.020401798148495791 0.038893063515607999 0 -0.021902074269366457 0.033859009909194333 0 -0.019993263864197443 0.034061151460993748 0 -0.020531973052107275 0.039344637832667603 0 -0.020549838420171742 0.039719452047315064 0 -0.020023959466697615 0.039791547200778397 0 -0.02214980603200491 0.032498854498086822 0 -0.021630514489968056 0.032741484557494427 0 -0.021189732594617056 0.032663741681393278 0 -0.021989386669576137 0.032884746106152163 0 -0.02214980603200491 0.032498854498086822 0 -0.022418340118549616 0.033106207972728723 0 -0.021989386669576137 0.032884746106152163 0 -0.02214980603200491 0.032498854498086822 0 -0.021630514489968056 0.032741484557494427 0 -0.021630514489968056 0.032741484557494427 0 -0.021189732594617056 0.032663741681393278 0 -0.021213853401546096 0.032776764097211378 0 -0.020367156566639771 0.033170817921051962 0 -0.020888445662268905 0.033133315095311922 0 -0.020296754482954052 0.032844006349758995 0 -0.021630514489968056 0.032741484557494427 0 -0.02123014029538936 0.032769857162238798 0 -0.0212867991521676 0.033013062467761055 0 -0.016873371798548011 0.036681918670703084 0 -0.016497610539058672 0.036366405635692045 0 -0.016620776449408764 0.036031602660689693 0 -0.019993263864197443 0.034061151460993748 0 -0.018905743093366643 0.035073360832049566 0 -0.020055004683584989 0.033471099372406408 0 -0.019914832264492553 0.033495750110853942 0 -0.019914832264492553 0.033495750110853942 0 -0.02032561780187802 0.032556637833081492 0 -0.016873371798548011 0.036681918670703084 0 -0.016892750369183404 0.036760821320701235 0 -0.016590965767509545 0.036788912593717964 0 -0.019993263864197443 0.034061151460993748 0 -0.019914832264492553 0.033495750110853942 0 -0.016873371798548011 0.036681918670703084 0 -0.01653610451913225 0.036729450868963509 0 -0.016431911915428428 0.036557692632090834 0 -0.016873371798548011 0.036681918670703084 0 -0.016590965767509545 0.036788912593717964 0 -0.01653610451913225 0.036729450868963509 0 -0.019914832264492553 0.033495750110853942 0 -0.018407548011527101 0.033033974463137897 0 -0.018407548011527101 0.033033974463137897 0 -0.018409814916895157 0.033046975674971148 0 -0.016873371798548011 0.036681918670703084 0 -0.016497610539058672 0.036366405635692045 0 -0.016431911915428428 0.036557692632090834 0 -0.01542776144249685 0.036883877035946991 0 -0.016593089099688155 0.036793651598740366 0 -0.016198978626636117 0.036629302007887152 0 -0.014226155737234895 0.034550439045669547 0 -0.018407548011527101 0.033033974463137897 0 -0.01542776144249685 0.036883877035946991 0 -0.016198978626636117 0.036629302007887152 0 -0.015895483761585179 0.036394139295985145 0 -0.01653610451913225 0.036729450868963509 0 -0.016198978626636117 0.036629302007887152 0 -0.016431911915428428 0.036557692632090834 0 -0.016593089099688155 0.036793651598740366 0 -0.01653610451913225 0.036729450868963509 0 -0.016198978626636117 0.036629302007887152 0 -0.016198978626636117 0.036629302007887152 0 -0.016309729358435297 0.036423917440043259 0 -0.016431911915428428 0.036557692632090834 0 -0.016497610539058672 0.036366405635692045 0 -0.016309729358435297 0.036423917440043259 0 -0.016431911915428428 0.036557692632090834 0 -0.016497610539058672 0.036366405635692045 0 -0.016351229765013228 0.036298483910902131 0 -0.016409629136972317 0.036166410114606223 0 -0.016497610539058672 0.036366405635692045 0 -0.016309729358435297 0.036423917440043259 0 -0.016351229765013228 0.036298483910902131 0 -0.016309729358435297 0.036423917440043259 0 -0.016351229765013228 0.036298483910902131 0 -0.016188125692709131 0.036237305024112709 0 -0.016309729358435297 0.036423917440043259 0 -0.015895483761585179 0.036394139295985145 0 -0.016188125692709131 0.036237305024112709 0 -0.016198978626636117 0.036629302007887152 0 -0.016309729358435297 0.036423917440043259 0 -0.015895483761585179 0.036394139295985145 0 -0.016313738522179832 0.035778715668519881 0 -0.016477438308004737 0.03600718699501728 0 -0.016404445315524228 0.035390889648581718 0 -0.017897656430116163 0.035709059659926823 0 -0.018061358050876813 0.035715615415729395 0 -0.015895483761585179 0.036394139295985145 0 -0.015894880898730611 0.036043690789673614 0 -0.016188125692709131 0.036237305024112709 0 -0.015894880898730611 0.036043690789673614 0 -0.016238719945231996 0.036013159779973498 0 -0.016188125692709131 0.036237305024112709 0 -0.016238719945231996 0.036013159779973498 0 -0.016188125692709131 0.036237305024112709 0 -0.016409629136972317 0.036166410114606223 0 -0.016351229765013228 0.036298483910902131 0 -0.016188125692709131 0.036237305024112709 0 -0.016409629136972317 0.036166410114606223 0 -0.016238719945231996 0.036013159779973498 0 -0.016409629136972317 0.036166410114606223 0 -0.016477438308004737 0.03600718699501728 0 -0.016238719945231996 0.036013159779973498 0 -0.016313738522179832 0.035778715668519881 0 -0.016477438308004737 0.03600718699501728 0 -0.016313738522179832 0.035778715668519881 0 -0.01611871688625785 0.035801807734502554 0 -0.01620058033020039 0.035520397799346647 0 -0.016238719945231996 0.036013159779973498 0 -0.016313738522179832 0.035778715668519881 0 -0.01611871688625785 0.035801807734502554 0 -0.015894880898730611 0.036043690789673614 0 -0.016238719945231996 0.036013159779973498 0 -0.01611871688625785 0.035801807734502554 0 -0.015829957870370791 0.035483561462053261 0 -0.015894880898730611 0.036043690789673614 0 -0.01611871688625785 0.035801807734502554 0 -0.018962741009416618 0.035760688921745248 0 -0.018993144533122983 0.03542877838211992 0 -0.019163950755603065 0.036074355203794581 0 -0.018805769549530383 0.03478375429735843 0 -0.018962741009416618 0.035760688921745248 0 -0.018993144533122983 0.03542877838211992 0 -0.016477438308004737 0.03600718699501728 0 -0.016620776449408764 0.036031602660689693 0 -0.016439731348110064 0.035381846905257683 0 -0.019993263864197443 0.034061151460993748 0 -0.019337760386843851 0.036699687247527063 0 -0.018905743093366643 0.035073360832049566 0 -0.018061358050876813 0.035715615415729395 0 -0.020531973052107275 0.039344637832667603 0 -0.020023959466697615 0.039791547200778397 0 -0.019837483312614344 0.0390617123666663 0 -0.016497610539058672 0.036366405635692045 0 -0.016409629136972317 0.036166410114606223 0 -0.016620776449408764 0.036031602660689693 0 -0.016409629136972317 0.036166410114606223 0 -0.016477438308004737 0.03600718699501728 0 -0.016620776449408764 0.036031602660689693 0 -0.018962741009416618 0.035760688921745248 0 -0.019163950755603065 0.036074355203794581 0 -0.019135376877944348 0.036727993279387798 0 -0.019337760386843851 0.036699687247527063 0 -0.01819365580123249 0.036875615678957974 0 -0.019837483312614344 0.0390617123666663 0 -0.020092288900450096 0.038603222873521734 0 -0.020401798148495791 0.038893063515607999 0 -0.019837483312614344 0.0390617123666663 0 -0.020092288900450096 0.038603222873521734 0 -0.019657206623056082 0.038346596127947608 0 -0.015829957870370791 0.035483561462053261 0 -0.016335170340821319 0.035156052683406512 0 -0.016358945063457472 0.03483296281920787 0 -0.016674303899104934 0.036774977818471832 0 -0.017972654934645442 0.036740005850439759 0 -0.015829957870370791 0.035483561462053261 0 -0.01611871688625785 0.035801807734502554 0 -0.01620058033020039 0.035520397799346647 0 -0.015829957870370791 0.035483561462053261 0 -0.01620058033020039 0.035520397799346647 0 -0.016335170340821319 0.035156052683406512 0 -0.016313738522179832 0.035778715668519881 0 -0.01620058033020039 0.035520397799346647 0 -0.016404445315524228 0.035390889648581718 0 -0.016409652963214404 0.035394736078259777 0 -0.016335170340821319 0.035156052683406512 0 -0.016358945063457472 0.03483296281920787 0 -0.01620058033020039 0.035520397799346647 0 -0.016404445315524228 0.035390889648581718 0 -0.016335170340821319 0.035156052683406512 0 -0.018061358050876813 0.035715615415729395 0 -0.017972654934645442 0.036740005850439759 0 -0.018061358050876813 0.035715615415729395 0 -0.018015841142651336 0.035659444662569449 0 -0.015473182482548973 0.036823609496597583 0 -0.015339321777080061 0.036974235286088127 0 -0.015775200475846532 0.036821639968630943 0 -0.017920891076818844 0.03693072365889833 0 -0.017907567631867693 0.036798737994875923 0 -0.017895760828298773 0.036814438410617503 0 -0.019163950755603065 0.036074355203794581 0 -0.019202379874363171 0.03664208164379798 0 -0.019135376877944348 0.036727993279387798 0 -0.017972654934645442 0.036740005850439759 0 -0.01819365580123249 0.036875615678957974 0 -0.015473182482548973 0.036823609496597583 0 -0.015775200475846532 0.036821639968630943 0 -0.015666287155009489 0.036706624502075527 0 -0.020092288900450096 0.038603222873521734 0 -0.019657206623056082 0.038346596127947608 0 -0.020105001517407083 0.038217722953365785 0 -0.020092288900450096 0.038603222873521734 0 -0.020105001517407083 0.038217722953365785 0 -0.020499213786636387 0.038514966753882093 0 -0.020475663117367499 0.038127202028041658 0 -0.020105001517407083 0.038217722953365785 0 -0.020499213786636387 0.038514966753882093 0 -0.020475663117367499 0.038127202028041658 0 -0.020499213786636387 0.038514966753882093 0 -0.020925923230072252 0.038334652798230125 0 -0.021189942721223116 0.038674141705788007 0 -0.020925923230072252 0.038334652798230125 0 -0.020818066708617737 0.038744987141147498 0 -0.020499213786636387 0.038514966753882093 0 -0.020925923230072252 0.038334652798230125 0 -0.020818066708617737 0.038744987141147498 0 -0.021189942721223116 0.038674141705788007 0 -0.020818066708617737 0.038744987141147498 0 -0.021110161768273478 0.038967550212981948 0 -0.020794893325265223 0.039066021854085996 0 -0.020818066708617737 0.038744987141147498 0 -0.021110161768273478 0.038967550212981948 0 -0.020794893325265223 0.039066021854085996 0 -0.020818066708617737 0.038744987141147498 0 -0.020401798148495791 0.038893063515607999 0 -0.020092288900450096 0.038603222873521734 0 -0.020499213786636387 0.038514966753882093 0 -0.020401798148495791 0.038893063515607999 0 -0.020499213786636387 0.038514966753882093 0 -0.020818066708617737 0.038744987141147498 0 -0.020401798148495791 0.038893063515607999 0 -0.034994645657336537 0.034998135894516669 0 -0.03413834609166768 0.033696773741328095 0 -0.035092776491425601 0.030804154588549685 0 -0.034994645657336537 0.034998135894516669 0 -0.034999417577511981 0.029229266681444731 0 -0.035092776491425601 0.030804154588549685 0 -0.03413834609166768 0.033696773741328095 0 -0.034795444787531347 0.032082942639309255 0 -0.035092776491425601 0.030804154588549685 0 -0.034986044609912455 0.030823303077839089 0 -0.034940402966841526 0.030039758910437069 0 -0.034994645657336537 0.034998135894516669 0 -0.03413834609166768 0.033696773741328095 0 -0.031262305668669013 0.034997344170308559 0 -0.03413834609166768 0.033696773741328095 0 -0.033319241562199488 0.033719361264712013 0 -0.034188505287535274 0.032472053975289718 0 -0.03413834609166768 0.033696773741328095 0 -0.031262305668669013 0.034997344170308559 0 -0.033319241562199488 0.033719361264712013 0 -0.031250564653684594 0.034999086583592028 0 -0.031837499728176982 0.034362355714142714 0 -0.031262305668669013 0.034997344170308559 0 -0.033319241562199488 0.033719361264712013 0 -0.03507643588647321 0.033599723146543733 0 -0.033319241562199488 0.033719361264712013 0 -0.034188505287535274 0.032472053975289718 0 -0.03507643588647321 0.033599723146543733 0 -0.034188505287535274 0.032472053975289718 0 -0.034864315069295874 0.030666262076174143 0 -0.035416065885018472 0.031754946613486962 0 -0.035043425203173807 0.031216710247455086 0 -0.034986044609912455 0.030823303077839089 0 -0.03413834609166768 0.033696773741328095 0 -0.034188505287535274 0.032472053975289718 0 -0.034795444787531347 0.032082942639309255 0 -0.034344547560222982 0.03057021851245087 0 -0.034864315069295874 0.030666262076174143 0 -0.034813691701081256 0.029820472688974514 0 -0.034188505287535274 0.032472053975289718 0 -0.034344547560222982 0.03057021851245087 0 -0.034864315069295874 0.030666262076174143 0 -0.034864315069295874 0.030666262076174143 0 -0.036300861796951925 0.030488553908095628 0 -0.035416065885018472 0.031754946613486962 0 -0.034864315069295874 0.030666262076174143 0 -0.036300861796951925 0.030488553908095628 0 -0.035175904860310518 0.029763639454555721 0 -0.036300861796951925 0.030488553908095628 0 -0.036752251096276417 0.031629723111602094 0 -0.035416065885018472 0.031754946613486962 0 -0.031596834746579636 0.034028345355089702 0 -0.030036392048634834 0.03409724565482504 0 -0.036300861796951925 0.030488553908095628 0 -0.036752251096276417 0.031629723111602094 0 -0.037582857531597333 0.029872409324669724 0 -0.029087307673793163 0.037570811415993971 0 -0.028852491582815342 0.037196855429466352 0 -0.0301140516531474 0.03640963759746773 0 -0.029087307673793163 0.037570811415993971 0 -0.028852491582815342 0.037196855429466352 0 -0.02843839932672234 0.037676728689437854 0 -0.034188505287535274 0.032472053975289718 0 -0.035416065885018472 0.031754946613486962 0 -0.03507643588647321 0.033599723146543733 0 -0.036752251096276417 0.031629723111602094 0 -0.035416065885018472 0.031754946613486962 0 -0.03507643588647321 0.033599723146543733 0 -0.031596834746579636 0.034028345355089702 0 -0.031837499728176982 0.034362355714142714 0 -0.031249369045483352 0.034999987908126813 0 -0.0301140516531474 0.03640963759746773 0 -0.02952709319431009 0.034999953293706781 0 -0.02952709319431009 0.034999953293706781 0 -0.028871042660441645 0.036042486597430888 0 -0.02780513606463357 0.03499998062033511 0 -0.0301140516531474 0.03640963759746773 0 -0.02952709319431009 0.034999953293706781 0 -0.028871042660441645 0.036042486597430888 0 -0.028852491582815342 0.037196855429466352 0 -0.0301140516531474 0.03640963759746773 0 -0.028871042660441645 0.036042486597430888 0 -0.028852491582815342 0.037196855429466352 0 -0.028871042660441645 0.036042486597430888 0 -0.028028937352383442 0.036483789233932633 0 -0.027552548756623479 0.036510872387369372 0 -0.026959188219533511 0.036294927317339 0 -0.027144793090115273 0.036799935618187923 0 -0.027552548756623479 0.036510872387369372 0 -0.02780452369301082 0.03500010629885246 0 -0.027084068432096969 0.035817301456151529 0 -0.028871042660441645 0.036042486597430888 0 -0.028028937352383442 0.036483789233932633 0 -0.02780513606463357 0.03499998062033511 0 -0.028195030730619821 0.035961470481316343 0 -0.02780558353981006 0.035001051754302376 0 -0.025926699858123705 0.034999923801684332 0 -0.02780452369301082 0.03500010629885246 0 -0.027084068432096969 0.035817301456151529 0 -0.025926699858123705 0.034999923801684332 0 -0.026203523892814492 0.036001006416047587 0 -0.027084068432096969 0.035817301456151529 0 -0.026203523892814492 0.036001006416047587 0 -0.026959188219533511 0.036294927317339 0 -0.026804086115705238 0.036626542576618536 0 -0.026203523892814492 0.036001006416047587 0 -0.027084068432096969 0.035817301456151529 0 -0.026959188219533511 0.036294927317339 0 -0.027552548756623479 0.036510872387369372 0 -0.027084068432096969 0.035817301456151529 0 -0.026959188219533511 0.036294927317339 0 -0.026959188219533511 0.036294927317339 0 -0.026804086115705238 0.036626542576618536 0 -0.027144793090115273 0.036799935618187923 0 -0.026948996747076806 0.036831196306240883 0 -0.026804086115705238 0.036626542576618536 0 -0.027144793090115273 0.036799935618187923 0 -0.02615855391474978 0.037063077015635292 0 -0.026948996747076806 0.036831196306240883 0 -0.026804086115705238 0.036626542576618536 0 -0.026109809998210606 0.037867532191237507 0 -0.02615855391474978 0.037063077015635292 0 -0.026948996747076806 0.036831196306240883 0 -0.025952188018476013 0.036976644948316775 0 -0.026144576985058531 0.036866193980710865 0 -0.027129094245199777 0.036927360965749126 0 -0.027088608871662714 0.036929816489682972 0 -0.027113148854094 0.036879246965578032 0 -0.027129094245199777 0.036927360965749126 0 -0.026948996747076806 0.036831196306240883 0 -0.027088608871662714 0.036929816489682972 0 -0.026948996747076806 0.036831196306240883 0 -0.027088608871662714 0.036929816489682972 0 -0.027144793090115273 0.036799935618187923 0 -0.028852491582815342 0.037196855429466352 0 -0.028028937352383442 0.036483789233932633 0 -0.028144641802116024 0.037885383563060086 0 -0.028195030730619821 0.035961470481316343 0 -0.028754099468389881 0.036161337460398547 0 -0.027552548756623479 0.036510872387369372 0 -0.027144793090115273 0.036799935618187923 0 -0.027219645637992194 0.036995783805289111 0 -0.02859926955722715 0.0364247895501102 0 -0.028754099468389881 0.036161337460398547 0 -0.027088608871662714 0.036929816489682972 0 -0.027144793090115273 0.036799935618187923 0 -0.027219645637992194 0.036995783805289111 0 -0.029087307673793163 0.037570811415993971 0 -0.02843839932672234 0.037676728689437854 0 -0.02847318228794302 0.038310249202779714 0 -0.028754099468389881 0.036161337460398547 0 -0.030036392048634834 0.03409724565482504 0 -0.028493013551793706 0.03511203749319397 0 -0.02837618583238016 0.035212988375323842 0 -0.028494089163545171 0.035241058095772888 0 -0.028754099468389881 0.036161337460398547 0 -0.028283010965899521 0.036133379606269812 0 -0.027088608871662714 0.036929816489682972 0 -0.027019978562322754 0.036825769281278266 0 -0.027113148854094 0.036879246965578032 0 -0.027088608871662714 0.036929816489682972 0 -0.027219645637992194 0.036995783805289111 0 -0.027019978562322754 0.036825769281278266 0 -0.027019978562322754 0.036825769281278266 0 -0.027196026122886279 0.036744485159441655 0 -0.027113148854094 0.036879246965578032 0 -0.028373450616518081 0.035296204415070059 0 -0.028494089163545171 0.035241058095772888 0 -0.028360215338260119 0.035398744641709272 0 -0.028259648837674293 0.035329125552733688 0 -0.02837618583238016 0.035212988375323842 0 -0.028373450616518081 0.035296204415070059 0 -0.027438025922677665 0.036168198599033516 0 -0.027019978562322754 0.036825769281278266 0 -0.027196026122886279 0.036744485159441655 0 -0.028179474565244424 0.035980661460729452 0 -0.028283010965899521 0.036133379606269812 0 -0.02837618583238016 0.035212988375323842 0 -0.028373450616518081 0.035296204415070059 0 -0.028494089163545171 0.035241058095772888 0 -0.030036392048634834 0.03409724565482504 0 -0.029108295635069892 0.035117267172575309 0 -0.030036392048634834 0.03409724565482504 0 -0.030943018760142216 0.032422109857085844 0 -0.028536160513041853 0.03514664314852424 0 -0.02851931166953783 0.03542072802653623 0 -0.028360215338260119 0.035398744641709272 0 -0.028259648837674293 0.035329125552733688 0 -0.028373450616518081 0.035296204415070059 0 -0.028360215338260119 0.035398744641709272 0 -0.028259648837674293 0.035329125552733688 0 -0.0282517767904432 0.035465730600954933 0 -0.028360215338260119 0.035398744641709272 0 -0.0282517767904432 0.035465730600954933 0 -0.028269674024289686 0.035489217189097387 0 -0.028367743871401254 0.035481835603364625 0 -0.02851931166953783 0.03542072802653623 0 -0.028360215338260119 0.035398744641709272 0 -0.028367743871401254 0.035481835603364625 0 -0.0282517767904432 0.035465730600954933 0 -0.028360215338260119 0.035398744641709272 0 -0.028367743871401254 0.035481835603364625 0 -0.028269674024289686 0.035489217189097387 0 -0.028367743871401254 0.035481835603364625 0 -0.028355942356651436 0.03556486610114127 0 -0.028367743871401254 0.035481835603364625 0 -0.028355942356651436 0.03556486610114127 0 -0.028523733801262632 0.035611811248929662 0 -0.030392103581059565 0.032526206798061667 0 -0.030534389280142848 0.032283170901545109 0 -0.03458635708180282 0.026193027012892205 0 -0.035911521089948009 0.026927486825942121 0 -0.035423738498505289 0.027383080210648381 0 -0.030534389280142848 0.032283170901545109 0 -0.030659360290240301 0.032269556945232911 0 -0.035942611997958299 0.027009228671984815 0 -0.035943828900344678 0.027151254165738423 0 -0.036272036638305631 0.027287520603888539 0 -0.030534389280142848 0.032283170901545109 0 -0.030550569214758166 0.032215372917545386 0 -0.02851931166953783 0.03542072802653623 0 -0.028367743871401254 0.035481835603364625 0 -0.028523733801262632 0.035611811248929662 0 -0.030943018760142216 0.032422109857085844 0 -0.030534389280142848 0.032283170901545109 0 -0.037083353229203905 0.028319920927885014 0 -0.036275315950367454 0.027616993550224095 0 -0.036170883199379389 0.028267327026769727 0 -0.037083353229203905 0.028319920927885014 0 -0.036487015816061674 0.027378433937563239 0 -0.036275315950367454 0.027616993550224095 0 -0.036275315950367454 0.027616993550224095 0 -0.036204321231236347 0.027488933975009133 0 -0.036211045269538965 0.027449449439614547 0 -0.036275315950367454 0.027616993550224095 0 -0.036272036638305631 0.027287520603888539 0 -0.036211045269538965 0.027449449439614547 0 -0.036487015816061674 0.027378433937563239 0 -0.036275315950367454 0.027616993550224095 0 -0.036272036638305631 0.027287520603888539 0 -0.036275315950367454 0.027616993550224095 0 -0.036008562754611798 0.02774716532916369 0 -0.036204321231236347 0.027488933975009133 0 -0.036275315950367454 0.027616993550224095 0 -0.036170883199379389 0.028267327026769727 0 -0.036008562754611798 0.02774716532916369 0 -0.036170883199379389 0.028267327026769727 0 -0.036508238258416113 0.029122004537519973 0 -0.035618959115208133 0.029042323488626669 0 -0.037582857531597333 0.029872409324669724 0 -0.037083353229203905 0.028319920927885014 0 -0.036508238258416113 0.029122004537519973 0 -0.037083353229203905 0.028319920927885014 0 -0.036170883199379389 0.028267327026769727 0 -0.036508238258416113 0.029122004537519973 0 -0.036300861796951925 0.030488553908095628 0 -0.037582857531597333 0.029872409324669724 0 -0.036508238258416113 0.029122004537519973 0 -0.036108868746441911 0.029803083095955526 0 -0.035708227435567418 0.029355514354048925 0 -0.036300861796951925 0.030488553908095628 0 -0.036508238258416113 0.029122004537519973 0 -0.035618959115208133 0.029042323488626669 0 -0.034864315069295874 0.030666262076174143 0 -0.035175904860310518 0.029763639454555721 0 -0.034813691701081256 0.029820472688974514 0 -0.035175904860310518 0.029763639454555721 0 -0.034813691701081256 0.029820472688974514 0 -0.035202617431391865 0.029103373814790098 0 -0.035708227435567418 0.029355514354048925 0 -0.035280676497265073 0.028732779350437474 0 -0.035618959115208133 0.029042323488626669 0 -0.035498609815309383 0.028228952110425663 0 -0.035772227731044409 0.028162279665774979 0 -0.036170883199379389 0.028267327026769727 0 -0.035618959115208133 0.029042323488626669 0 -0.035772227731044409 0.028162279665774979 0 -0.036170883199379389 0.028267327026769727 0 -0.035772227731044409 0.028162279665774979 0 -0.036008562754611798 0.02774716532916369 0 -0.035772227731044409 0.028162279665774979 0 -0.036008562754611798 0.02774716532916369 0 -0.035713547219581858 0.027730659390250417 0 -0.036008562754611798 0.02774716532916369 0 -0.035952010169584152 0.027479540076048234 0 -0.036204321231236347 0.027488933975009133 0 -0.036008562754611798 0.02774716532916369 0 -0.035713547219581858 0.027730659390250417 0 -0.035952010169584152 0.027479540076048234 0 -0.035713547219581858 0.027730659390250417 0 -0.035618534951008834 0.027065592845868312 0 -0.035952010169584152 0.027479540076048234 0 -0.035498609815309383 0.028228952110425663 0 -0.035772227731044409 0.028162279665774979 0 -0.035713547219581858 0.027730659390250417 0 -0.035280676497265073 0.028732779350437474 0 -0.035082970663343795 0.028394959832855195 0 -0.035498609815309383 0.028228952110425663 0 -0.035713547219581858 0.027730659390250417 0 -0.0353726942562788 0.027747787561289722 0 -0.035713547219581858 0.027730659390250417 0 -0.0353726942562788 0.027747787561289722 0 -0.035618534951008834 0.027065592845868312 0 -0.034999679132692571 0.026325356393828714 0 -0.0353726942562788 0.027747787561289722 0 -0.035618534951008834 0.027065592845868312 0 -0.034999679132692571 0.026325356393828714 0 -0.034999644214448448 0.027773706278884355 0 -0.0353726942562788 0.027747787561289722 0 -0.034999644214448448 0.027773706278884355 0 -0.0353726942562788 0.027747787561289722 0 -0.034998973330190655 0.029223548243944322 0 -0.035202617431391865 0.029103373814790098 0 -0.034998973330190655 0.029223548243944322 0 -0.034742743991192003 0.02967078598574573 0 -0.035202617431391865 0.029103373814790098 0 -0.0353726942562788 0.027747787561289722 0 -0.034998973330190655 0.029223548243944322 0 -0.034813691701081256 0.029820472688974514 0 -0.035202617431391865 0.029103373814790098 0 -0.034742743991192003 0.02967078598574573 0 -0.034344547560222982 0.03057021851245087 0 -0.034813691701081256 0.029820472688974514 0 -0.034742743991192003 0.02967078598574573 0 -0.034999360637923374 0.029225837961610875 0 -0.034940402966841526 0.030039758910437069 0 -0.03499993791869184 0.022550691277840873 0 -0.036655086267535247 0.023446253378092429 0 -0.036210653098966185 0.021637679583132518 0 -0.036655086267535247 0.023446253378092429 0 -0.03744488134944482 0.022144130740173504 0 -0.036210653098966185 0.021637679583132518 0 -0.03499993791869184 0.022550691277840873 0 -0.036655086267535247 0.023446253378092429 0 -0.034999926171609318 0.024436568955221314 0 -0.034999963987742889 0.026322565217055078 0 -0.034999926171609318 0.024436568955221314 0 -0.036656528264566189 0.025384247878037208 0 -0.035000660296800316 0.026322876730532692 0 -0.035882809247675035 0.026153978721136832 0 -0.036655086267535247 0.023446253378092429 0 -0.034999926171609318 0.024436568955221314 0 -0.036656528264566189 0.025384247878037208 0 -0.036655086267535247 0.023446253378092429 0 -0.036656528264566189 0.025384247878037208 0 -0.038217347167716166 0.024429029836653307 0 -0.035882809247675035 0.026153978721136832 0 -0.036805539636155245 0.025883884404168077 0 -0.035618534951008834 0.027065592845868312 0 -0.035952010169584152 0.027479540076048234 0 -0.036064154656135917 0.027383621011010613 0 -0.035952010169584152 0.027479540076048234 0 -0.036064154656135917 0.027383621011010613 0 -0.036204321231236347 0.027488933975009133 0 -0.038217347167716166 0.024429029836653307 0 -0.038176556041634807 0.023101465688651294 0 -0.039643526924454643 0.023424672910769655 0 -0.036655086267535247 0.023446253378092429 0 -0.038217347167716166 0.024429029836653307 0 -0.038176556041634807 0.023101465688651294 0 -0.036655086267535247 0.023446253378092429 0 -0.038176556041634807 0.023101465688651294 0 -0.03744488134944482 0.022144130740173504 0 -0.038176556041634807 0.023101465688651294 0 -0.03744488134944482 0.022144130740173504 0 -0.038996934938741297 0.022154511743734152 0 -0.03744488134944482 0.022144130740173504 0 -0.038996934938741297 0.022154511743734152 0 -0.038293706082683426 0.021213698824257349 0 -0.038996934938741297 0.022154511743734152 0 -0.040269329387895091 0.021923226701819291 0 -0.039813354249741639 0.020914006200920803 0 -0.040269329387895091 0.021923226701819291 0 -0.039643526924454643 0.023424672910769655 0 -0.040712889737922767 0.022375635299580192 0 -0.037408609009827259 0.025634768734577418 0 -0.037413216681707745 0.025461816549211608 0 -0.038176556041634807 0.023101465688651294 0 -0.038996934938741297 0.022154511743734152 0 -0.039643526924454643 0.023424672910769655 0 -0.038996934938741297 0.022154511743734152 0 -0.040269329387895091 0.021923226701819291 0 -0.039643526924454643 0.023424672910769655 0 -0.036064154656135917 0.027383621011010613 0 -0.036292413755913897 0.027892066101275453 0 -0.036204321231236347 0.027488933975009133 0 -0.036805539636155245 0.025883884404168077 0 -0.037408609009827259 0.025634768734577418 0 -0.036204321231236347 0.027488933975009133 0 -0.036211045269538965 0.027449449439614547 0 -0.036079530171912358 0.027627127256061802 0 -0.036095707915538823 0.027405196179691903 0 -0.036211045269538965 0.027449449439614547 0 -0.036079530171912358 0.027627127256061802 0 -0.036272036638305631 0.027287520603888539 0 -0.036095707915538823 0.027405196179691903 0 -0.036211045269538965 0.027449449439614547 0 -0.035943828900344678 0.027151254165738423 0 -0.036272036638305631 0.027287520603888539 0 -0.036095707915538823 0.027405196179691903 0 -0.036095707915538823 0.027405196179691903 0 -0.036079530171912358 0.027627127256061802 0 -0.03588888069343036 0.027404288049467485 0 -0.036292413755913897 0.027892066101275453 0 -0.036079530171912358 0.027627127256061802 0 -0.035608725027485563 0.028052064380080698 0 -0.036292413755913897 0.027892066101275453 0 -0.036204321231236347 0.027488933975009133 0 -0.036079530171912358 0.027627127256061802 0 -0.036292413755913897 0.027892066101275453 0 -0.035608725027485563 0.028052064380080698 0 -0.035481403051912656 0.028889599882662098 0 -0.035608725027485563 0.028052064380080698 0 -0.034941697364356497 0.028046677614220049 0 -0.035481403051912656 0.028889599882662098 0 -0.035608725027485563 0.028052064380080698 0 -0.035423738498505289 0.027383080210648381 0 -0.034941697364356497 0.028046677614220049 0 -0.036079530171912358 0.027627127256061802 0 -0.035423738498505289 0.027383080210648381 0 -0.03588888069343036 0.027404288049467485 0 -0.036079530171912358 0.027627127256061802 0 -0.035608725027485563 0.028052064380080698 0 -0.035423738498505289 0.027383080210648381 0 -0.035943828900344678 0.027151254165738423 0 -0.035423738498505289 0.027383080210648381 0 -0.03588888069343036 0.027404288049467485 0 -0.035911521089948009 0.026927486825942121 0 -0.035943828900344678 0.027151254165738423 0 -0.035423738498505289 0.027383080210648381 0 -0.035943828900344678 0.027151254165738423 0 -0.036095707915538823 0.027405196179691903 0 -0.03588888069343036 0.027404288049467485 0 -0.03458635708180282 0.026193027012892205 0 -0.035423738498505289 0.027383080210648381 0 -0.033988738236732922 0.027205927473502933 0 -0.035423738498505289 0.027383080210648381 0 -0.034941697364356497 0.028046677614220049 0 -0.033988738236732922 0.027205927473502933 0 -0.034941697364356497 0.028046677614220049 0 -0.035481403051912656 0.028889599882662098 0 -0.033983327000048628 0.028579006681164719 0 -0.034941697364356497 0.028046677614220049 0 -0.033988738236732922 0.027205927473502933 0 -0.033983327000048628 0.028579006681164719 0 -0.037413216681707745 0.025461816549211608 0 -0.036636492811868801 0.025333990906634178 0 -0.035481403051912656 0.028889599882662098 0 -0.033983327000048628 0.028579006681164719 0 -0.033923462379788043 0.029768146348179016 0 -0.040269329387895091 0.021923226701819291 0 -0.040712889737922767 0.022375635299580192 0 -0.041080616134174672 0.021493440074361485 0 -0.040712889737922767 0.022375635299580192 0 -0.041080616134174672 0.021493440074361485 0 -0.040781188333779264 0.021496693824238907 0 -0.041080616134174672 0.021493440074361485 0 -0.040781188333779264 0.021496693824238907 0 -0.040584112916769458 0.021723161348153726 0 -0.041080616134174672 0.021493440074361485 0 -0.04071900123531396 0.022405773805795174 0 -0.040584112916769458 0.021723161348153726 0 -0.040269329387895091 0.021923226701819291 0 -0.041080616134174672 0.021493440074361485 0 -0.039813354249741639 0.020914006200920803 0 -0.041080616134174672 0.021493440074361485 0 -0.040864721831886379 0.020384649538123155 0 -0.039813354249741639 0.020914006200920803 0 -0.040864721831886379 0.020384649538123155 0 -0.040871507210536923 0.019450856709031749 0 -0.040203450185636952 0.019956521122920599 0 -0.040864721831886379 0.020384649538123155 0 -0.042172220197689098 0.020274164276625203 0 -0.041497465775711 0.019714325581093595 0 -0.041080616134174672 0.021493440074361485 0 -0.040864721831886379 0.020384649538123155 0 -0.042172220197689098 0.020274164276625203 0 -0.0397454137846232 0.019948372038180055 0 -0.039630698320635691 0.019403855762418942 0 -0.042172220197689098 0.020274164276625203 0 -0.042079770388460051 0.019406451371790139 0 -0.041497465775711 0.019714325581093595 0 -0.042079770388460051 0.019406451371790139 0 -0.041497465775711 0.019714325581093595 0 -0.041513361691547956 0.01909759824044167 0 -0.042079770388460051 0.019406451371790139 0 -0.041513361691547956 0.01909759824044167 0 -0.042053928670700076 0.018756197739312735 0 -0.041513361691547956 0.01909759824044167 0 -0.042053928670700076 0.018756197739312735 0 -0.041451762418056051 0.01829552483310054 0 -0.042053928670700076 0.018756197739312735 0 -0.041451762418056051 0.01829552483310054 0 -0.042238104201140159 0.017858565716407895 0 -0.040801431573174056 0.0179298435198533 0 -0.040831214920498168 0.018734875722940452 0 -0.03998921457816506 0.018225335356216205 0 -0.041451762418056051 0.01829552483310054 0 -0.040801431573174056 0.0179298435198533 0 -0.04125192668776826 0.017433846853793386 0 -0.041451762418056051 0.01829552483310054 0 -0.040801431573174056 0.0179298435198533 0 -0.040831214920498168 0.018734875722940452 0 -0.041513361691547956 0.01909759824044167 0 -0.041451762418056051 0.01829552483310054 0 -0.040831214920498168 0.018734875722940452 0 -0.040831214920498168 0.018734875722940452 0 -0.040871507210536923 0.019450856709031749 0 -0.040221095219421285 0.019166883271259219 0 -0.041513361691547956 0.01909759824044167 0 -0.040831214920498168 0.018734875722940452 0 -0.040871507210536923 0.019450856709031749 0 -0.040864721831886379 0.020384649538123155 0 -0.041497465775711 0.019714325581093595 0 -0.040871507210536923 0.019450856709031749 0 -0.041497465775711 0.019714325581093595 0 -0.041513361691547956 0.01909759824044167 0 -0.040871507210536923 0.019450856709031749 0 -0.040871507210536923 0.019450856709031749 0 -0.040221095219421285 0.019166883271259219 0 -0.040203450185636952 0.019956521122920599 0 -0.040221095219421285 0.019166883271259219 0 -0.03998921457816506 0.018225335356216205 0 -0.039397486177353266 0.019353971307558088 0 -0.040221095219421285 0.019166883271259219 0 -0.039397486177353266 0.019353971307558088 0 -0.040203450185636952 0.019956521122920599 0 -0.040831214920498168 0.018734875722940452 0 -0.040221095219421285 0.019166883271259219 0 -0.03998921457816506 0.018225335356216205 0 -0.040801431573174056 0.0179298435198533 0 -0.03998921457816506 0.018225335356216205 0 -0.040218882830156913 0.017617491777891583 0 -0.03998921457816506 0.018225335356216205 0 -0.038993836615921727 0.01811737157620371 0 -0.039584934846896618 0.017542533968950464 0 -0.03998921457816506 0.018225335356216205 0 -0.038993836615921727 0.01811737157620371 0 -0.039397486177353266 0.019353971307558088 0 -0.038993836615921727 0.01811737157620371 0 -0.039397486177353266 0.019353971307558088 0 -0.038172724114648365 0.018858536112143838 0 -0.039397486177353266 0.019353971307558088 0 -0.039813354249741639 0.020914006200920803 0 -0.038485120620936966 0.020016326859797071 0 -0.039813354249741639 0.020914006200920803 0 -0.038293706082683426 0.021213698824257349 0 -0.038485120620936966 0.020016326859797071 0 -0.040864721831886379 0.020384649538123155 0 -0.040203450185636952 0.019956521122920599 0 -0.039813354249741639 0.020914006200920803 0 -0.039397486177353266 0.019353971307558088 0 -0.040203450185636952 0.019956521122920599 0 -0.039813354249741639 0.020914006200920803 0 -0.038996934938741297 0.022154511743734152 0 -0.039813354249741639 0.020914006200920803 0 -0.038293706082683426 0.021213698824257349 0 -0.03744488134944482 0.022144130740173504 0 -0.038293706082683426 0.021213698824257349 0 -0.037145373355821701 0.02020960392551932 0 -0.038293706082683426 0.021213698824257349 0 -0.037145373355821701 0.02020960392551932 0 -0.038485120620936966 0.020016326859797071 0 -0.039397486177353266 0.019353971307558088 0 -0.038485120620936966 0.020016326859797071 0 -0.038172724114648365 0.018858536112143838 0 -0.037145373355821701 0.02020960392551932 0 -0.038485120620936966 0.020016326859797071 0 -0.038172724114648365 0.018858536112143838 0 -0.038993836615921727 0.01811737157620371 0 -0.038172724114648365 0.018858536112143838 0 -0.038015055269773015 0.017399754538827882 0 -0.038172724114648365 0.018858536112143838 0 -0.037069227199155681 0.018237808078800648 0 -0.038015055269773015 0.017399754538827882 0 -0.037145373355821701 0.02020960392551932 0 -0.038172724114648365 0.018858536112143838 0 -0.037069227199155681 0.018237808078800648 0 -0.037145373355821701 0.02020960392551932 0 -0.037069227199155681 0.018237808078800648 0 -0.036225069734473384 0.019093404995890698 0 -0.037069227199155681 0.018237808078800648 0 -0.036225069734473384 0.019093404995890698 0 -0.035993675926087598 0.017757723490714687 0 -0.037069227199155681 0.018237808078800648 0 -0.035993675926087598 0.017757723490714687 0 -0.036652154737546634 0.016919423622404735 0 -0.035993675926087598 0.017757723490714687 0 -0.034999919476168095 0.01877894769663694 0 -0.034999943863207143 0.016893077953374101 0 -0.036225069734473384 0.019093404995890698 0 -0.035993675926087598 0.017757723490714687 0 -0.034999919476168095 0.01877894769663694 0 -0.036225069734473384 0.019093404995890698 0 -0.034999919476168095 0.01877894769663694 0 -0.03499995937015507 0.020664807588767684 0 -0.037145373355821701 0.02020960392551932 0 -0.036225069734473384 0.019093404995890698 0 -0.03499995937015507 0.020664807588767684 0 -0.037145373355821701 0.02020960392551932 0 -0.03499995937015507 0.020664807588767684 0 -0.036210653098966185 0.021637679583132518 0 -0.03744488134944482 0.022144130740173504 0 -0.037145373355821701 0.02020960392551932 0 -0.036210653098966185 0.021637679583132518 0 -0.03499993791869184 0.022550691277840873 0 -0.03499995937015507 0.020664807588767684 0 -0.036210653098966185 0.021637679583132518 0 -0.026913834078014055 0.028433925033041423 0 -0.028537118019772857 0.028381447311842202 0 -0.026493037651107047 0.026133304411188881 0 -0.026913834078014055 0.028433925033041423 0 -0.026656644434750611 0.02902240011961997 0 -0.026067064962190811 0.026681437682953162 0 -0.022044502211646312 0.027462696088686477 0 -0.020944982147556381 0.030731999010288395 0 -0.022044502211646312 0.027462696088686477 0 -0.02280533113625783 0.027334826151473965 0 -0.026913834078014055 0.028433925033041423 0 -0.026656644434750611 0.02902240011961997 0 -0.027760292710528215 0.028637495526958247 0 -0.02676370063323508 0.028992439247056075 0 -0.027760292710528215 0.028637495526958247 0 -0.027806588356940318 0.029594241254898207 0 -0.029478354258206062 0.029284883092222134 0 -0.029357711279149681 0.028454466505513677 0 -0.030217963003247538 0.028628575385660195 0 -0.028537118019772857 0.028381447311842202 0 -0.027760292710528215 0.028637495526958247 0 -0.028621954774473331 0.029471119855858836 0 -0.026913834078014055 0.028433925033041423 0 -0.028537118019772857 0.028381447311842202 0 -0.027760292710528215 0.028637495526958247 0 -0.027806588356940318 0.029594241254898207 0 -0.028621954774473331 0.029471119855858836 0 -0.028742882810059305 0.030198833069483583 0 -0.028621954774473331 0.029471119855858836 0 -0.028742882810059305 0.030198833069483583 0 -0.030533682528613802 0.03067510935725121 0 -0.028537118019772857 0.028381447311842202 0 -0.028621954774473331 0.029471119855858836 0 -0.030533682528613802 0.03067510935725121 0 -0.027760292710528215 0.028637495526958247 0 -0.027806588356940318 0.029594241254898207 0 -0.028621954774473331 0.029471119855858836 0 -0.028742882810059305 0.030198833069483583 0 -0.027172148291253816 0.030687813563427029 0 -0.028674651632375692 0.031076719772729421 0 -0.027806588356940318 0.029594241254898207 0 -0.028742882810059305 0.030198833069483583 0 -0.027172148291253816 0.030687813563427029 0 -0.018730731298107119 0.020609259872922683 0 -0.018499050521228123 0.020982317024604329 0 -0.018847740949985859 0.021109360055593173 0 -0.02676370063323508 0.028992439247056075 0 -0.027806588356940318 0.029594241254898207 0 -0.027172148291253816 0.030687813563427029 0 -0.022044502211646312 0.027462696088686477 0 -0.024617091211450368 0.025526238556675317 0 -0.022044502211646312 0.027462696088686477 0 -0.019063211705239485 0.02798641701132543 0 -0.018730731298107119 0.020609259872922683 0 -0.018499050521228123 0.020982317024604329 0 -0.018138038579433614 0.020784556863347695 0 -0.018499050521228123 0.020982317024604329 0 -0.018138038579433614 0.020784556863347695 0 -0.018276233653379634 0.021248409199729514 0 -0.018138038579433614 0.020784556863347695 0 -0.017914377940542771 0.021158363510215446 0 -0.018276233653379634 0.021248409199729514 0 -0.019063211705239485 0.02798641701132543 0 -0.015738038339460404 0.029562235337780136 0 -0.018138038579433614 0.020784556863347695 0 -0.017529307708644495 0.020968334628331468 0 -0.017914377940542771 0.021158363510215446 0 -0.018986915482900567 0.029604669996415797 0 -0.017899444485004624 0.029970813184636156 0 -0.018844696947732463 0.028946146680610161 0 -0.015738038339460404 0.029562235337780136 0 -0.01693799300195779 0.031208167018417131 0 -0.011338840431900848 0.033560137830360146 0 -0.011031746640949597 0.033545487544474471 0 -0.011242753375241629 0.033899303485799441 0 -0.011338840431900848 0.033560137830360146 0 -0.011276380407234523 0.033134736562691683 0 -0.011031746640949597 0.033545487544474471 0 -0.02004363990506151 0.029230493085988199 0 -0.018986915482900567 0.029604669996415797 0 -0.018844696947732463 0.028946146680610161 0 -0.01693799300195779 0.031208167018417131 0 -0.020944982147556381 0.030731999010288395 0 -0.02004363990506151 0.029230493085988199 0 -0.018844696947732463 0.028946146680610161 0 -0.019758683991360378 0.027936505594571892 0 -0.011031746640949597 0.033545487544474471 0 -0.011020547632483476 0.033876025761897167 0 -0.01083334367626272 0.03387737474336034 0 -0.011020547632483476 0.033876025761897167 0 -0.010884846708392376 0.034092856144424206 0 -0.01083334367626272 0.03387737474336034 0 -0.020535732167326046 0.031692664266728447 0 -0.020944982147556381 0.030731999010288395 0 -0.011031746640949597 0.033545487544474471 0 -0.011020547632483476 0.033876025761897167 0 -0.011242753375241629 0.033899303485799441 0 -0.011020547632483476 0.033876025761897167 0 -0.011242753375241629 0.033899303485799441 0 -0.011075139270836042 0.034099057233081848 0 -0.011463592057745695 0.03429208914126592 0 -0.011057311220694704 0.034298081990895957 0 -0.011255593402678185 0.03413654239380623 0 -0.011431216768572573 0.034083615295126282 0 -0.011242753375241629 0.033899303485799441 0 -0.011255593402678185 0.03413654239380623 0 -0.011242753375241629 0.033899303485799441 0 -0.011255593402678185 0.03413654239380623 0 -0.011075139270836042 0.034099057233081848 0 -0.011057311220694704 0.034298081990895957 0 -0.011255593402678185 0.03413654239380623 0 -0.011075139270836042 0.034099057233081848 0 -0.020687219536572959 0.03175193158229124 0 -0.020560469646930632 0.03160169954551309 0 -0.02040935993543775 0.030490533452011821 0 -0.02059905903342435 0.031725078386811441 0 -0.020512932746372805 0.031620261971796654 0 -0.020715465005566362 0.032291705727750072 0 -0.020535732167326046 0.031692664266728447 0 -0.020868171700757041 0.03157156956144766 0 -0.011020547632483476 0.033876025761897167 0 -0.010884846708392376 0.034092856144424206 0 -0.011075139270836042 0.034099057233081848 0 -0.011057311220694704 0.034298081990895957 0 -0.010884846708392376 0.034092856144424206 0 -0.011075139270836042 0.034099057233081848 0 -0.020535732167326046 0.031692664266728447 0 -0.02032561780187802 0.032556637833081492 0 -0.020888445662268905 0.033133315095311922 0 -0.020174952264549587 0.032272916351870455 0 -0.020296754482954052 0.032844006349758995 0 -0.018407548011527101 0.033033974463137897 0 -0.020535732167326046 0.031692664266728447 0 -0.020868171700757041 0.03157156956144766 0 -0.02032561780187802 0.032556637833081492 0 -0.021630514489968056 0.032741484557494427 0 -0.0212867991521676 0.033013062467761055 0 -0.021759515391719719 0.033188986190206653 0 -0.028299460461293138 0.02794578263785984 0 -0.029433875768335036 0.027958731237005176 0 -0.029096151776974399 0.027032698121418001 0 -0.0214545782091661 0.033513296924280102 0 -0.0212867991521676 0.033013062467761055 0 -0.021759515391719719 0.033188986190206653 0 -0.021989386669576137 0.032884746106152163 0 -0.021630514489968056 0.032741484557494427 0 -0.021759515391719719 0.033188986190206653 0 -0.021989386669576137 0.032884746106152163 0 -0.021759515391719719 0.033188986190206653 0 -0.022418340118549616 0.033106207972728723 0 -0.021759515391719719 0.033188986190206653 0 -0.021743771870150724 0.033849585104680634 0 -0.022418340118549616 0.033106207972728723 0 -0.022144418691040831 0.030728767370288439 0 -0.024317653563608311 0.030973995113819906 0 -0.0214545782091661 0.033513296924280102 0 -0.021759515391719719 0.033188986190206653 0 -0.021743771870150724 0.033849585104680634 0 -0.020868171700757041 0.03157156956144766 0 -0.022144418691040831 0.030728767370288439 0 -0.020868171700757041 0.03157156956144766 0 -0.021423105758247948 0.030683100263278699 0 -0.022076405251961816 0.029931791392000525 0 -0.021423105758247948 0.030683100263278699 0 -0.026913834078014055 0.028433925033041423 0 -0.026213912460931119 0.026508817765610773 0 -0.026067064962190811 0.026681437682953162 0 -0.020560469646930632 0.03160169954551309 0 -0.020261839923479723 0.030661134590957803 0 -0.02040935993543775 0.030490533452011821 0 -0.026347370758735323 0.03071821176876122 0 -0.022144418691040831 0.030728767370288439 0 -0.020739582426085264 0.031794647440225039 0 -0.020350563578068061 0.030570879080383865 0 -0.020024178924940763 0.030947868583826393 0 -0.026913834078014055 0.028433925033041423 0 -0.026229686835602724 0.026440276766450003 0 -0.026493037651107047 0.026133304411188881 0 -0.021423105758247948 0.030683100263278699 0 -0.022144418691040831 0.030728767370288439 0 -0.021423105758247948 0.030683100263278699 0 -0.020944982147556381 0.030731999010288395 0 -0.029433875768335036 0.027958731237005176 0 -0.030079301712197255 0.02747861148717836 0 -0.030217963003247538 0.028628575385660195 0 -0.028299460461293138 0.02794578263785984 0 -0.029357711279149681 0.028454466505513677 0 -0.029433875768335036 0.027958731237005176 0 -0.029478354258206062 0.029284883092222134 0 -0.028299460461293138 0.02794578263785984 0 -0.029357711279149681 0.028454466505513677 0 -0.029357711279149681 0.028454466505513677 0 -0.029433875768335036 0.027958731237005176 0 -0.030217963003247538 0.028628575385660195 0 -0.029902301275270406 0.026117414705550467 0 -0.029096151776974399 0.027032698121418001 0 -0.030079301712197255 0.02747861148717836 0 -0.029433875768335036 0.027958731237005176 0 -0.029096151776974399 0.027032698121418001 0 -0.030079301712197255 0.02747861148717836 0 -0.029902301275270406 0.026117414705550467 0 -0.030079301712197255 0.02747861148717836 0 -0.030983192097576252 0.02711988636948608 0 -0.030079301712197255 0.02747861148717836 0 -0.030983192097576252 0.02711988636948608 0 -0.030837061034286978 0.027998112329191509 0 -0.030983192097576252 0.02711988636948608 0 -0.031879969862880907 0.027934867850687373 0 -0.030837061034286978 0.027998112329191509 0 -0.030983192097576252 0.02711988636948608 0 -0.031879969862880907 0.027934867850687373 0 -0.032413145678635687 0.026864365131075423 0 -0.031879969862880907 0.027934867850687373 0 -0.03254253175351153 0.02903334813347417 0 -0.031257716931735888 0.028901087314756799 0 -0.031879969862880907 0.027934867850687373 0 -0.030837061034286978 0.027998112329191509 0 -0.031257716931735888 0.028901087314756799 0 -0.030217963003247538 0.028628575385660195 0 -0.030837061034286978 0.027998112329191509 0 -0.031257716931735888 0.028901087314756799 0 -0.030079301712197255 0.02747861148717836 0 -0.030217963003247538 0.028628575385660195 0 -0.030837061034286978 0.027998112329191509 0 -0.033988738236732922 0.027205927473502933 0 -0.032413145678635687 0.026864365131075423 0 -0.033007918711612814 0.027858259284552604 0 -0.031879969862880907 0.027934867850687373 0 -0.032413145678635687 0.026864365131075423 0 -0.033007918711612814 0.027858259284552604 0 -0.031879969862880907 0.027934867850687373 0 -0.033007918711612814 0.027858259284552604 0 -0.03254253175351153 0.02903334813347417 0 -0.033007918711612814 0.027858259284552604 0 -0.033983327000048628 0.028579006681164719 0 -0.03254253175351153 0.02903334813347417 0 -0.033988738236732922 0.027205927473502933 0 -0.033007918711612814 0.027858259284552604 0 -0.033983327000048628 0.028579006681164719 0 -0.033983327000048628 0.028579006681164719 0 -0.03254253175351153 0.02903334813347417 0 -0.033923462379788043 0.029768146348179016 0 -0.039341024631317181 0.021135551262006461 0 -0.040781188333779264 0.021496693824238907 0 -0.04007008450371391 0.021639901067610851 0 -0.034985935622403451 0.025171581039405332 0 -0.036636492811868801 0.025333990906634178 0 -0.03254253175351153 0.02903334813347417 0 -0.032243187260090553 0.030506817915991587 0 -0.033923462379788043 0.029768146348179016 0 -0.040781188333779264 0.021496693824238907 0 -0.040584112916769458 0.021723161348153726 0 -0.04007008450371391 0.021639901067610851 0 -0.030217963003247538 0.028628575385660195 0 -0.030565672322300716 0.029500191428855502 0 -0.031257716931735888 0.028901087314756799 0 -0.029478354258206062 0.029284883092222134 0 -0.030217963003247538 0.028628575385660195 0 -0.030565672322300716 0.029500191428855502 0 -0.03254253175351153 0.02903334813347417 0 -0.031257716931735888 0.028901087314756799 0 -0.0314270148481633 0.029766629825599383 0 -0.030565672322300716 0.029500191428855502 0 -0.031257716931735888 0.028901087314756799 0 -0.0314270148481633 0.029766629825599383 0 -0.032243187260090553 0.030506817915991587 0 -0.0314270148481633 0.029766629825599383 0 -0.030533682528613802 0.03067510935725121 0 -0.03254253175351153 0.02903334813347417 0 -0.032243187260090553 0.030506817915991587 0 -0.0314270148481633 0.029766629825599383 0 -0.030565672322300716 0.029500191428855502 0 -0.0314270148481633 0.029766629825599383 0 -0.030533682528613802 0.03067510935725121 0 -0.026347370758735323 0.03071821176876122 0 -0.027862376462225249 0.031172848954974266 0 -0.028742882810059305 0.030198833069483583 0 -0.030533682528613802 0.03067510935725121 0 -0.029569946722781439 0.030824335087997375 0 -0.029478354258206062 0.029284883092222134 0 -0.030565672322300716 0.029500191428855502 0 -0.030533682528613802 0.03067510935725121 0 -0.030533682528613802 0.03067510935725121 0 -0.030302874233142669 0.031340322560856837 0 -0.029569946722781439 0.030824335087997375 0 -0.030302874233142669 0.031340322560856837 0 -0.029569946722781439 0.030824335087997375 0 -0.028674651632375692 0.031076719772729421 0 -0.039341024631317181 0.021135551262006461 0 -0.036793427718803846 0.021828977741728536 0 -0.039337347687943107 0.021989753461813664 0 -0.036793427718803846 0.021828977741728536 0 -0.036834844449853507 0.02263895998861477 0 -0.039337347687943107 0.021989753461813664 0 -0.032243187260090553 0.030506817915991587 0 -0.030533682528613802 0.03067510935725121 0 -0.030302874233142669 0.031340322560856837 0 -0.035743459454449983 0.021913042476310547 0 -0.03757357732279732 0.021728071496406143 0 -0.034985935622403451 0.025171581039405332 0 -0.032239821043452119 0.024750208858690021 0 -0.038593030356383839 0.022013639604994893 0 -0.038954617323128514 0.022144036588139217 0 -0.039337347687943107 0.021989753461813664 0 -0.038954617323128514 0.022144036588139217 0 -0.039182873707035479 0.022139856572057096 0 -0.039337347687943107 0.021989753461813664 0 -0.038954617323128514 0.022144036588139217 0 -0.039182873707035479 0.022139856572057096 0 -0.039168382673497579 0.022276466249122346 0 -0.039182873707035479 0.022139856572057096 0 -0.039168382673497579 0.022276466249122346 0 -0.039332221181675411 0.022104230222333206 0 -0.038954617323128514 0.022144036588139217 0 -0.039168382673497579 0.022276466249122346 0 -0.03898717481537925 0.022434712784098428 0 -0.038954617323128514 0.022144036588139217 0 -0.038703652116751863 0.022268586285342267 0 -0.03898717481537925 0.022434712784098428 0 -0.038703652116751863 0.022268586285342267 0 -0.038486697438188056 0.022196158835543992 0 -0.038374157451217618 0.022394124588314544 0 -0.038593030356383839 0.022013639604994893 0 -0.038486697438188056 0.022196158835543992 0 -0.038681212861673017 0.022155683457180504 0 -0.038954617323128514 0.022144036588139217 0 -0.038703652116751863 0.022268586285342267 0 -0.038681212861673017 0.022155683457180504 0 -0.038593030356383839 0.022013639604994893 0 -0.038954617323128514 0.022144036588139217 0 -0.038681212861673017 0.022155683457180504 0 -0.038703652116751863 0.022268586285342267 0 -0.038486697438188056 0.022196158835543992 0 -0.038681212861673017 0.022155683457180504 0 -0.040584112916769458 0.021723161348153726 0 -0.040104815685471092 0.021977253284028837 0 -0.04007008450371391 0.021639901067610851 0 -0.040584112916769458 0.021723161348153726 0 -0.040104815685471092 0.021977253284028837 0 -0.04037269226074016 0.022165329713513742 0 -0.039740703693467813 0.022000754839267719 0 -0.04007008450371391 0.021639901067610851 0 -0.039337347687943107 0.021989753461813664 0 -0.039740703693467813 0.022000754839267719 0 -0.039332221181675411 0.022104230222333206 0 -0.039883893670532654 0.022263486874915427 0 -0.040104815685471092 0.021977253284028837 0 -0.039740703693467813 0.022000754839267719 0 -0.04007008450371391 0.021639901067610851 0 -0.040104815685471092 0.021977253284028837 0 -0.039740703693467813 0.022000754839267719 0 -0.039883893670532654 0.022263486874915427 0 -0.039341024631317181 0.021135551262006461 0 -0.04007008450371391 0.021639901067610851 0 -0.039337347687943107 0.021989753461813664 0 -0.039740703693467813 0.022000754839267719 0 -0.039337347687943107 0.021989753461813664 0 -0.039332221181675411 0.022104230222333206 0 -0.039182873707035479 0.022139856572057096 0 -0.039337347687943107 0.021989753461813664 0 -0.039332221181675411 0.022104230222333206 0 -0.039332221181675411 0.022104230222333206 0 -0.039883893670532654 0.022263486874915427 0 -0.039927500531154986 0.022761254970561914 0 -0.039168382673497579 0.022276466249122346 0 -0.039332221181675411 0.022104230222333206 0 -0.039419649026403387 0.022396313364254232 0 -0.039168382673497579 0.022276466249122346 0 -0.039419649026403387 0.022396313364254232 0 -0.03898717481537925 0.022434712784098428 0 -0.039599558254224412 0.020433157036379691 0 -0.039169970966626153 0.019389158830312073 0 -0.039883893670532654 0.022263486874915427 0 -0.040098357042673484 0.022506159645350948 0 -0.039927500531154986 0.022761254970561914 0 -0.039120051200075723 0.019538444279663933 0 -0.039169970966626153 0.019389158830312073 0 -0.04071900123531396 0.022405773805795174 0 -0.040584112916769458 0.021723161348153726 0 -0.04037269226074016 0.022165329713513742 0 -0.04071900123531396 0.022405773805795174 0 -0.040098357042673484 0.022506159645350948 0 -0.040194347182305704 0.023112867443852863 0 -0.040114310668577291 0.022238550083958756 0 -0.040098357042673484 0.022506159645350948 0 -0.04037269226074016 0.022165329713513742 0 -0.040104815685471092 0.021977253284028837 0 -0.040114310668577291 0.022238550083958756 0 -0.04037269226074016 0.022165329713513742 0 -0.040104815685471092 0.021977253284028837 0 -0.039883893670532654 0.022263486874915427 0 -0.040114310668577291 0.022238550083958756 0 -0.039883893670532654 0.022263486874915427 0 -0.040114310668577291 0.022238550083958756 0 -0.040098357042673484 0.022506159645350948 0 -0.04071900123531396 0.022405773805795174 0 -0.040098357042673484 0.022506159645350948 0 -0.04037269226074016 0.022165329713513742 0 -0.039630698320635691 0.019403855762418942 0 -0.039292376463040304 0.017411633536838542 0 -0.042172220197689098 0.020274164276625203 0 -0.042079770388460051 0.019406451371790139 0 -0.042996947940028202 0.019134511259640857 0 -0.040098357042673484 0.022506159645350948 0 -0.040194347182305704 0.023112867443852863 0 -0.039942411556144031 0.022707703577741652 0 -0.042079770388460051 0.019406451371790139 0 -0.042053928670700076 0.018756197739312735 0 -0.042996947940028202 0.019134511259640857 0 -0.039292376463040304 0.017411633536838542 0 -0.039169970966626153 0.019389158830312073 0 -0.039169970966626153 0.019389158830312073 0 -0.03835835325733427 0.017692793505168714 0 -0.037215390876957653 0.015078362342995547 0 -0.038094673309724672 0.016518274993116575 0 -0.040070093147745602 0.013801853784205783 0 -0.039419649026403387 0.022396313364254232 0 -0.03898717481537925 0.022434712784098428 0 -0.039036781763482964 0.022782203278066373 0 -0.039292376463040304 0.017411633536838542 0 -0.040304668667090607 0.013912822710699244 0 -0.037215390876957653 0.015078362342995547 0 -0.039074716215524476 0.012512665845523871 0 -0.040070093147745602 0.013801853784205783 0 -0.038032269375666526 0.014016534899651935 0 -0.039522892485536643 0.011969594202705209 0 -0.03813810072118487 0.011382227934277117 0 -0.042053928670700076 0.018756197739312735 0 -0.042996947940028202 0.019134511259640857 0 -0.042238104201140159 0.017858565716407895 0 -0.038032269375666526 0.014016534899651935 0 -0.03813810072118487 0.011382227934277117 0 -0.036694332272817279 0.011810100279983712 0 -0.039292376463040304 0.017411633536838542 0 -0.039034886152480609 0.015250197181994378 0 -0.038703652116751863 0.022268586285342267 0 -0.038583899607636356 0.022690316879739773 0 -0.03898717481537925 0.022434712784098428 0 -0.038703652116751863 0.022268586285342267 0 -0.038583899607636356 0.022690316879739773 0 -0.038374157451217618 0.022394124588314544 0 -0.038583899607636356 0.022690316879739773 0 -0.03898717481537925 0.022434712784098428 0 -0.039036781763482964 0.022782203278066373 0 -0.03835835325733427 0.017692793505168714 0 -0.036504679377721325 0.016153738419664922 0 -0.038583899607636356 0.022690316879739773 0 -0.039036781763482964 0.022782203278066373 0 -0.038633127351750826 0.023118968391618491 0 -0.039074716215524476 0.012512665845523871 0 -0.040070093147745602 0.013801853784205783 0 -0.041947822340313752 0.011085191513288919 0 -0.038583899607636356 0.022690316879739773 0 -0.038254472804599177 0.023055395505113714 0 -0.038633127351750826 0.023118968391618491 0 -0.028756490684092709 0.022363914226626043 0 -0.029650475951016917 0.021614813809691127 0 -0.018950903446566823 0.022809234486566337 0 -0.019352607095263503 0.022303974063336552 0 -0.019586684876478688 0.023085692528231134 0 -0.038583899607636356 0.022690316879739773 0 -0.038140458846421532 0.022642168673154852 0 -0.038254472804599177 0.023055395505113714 0 -0.018950903446566823 0.022809234486566337 0 -0.018723678748554101 0.022427368100769587 0 -0.019352607095263503 0.022303974063336552 0 -0.018950903446566823 0.022809234486566337 0 -0.018723678748554101 0.022427368100769587 0 -0.018485691233645976 0.022891216448125064 0 -0.018723678748554101 0.022427368100769587 0 -0.018824030856949916 0.021989850057069316 0 -0.019352607095263503 0.022303974063336552 0 -0.018824030856949916 0.021989850057069316 0 -0.019352607095263503 0.022303974063336552 0 -0.019180527924883291 0.021483299004189684 0 -0.018723678748554101 0.022427368100769587 0 -0.018824030856949916 0.021989850057069316 0 -0.018405952724145105 0.022162761122774377 0 -0.038583899607636356 0.022690316879739773 0 -0.038140458846421532 0.022642168673154852 0 -0.038374157451217618 0.022394124588314544 0 -0.038140458846421532 0.022642168673154852 0 -0.038374157451217618 0.022394124588314544 0 -0.037971092777079343 0.022144252867797434 0 -0.028756490684092709 0.022363914226626043 0 -0.027820892293560794 0.022849344068469331 0 -0.035743459454449983 0.021913042476310547 0 -0.027820892293560794 0.022849344068469331 0 -0.038486697438188056 0.022196158835543992 0 -0.038374157451217618 0.022394124588314544 0 -0.037971092777079343 0.022144252867797434 0 -0.038593030356383839 0.022013639604994893 0 -0.038486697438188056 0.022196158835543992 0 -0.037971092777079343 0.022144252867797434 0 -0.036834844449853507 0.02263895998861477 0 -0.03365283399658283 0.023261888523288581 0 -0.033586213095698439 0.022951476410353531 0 -0.018824030856949916 0.021989850057069316 0 -0.018738065987106426 0.021565857499785755 0 -0.019180527924883291 0.021483299004189684 0 -0.018824030856949916 0.021989850057069316 0 -0.018738065987106426 0.021565857499785755 0 -0.018424287548316438 0.021633961119670104 0 -0.024920115001368454 0.023460599201216303 0 -0.027585111294432699 0.023481103405412675 0 -0.018609322538894243 0.021776941741141927 0 -0.018986799337091399 0.021627270984174041 0 -0.018600178097808943 0.021372942837045328 0 -0.025582027315501087 0.023192107009320794 0 -0.027925063629789318 0.022717400505360207 0 -0.027815719350414443 0.022223151231982971 0 -0.024920115001368454 0.023460599201216303 0 -0.027820892293560794 0.022849344068469331 0 -0.027820892293560794 0.022849344068469331 0 -0.027585111294432699 0.023481103405412675 0 -0.027585111294432699 0.023481103405412675 0 -0.024617091211450368 0.025526238556675317 0 -0.018986799337091399 0.021627270984174041 0 -0.018600178097808943 0.021372942837045328 0 -0.018847740949985859 0.021109360055593173 0 -0.027568690122221396 0.03242255585161577 0 -0.027172148291253816 0.030687813563427029 0 -0.028674651632375692 0.031076719772729421 0 -0.018499050521228123 0.020982317024604329 0 -0.018600178097808943 0.021372942837045328 0 -0.018847740949985859 0.021109360055593173 0 -0.030302874233142669 0.031340322560856837 0 -0.027568690122221396 0.03242255585161577 0 -0.028674651632375692 0.031076719772729421 0 -0.036793427718803846 0.021828977741728536 0 -0.036834844449853507 0.02263895998861477 0 -0.033586213095698439 0.022951476410353531 0 -0.032239821043452119 0.024750208858690021 0 -0.027585111294432699 0.023481103405412675 0 -0.028742882810059305 0.030198833069483583 0 -0.029569946722781439 0.030824335087997375 0 -0.028674651632375692 0.031076719772729421 0 -0.018001805711512053 0.021509328099713995 0 -0.017613629239433687 0.021408435784296086 0 -0.017914377940542771 0.021158363510215446 0 -0.017529307708644495 0.020968334628331468 0 -0.017613629239433687 0.021408435784296086 0 -0.017914377940542771 0.021158363510215446 0 -0.018001805711512053 0.021509328099713995 0 -0.017914377940542771 0.021158363510215446 0 -0.018276233653379634 0.021248409199729514 0 -0.018499050521228123 0.020982317024604329 0 -0.018600178097808943 0.021372942837045328 0 -0.018276233653379634 0.021248409199729514 0 -0.018609322538894243 0.021776941741141927 0 -0.018600178097808943 0.021372942837045328 0 -0.018363426449326405 0.021541091507572812 0 -0.018600178097808943 0.021372942837045328 0 -0.018276233653379634 0.021248409199729514 0 -0.018363426449326405 0.021541091507572812 0 -0.018001805711512053 0.021509328099713995 0 -0.018276233653379634 0.021248409199729514 0 -0.018363426449326405 0.021541091507572812 0 -0.018001805711512053 0.021509328099713995 0 -0.018363426449326405 0.021541091507572812 0 -0.018334454880620653 0.021820700408881101 0 -0.024920115001368454 0.023460599201216303 0 -0.02269254986154708 0.023509781915018103 0 -0.018609322538894243 0.021776941741141927 0 -0.018363426449326405 0.021541091507572812 0 -0.018334454880620653 0.021820700408881101 0 -0.02269254986154708 0.023509781915018103 0 -0.020669700463929321 0.023523735516370357 0 -0.018001805711512053 0.021509328099713995 0 -0.018334454880620653 0.021820700408881101 0 -0.017663336977224772 0.021876337302297096 0 -0.018001805711512053 0.021509328099713995 0 -0.017613629239433687 0.021408435784296086 0 -0.017663336977224772 0.021876337302297096 0 -0.018424287548316438 0.021633961119670104 0 -0.017663336977224772 0.021876337302297096 0 -0.017930053704924832 0.022234701845802993 0 -0.017663336977224772 0.021876337302297096 0 -0.017930053704924832 0.022234701845802993 0 -0.017522806338021286 0.022445090990269107 0 -0.017930053704924832 0.022234701845802993 0 -0.017522806338021286 0.022445090990269107 0 -0.018105926507725172 0.022516498622924215 0 -0.018723678748554101 0.022427368100769587 0 -0.018405952724145105 0.022162761122774377 0 -0.018105926507725172 0.022516498622924215 0 -0.018424287548316438 0.021633961119670104 0 -0.017930053704924832 0.022234701845802993 0 -0.018405952724145105 0.022162761122774377 0 -0.018824030856949916 0.021989850057069316 0 -0.018424287548316438 0.021633961119670104 0 -0.018405952724145105 0.022162761122774377 0 -0.017930053704924832 0.022234701845802993 0 -0.018405952724145105 0.022162761122774377 0 -0.018105926507725172 0.022516498622924215 0 -0.018723678748554101 0.022427368100769587 0 -0.018105926507725172 0.022516498622924215 0 -0.018485691233645976 0.022891216448125064 0 -0.018105926507725172 0.022516498622924215 0 -0.018485691233645976 0.022891216448125064 0 -0.017807420299666411 0.023032091555021894 0 -0.017088797664430753 0.022961883671618107 0 -0.017522806338021286 0.022445090990269107 0 -0.017807420299666411 0.023032091555021894 0 -0.017522806338021286 0.022445090990269107 0 -0.018105926507725172 0.022516498622924215 0 -0.017807420299666411 0.023032091555021894 0 -0.017088797664430753 0.022961883671618107 0 -0.017807420299666411 0.023032091555021894 0 -0.017348789306358779 0.023434035167867604 0 -0.017807420299666411 0.023032091555021894 0 -0.017918951820377369 0.023682928038045989 0 -0.017348789306358779 0.023434035167867604 0 -0.017807420299666411 0.023032091555021894 0 -0.018426006291165985 0.023342609904599212 0 -0.017918951820377369 0.023682928038045989 0 -0.018485691233645976 0.022891216448125064 0 -0.017807420299666411 0.023032091555021894 0 -0.018426006291165985 0.023342609904599212 0 -0.018485691233645976 0.022891216448125064 0 -0.018426006291165985 0.023342609904599212 0 -0.018888054673874027 0.023220582612728559 0 -0.018532443074783245 0.023796401766492094 0 -0.017975503643049531 0.024164643832642999 0 -0.019076691770841737 0.024205404458483692 0 -0.018426006291165985 0.023342609904599212 0 -0.018532443074783245 0.023796401766492094 0 -0.017918951820377369 0.023682928038045989 0 -0.018532443074783245 0.023796401766492094 0 -0.017918951820377369 0.023682928038045989 0 -0.017975503643049531 0.024164643832642999 0 -0.017918951820377369 0.023682928038045989 0 -0.017489354192237006 0.023797746499308988 0 -0.017348789306358779 0.023434035167867604 0 -0.017918951820377369 0.023682928038045989 0 -0.017489354192237006 0.023797746499308988 0 -0.017975503643049531 0.024164643832642999 0 -0.018668434081969804 0.024480481085141517 0 -0.019899720069995599 0.023472099654713443 0 -0.019730665747822729 0.025632117894141826 0 -0.019838575817588491 0.02166195260698606 0 -0.018801215964691528 0.022091246808644348 0 -0.017489354192237006 0.023797746499308988 0 -0.017975503643049531 0.024164643832642999 0 -0.017125240988461094 0.02401530044456588 0 -0.018668434081969804 0.024480481085141517 0 -0.019899720069995599 0.023472099654713443 0 -0.017648898670332272 0.024054229252528626 0 -0.019899720069995599 0.023472099654713443 0 -0.017648898670332272 0.024054229252528626 0 -0.017125240988461094 0.02401530044456588 0 -0.018668434081969804 0.024480481085141517 0 -0.019730665747822729 0.025632117894141826 0 -0.017131933727171065 0.024596309349843543 0 -0.021520624944884558 0.017090194471721463 0 -0.019521520270974903 0.019553828925192092 0 -0.019838575817588491 0.02166195260698606 0 -0.022659919709572939 0.020250488378726887 0 -0.019899720069995599 0.023472099654713443 0 -0.021996520694968592 0.024262359037375395 0 -0.022798529063268017 0.023220982610993712 0 -0.019899720069995599 0.023472099654713443 0 -0.021996520694968592 0.024262359037375395 0 -0.021578071378296561 0.025210326153723081 0 -0.019899720069995599 0.023472099654713443 0 -0.021578071378296561 0.025210326153723081 0 -0.019730665747822729 0.025632117894141826 0 -0.021520624944884558 0.017090194471721463 0 -0.025049081648886751 0.014483301989922644 0 -0.020961549285040747 0.011095248927895533 0 -0.021497396280625313 0.011337161784934756 0 -0.021038735701029439 0.011415763779667285 0 -0.021578071378296561 0.025210326153723081 0 -0.019730665747822729 0.025632117894141826 0 -0.02250279332235092 0.026777699538960944 0 -0.020961549285040747 0.011095248927895533 0 -0.02043552094754823 0.010884523707313914 0 -0.020613852609721005 0.011226335088243675 0 -0.020961549285040747 0.011095248927895533 0 -0.02081476439344097 0.011353138307466318 0 -0.021038735701029439 0.011415763779667285 0 -0.020961549285040747 0.011095248927895533 0 -0.02081476439344097 0.011353138307466318 0 -0.020613852609721005 0.011226335088243675 0 -0.02081476439344097 0.011353138307466318 0 -0.020613852609721005 0.011226335088243675 0 -0.020620675634749511 0.011419150685892982 0 -0.028008007304825031 0.011310301903015274 0 -0.026641318403362025 0.010623539160717075 0 -0.027512555747201045 0.010198518511603029 0 -0.028008007304825031 0.011310301903015274 0 -0.027512555747201045 0.010198518511603029 0 -0.028333316042502749 0.010101188236954222 0 -0.028008007304825031 0.011310301903015274 0 -0.026641318403362025 0.010623539160717075 0 -0.026624384749900303 0.012060249209620115 0 -0.026641318403362025 0.010623539160717075 0 -0.026624384749900303 0.012060249209620115 0 -0.025665701330725134 0.011351511248357182 0 -0.026641318403362025 0.010623539160717075 0 -0.026845347513865261 0.0095583821584230393 0 -0.025207975730506649 0.009275943186018952 0 -0.026641318403362025 0.010623539160717075 0 -0.026845347513865261 0.0095583821584230393 0 -0.027512555747201045 0.010198518511603029 0 -0.026845347513865261 0.0095583821584230393 0 -0.027512555747201045 0.010198518511603029 0 -0.027700818439794991 0.0092668156357362391 0 -0.027512555747201045 0.010198518511603029 0 -0.028251521331312996 0.0097002865712912407 0 -0.028333316042502749 0.010101188236954222 0 -0.027700818439794991 0.0092668156357362391 0 -0.028251521331312996 0.0097002865712912407 0 -0.028409742634431131 0.0091656519786797609 0 -0.027512555747201045 0.010198518511603029 0 -0.027700818439794991 0.0092668156357362391 0 -0.028251521331312996 0.0097002865712912407 0 -0.026742240815970274 0.016591608336768721 0 -0.025386769751340743 0.014097964892038361 0 -0.028008007304825031 0.011310301903015274 0 -0.028333316042502749 0.010101188236954222 0 -0.029564895183987881 0.0091968038046491927 0 -0.028251521331312996 0.0097002865712912407 0 -0.028333316042502749 0.010101188236954222 0 -0.029564895183987881 0.0091968038046491927 0 -0.028251521331312996 0.0097002865712912407 0 -0.029564895183987881 0.0091968038046491927 0 -0.028409742634431131 0.0091656519786797609 0 -0.025049081648886751 0.014483301989922644 0 -0.024087177287229075 0.016228198745796622 0 -0.02250279332235092 0.026777699538960944 0 -0.022520700215374671 0.025654230392218272 0 -0.023433071671854482 0.025529797619123138 0 -0.022615709429040246 0.026534153404156748 0 -0.023433071671854482 0.025529797619123138 0 -0.022865059443496413 0.026656401948732953 0 -0.025049081648886751 0.014483301989922644 0 -0.025386769751340743 0.014097964892038361 0 -0.021578071378296561 0.025210326153723081 0 -0.02250279332235092 0.026777699538960944 0 -0.022520700215374671 0.025654230392218272 0 -0.022568487050651977 0.025103056992313657 0 -0.023433071671854482 0.025529797619123138 0 -0.023159320635545485 0.024560578716350777 0 -0.022520700215374671 0.025654230392218272 0 -0.022568487050651977 0.025103056992313657 0 -0.023433071671854482 0.025529797619123138 0 -0.021578071378296561 0.025210326153723081 0 -0.022520700215374671 0.025654230392218272 0 -0.022568487050651977 0.025103056992313657 0 -0.024195129506452768 0.025009480166588386 0 -0.023433071671854482 0.025529797619123138 0 -0.022865059443496413 0.026656401948732953 0 -0.024195129506452768 0.025009480166588386 0 -0.023433071671854482 0.025529797619123138 0 -0.023159320635545485 0.024560578716350777 0 -0.024195129506452768 0.025009480166588386 0 -0.023159320635545485 0.024560578716350777 0 -0.023694754116442538 0.024176354501913858 0 -0.023159320635545485 0.024560578716350777 0 -0.023694754116442538 0.024176354501913858 0 -0.022798529063268017 0.023220982610993712 0 -0.024195129506452768 0.025009480166588386 0 -0.023694754116442538 0.024176354501913858 0 -0.024240343212820301 0.023742880532611806 0 -0.021996520694968592 0.024262359037375395 0 -0.023159320635545485 0.024560578716350777 0 -0.022798529063268017 0.023220982610993712 0 -0.021996520694968592 0.024262359037375395 0 -0.022568487050651977 0.025103056992313657 0 -0.023159320635545485 0.024560578716350777 0 -0.021996520694968592 0.024262359037375395 0 -0.021578071378296561 0.025210326153723081 0 -0.022568487050651977 0.025103056992313657 0 -0.023694754116442538 0.024176354501913858 0 -0.022798529063268017 0.023220982610993712 0 -0.024240343212820301 0.023742880532611806 0 -0.022659919709572939 0.020250488378726887 0 -0.029322752108565116 0.017235494954546137 0 -0.022798529063268017 0.023220982610993712 0 -0.024240343212820301 0.023742880532611806 0 -0.025685647125553011 0.023060666957620154 0 -0.024195129506452768 0.025009480166588386 0 -0.024240343212820301 0.023742880532611806 0 -0.025685647125553011 0.023060666957620154 0 -0.026742240815970274 0.016591608336768721 0 -0.029322752108565116 0.017235494954546137 0 -0.026624384749900303 0.012060249209620115 0 -0.026136903442124441 0.013444931431856148 0 -0.025665701330725134 0.011351511248357182 0 -0.028008007304825031 0.011310301903015274 0 -0.026624384749900303 0.012060249209620115 0 -0.026476614215814091 0.013429231980766437 0 -0.026624384749900303 0.012060249209620115 0 -0.026476614215814091 0.013429231980766437 0 -0.026136903442124441 0.013444931431856148 0 -0.029322752108565116 0.017235494954546137 0 -0.03036560216207217 0.016564500576980452 0 -0.03361583754832155 0.014407706366729235 0 -0.030426629128568743 0.014548211623414364 0 -0.031146325334390587 0.017666015478152296 0 -0.030269623147112183 0.017076308287617966 0 -0.029650475951016917 0.021614813809691127 0 -0.020446432996600584 0.024134920884412932 0 -0.020566525775231916 0.023980652671612326 0 -0.019415068565944493 0.023559777825373468 0 -0.030269623147112183 0.017076308287617966 0 -0.024335409952897617 0.018119831559333135 0 -0.019856968873865618 0.023916527203603676 0 -0.019136574773633279 0.023653219421454565 0 -0.019586684876478688 0.023085692528231134 0 -0.03036560216207217 0.016564500576980452 0 -0.030269623147112183 0.017076308287617966 0 -0.029322752108565116 0.017235494954546137 0 -0.030269623147112183 0.017076308287617966 0 -0.022746034985233358 0.018524673847936254 0 -0.024335409952897617 0.018119831559333135 0 -0.018532443074783245 0.023796401766492094 0 -0.019076691770841737 0.024205404458483692 0 -0.019415068565944493 0.023559777825373468 0 -0.018426006291165985 0.023342609904599212 0 -0.018532443074783245 0.023796401766492094 0 -0.019415068565944493 0.023559777825373468 0 -0.019076691770841737 0.024205404458483692 0 -0.020446432996600584 0.024134920884412932 0 -0.019415068565944493 0.023559777825373468 0 -0.018426006291165985 0.023342609904599212 0 -0.019136574773633279 0.023653219421454565 0 -0.018888054673874027 0.023220582612728559 0 -0.018950903446566823 0.022809234486566337 0 -0.018888054673874027 0.023220582612728559 0 -0.019586684876478688 0.023085692528231134 0 -0.019136574773633279 0.023653219421454565 0 -0.018888054673874027 0.023220582612728559 0 -0.019586684876478688 0.023085692528231134 0 -0.018950903446566823 0.022809234486566337 0 -0.018485691233645976 0.022891216448125064 0 -0.018888054673874027 0.023220582612728559 0 -0.038299839690027371 0.023398071128015046 0 -0.038254472804599177 0.023055395505113714 0 -0.038633127351750826 0.023118968391618491 0 -0.040304668667090607 0.013912822710699244 0 -0.040886925056508303 0.01251349876477972 0 -0.039074716215524476 0.012512665845523871 0 -0.041947822340313752 0.011085191513288919 0 -0.040931823114368951 0.010017704371557822 0 -0.041947822340313752 0.011085191513288919 0 -0.040931823114368951 0.010017704371557822 0 -0.042006805050875826 0.0093169694895142083 0 -0.040931823114368951 0.010017704371557822 0 -0.040199598641739373 0.0089724381285196195 0 -0.039701472194103637 0.009668310795078329 0 -0.040931823114368951 0.010017704371557822 0 -0.040199598641739373 0.0089724381285196195 0 -0.040910276358601921 0.0088334362993664258 0 -0.040199598641739373 0.0089724381285196195 0 -0.040910276358601921 0.0088334362993664258 0 -0.040047498740217222 0.0081529324534627291 0 -0.040910276358601921 0.0088334362993664258 0 -0.042006805050875826 0.0093169694895142083 0 -0.041976625544532881 0.0086298261008740853 0 -0.040931823114368951 0.010017704371557822 0 -0.040910276358601921 0.0088334362993664258 0 -0.042006805050875826 0.0093169694895142083 0 -0.0434011729697764 0.0088162066782823071 0 -0.041947822340313752 0.011085191513288919 0 -0.042006805050875826 0.0093169694895142083 0 -0.030269623147112183 0.017076308287617966 0 -0.036504679377721325 0.016153738419664922 0 -0.042006805050875826 0.0093169694895142083 0 -0.042904646409616269 0.0085939626745856496 0 -0.041976625544532881 0.0086298261008740853 0 -0.0434011729697764 0.0088162066782823071 0 -0.042006805050875826 0.0093169694895142083 0 -0.042904646409616269 0.0085939626745856496 0 -0.030269623147112183 0.017076308287617966 0 -0.031782226068631736 0.016096573380701012 0 -0.037223543526207714 0.010559011729231862 0 -0.03813810072118487 0.011382227934277117 0 -0.036694332272817279 0.011810100279983712 0 -0.037223543526207714 0.010559011729231862 0 -0.03813810072118487 0.011382227934277117 0 -0.038490138016693896 0.0099465980742297101 0 -0.039522892485536643 0.011969594202705209 0 -0.040931823114368951 0.010017704371557822 0 -0.039372394291167921 0.010594300886052354 0 -0.03813810072118487 0.011382227934277117 0 -0.039372394291167921 0.010594300886052354 0 -0.038490138016693896 0.0099465980742297101 0 -0.039522892485536643 0.011969594202705209 0 -0.03813810072118487 0.011382227934277117 0 -0.039372394291167921 0.010594300886052354 0 -0.040931823114368951 0.010017704371557822 0 -0.039372394291167921 0.010594300886052354 0 -0.039701472194103637 0.009668310795078329 0 -0.040199598641739373 0.0089724381285196195 0 -0.039237079189646501 0.0088023408502628155 0 -0.040047498740217222 0.0081529324534627291 0 -0.040199598641739373 0.0089724381285196195 0 -0.039701472194103637 0.009668310795078329 0 -0.039237079189646501 0.0088023408502628155 0 -0.039237079189646501 0.0088023408502628155 0 -0.038103296840042482 0.009080481997874177 0 -0.038386357837264927 0.0082382860866232043 0 -0.039237079189646501 0.0088023408502628155 0 -0.038490138016693896 0.0099465980742297101 0 -0.038103296840042482 0.009080481997874177 0 -0.039701472194103637 0.009668310795078329 0 -0.039237079189646501 0.0088023408502628155 0 -0.038490138016693896 0.0099465980742297101 0 -0.039372394291167921 0.010594300886052354 0 -0.039701472194103637 0.009668310795078329 0 -0.038490138016693896 0.0099465980742297101 0 -0.038490138016693896 0.0099465980742297101 0 -0.038103296840042482 0.009080481997874177 0 -0.037277133917655282 0.0095034770589615125 0 -0.038103296840042482 0.009080481997874177 0 -0.037277133917655282 0.0095034770589615125 0 -0.037216424228631681 0.008278642818181324 0 -0.037277133917655282 0.0095034770589615125 0 -0.037216424228631681 0.008278642818181324 0 -0.036182437018147141 0.0089060347913019356 0 -0.037223543526207714 0.010559011729231862 0 -0.037277133917655282 0.0095034770589615125 0 -0.036744160690408027 0.0098793004137316016 0 -0.037223543526207714 0.010559011729231862 0 -0.038490138016693896 0.0099465980742297101 0 -0.037277133917655282 0.0095034770589615125 0 -0.037216424228631681 0.008278642818181324 0 -0.037900921081356523 0.0071067722814173928 0 -0.036703388714999223 0.0068971315951325647 0 -0.038103296840042482 0.009080481997874177 0 -0.037216424228631681 0.008278642818181324 0 -0.038386357837264927 0.0082382860866232043 0 -0.038386357837264927 0.0082382860866232043 0 -0.037900921081356523 0.0071067722814173928 0 -0.039208445199863398 0.0076725242265451637 0 -0.037216424228631681 0.008278642818181324 0 -0.038386357837264927 0.0082382860866232043 0 -0.037900921081356523 0.0071067722814173928 0 -0.035924421615589348 0.0076848420575701907 0 -0.035802827777218847 0.010162979079549552 0 -0.039208445199863398 0.0076725242265451637 0 -0.038863809994739033 0.0062912730196322229 0 -0.040817042622319458 0.0073869656141977253 0 -0.037900921081356523 0.0071067722814173928 0 -0.039208445199863398 0.0076725242265451637 0 -0.038863809994739033 0.0062912730196322229 0 -0.039237079189646501 0.0088023408502628155 0 -0.038386357837264927 0.0082382860866232043 0 -0.039208445199863398 0.0076725242265451637 0 -0.039208445199863398 0.0076725242265451637 0 -0.040047498740217222 0.0081529324534627291 0 -0.040817042622319458 0.0073869656141977253 0 -0.039237079189646501 0.0088023408502628155 0 -0.039208445199863398 0.0076725242265451637 0 -0.040047498740217222 0.0081529324534627291 0 -0.03689853752372068 0.0032155797878969305 0 -0.036320347627575064 0.0033459793192450638 0 -0.037226311995733466 0.0037833669692716055 0 -0.03689853752372068 0.0032155797878969305 0 -0.036574758505261741 0.0027646807045968603 0 -0.037280266611363889 0.0027308070539522437 0 -0.03689853752372068 0.0032155797878969305 0 -0.036574758505261741 0.0027646807045968603 0 -0.036320347627575064 0.0033459793192450638 0 -0.037900921081356523 0.0071067722814173928 0 -0.036703388714999223 0.0068971315951325647 0 -0.036852038621163395 0.0049398465245794184 0 -0.036574758505261741 0.0027646807045968603 0 -0.036320347627575064 0.0033459793192450638 0 -0.035454104410682009 0.0031054536158270059 0 -0.035924421615589348 0.0076848420575701907 0 -0.035209499419336945 0.0061036001289143131 0 -0.037900921081356523 0.0071067722814173928 0 -0.038863809994739033 0.0062912730196322229 0 -0.036852038621163395 0.0049398465245794184 0 -0.031782226068631736 0.016096573380701012 0 -0.035802827777218847 0.010162979079549552 0 -0.032442867387309574 0.012573754250274509 0 -0.031698091163458897 0.012208616108500875 0 -0.032478213186446864 0.01204356080736399 0 -0.042820903368645941 0.0086213110218905636 0 -0.041976625544532881 0.0086298261008740853 0 -0.040672580424752393 0.0075621841127150183 0 -0.03036560216207217 0.016564500576980452 0 -0.031654428882177538 0.011936083627599035 0 -0.032585805957221596 0.012571031258891646 0 -0.032442867387309574 0.012573754250274509 0 -0.032478213186446864 0.01204356080736399 0 -0.03036560216207217 0.016564500576980452 0 -0.031782226068631736 0.016096573380701012 0 -0.030158621233450835 0.015854029481069402 0 -0.030241029168462299 0.016218036094159585 0 -0.029515086534359133 0.015880807090656927 0 -0.031782226068631736 0.016096573380701012 0 -0.033035009526542002 0.015823929892431404 0 -0.040910276358601921 0.0088334362993664258 0 -0.041976625544532881 0.0086298261008740853 0 -0.040672580424752393 0.0075621841127150183 0 -0.040910276358601921 0.0088334362993664258 0 -0.040047498740217222 0.0081529324534627291 0 -0.040672580424752393 0.0075621841127150183 0 -0.036293388018545585 0.0097565916983456749 0 -0.035802827777218847 0.010162979079549552 0 -0.03689853752372068 0.0032155797878969305 0 -0.037226311995733466 0.0037833669692716055 0 -0.037280266611363889 0.0027308070539522437 0 -0.035802827777218847 0.010162979079549552 0 -0.033544119848865336 0.007855520575558668 0 -0.037226311995733466 0.0037833669692716055 0 -0.037280266611363889 0.0027308070539522437 0 -0.03830739393777513 0.0026991659998364618 0 -0.031698091163458897 0.012208616108500875 0 -0.032478213186446864 0.01204356080736399 0 -0.032368684599291361 0.011521320310321945 0 -0.031654428882177538 0.011936083627599035 0 -0.033544119848865336 0.007855520575558668 0 -0.026641318403362025 0.010623539160717075 0 -0.025665701330725134 0.011351511248357182 0 -0.025207975730506649 0.009275943186018952 0 -0.03830739393777513 0.0026991659998364618 0 -0.037632443688367864 0.002138736424034888 0 -0.037925517297429864 0.0013505147803098082 0 -0.037963131965811879 0.0016850140358775992 0 -0.038083555559793363 0.0013046092547379445 0 -0.037925517297429864 0.0013505147803098082 0 -0.033544119848865336 0.007855520575558668 0 -0.033878123164824296 0.0053498790260723258 0 -0.037280266611363889 0.0027308070539522437 0 -0.03830739393777513 0.0026991659998364618 0 -0.037632443688367864 0.002138736424034888 0 -0.037122206558581582 0.0018235153804234687 0 -0.037632443688367864 0.002138736424034888 0 -0.037925517297429864 0.0013505147803098082 0 -0.036574758505261741 0.0027646807045968603 0 -0.037280266611363889 0.0027308070539522437 0 -0.037122206558581582 0.0018235153804234687 0 -0.037280266611363889 0.0027308070539522437 0 -0.037122206558581582 0.0018235153804234687 0 -0.037632443688367864 0.002138736424034888 0 -0.037122206558581582 0.0018235153804234687 0 -0.037066539391163944 0.00099942103531426053 0 -0.037735628067352457 0.00088676384086777921 0 -0.037122206558581582 0.0018235153804234687 0 -0.037925517297429864 0.0013505147803098082 0 -0.037735628067352457 0.00088676384086777921 0 -0.037925517297429864 0.0013505147803098082 0 -0.037735628067352457 0.00088676384086777921 0 -0.038116092289450183 0.00091458391510718107 0 -0.038083555559793363 0.0013046092547379445 0 -0.037925517297429864 0.0013505147803098082 0 -0.038116092289450183 0.00091458391510718107 0 -0.036574758505261741 0.0027646807045968603 0 -0.036303631168086541 0.0022241763288813263 0 -0.035454104410682009 0.0031054536158270059 0 -0.036303631168086541 0.0022241763288813263 0 -0.035784324184429853 0.0019871686857837246 0 -0.035454104410682009 0.0031054536158270059 0 -0.035784324184429853 0.0019871686857837246 0 -0.035454104410682009 0.0031054536158270059 0 -0.035199506206032315 0.0022665930654877623 0 -0.036574758505261741 0.0027646807045968603 0 -0.037122206558581582 0.0018235153804234687 0 -0.036303631168086541 0.0022241763288813263 0 -0.037122206558581582 0.0018235153804234687 0 -0.036303631168086541 0.0022241763288813263 0 -0.036478504152124835 0.0014785568617649131 0 -0.037122206558581582 0.0018235153804234687 0 -0.036478504152124835 0.0014785568617649131 0 -0.037066539391163944 0.00099942103531426053 0 -0.036303631168086541 0.0022241763288813263 0 -0.036478504152124835 0.0014785568617649131 0 -0.035784324184429853 0.0019871686857837246 0 -0.036478504152124835 0.0014785568617649131 0 -0.035827402407232596 0.0012597004234699736 0 -0.035784324184429853 0.0019871686857837246 0 -0.035827402407232596 0.0012597004234699736 0 -0.035784324184429853 0.0019871686857837246 0 -0.035335893374238023 0.0016317364753878863 0 -0.035847373247435199 0.00065525645032759726 0 -0.036473630696669257 0.00049329603932206096 0 -0.035586489310299577 0.00013544147744803454 0 -0.036478504152124835 0.0014785568617649131 0 -0.035827402407232596 0.0012597004234699736 0 -0.036473630696669257 0.00049329603932206096 0 -0.035847373247435199 0.00065525645032759726 0 -0.035586489310299577 0.00013544147744803454 0 -0.03515284569750491 0.00090852258331980515 0 -0.035827402407232596 0.0012597004234699736 0 -0.035847373247435199 0.00065525645032759726 0 -0.03515284569750491 0.00090852258331980515 0 -0.035827402407232596 0.0012597004234699736 0 -0.035847373247435199 0.00065525645032759726 0 -0.036473630696669257 0.00049329603932206096 0 -0.037066539391163944 0.00099942103531426053 0 -0.036473630696669257 0.00049329603932206096 0 -0.037429560592499724 0.00041280710319150466 0 -0.036478504152124835 0.0014785568617649131 0 -0.037066539391163944 0.00099942103531426053 0 -0.036473630696669257 0.00049329603932206096 0 -0.036979002081815919 9.0254883983491177e-05 0 -0.036127403689480711 -0.0002553164066779564 0 -0.036774559200861243 -0.000461941707567356 0 -0.036473630696669257 0.00049329603932206096 0 -0.036979002081815919 9.0254883983491177e-05 0 -0.037429560592499724 0.00041280710319150466 0 -0.036473630696669257 0.00049329603932206096 0 -0.036979002081815919 9.0254883983491177e-05 0 -0.036127403689480711 -0.0002553164066779564 0 -0.036979002081815919 9.0254883983491177e-05 0 -0.037607050670480348 -7.843313821632944e-05 0 -0.036774559200861243 -0.000461941707567356 0 -0.036473630696669257 0.00049329603932206096 0 -0.036127403689480711 -0.0002553164066779564 0 -0.035586489310299577 0.00013544147744803454 0 -0.036127403689480711 -0.0002553164066779564 0 -0.035586489310299577 0.00013544147744803454 0 -0.03500566825478988 -0.00032777367000325536 0 -0.038070076607065191 0.00049316377956675828 0 -0.037735628067352457 0.00088676384086777921 0 -0.038116092289450183 0.00091458391510718107 0 -0.037898081879427239 0.00041416543557156414 0 -0.038070076607065191 0.00049316377956675828 0 -0.038117133066670153 0.00015025972034175068 0 -0.037898081879427239 0.00041416543557156414 0 -0.038070076607065191 0.00049316377956675828 0 -0.037735628067352457 0.00088676384086777921 0 -0.037066539391163944 0.00099942103531426053 0 -0.037735628067352457 0.00088676384086777921 0 -0.037429560592499724 0.00041280710319150466 0 -0.037898081879427239 0.00041416543557156414 0 -0.037735628067352457 0.00088676384086777921 0 -0.037429560592499724 0.00041280710319150466 0 -0.037898081879427239 0.00041416543557156414 0 -0.037429560592499724 0.00041280710319150466 0 -0.037971623797682888 -1.318347962704301e-05 0 -0.037429560592499724 0.00041280710319150466 0 -0.037607050670480348 -7.843313821632944e-05 0 -0.037971623797682888 -1.318347962704301e-05 0 -0.036979002081815919 9.0254883983491177e-05 0 -0.037429560592499724 0.00041280710319150466 0 -0.037607050670480348 -7.843313821632944e-05 0 -0.037607050670480348 -7.843313821632944e-05 0 -0.037971623797682888 -1.318347962704301e-05 0 -0.037999490827729195 -0.00022385302056945015 0 -0.037898081879427239 0.00041416543557156414 0 -0.037971623797682888 -1.318347962704301e-05 0 -0.038117133066670153 0.00015025972034175068 0 -0.037971623797682888 -1.318347962704301e-05 0 -0.038179049257727866 -0.00016642219606939775 0 -0.038157197037826544 -0.00026208143001156027 0 -0.037971623797682888 -1.318347962704301e-05 0 -0.038117133066670153 0.00015025972034175068 0 -0.038179049257727866 -0.00016642219606939775 0 -0.038179049257727866 -0.00016642219606939775 0 -0.038240612799647196 -8.7431750793097435e-05 0 -0.038237076949545028 -0.00032568634843757388 0 -0.038240612799647196 -8.7431750793097435e-05 0 -0.038219640248387976 -0.00034647024249949345 0 -0.038237076949545028 -0.00032568634843757388 0 -0.038117133066670153 0.00015025972034175068 0 -0.038179049257727866 -0.00016642219606939775 0 -0.038240612799647196 -8.7431750793097435e-05 0 -0.038117133066670153 0.00015025972034175068 0 -0.038240612799647196 -8.7431750793097435e-05 0 -0.03821934611125323 0.00036357395516913347 0 -0.038070076607065191 0.00049316377956675828 0 -0.038117133066670153 0.00015025972034175068 0 -0.03821934611125323 0.00036357395516913347 0 -0.03821934611125323 0.00036357395516913347 0 -0.03831827319808246 0.00057178002728211627 0 -0.038316986199703557 0.00014977174854495336 0 -0.038240612799647196 -8.7431750793097435e-05 0 -0.03821934611125323 0.00036357395516913347 0 -0.038316986199703557 0.00014977174854495336 0 -0.03821934611125323 0.00036357395516913347 0 -0.03831827319808246 0.00057178002728211627 0 -0.038116092289450183 0.00091458391510718107 0 -0.038070076607065191 0.00049316377956675828 0 -0.03821934611125323 0.00036357395516913347 0 -0.038116092289450183 0.00091458391510718107 0 -0.03831827319808246 0.00057178002728211627 0 -0.038572688931483821 0.0003325014937498333 0 -0.038316986199703557 0.00014977174854495336 0 -0.038572688931483821 0.0003325014937498333 0 -0.038316986199703557 0.00014977174854495336 0 -0.03832109560840876 -0.00012285783859746117 0 -0.038240612799647196 -8.7431750793097435e-05 0 -0.038316986199703557 0.00014977174854495336 0 -0.03832109560840876 -0.00012285783859746117 0 -0.038240612799647196 -8.7431750793097435e-05 0 -0.03832109560840876 -0.00012285783859746117 0 -0.038219640248387976 -0.00034647024249949345 0 -0.03832109560840876 -0.00012285783859746117 0 -0.038152982996930915 -0.00048286530369111947 0 -0.038219640248387976 -0.00034647024249949345 0 -0.038572688931483821 0.0003325014937498333 0 -0.03832109560840876 -0.00012285783859746117 0 -0.038303319963285676 -0.0003961747358398571 0 -0.037955892463437238 -0.0026839331608892823 0 -0.037739271198972101 -0.0021132584541543042 0 -0.037526729145391555 -0.0023040376837585412 0 -0.03832109560840876 -0.00012285783859746117 0 -0.038303319963285676 -0.0003961747358398571 0 -0.038152982996930915 -0.00048286530369111947 0 -0.037739271198972101 -0.0021132584541543042 0 -0.037526729145391555 -0.0023040376837585412 0 -0.036715565359455159 -0.0017154502524127785 0 -0.031839303195365702 0.0024130328089844565 0 -0.033305974140597841 0.0018437287868573985 0 -0.033786086328086717 0.00044392089914246197 0 -0.034884956114326265 0.00087652475509069684 0 -0.035296190225856887 4.4614969291189199e-05 0 -0.031839303195365702 0.0024130328089844565 0 -0.033305974140597841 0.0018437287868573985 0 -0.032701763496517995 0.003237051059660111 0 -0.033305974140597841 0.0018437287868573985 0 -0.033858886482756582 0.0032366931975664486 0 -0.032701763496517995 0.003237051059660111 0 -0.027235522371548283 0.0080724506735245886 0 -0.026672873275073287 0.010076702597235481 0 -0.033858886482756582 0.0032366931975664486 0 -0.0322709793941919 0.0043835091119410726 0 -0.031734247316399553 0.0063206316851350097 0 -0.020662094032079276 0.012368326176518955 0 -0.021071287390614712 0.011843794415338501 0 -0.020673039709592587 0.011970188656379197 0 -0.033858886482756582 0.0032366931975664486 0 -0.032701763496517995 0.003237051059660111 0 -0.0322709793941919 0.0043835091119410726 0 -0.031839303195365702 0.0024130328089844565 0 -0.032701763496517995 0.003237051059660111 0 -0.0322709793941919 0.0043835091119410726 0 -0.029829848613254831 0.0045307158427456435 0 -0.031839303195365702 0.0024130328089844565 0 -0.0322709793941919 0.0043835091119410726 0 -0.029829848613254831 0.0045307158427456435 0 -0.0322709793941919 0.0043835091119410726 0 -0.031415267853425154 0.0052654960517826465 0 -0.034137037384366187 0.0024559315262188651 0 -0.036273670542777962 -0.00034602777143333816 0 -0.034137037384366187 0.0024559315262188651 0 -0.034884956114326265 0.00087652475509069684 0 -0.029829848613254831 0.0045307158427456435 0 -0.030751659078060711 0.0058601321596184258 0 -0.029745732257576648 0.0063618276969329831 0 -0.029829848613254831 0.0045307158427456435 0 -0.030751659078060711 0.0058601321596184258 0 -0.031415267853425154 0.0052654960517826465 0 -0.030751659078060711 0.0058601321596184258 0 -0.031415267853425154 0.0052654960517826465 0 -0.031734247316399553 0.0063206316851350097 0 -0.0322709793941919 0.0043835091119410726 0 -0.031415267853425154 0.0052654960517826465 0 -0.031734247316399553 0.0063206316851350097 0 -0.030751659078060711 0.0058601321596184258 0 -0.031734247316399553 0.0063206316851350097 0 -0.030862095025278195 0.0068517915244745283 0 -0.030751659078060711 0.0058601321596184258 0 -0.030862095025278195 0.0068517915244745283 0 -0.029745732257576648 0.0063618276969329831 0 -0.030862095025278195 0.0068517915244745283 0 -0.029944821705064236 0.0070263795877555137 0 -0.029745732257576648 0.0063618276969329831 0 -0.021071287390614712 0.011843794415338501 0 -0.020673039709592587 0.011970188656379197 0 -0.020857299980758547 0.011745884752475937 0 -0.021071287390614712 0.011843794415338501 0 -0.020857299980758547 0.011745884752475937 0 -0.021052518162528157 0.01160423016387966 0 -0.020673039709592587 0.011970188656379197 0 -0.020857299980758547 0.011745884752475937 0 -0.020656349369214476 0.011743341860044908 0 -0.020812549259410375 0.011588207241807933 0 -0.02052329393062725 0.011593219549176203 0 -0.020620675634749511 0.011419150685892982 0 -0.020656349369214476 0.011743341860044908 0 -0.020812549259410375 0.011588207241807933 0 -0.02052329393062725 0.011593219549176203 0 -0.020857299980758547 0.011745884752475937 0 -0.020656349369214476 0.011743341860044908 0 -0.020812549259410375 0.011588207241807933 0 -0.020857299980758547 0.011745884752475937 0 -0.020812549259410375 0.011588207241807933 0 -0.021052518162528157 0.01160423016387966 0 -0.020812549259410375 0.011588207241807933 0 -0.021052518162528157 0.01160423016387966 0 -0.021038735701029439 0.011415763779667285 0 -0.020812549259410375 0.011588207241807933 0 -0.02081476439344097 0.011353138307466318 0 -0.021038735701029439 0.011415763779667285 0 -0.020812549259410375 0.011588207241807933 0 -0.02081476439344097 0.011353138307466318 0 -0.020620675634749511 0.011419150685892982 0 -0.021497396280625313 0.011337161784934756 0 -0.021052518162528157 0.01160423016387966 0 -0.021038735701029439 0.011415763779667285 0 -0.025049081648886751 0.014483301989922644 0 -0.026672873275073287 0.010076702597235481 0 -0.021497396280625313 0.011337161784934756 0 -0.021071287390614712 0.011843794415338501 0 -0.021052518162528157 0.01160423016387966 0 -0.030862095025278195 0.0068517915244745283 0 -0.02930532386930141 0.0089813747266868551 0 -0.029728254721847824 0.0076376583102258878 0 -0.029111298545367516 0.0098865598287062751 0 -0.031734247316399553 0.0063206316851350097 0 -0.030862095025278195 0.0068517915244745283 0 -0.027972190571475895 0.010652821257521485 0 -0.025386769751340743 0.014097964892038361 0 -0.030862095025278195 0.0068517915244745283 0 -0.029944821705064236 0.0070263795877555137 0 -0.029728254721847824 0.0076376583102258878 0 -0.02930532386930141 0.0089813747266868551 0 -0.029145885778560955 0.0081962676882444477 0 -0.029728254721847824 0.0076376583102258878 0 -0.029111298545367516 0.0098865598287062751 0 -0.030862095025278195 0.0068517915244745283 0 -0.02875801069252552 0.009726547586860387 0 -0.02930532386930141 0.0089813747266868551 0 -0.029145885778560955 0.0081962676882444477 0 -0.028821230353675047 0.0084844854631265492 0 -0.029442861541293459 0.0072480080883653656 0 -0.028395669987605839 0.0079743738465874736 0 -0.029745732257576648 0.0063618276969329831 0 -0.029145885778560955 0.0081962676882444477 0 -0.029728254721847824 0.0076376583102258878 0 -0.029133542217719709 0.007722902858192964 0 -0.029728254721847824 0.0076376583102258878 0 -0.029133542217719709 0.007722902858192964 0 -0.029442861541293459 0.0072480080883653656 0 -0.029944821705064236 0.0070263795877555137 0 -0.029728254721847824 0.0076376583102258878 0 -0.029442861541293459 0.0072480080883653656 0 -0.029133542217719709 0.007722902858192964 0 -0.029442861541293459 0.0072480080883653656 0 -0.028395669987605839 0.0079743738465874736 0 -0.029133542217719709 0.007722902858192964 0 -0.028854664142810005 0.0080134889871321634 0 -0.028395669987605839 0.0079743738465874736 0 -0.029145885778560955 0.0081962676882444477 0 -0.029133542217719709 0.007722902858192964 0 -0.028854664142810005 0.0080134889871321634 0 -0.028854664142810005 0.0080134889871321634 0 -0.028395669987605839 0.0079743738465874736 0 -0.028701387859805912 0.0082659691870179894 0 -0.029564895183987881 0.0091968038046491927 0 -0.028409742634431131 0.0091656519786797609 0 -0.028124153880557921 0.0084995821182275149 0 -0.02930532386930141 0.0089813747266868551 0 -0.028821230353675047 0.0084844854631265492 0 -0.028124153880557921 0.0084995821182275149 0 -0.028701387859805912 0.0082659691870179894 0 -0.028821230353675047 0.0084844854631265492 0 -0.028124153880557921 0.0084995821182275149 0 -0.028395669987605839 0.0079743738465874736 0 -0.028701387859805912 0.0082659691870179894 0 -0.028124153880557921 0.0084995821182275149 0 -0.025386769751340743 0.014097964892038361 0 -0.025605851307902609 0.013863676145921848 0 -0.029145885778560955 0.0081962676882444477 0 -0.028701387859805912 0.0082659691870179894 0 -0.028821230353675047 0.0084844854631265492 0 -0.029145885778560955 0.0081962676882444477 0 -0.028854664142810005 0.0080134889871321634 0 -0.028701387859805912 0.0082659691870179894 0 -0.025207975730506649 0.009275943186018952 0 -0.027087269874237836 0.0084406181641668507 0 -0.027693749098216657 0.0066720478282635979 0 -0.027700818439794991 0.0092668156357362391 0 -0.028409742634431131 0.0091656519786797609 0 -0.028124153880557921 0.0084995821182275149 0 -0.026845347513865261 0.0095583821584230393 0 -0.027700818439794991 0.0092668156357362391 0 -0.027087269874237836 0.0084406181641668507 0 -0.037963131965811879 0.0016850140358775992 0 -0.038083555559793363 0.0013046092547379445 0 -0.038354168102120535 0.001160554949249647 0 -0.027700818439794991 0.0092668156357362391 0 -0.027087269874237836 0.0084406181641668507 0 -0.028124153880557921 0.0084995821182275149 0 -0.033544119848865336 0.007855520575558668 0 -0.033728057525655337 0.0047989884987310605 0 -0.028395669987605839 0.0079743738465874736 0 -0.028124153880557921 0.0084995821182275149 0 -0.027829754189023795 0.007905008695379509 0 -0.027087269874237836 0.0084406181641668507 0 -0.028124153880557921 0.0084995821182275149 0 -0.027829754189023795 0.007905008695379509 0 -0.026845347513865261 0.0095583821584230393 0 -0.025207975730506649 0.009275943186018952 0 -0.027087269874237836 0.0084406181641668507 0 -0.027087269874237836 0.0084406181641668507 0 -0.027829754189023795 0.007905008695379509 0 -0.027693749098216657 0.0066720478282635979 0 -0.028395669987605839 0.0079743738465874736 0 -0.027829754189023795 0.007905008695379509 0 -0.027693749098216657 0.0066720478282635979 0 -0.038083555559793363 0.0013046092547379445 0 -0.038354168102120535 0.001160554949249647 0 -0.038116092289450183 0.00091458391510718107 0 -0.03831827319808246 0.00057178002728211627 0 -0.038354168102120535 0.001160554949249647 0 -0.038116092289450183 0.00091458391510718107 0 -0.030545972314504351 0.0038956287854703783 0 -0.028395669987605839 0.0079743738465874736 0 -0.027693749098216657 0.0066720478282635979 0 -0.034137037384366187 0.0024559315262188651 0 -0.033728057525655337 0.0047989884987310605 0 -0.03831827319808246 0.00057178002728211627 0 -0.038572688931483821 0.0003325014937498333 0 -0.038354168102120535 0.001160554949249647 0 -0.034137037384366187 0.0024559315262188651 0 -0.031464691943486778 0.0060759564536954705 0 -0.029829848613254831 0.0045307158427456435 0 -0.028395669987605839 0.0079743738465874736 0 -0.029745732257576648 0.0063618276969329831 0 -0.029944821705064236 0.0070263795877555137 0 -0.029442861541293459 0.0072480080883653656 0 -0.029745732257576648 0.0063618276969329831 0 -0.034999917641655963 0.015006943328249938 0 -0.036018129900572661 0.01432889705604686 0 -0.034999978149744849 0.013120921934416368 0 -0.036028614457226091 0.013374728618938767 0 -0.036018129900572661 0.01432889705604686 0 -0.034999978149744849 0.013120921934416368 0 -0.036028614457226091 0.013374728618938767 0 -0.036932136869502898 0.014215975994152119 0 -0.037434047548410933 0.013507958086204742 0 -0.036028614457226091 0.013374728618938767 0 -0.036932136869502898 0.014215975994152119 0 -0.036018129900572661 0.01432889705604686 0 -0.03688041315607872 0.01522635407495106 0 -0.036018129900572661 0.01432889705604686 0 -0.036069425788415689 0.015657977006138076 0 -0.036932136869502898 0.014215975994152119 0 -0.03688041315607872 0.01522635407495106 0 -0.036018129900572661 0.01432889705604686 0 -0.034999917641655963 0.015006943328249938 0 -0.036018129900572661 0.01432889705604686 0 -0.036069425788415689 0.015657977006138076 0 -0.034999917641655963 0.015006943328249938 0 -0.035838656758831675 0.016612744032566563 0 -0.034999943863207143 0.016893077953374101 0 -0.034999917641655963 0.015006943328249938 0 -0.035838656758831675 0.016612744032566563 0 -0.036069425788415689 0.015657977006138076 0 -0.035993675926087598 0.017757723490714687 0 -0.035838656758831675 0.016612744032566563 0 -0.034999943863207143 0.016893077953374101 0 -0.035993675926087598 0.017757723490714687 0 -0.035838656758831675 0.016612744032566563 0 -0.036652154737546634 0.016919423622404735 0 -0.036652154737546634 0.016919423622404735 0 -0.036069425788415689 0.015657977006138076 0 -0.037492855080105858 0.016146613587899209 0 -0.03688041315607872 0.01522635407495106 0 -0.036069425788415689 0.015657977006138076 0 -0.037525982108577743 0.01564515122321071 0 -0.035838656758831675 0.016612744032566563 0 -0.036652154737546634 0.016919423622404735 0 -0.036069425788415689 0.015657977006138076 0 -0.036918532439575137 0.015727675185391733 0 -0.037566123064029212 0.015785706242516639 0 -0.03688041315607872 0.01522635407495106 0 -0.037525982108577743 0.01564515122321071 0 -0.038183632905095209 0.015273777690624218 0 -0.037069227199155681 0.018237808078800648 0 -0.036652154737546634 0.016919423622404735 0 -0.03733789044565658 0.017093102623775756 0 -0.037492855080105858 0.016146613587899209 0 -0.03733789044565658 0.017093102623775756 0 -0.038015055269773015 0.017399754538827882 0 -0.037069227199155681 0.018237808078800648 0 -0.03733789044565658 0.017093102623775756 0 -0.038015055269773015 0.017399754538827882 0 -0.036652154737546634 0.016919423622404735 0 -0.037492855080105858 0.016146613587899209 0 -0.03733789044565658 0.017093102623775756 0 -0.038015055269773015 0.017399754538827882 0 -0.038806301628134116 0.016484225109761868 0 -0.038971829126969469 0.017301867096966721 0 -0.038993836615921727 0.01811737157620371 0 -0.038015055269773015 0.017399754538827882 0 -0.038971829126969469 0.017301867096966721 0 -0.037566123064029212 0.015785706242516639 0 -0.038665715193407925 0.015836092321363123 0 -0.038183632905095209 0.015273777690624218 0 -0.038979437140839408 0.014943623434998063 0 -0.038737642346290069 0.01573007731242854 0 -0.037525982108577743 0.01564515122321071 0 -0.038183632905095209 0.015273777690624218 0 -0.038737642346290069 0.01573007731242854 0 -0.037492855080105858 0.016146613587899209 0 -0.038015055269773015 0.017399754538827882 0 -0.038806301628134116 0.016484225109761868 0 -0.038296904778646931 0.014528864350563414 0 -0.038183632905095209 0.015273777690624218 0 -0.038979437140839408 0.014943623434998063 0 -0.037305282179834073 0.014001886463466225 0 -0.03797075771279302 0.013279620448510483 0 -0.03688041315607872 0.01522635407495106 0 -0.038296904778646931 0.014528864350563414 0 -0.038183632905095209 0.015273777690624218 0 -0.036932136869502898 0.014215975994152119 0 -0.03688041315607872 0.01522635407495106 0 -0.038642846495035667 0.014193041415552131 0 -0.036932136869502898 0.014215975994152119 0 -0.038642846495035667 0.014193041415552131 0 -0.037434047548410933 0.013507958086204742 0 -0.038642846495035667 0.014193041415552131 0 -0.039610593732813178 0.012831039046775308 0 -0.038898968973629156 0.01291568079560384 0 -0.038642846495035667 0.014193041415552131 0 -0.038275610183666244 0.013159404455348162 0 -0.038898968973629156 0.01291568079560384 0 -0.038642846495035667 0.014193041415552131 0 -0.037434047548410933 0.013507958086204742 0 -0.038275610183666244 0.013159404455348162 0 -0.038296904778646931 0.014528864350563414 0 -0.039598620065117558 0.013871764725225413 0 -0.039158710194161638 0.014551974524026543 0 -0.03797075771279302 0.013279620448510483 0 -0.038589558403220502 0.011536491907399322 0 -0.038642846495035667 0.014193041415552131 0 -0.040357458172558001 0.01324811855492836 0 -0.039610593732813178 0.012831039046775308 0 -0.039598620065117558 0.013871764725225413 0 -0.039755656716410098 0.014862021855557888 0 -0.039158710194161638 0.014551974524026543 0 -0.038455747920919631 0.010509875220663314 0 -0.038338971642659661 0.011830839797645822 0 -0.038589558403220502 0.011536491907399322 0 -0.039227316025982117 0.014253447257659767 0 -0.039288223631940511 0.013524056554274183 0 -0.039708241485913252 0.013311523109796018 0 -0.039548363190407415 0.015113169038029077 0 -0.039708241485913252 0.013311523109796018 0 -0.039548363190407415 0.015113169038029077 0 -0.040699324929423297 0.014972197110566259 0 -0.038589558403220502 0.011536491907399322 0 -0.038455747920919631 0.010509875220663314 0 -0.039548363190407415 0.015113169038029077 0 -0.040393952320803499 0.015944069275307837 0 -0.040699324929423297 0.014972197110566259 0 -0.039755656716410098 0.014862021855557888 0 -0.039158710194161638 0.014551974524026543 0 -0.038979437140839408 0.014943623434998063 0 -0.039755656716410098 0.014862021855557888 0 -0.038979437140839408 0.014943623434998063 0 -0.039355716971630865 0.015299817924176432 0 -0.038296904778646931 0.014528864350563414 0 -0.039158710194161638 0.014551974524026543 0 -0.038979437140839408 0.014943623434998063 0 -0.038979437140839408 0.014943623434998063 0 -0.039355716971630865 0.015299817924176432 0 -0.038737642346290069 0.01573007731242854 0 -0.038806301628134116 0.016484225109761868 0 -0.039451695971410537 0.01698951039078286 0 -0.040067686553676395 0.016709037280631903 0 -0.038665715193407925 0.015836092321363123 0 -0.039566020911499099 0.015740089773243426 0 -0.039355716971630865 0.015299817924176432 0 -0.038737642346290069 0.01573007731242854 0 -0.03991000797737073 0.015843734488645404 0 -0.038806301628134116 0.016484225109761868 0 -0.038971829126969469 0.017301867096966721 0 -0.039451695971410537 0.01698951039078286 0 -0.038971829126969469 0.017301867096966721 0 -0.039451695971410537 0.01698951039078286 0 -0.039584934846896618 0.017542533968950464 0 -0.038993836615921727 0.01811737157620371 0 -0.038971829126969469 0.017301867096966721 0 -0.039584934846896618 0.017542533968950464 0 -0.03998921457816506 0.018225335356216205 0 -0.039584934846896618 0.017542533968950464 0 -0.040218882830156913 0.017617491777891583 0 -0.039584934846896618 0.017542533968950464 0 -0.040218882830156913 0.017617491777891583 0 -0.040110788515869217 0.017029418017584064 0 -0.039451695971410537 0.01698951039078286 0 -0.040110788515869217 0.017029418017584064 0 -0.040067686553676395 0.016709037280631903 0 -0.039451695971410537 0.01698951039078286 0 -0.039584934846896618 0.017542533968950464 0 -0.040110788515869217 0.017029418017584064 0 -0.040218882830156913 0.017617491777891583 0 -0.040110788515869217 0.017029418017584064 0 -0.040630652447347787 0.017375692702128926 0 -0.039227316025982117 0.014253447257659767 0 -0.039566020911499099 0.015740089773243426 0 -0.040110788515869217 0.017029418017584064 0 -0.040049243184573612 0.016683377419413302 0 -0.040522597791154094 0.016705071611666691 0 -0.039818083861262607 0.01663704983648388 0 -0.040393952320803499 0.015944069275307837 0 -0.040522597791154094 0.016705071611666691 0 -0.039566020911499099 0.015740089773243426 0 -0.039666337075574133 0.015778409246169203 0 -0.039548363190407415 0.015113169038029077 0 -0.039818083861262607 0.01663704983648388 0 -0.040393952320803499 0.015944069275307837 0 -0.039755656716410098 0.014862021855557888 0 -0.039355716971630865 0.015299817924176432 0 -0.03991000797737073 0.015843734488645404 0 -0.039581877434985799 0.015808681356460148 0 -0.039566020911499099 0.015740089773243426 0 -0.040393952320803499 0.015944069275307837 0 -0.041539662811312356 0.01654823538953086 0 -0.040699324929423297 0.014972197110566259 0 -0.040393952320803499 0.015944069275307837 0 -0.040522597791154094 0.016705071611666691 0 -0.041539662811312356 0.01654823538953086 0 -0.038638842829626277 0.013432198778123397 0 -0.038338971642659661 0.011830839797645822 0 -0.040522597791154094 0.016705071611666691 0 -0.04125192668776826 0.017433846853793386 0 -0.040630652447347787 0.017375692702128926 0 -0.040110788515869217 0.017029418017584064 0 -0.040522597791154094 0.016705071611666691 0 -0.040630652447347787 0.017375692702128926 0 -0.040522597791154094 0.016705071611666691 0 -0.04125192668776826 0.017433846853793386 0 -0.041539662811312356 0.01654823538953086 0 -0.040801431573174056 0.0179298435198533 0 -0.040218882830156913 0.017617491777891583 0 -0.040630652447347787 0.017375692702128926 0 -0.040801431573174056 0.0179298435198533 0 -0.04125192668776826 0.017433846853793386 0 -0.040630652447347787 0.017375692702128926 0 -0.039034886152480609 0.015250197181994378 0 -0.038638842829626277 0.013432198778123397 0 -0.04125192668776826 0.017433846853793386 0 -0.042238104201140159 0.017858565716407895 0 -0.041539662811312356 0.01654823538953086 0 -0.036694332272817279 0.011810100279983712 0 -0.03623008713806114 0.010456991419182191 0 -0.035712991753495231 0.010061403082254653 0 -0.041451762418056051 0.01829552483310054 0 -0.04125192668776826 0.017433846853793386 0 -0.042238104201140159 0.017858565716407895 0 -0.037223543526207714 0.010559011729231862 0 -0.036694332272817279 0.011810100279983712 0 -0.03623008713806114 0.010456991419182191 0 -0.03623008713806114 0.010456991419182191 0 -0.036744160690408027 0.0098793004137316016 0 -0.036182437018147141 0.0089060347913019356 0 -0.03623008713806114 0.010456991419182191 0 -0.036182437018147141 0.0089060347913019356 0 -0.034381255860096299 0.007403573944955371 0 -0.03623008713806114 0.010456991419182191 0 -0.035712991753495231 0.010061403082254653 0 -0.035462858439984465 0.0088062327088211188 0 -0.037223543526207714 0.010559011729231862 0 -0.03623008713806114 0.010456991419182191 0 -0.036744160690408027 0.0098793004137316016 0 -0.036184285998849798 0.0089430356509834202 0 -0.036013971468616249 0.0080601668936005292 0 -0.037277133917655282 0.0095034770589615125 0 -0.036744160690408027 0.0098793004137316016 0 -0.036182437018147141 0.0089060347913019356 0 -0.037216424228631681 0.008278642818181324 0 -0.036182437018147141 0.0089060347913019356 0 -0.036004838223038078 0.0075801334781277641 0 -0.037216424228631681 0.008278642818181324 0 -0.036004838223038078 0.0075801334781277641 0 -0.036703388714999223 0.0068971315951325647 0 -0.036004838223038078 0.0075801334781277641 0 -0.036703388714999223 0.0068971315951325647 0 -0.035408512919740384 0.0063744475734995266 0 -0.036004838223038078 0.0075801334781277641 0 -0.034381255860096299 0.007403573944955371 0 -0.035408512919740384 0.0063744475734995266 0 -0.036182437018147141 0.0089060347913019356 0 -0.036004838223038078 0.0075801334781277641 0 -0.034381255860096299 0.007403573944955371 0 -0.035712991753495231 0.010061403082254653 0 -0.035093754515557164 0.0087773076308491384 0 -0.035462858439984465 0.0088062327088211188 0 -0.036013971468616249 0.0080601668936005292 0 -0.037381269961716694 0.0087644533216775528 0 -0.034381255860096299 0.007403573944955371 0 -0.033392762102804618 0.0048978425029272922 0 -0.035408512919740384 0.0063744475734995266 0 -0.034563864382119953 0.0078681628475639909 0 -0.035462858439984465 0.0088062327088211188 0 -0.034922886331494069 0.0076890643357118149 0 -0.033392762102804618 0.0048978425029272922 0 -0.035206787862993381 0.0050294634672430451 0 -0.035408512919740384 0.0063744475734995266 0 -0.034381255860096299 0.007403573944955371 0 -0.033392762102804618 0.0048978425029272922 0 -0.032484628102531783 0.0037026152253977459 0 -0.034563864382119953 0.0078681628475639909 0 -0.035093754515557164 0.0087773076308491384 0 -0.035462858439984465 0.0088062327088211188 0 -0.033392762102804618 0.0048978425029272922 0 -0.034340533640183218 0.0043894090350702734 0 -0.035206787862993381 0.0050294634672430451 0 -0.033392762102804618 0.0048978425029272922 0 -0.034340533640183218 0.0043894090350702734 0 -0.033165096858220715 0.0031189787623957716 0 -0.034340533640183218 0.0043894090350702734 0 -0.035206787862993381 0.0050294634672430451 0 -0.034338316733347488 0.0031292367520859175 0 -0.035206787862993381 0.0050294634672430451 0 -0.036852038621163395 0.0049398465245794184 0 -0.034338316733347488 0.0031292367520859175 0 -0.036703388714999223 0.0068971315951325647 0 -0.036852038621163395 0.0049398465245794184 0 -0.035408512919740384 0.0063744475734995266 0 -0.035206787862993381 0.0050294634672430451 0 -0.036852038621163395 0.0049398465245794184 0 -0.035408512919740384 0.0063744475734995266 0 -0.035454104410682009 0.0031054536158270059 0 -0.034813262741380975 0.0026113061014789297 0 -0.035199506206032315 0.0022665930654877623 0 -0.035209499419336945 0.0061036001289143131 0 -0.034647829688893163 0.0054683832363949143 0 -0.035454104410682009 0.0031054536158270059 0 -0.034813262741380975 0.0026113061014789297 0 -0.034338316733347488 0.0031292367520859175 0 -0.034813262741380975 0.0026113061014789297 0 -0.03422271936293917 0.002689323923997628 0 -0.034676736189977492 0.0017544974409754979 0 -0.034813262741380975 0.0026113061014789297 0 -0.035199506206032315 0.0022665930654877623 0 -0.034676736189977492 0.0017544974409754979 0 -0.034813262741380975 0.0026113061014789297 0 -0.034338316733347488 0.0031292367520859175 0 -0.03422271936293917 0.002689323923997628 0 -0.033866463582149189 0.0028798737637490846 0 -0.03422271936293917 0.002689323923997628 0 -0.033798890822055207 0.0014022576264320096 0 -0.034340533640183218 0.0043894090350702734 0 -0.034338316733347488 0.0031292367520859175 0 -0.033165096858220715 0.0031189787623957716 0 -0.034338316733347488 0.0031292367520859175 0 -0.033165096858220715 0.0031189787623957716 0 -0.03422271936293917 0.002689323923997628 0 -0.036624933408847919 0.0080208110026314759 0 -0.03656926240933752 0.0079252270390807976 0 -0.036417985650125273 0.0073988854420417305 0 -0.036624933408847919 0.0080208110026314759 0 -0.033392762102804618 0.0048978425029272922 0 -0.032484628102531783 0.0037026152253977459 0 -0.033162104388211426 0.0033669023988512352 0 -0.037381269961716694 0.0087644533216775528 0 -0.036624933408847919 0.0080208110026314759 0 -0.03422271936293917 0.002689323923997628 0 -0.033798890822055207 0.0014022576264320096 0 -0.034676736189977492 0.0017544974409754979 0 -0.036624933408847919 0.0080208110026314759 0 -0.036915094930208024 0.0062293670210810297 0 -0.033798890822055207 0.0014022576264320096 0 -0.034676736189977492 0.0017544974409754979 0 -0.034400955965265156 0.00078571687963815734 0 -0.035199506206032315 0.0022665930654877623 0 -0.034676736189977492 0.0017544974409754979 0 -0.035335893374238023 0.0016317364753878863 0 -0.035784324184429853 0.0019871686857837246 0 -0.035199506206032315 0.0022665930654877623 0 -0.035335893374238023 0.0016317364753878863 0 -0.035827402407232596 0.0012597004234699736 0 -0.035335893374238023 0.0016317364753878863 0 -0.03515284569750491 0.00090852258331980515 0 -0.034676736189977492 0.0017544974409754979 0 -0.035335893374238023 0.0016317364753878863 0 -0.03515284569750491 0.00090852258331980515 0 -0.034676736189977492 0.0017544974409754979 0 -0.03515284569750491 0.00090852258331980515 0 -0.034400955965265156 0.00078571687963815734 0 -0.03515284569750491 0.00090852258331980515 0 -0.034947616985284549 0.00026917152253879377 0 -0.034400955965265156 0.00078571687963815734 0 -0.035586489310299577 0.00013544147744803454 0 -0.03515284569750491 0.00090852258331980515 0 -0.034947616985284549 0.00026917152253879377 0 -0.035586489310299577 0.00013544147744803454 0 -0.034947616985284549 0.00026917152253879377 0 -0.03500566825478988 -0.00032777367000325536 0 -0.034947616985284549 0.00026917152253879377 0 -0.03500566825478988 -0.00032777367000325536 0 -0.034365819199149508 0.00018030285957944505 0 -0.034315940849689176 -0.00029066418704535121 0 -0.034365819199149508 0.00018030285957944505 0 -0.03376822828159181 0.00010588881016943726 0 -0.034315940849689176 -0.00029066418704535121 0 -0.03376822828159181 0.00010588881016943726 0 -0.033701595557896029 -0.00034632352203482802 0 -0.03500566825478988 -0.00032777367000325536 0 -0.034315940849689176 -0.00029066418704535121 0 -0.034365819199149508 0.00018030285957944505 0 -0.034947616985284549 0.00026917152253879377 0 -0.034365819199149508 0.00018030285957944505 0 -0.034400955965265156 0.00078571687963815734 0 -0.034365819199149508 0.00018030285957944505 0 -0.034400955965265156 0.00078571687963815734 0 -0.03370263853110652 9.3439187650195076e-05 0 -0.036626613929720171 0.0053097387012137837 0 -0.037423816959130884 0.0057253649240991212 0 -0.033798890822055207 0.0014022576264320096 0 -0.034400955965265156 0.00078571687963815734 0 -0.03370263853110652 9.3439187650195076e-05 0 -0.036915094930208024 0.0062293670210810297 0 -0.037423816959130884 0.0057253649240991212 0 -0.039753706341149449 0.010162714114137173 0 -0.039714582647077577 0.010136821234280861 0 -0.039754782480047504 0.010046658032614621 0 -0.039753706341149449 0.010162714114137173 0 -0.039754782480047504 0.010046658032614621 0 -0.039850898566388154 0.0098918931062076734 0 -0.039714582647077577 0.010136821234280861 0 -0.039660119935290075 0.01013441293019453 0 -0.039754782480047504 0.010046658032614621 0 -0.039660119935290075 0.01013441293019453 0 -0.039670721380718282 0.010159146481116179 0 -0.039673830315360079 0.010154601080114622 0 -0.039714582647077577 0.010136821234280861 0 -0.039660119935290075 0.01013441293019453 0 -0.039673830315360079 0.010154601080114622 0 -0.039660119935290075 0.01013441293019453 0 -0.039754782480047504 0.010046658032614621 0 -0.039563048934608457 0.010128186905148207 0 -0.039754782480047504 0.010046658032614621 0 -0.039850898566388154 0.0098918931062076734 0 -0.039751644239729503 0.0097920423140381834 0 -0.039754782480047504 0.010046658032614621 0 -0.039751644239729503 0.0097920423140381834 0 -0.039563048934608457 0.010128186905148207 0 -0.037423816959130884 0.0057253649240991212 0 -0.037812234594503426 0.0065008966854216525 0 -0.037312773809191048 0.0072250453755398946 0 -0.037820343482497985 0.0069216199407251934 0 -0.037520056904374592 0.0065894390860515894 0 -0.037812234594503426 0.0065008966854216525 0 -0.037798062702285251 0.0055120961759651237 0 -0.037697672317139198 0.0063553943241546019 0 -0.037779122651923895 0.0063693513029091323 0 -0.037706599185708754 0.0064138102912084209 0 -0.037423816959130884 0.0057253649240991212 0 -0.037798062702285251 0.0055120961759651237 0 -0.039751644239729503 0.0097920423140381834 0 -0.039563048934608457 0.010128186905148207 0 -0.038890267888205238 0.010223518582054218 0 -0.037812234594503426 0.0065008966854216525 0 -0.03727199942458094 0.0074810590793606092 0 -0.037312773809191048 0.0072250453755398946 0 -0.036263802495797533 0.0071263578492567533 0 -0.036710710759515493 0.0065761846060714861 0 -0.037812234594503426 0.0065008966854216525 0 -0.037888665293990598 0.0074355713667786805 0 -0.040275043957853945 0.0092798489789731251 0 -0.038890267888205238 0.010223518582054218 0 -0.038537415992270438 0.009033881174797578 0 -0.039660119935290075 0.01013441293019453 0 -0.039563048934608457 0.010128186905148207 0 -0.039670721380718282 0.010159146481116179 0 -0.039107147512382666 0.010709423336878713 0 -0.039063132800155075 0.010858821286529515 0 -0.039563048934608457 0.010128186905148207 0 -0.039310416606735614 0.010741367608831693 0 -0.038890267888205238 0.010223518582054218 0 -0.039563048934608457 0.010128186905148207 0 -0.039310416606735614 0.010741367608831693 0 -0.039944116620928644 0.011100629242197107 0 -0.039310416606735614 0.010741367608831693 0 -0.039448879424773355 0.011186890285050164 0 -0.038840256305917531 0.011514017571030544 0 -0.03998154101864336 0.011900708871707539 0 -0.039944116620928644 0.011100629242197107 0 -0.040197730869517646 0.012219249139917359 0 -0.039310416606735614 0.010741367608831693 0 -0.039448879424773355 0.011186890285050164 0 -0.039944116620928644 0.011100629242197107 0 -0.039063132800155075 0.010858821286529515 0 -0.038863884618588619 0.011103766050921239 0 -0.039540650009281093 0.011550668586663038 0 -0.039393978452308062 0.012161784093982135 0 -0.038840256305917531 0.011514017571030544 0 -0.039448879424773355 0.011186890285050164 0 -0.039540650009281093 0.011550668586663038 0 -0.038840256305917531 0.011514017571030544 0 -0.039540650009281093 0.011550668586663038 0 -0.03998154101864336 0.011900708871707539 0 -0.039393978452308062 0.012161784093982135 0 -0.039540650009281093 0.011550668586663038 0 -0.03998154101864336 0.011900708871707539 0 -0.039944116620928644 0.011100629242197107 0 -0.039448879424773355 0.011186890285050164 0 -0.039540650009281093 0.011550668586663038 0 -0.039944116620928644 0.011100629242197107 0 -0.039673830315360079 0.010154601080114622 0 -0.039718058071541086 0.010160053036446941 0 -0.039722245484886787 0.010166588452649067 0 -0.039688628871144979 0.010146243475417954 0 -0.039753706341149449 0.010162714114137173 0 -0.039722245484886787 0.010166588452649067 0 -0.039670721380718282 0.010159146481116179 0 -0.039673830315360079 0.010154601080114622 0 -0.039626941909600373 0.010125485447743022 0 -0.03844278416746115 0.0099513334853760047 0 -0.038213099219166061 0.0097158274959689324 0 -0.039670721380718282 0.010159146481116179 0 -0.039626941909600373 0.010125485447743022 0 -0.039657176289487506 0.010105091981149875 0 -0.039714582647077577 0.010136821234280861 0 -0.039673830315360079 0.010154601080114622 0 -0.039718058071541086 0.010160053036446941 0 -0.039753706341149449 0.010162714114137173 0 -0.039714582647077577 0.010136821234280861 0 -0.039718058071541086 0.010160053036446941 0 -0.039753706341149449 0.010162714114137173 0 -0.039718058071541086 0.010160053036446941 0 -0.039722245484886787 0.010166588452649067 0 -0.039626941909600373 0.010125485447743022 0 -0.039657176289487506 0.010105091981149875 0 -0.039623299188014917 0.01008651085007208 0 -0.037381269961716694 0.0087644533216775528 0 -0.038213099219166061 0.0097158274959689324 0 -0.039696194266257576 0.010140461298989861 0 -0.039688628871144979 0.010146243475417954 0 -0.039722245484886787 0.010166588452649067 0 -0.039585693426008241 0.010064717792390116 0 -0.039626941909600373 0.010125485447743022 0 -0.039623299188014917 0.01008651085007208 0 -0.038455747920919631 0.010509875220663314 0 -0.037381269961716694 0.0087644533216775528 0 -0.039621649165340764 0.010049360187977304 0 -0.039585693426008241 0.010064717792390116 0 -0.039623299188014917 0.01008651085007208 0 -0.038455747920919631 0.010509875220663314 0 -0.038863884618588619 0.011103766050921239 0 -0.038589558403220502 0.011536491907399322 0 -0.038863884618588619 0.011103766050921239 0 -0.039621649165340764 0.010049360187977304 0 -0.039657176289487506 0.010105091981149875 0 -0.039623299188014917 0.01008651085007208 0 -0.039148575130114133 0.010519020632673192 0 -0.038991389122484663 0.010597800931282814 0 -0.039223215975045675 0.010970635321740536 0 -0.040357458172558001 0.01324811855492836 0 -0.040190724392085049 0.012226007603997911 0 -0.039610593732813178 0.012831039046775308 0 -0.039610593732813178 0.012831039046775308 0 -0.039393978452308062 0.012161784093982135 0 -0.038898968973629156 0.01291568079560384 0 -0.039610593732813178 0.012831039046775308 0 -0.039393978452308062 0.012161784093982135 0 -0.039784701999403004 0.012258708868398393 0 -0.03998154101864336 0.011900708871707539 0 -0.039393978452308062 0.012161784093982135 0 -0.039784701999403004 0.012258708868398393 0 -0.040190724392085049 0.012226007603997911 0 -0.039610593732813178 0.012831039046775308 0 -0.039784701999403004 0.012258708868398393 0 -0.03998154101864336 0.011900708871707539 0 -0.040190724392085049 0.012226007603997911 0 -0.039784701999403004 0.012258708868398393 0 -0.038902497248930253 0.011154513372272737 0 -0.038863884618588619 0.011103766050921239 0 -0.038603483596073754 0.012367466870561511 0 -0.037604057783104522 0.012092440105302926 0 -0.038840256305917531 0.011514017571030544 0 -0.039393978452308062 0.012161784093982135 0 -0.038603483596073754 0.012367466870561511 0 -0.038898968973629156 0.01291568079560384 0 -0.039393978452308062 0.012161784093982135 0 -0.038603483596073754 0.012367466870561511 0 -0.038840256305917531 0.011514017571030544 0 -0.038275610183666244 0.013159404455348162 0 -0.038603483596073754 0.012367466870561511 0 -0.038898968973629156 0.01291568079560384 0 -0.038275610183666244 0.013159404455348162 0 -0.038603483596073754 0.012367466870561511 0 -0.037604057783104522 0.012092440105302926 0 -0.037434047548410933 0.013507958086204742 0 -0.038275610183666244 0.013159404455348162 0 -0.037604057783104522 0.012092440105302926 0 -0.037434047548410933 0.013507958086204742 0 -0.037604057783104522 0.012092440105302926 0 -0.036202072584587748 0.012326752243363031 0 -0.037604057783104522 0.012092440105302926 0 -0.038220693441445797 0.010854517631351373 0 -0.037123480290919955 0.01075391186832424 0 -0.037604057783104522 0.012092440105302926 0 -0.038840256305917531 0.011514017571030544 0 -0.038220693441445797 0.010854517631351373 0 -0.039310416606735614 0.010741367608831693 0 -0.038840256305917531 0.011514017571030544 0 -0.038220693441445797 0.010854517631351373 0 -0.039310416606735614 0.010741367608831693 0 -0.038220693441445797 0.010854517631351373 0 -0.038890267888205238 0.010223518582054218 0 -0.038220693441445797 0.010854517631351373 0 -0.038890267888205238 0.010223518582054218 0 -0.037895956673971005 0.0099188619540047495 0 -0.038890267888205238 0.010223518582054218 0 -0.038537415992270438 0.009033881174797578 0 -0.037895956673971005 0.0099188619540047495 0 -0.03727199942458094 0.0074810590793606092 0 -0.036049877914323458 0.0079787666361927079 0 -0.038537415992270438 0.009033881174797578 0 -0.037895956673971005 0.0099188619540047495 0 -0.036783137070695957 0.0087531872116985952 0 -0.037123480290919955 0.01075391186832424 0 -0.037895956673971005 0.0099188619540047495 0 -0.036783137070695957 0.0087531872116985952 0 -0.038220693441445797 0.010854517631351373 0 -0.037123480290919955 0.01075391186832424 0 -0.037895956673971005 0.0099188619540047495 0 -0.037123480290919955 0.01075391186832424 0 -0.036013487067424757 0.010529200969127317 0 -0.036783137070695957 0.0087531872116985952 0 -0.034999986287125286 0.0098324038712066346 0 -0.036013487067424757 0.010529200969127317 0 -0.036783137070695957 0.0087531872116985952 0 -0.034999986287125286 0.0098324038712066346 0 -0.03499996889510093 0.0084298882937114353 0 -0.036783137070695957 0.0087531872116985952 0 -0.034999986287125286 0.0098324038712066346 0 -0.036013487067424757 0.010529200969127317 0 -0.034999966136880799 0.011234829678721961 0 -0.035001107402804002 0.011236004601887652 0 -0.036062899937843632 0.012216494774202743 0 -0.036013487067424757 0.010529200969127317 0 -0.034999966136880799 0.011234829678721961 0 -0.036202072584587748 0.012326752243363031 0 -0.037604057783104522 0.012092440105302926 0 -0.037123480290919955 0.01075391186832424 0 -0.036202072584587748 0.012326752243363031 0 -0.037123480290919955 0.01075391186832424 0 -0.036013487067424757 0.010529200969127317 0 -0.036202072584587748 0.012326752243363031 0 -0.036648789071456751 0.012756558082928778 0 -0.036062899937843632 0.012216494774202743 0 -0.036028614457226091 0.013374728618938767 0 -0.037434047548410933 0.013507958086204742 0 -0.03623988823931186 0.01242176255411891 0 -0.03499998828521414 0.011235027965923981 0 -0.03623988823931186 0.01242176255411891 0 -0.034999978149744849 0.013120921934416368 0 -0.036028614457226091 0.013374728618938767 0 -0.03623988823931186 0.01242176255411891 0 -0.034999978149744849 0.013120921934416368 0 -0.035900037677951475 0.0050288322864608702 0 -0.034999954385571103 0.0048399505206660207 0 -0.035713367314117568 0.0057742320229354294 0 -0.035900037677951475 0.0050288322864608702 0 -0.03639525616516176 0.0055439391491083814 0 -0.035713367314117568 0.0057742320229354294 0 -0.035900037677951475 0.0050288322864608702 0 -0.035696088507766378 0.0043891830394359099 0 -0.0362083213473436 0.0045375042289219495 0 -0.035900037677951475 0.0050288322864608702 0 -0.034999954385571103 0.0048399505206660207 0 -0.035696088507766378 0.0043891830394359099 0 -0.03695699184458958 0.005076352652529606 0 -0.03639525616516176 0.0055439391491083814 0 -0.037475438071392302 0.0056772646384674417 0 -0.037792912234727215 0.0045631199846910241 0 -0.036532282564317738 0.0041322098232631447 0 -0.036575013368372683 0.0043289656818395628 0 -0.035900037677951475 0.0050288322864608702 0 -0.0362083213473436 0.0045375042289219495 0 -0.036419120427856992 0.0049231514944176723 0 -0.0362083213473436 0.0045375042289219495 0 -0.036511395470923691 0.0046220671772011536 0 -0.036575013368372683 0.0043289656818395628 0 -0.0362083213473436 0.0045375042289219495 0 -0.036511395470923691 0.0046220671772011536 0 -0.036419120427856992 0.0049231514944176723 0 -0.036511395470923691 0.0046220671772011536 0 -0.036839247740474854 0.0047035439912588625 0 -0.036575013368372683 0.0043289656818395628 0 -0.036511395470923691 0.0046220671772011536 0 -0.036839247740474854 0.0047035439912588625 0 -0.036419120427856992 0.0049231514944176723 0 -0.036839247740474854 0.0047035439912588625 0 -0.03695699184458958 0.005076352652529606 0 -0.036419120427856992 0.0049231514944176723 0 -0.03695699184458958 0.005076352652529606 0 -0.036419120427856992 0.0049231514944176723 0 -0.03639525616516176 0.0055439391491083814 0 -0.035900037677951475 0.0050288322864608702 0 -0.036419120427856992 0.0049231514944176723 0 -0.03639525616516176 0.0055439391491083814 0 -0.035890593975078898 0.006548154732364175 0 -0.036686932587185493 0.0053282181944174275 0 -0.035230709195960573 0.0064370213389918886 0 -0.035693692529608988 0.0060521296790227172 0 -0.035679058726908269 0.005267493701723215 0 -0.03639525616516176 0.0055439391491083814 0 -0.035713367314117568 0.0057742320229354294 0 -0.036277344720541171 0.0067293460960647557 0 -0.03639525616516176 0.0055439391491083814 0 -0.036277344720541171 0.0067293460960647557 0 -0.037475438071392302 0.0056772646384674417 0 -0.034999954503557154 0.006352470587274805 0 -0.035713367314117568 0.0057742320229354294 0 -0.036277344720541171 0.0067293460960647557 0 -0.034999954385571103 0.0048399505206660207 0 -0.034999954503557154 0.006352470587274805 0 -0.035713367314117568 0.0057742320229354294 0 -0.034999308050385487 0.0078655021750744045 0 -0.035302090136704545 0.0073404678872780295 0 -0.035230709195960573 0.0064370213389918886 0 -0.034999954503557154 0.006352470587274805 0 -0.035000002517743191 0.0078650115552332516 0 -0.036277344720541171 0.0067293460960647557 0 -0.035000738386771549 0.0078632464384963477 0 -0.035890593975078898 0.006548154732364175 0 -0.034999308050385487 0.0078655021750744045 0 -0.035000128267837542 0.0084279403877111064 0 -0.035302090136704545 0.0073404678872780295 0 -0.035000128267837542 0.0084279403877111064 0 -0.035302090136704545 0.0073404678872780295 0 -0.035524104829743886 0.0073240336049117749 0 -0.035000789507304703 0.0084287940283344163 0 -0.036049877914323458 0.0079787666361927079 0 -0.035302090136704545 0.0073404678872780295 0 -0.035524104829743886 0.0073240336049117749 0 -0.035770858012357853 0.0066464980100289454 0 -0.035230709195960573 0.0064370213389918886 0 -0.035693692529608988 0.0060521296790227172 0 -0.035770858012357853 0.0066464980100289454 0 -0.035302090136704545 0.0073404678872780295 0 -0.035230709195960573 0.0064370213389918886 0 -0.035770858012357853 0.0066464980100289454 0 -0.035693692529608988 0.0060521296790227172 0 -0.035770858012357853 0.0066464980100289454 0 -0.036139348913829118 0.0058288540583791302 0 -0.036263802495797533 0.0071263578492567533 0 -0.035524104829743886 0.0073240336049117749 0 -0.035770858012357853 0.0066464980100289454 0 -0.036263802495797533 0.0071263578492567533 0 -0.036406984511392113 0.0062855669409944744 0 -0.036710710759515493 0.0065761846060714861 0 -0.036263802495797533 0.0071263578492567533 0 -0.035770858012357853 0.0066464980100289454 0 -0.036406984511392113 0.0062855669409944744 0 -0.035770858012357853 0.0066464980100289454 0 -0.036406984511392113 0.0062855669409944744 0 -0.036139348913829118 0.0058288540583791302 0 -0.036406984511392113 0.0062855669409944744 0 -0.036561331535724322 0.0054952155153887476 0 -0.036797164186940338 0.0057274424997994754 0 -0.036406984511392113 0.0062855669409944744 0 -0.036139348913829118 0.0058288540583791302 0 -0.036561331535724322 0.0054952155153887476 0 -0.036139348913829118 0.0058288540583791302 0 -0.036561331535724322 0.0054952155153887476 0 -0.036297299586557093 0.0051141636271252559 0 -0.036139348913829118 0.0058288540583791302 0 -0.036297299586557093 0.0051141636271252559 0 -0.035679058726908269 0.005267493701723215 0 -0.036561331535724322 0.0054952155153887476 0 -0.036297299586557093 0.0051141636271252559 0 -0.036736549933577223 0.0047474683465568062 0 -0.035693692529608988 0.0060521296790227172 0 -0.036139348913829118 0.0058288540583791302 0 -0.035679058726908269 0.005267493701723215 0 -0.037792912234727215 0.0045631199846910241 0 -0.039162304099175198 0.0044070935572011827 0 -0.037418129589841607 0.0034786634909721049 0 -0.03670825830731831 0.003736576643514605 0 -0.036098386496622108 0.0033842007422384677 0 -0.036839247740474854 0.0047035439912588625 0 -0.037792912234727215 0.0045631199846910241 0 -0.036575013368372683 0.0043289656818395628 0 -0.037475438071392302 0.0056772646384674417 0 -0.037792912234727215 0.0045631199846910241 0 -0.039162304099175198 0.0044070935572011827 0 -0.03695699184458958 0.005076352652529606 0 -0.037475438071392302 0.0056772646384674417 0 -0.037792912234727215 0.0045631199846910241 0 -0.036839247740474854 0.0047035439912588625 0 -0.03695699184458958 0.005076352652529606 0 -0.037792912234727215 0.0045631199846910241 0 -0.036686932587185493 0.0053282181944174275 0 -0.03744340841830273 0.0040899302315292796 0 -0.036297299586557093 0.0051141636271252559 0 -0.035679058726908269 0.005267493701723215 0 -0.036360441853262114 0.0042095266945531735 0 -0.036297299586557093 0.0051141636271252559 0 -0.036360441853262114 0.0042095266945531735 0 -0.036736549933577223 0.0047474683465568062 0 -0.036942755898270715 0.004097724225915385 0 -0.037214115431610711 0.0043823880004641887 0 -0.036736549933577223 0.0047474683465568062 0 -0.036360441853262114 0.0042095266945531735 0 -0.036942755898270715 0.004097724225915385 0 -0.036736549933577223 0.0047474683465568062 0 -0.037214115431610711 0.0043823880004641887 0 -0.03770518995687562 0.0039801294513722814 0 -0.037305482454022966 0.0037757418383127721 0 -0.036942755898270715 0.004097724225915385 0 -0.037214115431610711 0.0043823880004641887 0 -0.037305482454022966 0.0037757418383127721 0 -0.037214115431610711 0.0043823880004641887 0 -0.037547973108679571 0.0048592286108098048 0 -0.03770518995687562 0.0039801294513722814 0 -0.037214115431610711 0.0043823880004641887 0 -0.037547973108679571 0.0048592286108098048 0 -0.037055981317153625 0.0051478764762484695 0 -0.037547973108679571 0.0048592286108098048 0 -0.037352099764002104 0.0052772003796649029 0 -0.037568178506950906 0.0054724609815807405 0 -0.037547973108679571 0.0048592286108098048 0 -0.037055981317153625 0.0051478764762484695 0 -0.037352099764002104 0.0052772003796649029 0 -0.037055981317153625 0.0051478764762484695 0 -0.037100270646533852 0.0055749483840869035 0 -0.037352099764002104 0.0052772003796649029 0 -0.037214115431610711 0.0043823880004641887 0 -0.037055981317153625 0.0051478764762484695 0 -0.036736549933577223 0.0047474683465568062 0 -0.036561331535724322 0.0054952155153887476 0 -0.037055981317153625 0.0051478764762484695 0 -0.036736549933577223 0.0047474683465568062 0 -0.036561331535724322 0.0054952155153887476 0 -0.037055981317153625 0.0051478764762484695 0 -0.036797164186940338 0.0057274424997994754 0 -0.036797164186940338 0.0057274424997994754 0 -0.037100270646533852 0.0055749483840869035 0 -0.036885103358041696 0.0060841534377842057 0 -0.037055981317153625 0.0051478764762484695 0 -0.036797164186940338 0.0057274424997994754 0 -0.037100270646533852 0.0055749483840869035 0 -0.036885103358041696 0.0060841534377842057 0 -0.037079299106792883 0.0063067451130531527 0 -0.037264896840741558 0.0058883685357042038 0 -0.037100270646533852 0.0055749483840869035 0 -0.036885103358041696 0.0060841534377842057 0 -0.037264896840741558 0.0058883685357042038 0 -0.036406984511392113 0.0062855669409944744 0 -0.036797164186940338 0.0057274424997994754 0 -0.036885103358041696 0.0060841534377842057 0 -0.036885103358041696 0.0060841534377842057 0 -0.036710710759515493 0.0065761846060714861 0 -0.037079299106792883 0.0063067451130531527 0 -0.037312773809191048 0.0072250453755398946 0 -0.036710710759515493 0.0065761846060714861 0 -0.037204800499262558 0.0066350424444710033 0 -0.036406984511392113 0.0062855669409944744 0 -0.036885103358041696 0.0060841534377842057 0 -0.036710710759515493 0.0065761846060714861 0 -0.036710710759515493 0.0065761846060714861 0 -0.037079299106792883 0.0063067451130531527 0 -0.037204800499262558 0.0066350424444710033 0 -0.037079299106792883 0.0063067451130531527 0 -0.037204800499262558 0.0066350424444710033 0 -0.037364342386537304 0.0063182628707249729 0 -0.037820343482497985 0.0069216199407251934 0 -0.037520056904374592 0.0065894390860515894 0 -0.037749701002355182 0.0061702334997607248 0 -0.037798062702285251 0.0055120961759651237 0 -0.037850890275091774 0.0051888863513710488 0 -0.037312773809191048 0.0072250453755398946 0 -0.037204800499262558 0.0066350424444710033 0 -0.037520056904374592 0.0065894390860515894 0 -0.037520056904374592 0.0065894390860515894 0 -0.037364342386537304 0.0063182628707249729 0 -0.037749701002355182 0.0061702334997607248 0 -0.037204800499262558 0.0066350424444710033 0 -0.037520056904374592 0.0065894390860515894 0 -0.037364342386537304 0.0063182628707249729 0 -0.037079299106792883 0.0063067451130531527 0 -0.037364342386537304 0.0063182628707249729 0 -0.037264896840741558 0.0058883685357042038 0 -0.037364342386537304 0.0063182628707249729 0 -0.037749701002355182 0.0061702334997607248 0 -0.037471559912145909 0.0059716733192670757 0 -0.037749701002355182 0.0061702334997607248 0 -0.037471559912145909 0.0059716733192670757 0 -0.037568178506950906 0.0054724609815807405 0 -0.037850890275091774 0.0051888863513710488 0 -0.037847994971677547 0.0052548339797598223 0 -0.037580673899199495 0.0056413199349058495 0 -0.037568178506950906 0.0054724609815807405 0 -0.037829337776766177 0.0054636383261314732 0 -0.037364342386537304 0.0063182628707249729 0 -0.037471559912145909 0.0059716733192670757 0 -0.037264896840741558 0.0058883685357042038 0 -0.037471559912145909 0.0059716733192670757 0 -0.037264896840741558 0.0058883685357042038 0 -0.037568178506950906 0.0054724609815807405 0 -0.037264896840741558 0.0058883685357042038 0 -0.037352099764002104 0.0052772003796649029 0 -0.037568178506950906 0.0054724609815807405 0 -0.037100270646533852 0.0055749483840869035 0 -0.037264896840741558 0.0058883685357042038 0 -0.037352099764002104 0.0052772003796649029 0 -0.037547973108679571 0.0048592286108098048 0 -0.037568178506950906 0.0054724609815807405 0 -0.03795004592329871 0.0051187631225383121 0 -0.03795004592329871 0.0051187631225383121 0 -0.037829337776766177 0.0054636383261314732 0 -0.038306193761874156 0.005684153794920886 0 -0.037568178506950906 0.0054724609815807405 0 -0.03795004592329871 0.0051187631225383121 0 -0.037829337776766177 0.0054636383261314732 0 -0.037580673899199495 0.0056413199349058495 0 -0.037829337776766177 0.0054636383261314732 0 -0.038306193761874156 0.005684153794920886 0 -0.037798062702285251 0.0055120961759651237 0 -0.037789447179103222 0.0046440966760948011 0 -0.037850890275091774 0.0051888863513710488 0 -0.037789447179103222 0.0046440966760948011 0 -0.037848548073751015 0.0049453639971806995 0 -0.037856435653708241 0.0049992157686972773 0 -0.037775238317211864 0.0049899679089317863 0 -0.034315940849689176 -0.00029066418704535121 0 -0.033701595557896029 -0.00034632352203482802 0 -0.034765030782887577 -0.0010736114168104034 0 -0.03500566825478988 -0.00032777367000325536 0 -0.034765030782887577 -0.0010736114168104034 0 -0.036119407481311296 -0.0010001676839966605 0 -0.037789447179103222 0.0046440966760948011 0 -0.037742137262800277 0.003026217339325708 0 -0.03500566825478988 -0.00032777367000325536 0 -0.034315940849689176 -0.00029066418704535121 0 -0.034765030782887577 -0.0010736114168104034 0 -0.037789447179103222 0.0046440966760948011 0 -0.038306300646455092 0.0046344830469170683 0 -0.038306193761874156 0.005684153794920886 0 -0.038490259262947718 0.0047403593268046827 0 -0.039268173300698588 0.0049391594187056095 0 -0.03795004592329871 0.0051187631225383121 0 -0.038306193761874156 0.005684153794920886 0 -0.038490259262947718 0.0047403593268046827 0 -0.038490259262947718 0.0047403593268046827 0 -0.037990954561971726 0.0045306972420389984 0 -0.038316452148989689 0.0039323893541527996 0 -0.038490259262947718 0.0047403593268046827 0 -0.038316452148989689 0.0039323893541527996 0 -0.038938704845262115 0.0039654026476385381 0 -0.03795004592329871 0.0051187631225383121 0 -0.038490259262947718 0.0047403593268046827 0 -0.037990954561971726 0.0045306972420389984 0 -0.037547973108679571 0.0048592286108098048 0 -0.037990954561971726 0.0045306972420389984 0 -0.03770518995687562 0.0039801294513722814 0 -0.037547973108679571 0.0048592286108098048 0 -0.03795004592329871 0.0051187631225383121 0 -0.037990954561971726 0.0045306972420389984 0 -0.03770518995687562 0.0039801294513722814 0 -0.038316452148989689 0.0039323893541527996 0 -0.038123049631329682 0.0030978500309567446 0 -0.037990954561971726 0.0045306972420389984 0 -0.03770518995687562 0.0039801294513722814 0 -0.038316452148989689 0.0039323893541527996 0 -0.038316452148989689 0.0039323893541527996 0 -0.038726331944389916 0.0030517989730734123 0 -0.038123049631329682 0.0030978500309567446 0 -0.038316452148989689 0.0039323893541527996 0 -0.038726331944389916 0.0030517989730734123 0 -0.038938704845262115 0.0039654026476385381 0 -0.038726331944389916 0.0030517989730734123 0 -0.03827406496731383 0.0020118303137887966 0 -0.03889556591241547 0.0017702838673738434 0 -0.038726331944389916 0.0030517989730734123 0 -0.038123049631329682 0.0030978500309567446 0 -0.03827406496731383 0.0020118303137887966 0 -0.038123049631329682 0.0030978500309567446 0 -0.03772825826452679 0.0021548668427880061 0 -0.037269129826332112 0.0024587203832539409 0 -0.03770518995687562 0.0039801294513722814 0 -0.038123049631329682 0.0030978500309567446 0 -0.037638882993630947 0.0034202922923902163 0 -0.037883724118690176 0.0031076564247167816 0 -0.037714669345041751 0.0030754530180364457 0 -0.03772825826452679 0.0021548668427880061 0 -0.037286950967823189 0.001815722213107713 0 -0.037269129826332112 0.0024587203832539409 0 -0.038123049631329682 0.0030978500309567446 0 -0.03772825826452679 0.0021548668427880061 0 -0.03827406496731383 0.0020118303137887966 0 -0.03772825826452679 0.0021548668427880061 0 -0.037745846592966793 0.0013771916014806596 0 -0.03827406496731383 0.0020118303137887966 0 -0.03772825826452679 0.0021548668427880061 0 -0.037745846592966793 0.0013771916014806596 0 -0.037286950967823189 0.001815722213107713 0 -0.037745846592966793 0.0013771916014806596 0 -0.03827406496731383 0.0020118303137887966 0 -0.038343621977098029 0.0010236958897070238 0 -0.03827406496731383 0.0020118303137887966 0 -0.038343621977098029 0.0010236958897070238 0 -0.03889556591241547 0.0017702838673738434 0 -0.038343621977098029 0.0010236958897070238 0 -0.038013653459588619 0.00014342420007958546 0 -0.038940695571124735 0.00065306241956123877 0 -0.038449541052798547 -0.00044052166247118645 0 -0.038013653459588619 0.00014342420007958546 0 -0.038940695571124735 0.00065306241956123877 0 -0.037745846592966793 0.0013771916014806596 0 -0.038013653459588619 0.00014342420007958546 0 -0.03696058631121768 0.0012365732388944948 0 -0.037745846592966793 0.0013771916014806596 0 -0.038343621977098029 0.0010236958897070238 0 -0.038013653459588619 0.00014342420007958546 0 -0.038013653459588619 0.00014342420007958546 0 -0.03696058631121768 0.0012365732388944948 0 -0.036763109755650551 0.00054097563224755787 0 -0.037753940618545263 -0.00077243768005467897 0 -0.038013653459588619 0.00014342420007958546 0 -0.03742361693460395 -0.00027537881469497533 0 -0.037660615046887086 0.00012427157835951947 0 -0.037155909135819953 0.00016151302440265216 0 -0.037155909135819953 0.00016151302440265216 0 -0.036329877972326279 0.00023556135684008538 0 -0.03696058631121768 0.0012365732388944948 0 -0.036763109755650551 0.00054097563224755787 0 -0.03637828532719662 0.001095380176339394 0 -0.036763109755650551 0.00054097563224755787 0 -0.03637828532719662 0.001095380176339394 0 -0.036110379672635008 0.00068143681858511885 0 -0.03696058631121768 0.0012365732388944948 0 -0.03637828532719662 0.001095380176339394 0 -0.036581049059183232 0.001526001208789753 0 -0.036581049059183232 0.001526001208789753 0 -0.036717596845827233 0.0018919406153787108 0 -0.036106349273874613 0.0014597938605968635 0 -0.036581049059183232 0.001526001208789753 0 -0.036831324772322094 0.0018830366549475845 0 -0.036717596845827233 0.0018919406153787108 0 -0.037745846592966793 0.0013771916014806596 0 -0.03696058631121768 0.0012365732388944948 0 -0.037286950967823189 0.001815722213107713 0 -0.03696058631121768 0.0012365732388944948 0 -0.036581049059183232 0.001526001208789753 0 -0.036831324772322094 0.0018830366549475845 0 -0.03696058631121768 0.0012365732388944948 0 -0.037286950967823189 0.001815722213107713 0 -0.036831324772322094 0.0018830366549475845 0 -0.037714669345041751 0.0030754530180364457 0 -0.037599513544556637 0.0030767005540366195 0 -0.036831324772322094 0.0018830366549475845 0 -0.037269129826332112 0.0024587203832539409 0 -0.036613757235959922 0.0020490335724309516 0 -0.037638882993630947 0.0034202922923902163 0 -0.037305482454022966 0.0037757418383127721 0 -0.037082095829974564 0.0034042760493764729 0 -0.037592568723584574 0.003054030203430611 0 -0.037599513544556637 0.0030767005540366195 0 -0.037286950967823189 0.001815722213107713 0 -0.036831324772322094 0.0018830366549475845 0 -0.037269129826332112 0.0024587203832539409 0 -0.03770518995687562 0.0039801294513722814 0 -0.037638882993630947 0.0034202922923902163 0 -0.037305482454022966 0.0037757418383127721 0 -0.037599513544556637 0.0030767005540366195 0 -0.037084754218585335 0.0023757011280187133 0 -0.03744340841830273 0.0040899302315292796 0 -0.037599513544556637 0.0030767005540366195 0 -0.036360441853262114 0.0042095266945531735 0 -0.036942755898270715 0.004097724225915385 0 -0.037082095829974564 0.0034042760493764729 0 -0.036942755898270715 0.004097724225915385 0 -0.037305482454022966 0.0037757418383127721 0 -0.037082095829974564 0.0034042760493764729 0 -0.039162304099175198 0.0044070935572011827 0 -0.041098354511221978 0.002823058747273806 0 -0.038413527876731954 0.0021387975781229753 0 -0.039162304099175198 0.0044070935572011827 0 -0.037418129589841607 0.0034786634909721049 0 -0.038413527876731954 0.0021387975781229753 0 -0.037418129589841607 0.0034786634909721049 0 -0.036660953258586308 0.0025015092795285777 0 -0.038413527876731954 0.0021387975781229753 0 -0.037792912234727215 0.0045631199846910241 0 -0.037418129589841607 0.0034786634909721049 0 -0.035606722477054098 0.0036103131307225517 0 -0.037418129589841607 0.0034786634909721049 0 -0.036660953258586308 0.0025015092795285777 0 -0.036235910302575398 0.0029860390215055996 0 -0.037084754218585335 0.0023757011280187133 0 -0.036331773801393054 0.0020297633946367564 0 -0.036660953258586308 0.0025015092795285777 0 -0.038413527876731954 0.0021387975781229753 0 -0.035507208105225854 0.0013314198235238577 0 -0.036106349273874613 0.0014597938605968635 0 -0.035961597247944642 0.0010551200047204938 0 -0.035507208105225854 0.0013314198235238577 0 -0.03637828532719662 0.001095380176339394 0 -0.036581049059183232 0.001526001208789753 0 -0.036106349273874613 0.0014597938605968635 0 -0.03637828532719662 0.001095380176339394 0 -0.036106349273874613 0.0014597938605968635 0 -0.035961597247944642 0.0010551200047204938 0 -0.03637828532719662 0.001095380176339394 0 -0.036110379672635008 0.00068143681858511885 0 -0.035961597247944642 0.0010551200047204938 0 -0.036813074716978547 -0.0010779181968726631 0 -0.03742361693460395 -0.00027537881469497533 0 -0.036703734689301826 -0.00019961325267995827 0 -0.036703734689301826 -0.00019961325267995827 0 -0.035400894031067581 0.00031151965839398691 0 -0.035809271513434639 -0.00028268652358411138 0 -0.036137135837568599 -0.00084323235164596568 0 -0.036703734689301826 -0.00019961325267995827 0 -0.035809271513434639 -0.00028268652358411138 0 -0.036813074716978547 -0.0010779181968726631 0 -0.036137135837568599 -0.00084323235164596568 0 -0.036703734689301826 -0.00019961325267995827 0 -0.036329877972326279 0.00023556135684008538 0 -0.035783199279667964 0.00028394390108632235 0 -0.036110379672635008 0.00068143681858511885 0 -0.035961597247944642 0.0010551200047204938 0 -0.03557120908346037 0.00080196085898215981 0 -0.036110379672635008 0.00068143681858511885 0 -0.03557120908346037 0.00080196085898215981 0 -0.035400894031067581 0.00031151965839398691 0 -0.035400894031067581 0.00031151965839398691 0 -0.035150800536069123 4.6903271164112948e-05 0 -0.035211646828385901 0.0011674428005755421 0 -0.035630341922181688 0.00057477785566959372 0 -0.03585118307340366 0.0019675200892784318 0 -0.03557120908346037 0.00080196085898215981 0 -0.035400894031067581 0.00031151965839398691 0 -0.035211646828385901 0.0011674428005755421 0 -0.035400894031067581 0.00031151965839398691 0 -0.035809271513434639 -0.00028268652358411138 0 -0.035150800536069123 4.6903271164112948e-05 0 -0.035558378640942814 -0.00074437418082395565 0 -0.035809271513434639 -0.00028268652358411138 0 -0.035150800536069123 4.6903271164112948e-05 0 -0.036137135837568599 -0.00084323235164596568 0 -0.035558378640942814 -0.00074437418082395565 0 -0.035809271513434639 -0.00028268652358411138 0 -0.035120442421097672 -0.0012729886016221179 0 -0.035558378640942814 -0.00074437418082395565 0 -0.035150800536069123 4.6903271164112948e-05 0 -0.035450594129809943 -0.00063025860210911373 0 -0.035630341922181688 0.00057477785566959372 0 -0.034999983107957974 -0.00080437804368898224 0 -0.036036059039526606 0.00089207688410615537 0 -0.034999991507334717 0.0012616105661919438 0 -0.034999991507334717 0.0012616105661919438 0 -0.035761199201236014 0.0017732115990151997 0 -0.03499999537322173 0.0033273780895201745 0 -0.036036059039526606 0.00089207688410615537 0 -0.035761199201236014 0.0017732115990151997 0 -0.036330981492890747 0.0024922507718173961 0 -0.036036059039526606 0.00089207688410615537 0 -0.034999991507334717 0.0012616105661919438 0 -0.035761199201236014 0.0017732115990151997 0 -0.035761199201236014 0.0017732115990151997 0 -0.036330981492890747 0.0024922507718173961 0 -0.03499999537322173 0.0033273780895201745 0 -0.035961597247944642 0.0010551200047204938 0 -0.03557120908346037 0.00080196085898215981 0 -0.035507208105225854 0.0013314198235238577 0 -0.03557120908346037 0.00080196085898215981 0 -0.035507208105225854 0.0013314198235238577 0 -0.035211646828385901 0.0011674428005755421 0 -0.036660953258586308 0.0025015092795285777 0 -0.035507208105225854 0.0013314198235238577 0 -0.035800982565229005 0.0022951077397314261 0 -0.035211646828385901 0.0011674428005755421 0 -0.035800982565229005 0.0022951077397314261 0 -0.035701778565942671 0.0026644415967578485 0 -0.035507208105225854 0.0013314198235238577 0 -0.035211646828385901 0.0011674428005755421 0 -0.035800982565229005 0.0022951077397314261 0 -0.037418129589841607 0.0034786634909721049 0 -0.036235910302575398 0.0029860390215055996 0 -0.035606722477054098 0.0036103131307225517 0 -0.035211646828385901 0.0011674428005755421 0 -0.035701778565942671 0.0026644415967578485 0 -0.035606722477054098 0.0036103131307225517 0 -0.03585118307340366 0.0019675200892784318 0 -0.036098386496622108 0.0033842007422384677 0 -0.036660953258586308 0.0025015092795285777 0 -0.035800982565229005 0.0022951077397314261 0 -0.036235910302575398 0.0029860390215055996 0 -0.035701778565942671 0.0026644415967578485 0 -0.036235910302575398 0.0029860390215055996 0 -0.035606722477054098 0.0036103131307225517 0 -0.035800982565229005 0.0022951077397314261 0 -0.035701778565942671 0.0026644415967578485 0 -0.036235910302575398 0.0029860390215055996 0 -0.036098386496622108 0.0033842007422384677 0 -0.036102625537801275 0.0033996470055449347 0 -0.035696088507766378 0.0043891830394359099 0 -0.0362083213473436 0.0045375042289219495 0 -0.036547884096316027 0.0041201571514353341 0 -0.0362083213473436 0.0045375042289219495 0 -0.036547884096316027 0.0041201571514353341 0 -0.036575013368372683 0.0043289656818395628 0 -0.034999954385571103 0.0048399505206660207 0 -0.035696088507766378 0.0043891830394359099 0 -0.034999994669797592 0.0033275300177328087 0 -0.036098386496622108 0.0033842007422384677 0 -0.035001403831040154 0.0033273009339853084 0 -0.036330981492890747 0.0024922507718173961 0 -0.036623160202476149 0.0040698258472196373 0 -0.03499999537322173 0.0033273780895201745 0 -0.035696088507766378 0.0043891830394359099 0 -0.036547884096316027 0.0041201571514353341 0 -0.034999994669797592 0.0033275300177328087 0 -0.038310869819079676 -0.00017296564348972285 0 -0.038619420420877577 0.00030891080649356482 0 -0.038224070418243168 0.00013143273386075055 0 -0.038310869819079676 -0.00017296564348972285 0 -0.037869285771425461 -0.00025798048981164496 0 -0.038066491957329897 -0.0004540918313103747 0 -0.038310869819079676 -0.00017296564348972285 0 -0.038224070418243168 0.00013143273386075055 0 -0.037869285771425461 -0.00025798048981164496 0 -0.038310869819079676 -0.00017296564348972285 0 -0.03853966160440709 -3.9134226519479553e-05 0 -0.038619420420877577 0.00030891080649356482 0 -0.038310869819079676 -0.00017296564348972285 0 -0.03853966160440709 -3.9134226519479553e-05 0 -0.038381656068006864 -0.00026055889965962515 0 -0.038619420420877577 0.00030891080649356482 0 -0.038224070418243168 0.00013143273386075055 0 -0.038419456267366904 0.00060369161703343168 0 -0.038224070418243168 0.00013143273386075055 0 -0.037770613063797399 0.00043205103668161453 0 -0.038419456267366904 0.00060369161703343168 0 -0.037770613063797399 0.00043205103668161453 0 -0.0378175689302322 4.2445099580322569e-05 0 -0.037336844008266992 -0.00013127051454055739 0 -0.038224070418243168 0.00013143273386075055 0 -0.037770613063797399 0.00043205103668161453 0 -0.0378175689302322 4.2445099580322569e-05 0 -0.037770613063797399 0.00043205103668161453 0 -0.037079354726710832 0.00021391868204142806 0 -0.037336844008266992 -0.00013127051454055739 0 -0.037079354726710832 0.00021391868204142806 0 -0.036801353413475915 0.00055204463456290213 0 -0.036443632220337842 0.0001701412594711068 0 -0.037770613063797399 0.00043205103668161453 0 -0.037079354726710832 0.00021391868204142806 0 -0.037306425250694338 0.00058142264697645814 0 -0.037079354726710832 0.00021391868204142806 0 -0.036801353413475915 0.00055204463456290213 0 -0.037306425250694338 0.00058142264697645814 0 -0.037079354726710832 0.00021391868204142806 0 -0.036643031780177318 -0.00021601945003598739 0 -0.037336844008266992 -0.00013127051454055739 0 -0.037079354726710832 0.00021391868204142806 0 -0.036643031780177318 -0.00021601945003598739 0 -0.036443632220337842 0.0001701412594711068 0 -0.036643031780177318 -0.00021601945003598739 0 -0.037336844008266992 -0.00013127051454055739 0 -0.036705420434599449 -0.0005498290897921847 0 -0.037336844008266992 -0.00013127051454055739 0 -0.036705420434599449 -0.0005498290897921847 0 -0.037269018125962464 -0.00055059213229523545 0 -0.038224070418243168 0.00013143273386075055 0 -0.0378175689302322 4.2445099580322569e-05 0 -0.037869285771425461 -0.00025798048981164496 0 -0.0378175689302322 4.2445099580322569e-05 0 -0.037336844008266992 -0.00013127051454055739 0 -0.037869285771425461 -0.00025798048981164496 0 -0.037336844008266992 -0.00013127051454055739 0 -0.037869285771425461 -0.00025798048981164496 0 -0.037269018125962464 -0.00055059213229523545 0 -0.037869285771425461 -0.00025798048981164496 0 -0.037745775159008094 -0.00059268963905965673 0 -0.038066491957329897 -0.0004540918313103747 0 -0.037869285771425461 -0.00025798048981164496 0 -0.037745775159008094 -0.00059268963905965673 0 -0.037269018125962464 -0.00055059213229523545 0 -0.037745775159008094 -0.00059268963905965673 0 -0.037370257183248434 -0.0010058914011319836 0 -0.037966282631015875 -0.00063841487148683497 0 -0.037745775159008094 -0.00059268963905965673 0 -0.037966282631015875 -0.00063841487148683497 0 -0.038066491957329897 -0.0004540918313103747 0 -0.036705420434599449 -0.0005498290897921847 0 -0.036727136574808888 -0.00078297933903141541 0 -0.037269018125962464 -0.00055059213229523545 0 -0.037745775159008094 -0.00059268963905965673 0 -0.037269018125962464 -0.00055059213229523545 0 -0.037370257183248434 -0.0010058914011319836 0 -0.036727136574808888 -0.00078297933903141541 0 -0.037269018125962464 -0.00055059213229523545 0 -0.037370257183248434 -0.0010058914011319836 0 -0.036727136574808888 -0.00078297933903141541 0 -0.037370257183248434 -0.0010058914011319836 0 -0.036477955414029081 -0.0010817094061114771 0 -0.037739271198972101 -0.0021132584541543042 0 -0.037370257183248434 -0.0010058914011319836 0 -0.036715565359455159 -0.0017154502524127785 0 -0.037370257183248434 -0.0010058914011319836 0 -0.036715565359455159 -0.0017154502524127785 0 -0.036477955414029081 -0.0010817094061114771 0 -0.036273670542777962 -0.00034602777143333816 0 -0.03663242255184801 -0.00071557238666779515 0 -0.038303319963285676 -0.0003961747358398571 0 -0.037370257183248434 -0.0010058914011319836 0 -0.037968946962676837 -0.00064927144072801028 0 -0.037370257183248434 -0.0010058914011319836 0 -0.037966282631015875 -0.00063841487148683497 0 -0.037968946962676837 -0.00064927144072801028 0 -0.037966282631015875 -0.00063841487148683497 0 -0.037968946962676837 -0.00064927144072801028 0 -0.038152982996930915 -0.00048286530369111947 0 -0.038303319963285676 -0.0003961747358398571 0 -0.037968946962676837 -0.00064927144072801028 0 -0.038152982996930915 -0.00048286530369111947 0 -0.038152982996930915 -0.00048286530369111947 0 -0.038219640248387976 -0.00034647024249949345 0 -0.038162852792974961 -0.00046888459924905411 0 -0.038219640248387976 -0.00034647024249949345 0 -0.038162852792974961 -0.00046888459924905411 0 -0.038237076949545028 -0.00032568634843757388 0 -0.038162852792974961 -0.00046888459924905411 0 -0.038260573561726262 -0.00037065473623667004 0 -0.038237076949545028 -0.00032568634843757388 0 -0.037966282631015875 -0.00063841487148683497 0 -0.038152982996930915 -0.00048286530369111947 0 -0.038162852792974961 -0.00046888459924905411 0 -0.037966282631015875 -0.00063841487148683497 0 -0.038162852792974961 -0.00046888459924905411 0 -0.038066491957329897 -0.0004540918313103747 0 -0.038310869819079676 -0.00017296564348972285 0 -0.038066491957329897 -0.0004540918313103747 0 -0.038260573561726262 -0.00037065473623667004 0 -0.038162852792974961 -0.00046888459924905411 0 -0.038066491957329897 -0.0004540918313103747 0 -0.038260573561726262 -0.00037065473623667004 0 -0.038310869819079676 -0.00017296564348972285 0 -0.038381656068006864 -0.00026055889965962515 0 -0.038260573561726262 -0.00037065473623667004 0 -0.038381656068006864 -0.00026055889965962515 0 -0.038260573561726262 -0.00037065473623667004 0 -0.038269940480899024 -0.00031435604902647321 0 -0.038260573561726262 -0.00037065473623667004 0 -0.038269940480899024 -0.00031435604902647321 0 -0.038237076949545028 -0.00032568634843757388 0 -0.038179049257727866 -0.00016642219606939775 0 -0.038269940480899024 -0.00031435604902647321 0 -0.038237076949545028 -0.00032568634843757388 0 -0.038179049257727866 -0.00016642219606939775 0 -0.038269940480899024 -0.00031435604902647321 0 -0.038157197037826544 -0.00026208143001156027 0 -0.038269940480899024 -0.00031435604902647321 0 -0.038157197037826544 -0.00026208143001156027 0 -0.038319517564016629 -0.0002839281662032169 0 -0.038157197037826544 -0.00026208143001156027 0 -0.038294082807893176 -0.00027739982316234455 0 -0.038319517564016629 -0.0002839281662032169 0 -0.038157197037826544 -0.00026208143001156027 0 -0.038145888580323507 -0.00027720765649326943 0 -0.038294082807893176 -0.00027739982316234455 0 -0.038157197037826544 -0.00026208143001156027 0 -0.037999490827729195 -0.00022385302056945015 0 -0.038145888580323507 -0.00027720765649326943 0 -0.037971623797682888 -1.318347962704301e-05 0 -0.038157197037826544 -0.00026208143001156027 0 -0.037999490827729195 -0.00022385302056945015 0 -0.037607050670480348 -7.843313821632944e-05 0 -0.037999490827729195 -0.00022385302056945015 0 -0.038095060432568301 -0.00031501708978448037 0 -0.037999490827729195 -0.00022385302056945015 0 -0.038095060432568301 -0.00031501708978448037 0 -0.038139885491516784 -0.00031153780013975986 0 -0.037999490827729195 -0.00022385302056945015 0 -0.038145888580323507 -0.00027720765649326943 0 -0.038139885491516784 -0.00031153780013975986 0 -0.037769672622950501 0.0012936895705192109 0 -0.037798315653769718 0.0018055223259001432 0 -0.037607050670480348 -7.843313821632944e-05 0 -0.037539078777637222 -0.00090665675677692654 0 -0.036774559200861243 -0.000461941707567356 0 -0.037798315653769718 0.0018055223259001432 0 -0.037800211708783858 0.0018008850663846579 0 -0.038145888580323507 -0.00027720765649326943 0 -0.038139885491516784 -0.00031153780013975986 0 -0.038294082807893176 -0.00027739982316234455 0 -0.038186083542204895 -0.00031013685313051374 0 -0.038139885491516784 -0.00031153780013975986 0 -0.038294082807893176 -0.00027739982316234455 0 -0.037798315653769718 0.0018055223259001432 0 -0.038735209230778299 0.0022145422281913177 0 -0.038186083542204895 -0.00031013685313051374 0 -0.038294082807893176 -0.00027739982316234455 0 -0.038771835492784221 -0.00010966108539911814 0 -0.038294082807893176 -0.00027739982316234455 0 -0.038518873782477703 -0.00017780356492208489 0 -0.038771835492784221 -0.00010966108539911814 0 -0.040518268285103964 0.0057883731376807924 0 -0.039924108797853623 0.0051754777586804687 0 -0.040497449406809716 0.0047105185678187559 0 -0.03853966160440709 -3.9134226519479553e-05 0 -0.038381656068006864 -0.00026055889965962515 0 -0.038518873782477703 -0.00017780356492208489 0 -0.038381656068006864 -0.00026055889965962515 0 -0.038269940480899024 -0.00031435604902647321 0 -0.038319517564016629 -0.0002839281662032169 0 -0.038381656068006864 -0.00026055889965962515 0 -0.038518873782477703 -0.00017780356492208489 0 -0.038319517564016629 -0.0002839281662032169 0 -0.038294082807893176 -0.00027739982316234455 0 -0.038518873782477703 -0.00017780356492208489 0 -0.038319517564016629 -0.0002839281662032169 0 -0.036127403689480711 -0.0002553164066779564 0 -0.03500566825478988 -0.00032777367000325536 0 -0.036119407481311296 -0.0010001676839966605 0 -0.037539078777637222 -0.00090665675677692654 0 -0.036119407481311296 -0.0010001676839966605 0 -0.036774559200861243 -0.000461941707567356 0 -0.037798315653769718 0.0018055223259001432 0 -0.037742137262800277 0.003026217339325708 0 -0.040518268285103964 0.0057883731376807924 0 -0.039363420535409498 0.0056972371724518045 0 -0.039924108797853623 0.0051754777586804687 0 -0.036127403689480711 -0.0002553164066779564 0 -0.036119407481311296 -0.0010001676839966605 0 -0.036774559200861243 -0.000461941707567356 0 -0.038235231510040227 0.0055965523157847754 0 -0.039363420535409498 0.0056972371724518045 0 -0.039268173300698588 0.0049391594187056095 0 -0.039363420535409498 0.0056972371724518045 0 -0.039924108797853623 0.0051754777586804687 0 -0.039268173300698588 0.0049391594187056095 0 -0.038490259262947718 0.0047403593268046827 0 -0.039268173300698588 0.0049391594187056095 0 -0.038938704845262115 0.0039654026476385381 0 -0.039268173300698588 0.0049391594187056095 0 -0.0397514915872135 0.0042226822162535569 0 -0.038938704845262115 0.0039654026476385381 0 -0.039924108797853623 0.0051754777586804687 0 -0.039268173300698588 0.0049391594187056095 0 -0.0397514915872135 0.0042226822162535569 0 -0.0397514915872135 0.0042226822162535569 0 -0.040497449406809716 0.0047105185678187559 0 -0.040453573705054945 0.0034785968824243849 0 -0.039924108797853623 0.0051754777586804687 0 -0.0397514915872135 0.0042226822162535569 0 -0.040497449406809716 0.0047105185678187559 0 -0.0397514915872135 0.0042226822162535569 0 -0.040453573705054945 0.0034785968824243849 0 -0.039447411275200558 0.0028497621448893718 0 -0.0397514915872135 0.0042226822162535569 0 -0.038938704845262115 0.0039654026476385381 0 -0.039447411275200558 0.0028497621448893718 0 -0.038726331944389916 0.0030517989730734123 0 -0.038938704845262115 0.0039654026476385381 0 -0.039447411275200558 0.0028497621448893718 0 -0.03853966160440709 -3.9134226519479553e-05 0 -0.038518873782477703 -0.00017780356492208489 0 -0.038787741980517348 0.00014740211512399875 0 -0.038771835492784221 -0.00010966108539911814 0 -0.039176337818712069 0.00036294025716373818 0 -0.038787741980517348 0.00014740211512399875 0 -0.038735209230778299 0.0022145422281913177 0 -0.039214024802679007 0.0019826671390740275 0 -0.038518873782477703 -0.00017780356492208489 0 -0.038771835492784221 -0.00010966108539911814 0 -0.038787741980517348 0.00014740211512399875 0 -0.039176337818712069 0.00036294025716373818 0 -0.038787741980517348 0.00014740211512399875 0 -0.039059283176183998 0.00067857219598715804 0 -0.038619420420877577 0.00030891080649356482 0 -0.038787741980517348 0.00014740211512399875 0 -0.039059283176183998 0.00067857219598715804 0 -0.03853966160440709 -3.9134226519479553e-05 0 -0.038619420420877577 0.00030891080649356482 0 -0.038787741980517348 0.00014740211512399875 0 -0.039214024802679007 0.0019826671390740275 0 -0.039411873317432351 0.0016539303368771473 0 -0.039176337818712069 0.00036294025716373818 0 -0.039059283176183998 0.00067857219598715804 0 -0.039365730514788311 0.00080320368355797211 0 -0.039059283176183998 0.00067857219598715804 0 -0.039303085284430619 0.0009135436220500592 0 -0.039365730514788311 0.00080320368355797211 0 -0.039303085284430619 0.0009135436220500592 0 -0.039365730514788311 0.00080320368355797211 0 -0.039526882845937257 0.000904564982256529 0 -0.039411873317432351 0.0016539303368771473 0 -0.039446811312696999 0.0014576513356034319 0 -0.039059283176183998 0.00067857219598715804 0 -0.039303085284430619 0.0009135436220500592 0 -0.039151845712788597 0.0010000317206296553 0 -0.039059283176183998 0.00067857219598715804 0 -0.039151845712788597 0.0010000317206296553 0 -0.038855433070928515 0.0008506903756193635 0 -0.038726331944389916 0.0030517989730734123 0 -0.039447411275200558 0.0028497621448893718 0 -0.03889556591241547 0.0017702838673738434 0 -0.040453573705054945 0.0034785968824243849 0 -0.040222205329272356 0.002104882604154664 0 -0.039447411275200558 0.0028497621448893718 0 -0.040222205329272356 0.002104882604154664 0 -0.039452571702608671 0.0015035218327674672 0 -0.039526882845937257 0.000904564982256529 0 -0.040222205329272356 0.002104882604154664 0 -0.039447411275200558 0.0028497621448893718 0 -0.039452571702608671 0.0015035218327674672 0 -0.039447411275200558 0.0028497621448893718 0 -0.039452571702608671 0.0015035218327674672 0 -0.03889556591241547 0.0017702838673738434 0 -0.038343621977098029 0.0010236958897070238 0 -0.03889556591241547 0.0017702838673738434 0 -0.038940695571124735 0.00065306241956123877 0 -0.039452571702608671 0.0015035218327674672 0 -0.03889556591241547 0.0017702838673738434 0 -0.038940695571124735 0.00065306241956123877 0 -0.039452571702608671 0.0015035218327674672 0 -0.038940695571124735 0.00065306241956123877 0 -0.039526882845937257 0.000904564982256529 0 -0.03911879550364545 -4.8845456793652387e-05 0 -0.038940695571124735 0.00065306241956123877 0 -0.039526882845937257 0.000904564982256529 0 -0.039375321100360863 0.00030475683400500925 0 -0.03911879550364545 -4.8845456793652387e-05 0 -0.039526882845937257 0.000904564982256529 0 -0.03911879550364545 -4.8845456793652387e-05 0 -0.038449541052798547 -0.00044052166247118645 0 -0.038940695571124735 0.00065306241956123877 0 -0.039151845712788597 0.0010000317206296553 0 -0.039322664053822391 0.0009770934645548417 0 -0.039083950839173959 0.0012611254820153884 0 -0.039303085284430619 0.0009135436220500592 0 -0.039151845712788597 0.0010000317206296553 0 -0.039322664053822391 0.0009770934645548417 0 -0.039322664053822391 0.0009770934645548417 0 -0.03925799095908504 0.0010560093816827636 0 -0.039083950839173959 0.0012611254820153884 0 -0.039303085284430619 0.0009135436220500592 0 -0.039322664053822391 0.0009770934645548417 0 -0.039526882845937257 0.000904564982256529 0 -0.039375321100360863 0.00030475683400500925 0 -0.039322664053822391 0.0009770934645548417 0 -0.039526882845937257 0.000904564982256529 0 -0.039375321100360863 0.00030475683400500925 0 -0.039322664053822391 0.0009770934645548417 0 -0.03925799095908504 0.0010560093816827636 0 -0.039260611052315895 0.00050355331444122209 0 -0.03925799095908504 0.0010560093816827636 0 -0.039286551939510285 0.0011420002514713711 0 -0.03925799095908504 0.0010560093816827636 0 -0.039286551939510285 0.0011420002514713711 0 -0.039133248025342168 0.0015713433081035483 0 -0.039286551939510285 0.0011420002514713711 0 -0.039291399139707917 0.0017425703612932784 0 -0.039133248025342168 0.0015713433081035483 0 -0.03948104285900185 0.00090198532812981976 0 -0.039286551939510285 0.0011420002514713711 0 -0.039291399139707917 0.0017425703612932784 0 -0.039291399139707917 0.0017425703612932784 0 -0.039133248025342168 0.0015713433081035483 0 -0.038990394514084446 0.001982980061253537 0 -0.039133248025342168 0.0015713433081035483 0 -0.038848145907511657 0.001528952073955248 0 -0.039083950839173959 0.0012611254820153884 0 -0.039133248025342168 0.0015713433081035483 0 -0.038848145907511657 0.001528952073955248 0 -0.038990394514084446 0.001982980061253537 0 -0.03925799095908504 0.0010560093816827636 0 -0.039133248025342168 0.0015713433081035483 0 -0.039083950839173959 0.0012611254820153884 0 -0.039151845712788597 0.0010000317206296553 0 -0.039083950839173959 0.0012611254820153884 0 -0.038855433070928515 0.0008506903756193635 0 -0.039083950839173959 0.0012611254820153884 0 -0.038658802838648955 0.0011066864497033635 0 -0.038855433070928515 0.0008506903756193635 0 -0.038848145907511657 0.001528952073955248 0 -0.039083950839173959 0.0012611254820153884 0 -0.038658802838648955 0.0011066864497033635 0 -0.038848145907511657 0.001528952073955248 0 -0.038658802838648955 0.0011066864497033635 0 -0.038429919244430663 0.0013372813368161287 0 -0.038658802838648955 0.0011066864497033635 0 -0.038150444728976655 0.00087670214242372921 0 -0.038429919244430663 0.0013372813368161287 0 -0.038658802838648955 0.0011066864497033635 0 -0.038419456267366904 0.00060369161703343168 0 -0.038150444728976655 0.00087670214242372921 0 -0.038658802838648955 0.0011066864497033635 0 -0.038419456267366904 0.00060369161703343168 0 -0.038855433070928515 0.0008506903756193635 0 -0.038619420420877577 0.00030891080649356482 0 -0.038419456267366904 0.00060369161703343168 0 -0.038855433070928515 0.0008506903756193635 0 -0.038619420420877577 0.00030891080649356482 0 -0.039059283176183998 0.00067857219598715804 0 -0.038855433070928515 0.0008506903756193635 0 -0.03713475873585622 0.00089288140423985165 0 -0.037460782020633084 0.0012636089820442019 0 -0.03688056956976004 0.0012869978675709905 0 -0.03713475873585622 0.00089288140423985165 0 -0.037655954770113742 0.00086265234476310402 0 -0.037460782020633084 0.0012636089820442019 0 -0.03713475873585622 0.00089288140423985165 0 -0.03688056956976004 0.0012869978675709905 0 -0.036501426202442032 0.00097356644437310237 0 -0.03713475873585622 0.00089288140423985165 0 -0.036801353413475915 0.00055204463456290213 0 -0.036501426202442032 0.00097356644437310237 0 -0.03713475873585622 0.00089288140423985165 0 -0.037306425250694338 0.00058142264697645814 0 -0.037655954770113742 0.00086265234476310402 0 -0.03713475873585622 0.00089288140423985165 0 -0.036801353413475915 0.00055204463456290213 0 -0.037306425250694338 0.00058142264697645814 0 -0.037770613063797399 0.00043205103668161453 0 -0.037306425250694338 0.00058142264697645814 0 -0.037655954770113742 0.00086265234476310402 0 -0.037770613063797399 0.00043205103668161453 0 -0.038419456267366904 0.00060369161703343168 0 -0.038150444728976655 0.00087670214242372921 0 -0.037770613063797399 0.00043205103668161453 0 -0.038150444728976655 0.00087670214242372921 0 -0.037655954770113742 0.00086265234476310402 0 -0.037655954770113742 0.00086265234476310402 0 -0.037991409451607804 0.0011833553148279416 0 -0.037460782020633084 0.0012636089820442019 0 -0.038150444728976655 0.00087670214242372921 0 -0.037655954770113742 0.00086265234476310402 0 -0.037991409451607804 0.0011833553148279416 0 -0.037991409451607804 0.0011833553148279416 0 -0.037770332958815968 0.0017804374408819921 0 -0.037460782020633084 0.0012636089820442019 0 -0.038150444728976655 0.00087670214242372921 0 -0.037991409451607804 0.0011833553148279416 0 -0.038429919244430663 0.0013372813368161287 0 -0.037991409451607804 0.0011833553148279416 0 -0.038429919244430663 0.0013372813368161287 0 -0.038426068819715706 0.0017174572111265595 0 -0.038848145907511657 0.001528952073955248 0 -0.038429919244430663 0.0013372813368161287 0 -0.038426068819715706 0.0017174572111265595 0 -0.037991409451607804 0.0011833553148279416 0 -0.037770332958815968 0.0017804374408819921 0 -0.038426068819715706 0.0017174572111265595 0 -0.037249435405931876 0.0016299224211548653 0 -0.037770332958815968 0.0017804374408819921 0 -0.037460782020633084 0.0012636089820442019 0 -0.037249435405931876 0.0016299224211548653 0 -0.037770332958815968 0.0017804374408819921 0 -0.036773436820255224 0.0020910628985259601 0 -0.037249435405931876 0.0016299224211548653 0 -0.037460782020633084 0.0012636089820442019 0 -0.03688056956976004 0.0012869978675709905 0 -0.03688056956976004 0.0012869978675709905 0 -0.036773436820255224 0.0020910628985259601 0 -0.036198995581678439 0.0015384678268027824 0 -0.037249435405931876 0.0016299224211548653 0 -0.03688056956976004 0.0012869978675709905 0 -0.036773436820255224 0.0020910628985259601 0 -0.037770332958815968 0.0017804374408819921 0 -0.037627297021535042 0.0024271366718965418 0 -0.038484978392452213 0.0021897432838559948 0 -0.037770332958815968 0.0017804374408819921 0 -0.036773436820255224 0.0020910628985259601 0 -0.037627297021535042 0.0024271366718965418 0 -0.036773436820255224 0.0020910628985259601 0 -0.037627297021535042 0.0024271366718965418 0 -0.036833523717632058 0.003055483950181541 0 -0.038848145907511657 0.001528952073955248 0 -0.038426068819715706 0.0017174572111265595 0 -0.038990394514084446 0.001982980061253537 0 -0.037770332958815968 0.0017804374408819921 0 -0.038426068819715706 0.0017174572111265595 0 -0.038484978392452213 0.0021897432838559948 0 -0.038484978392452213 0.0021897432838559948 0 -0.038990394514084446 0.001982980061253537 0 -0.03916854488125663 0.0025241024545938633 0 -0.038426068819715706 0.0017174572111265595 0 -0.038484978392452213 0.0021897432838559948 0 -0.038990394514084446 0.001982980061253537 0 -0.03816077794938779 0.0049488395940243731 0 -0.03916854488125663 0.0025241024545938633 0 -0.03800348406441903 0.0035125300331523765 0 -0.039291399139707917 0.0017425703612932784 0 -0.038990394514084446 0.001982980061253537 0 -0.03916854488125663 0.0025241024545938633 0 -0.038484978392452213 0.0021897432838559948 0 -0.03916854488125663 0.0025241024545938633 0 -0.03800348406441903 0.0035125300331523765 0 -0.039839553749918322 0.0014305858483752518 0 -0.039291399139707917 0.0017425703612932784 0 -0.03916854488125663 0.0025241024545938633 0 -0.036833523717632058 0.003055483950181541 0 -0.03800348406441903 0.0035125300331523765 0 -0.036681243196583641 0.004034820171652187 0 -0.037627297021535042 0.0024271366718965418 0 -0.038484978392452213 0.0021897432838559948 0 -0.03800348406441903 0.0035125300331523765 0 -0.037627297021535042 0.0024271366718965418 0 -0.036833523717632058 0.003055483950181541 0 -0.03800348406441903 0.0035125300331523765 0 -0.037115222799159388 0.0046234728608855894 0 -0.03800348406441903 0.0035125300331523765 0 -0.036681243196583641 0.004034820171652187 0 -0.037115222799159388 0.0046234728608855894 0 -0.036455956070090521 0.0049859959949124276 0 -0.036681243196583641 0.004034820171652187 0 -0.036681243196583641 0.004034820171652187 0 -0.035929484063953084 0.0045120257906124785 0 -0.035803164713447237 0.0037296015370027924 0 -0.036455956070090521 0.0049859959949124276 0 -0.036681243196583641 0.004034820171652187 0 -0.035929484063953084 0.0045120257906124785 0 -0.036833523717632058 0.003055483950181541 0 -0.036681243196583641 0.004034820171652187 0 -0.035803164713447237 0.0037296015370027924 0 -0.035803164713447237 0.0037296015370027924 0 -0.034494525848639712 0.0041016509383679659 0 -0.035290489046627564 0.0031444063073361736 0 -0.035929484063953084 0.0045120257906124785 0 -0.035803164713447237 0.0037296015370027924 0 -0.035038732374743281 0.0047719205337198225 0 -0.033730013931197678 0.0052071449547161242 0 -0.034494525848639712 0.0041016509383679659 0 -0.032806977177243429 0.0044297796743752779 0 -0.033730013931197678 0.0052071449547161242 0 -0.035038732374743281 0.0047719205337198225 0 -0.034494525848639712 0.0041016509383679659 0 -0.034494525848639712 0.0041016509383679659 0 -0.034045729202602584 0.0033157495575477543 0 -0.032806977177243429 0.0044297796743752779 0 -0.035803164713447237 0.0037296015370027924 0 -0.035038732374743281 0.0047719205337198225 0 -0.034494525848639712 0.0041016509383679659 0 -0.034494525848639712 0.0041016509383679659 0 -0.034045729202602584 0.0033157495575477543 0 -0.035290489046627564 0.0031444063073361736 0 -0.034045729202602584 0.0033157495575477543 0 -0.034845214228690267 0.0026583880281822623 0 -0.034334812634886712 0.0022113770920185274 0 -0.034045729202602584 0.0033157495575477543 0 -0.034845214228690267 0.0026583880281822623 0 -0.035290489046627564 0.0031444063073361736 0 -0.034845214228690267 0.0026583880281822623 0 -0.035290489046627564 0.0031444063073361736 0 -0.035827354097173268 0.0022273830228378569 0 -0.036140172235509124 0.0028197654610529542 0 -0.035290489046627564 0.0031444063073361736 0 -0.035827354097173268 0.0022273830228378569 0 -0.036773436820255224 0.0020910628985259601 0 -0.036140172235509124 0.0028197654610529542 0 -0.035827354097173268 0.0022273830228378569 0 -0.036773436820255224 0.0020910628985259601 0 -0.036833523717632058 0.003055483950181541 0 -0.036140172235509124 0.0028197654610529542 0 -0.036833523717632058 0.003055483950181541 0 -0.035803164713447237 0.0037296015370027924 0 -0.036140172235509124 0.0028197654610529542 0 -0.035803164713447237 0.0037296015370027924 0 -0.036140172235509124 0.0028197654610529542 0 -0.035290489046627564 0.0031444063073361736 0 -0.031125647737773456 0.0057066100789863461 0 -0.031235346612030729 0.0045934958907026015 0 -0.032806977177243429 0.0044297796743752779 0 -0.031235346612030729 0.0045934958907026015 0 -0.032806977177243429 0.0044297796743752779 0 -0.032032090404778807 0.0038972827904398301 0 -0.034045729202602584 0.0033157495575477543 0 -0.032806977177243429 0.0044297796743752779 0 -0.03285095525544534 0.0030205005423730833 0 -0.032806977177243429 0.0044297796743752779 0 -0.03285095525544534 0.0030205005423730833 0 -0.032032090404778807 0.0038972827904398301 0 -0.034045729202602584 0.0033157495575477543 0 -0.03285095525544534 0.0030205005423730833 0 -0.034334812634886712 0.0022113770920185274 0 -0.03285095525544534 0.0030205005423730833 0 -0.032032090404778807 0.0038972827904398301 0 -0.031263104590708767 0.0035058877882754389 0 -0.031235346612030729 0.0045934958907026015 0 -0.032032090404778807 0.0038972827904398301 0 -0.031263104590708767 0.0035058877882754389 0 -0.031235346612030729 0.0045934958907026015 0 -0.031263104590708767 0.0035058877882754389 0 -0.03013325611094636 0.0043117129291266581 0 -0.031263104590708767 0.0035058877882754389 0 -0.031873492339880981 0.0021013432796637252 0 -0.029626809136565634 0.0033715961825754722 0 -0.03285095525544534 0.0030205005423730833 0 -0.031263104590708767 0.0035058877882754389 0 -0.031873492339880981 0.0021013432796637252 0 -0.031873492339880981 0.0021013432796637252 0 -0.033558854957374082 0.0019000725890509775 0 -0.033176749086563422 0.0010202515586649422 0 -0.03285095525544534 0.0030205005423730833 0 -0.031873492339880981 0.0021013432796637252 0 -0.033558854957374082 0.0019000725890509775 0 -0.03285095525544534 0.0030205005423730833 0 -0.033558854957374082 0.0019000725890509775 0 -0.034334812634886712 0.0022113770920185274 0 -0.033558854957374082 0.0019000725890509775 0 -0.033176749086563422 0.0010202515586649422 0 -0.034163698316650774 0.0011425323330375649 0 -0.034070877383896372 0.00056451281099267024 0 -0.033176749086563422 0.0010202515586649422 0 -0.034163698316650774 0.0011425323330375649 0 -0.034070877383896372 0.00056451281099267024 0 -0.033176749086563422 0.0010202515586649422 0 -0.032944180616005674 0.00020193387264052124 0 -0.033176749086563422 0.0010202515586649422 0 -0.031997150089038383 0.00099483639791961179 0 -0.032944180616005674 0.00020193387264052124 0 -0.031873492339880981 0.0021013432796637252 0 -0.031997150089038383 0.00099483639791961179 0 -0.030154898943657169 0.0013495155017192739 0 -0.031873492339880981 0.0021013432796637252 0 -0.033176749086563422 0.0010202515586649422 0 -0.031997150089038383 0.00099483639791961179 0 -0.035438462174493007 0.0017748252798526509 0 -0.036198995581678439 0.0015384678268027824 0 -0.035746455971540032 0.0010603796653487784 0 -0.035438462174493007 0.0017748252798526509 0 -0.034916660922723573 0.0015182208935653838 0 -0.035746455971540032 0.0010603796653487784 0 -0.036773436820255224 0.0020910628985259601 0 -0.036198995581678439 0.0015384678268027824 0 -0.035827354097173268 0.0022273830228378569 0 -0.035438462174493007 0.0017748252798526509 0 -0.036198995581678439 0.0015384678268027824 0 -0.035827354097173268 0.0022273830228378569 0 -0.034845214228690267 0.0026583880281822623 0 -0.035438462174493007 0.0017748252798526509 0 -0.035827354097173268 0.0022273830228378569 0 -0.034845214228690267 0.0026583880281822623 0 -0.035438462174493007 0.0017748252798526509 0 -0.034334812634886712 0.0022113770920185274 0 -0.033558854957374082 0.0019000725890509775 0 -0.034334812634886712 0.0022113770920185274 0 -0.034916660922723573 0.0015182208935653838 0 -0.035438462174493007 0.0017748252798526509 0 -0.034334812634886712 0.0022113770920185274 0 -0.034916660922723573 0.0015182208935653838 0 -0.034916660922723573 0.0015182208935653838 0 -0.03502924840939145 0.00074764018006813395 0 -0.035746455971540032 0.0010603796653487784 0 -0.034916660922723573 0.0015182208935653838 0 -0.034163698316650774 0.0011425323330375649 0 -0.03502924840939145 0.00074764018006813395 0 -0.033558854957374082 0.0019000725890509775 0 -0.034916660922723573 0.0015182208935653838 0 -0.034163698316650774 0.0011425323330375649 0 -0.034070877383896372 0.00056451281099267024 0 -0.03502924840939145 0.00074764018006813395 0 -0.034697555448152347 0.00035750271786574444 0 -0.034070877383896372 0.00056451281099267024 0 -0.034163698316650774 0.0011425323330375649 0 -0.03502924840939145 0.00074764018006813395 0 -0.03502924840939145 0.00074764018006813395 0 -0.035628808242536766 0.00054183172978871502 0 -0.035746455971540032 0.0010603796653487784 0 -0.035628808242536766 0.00054183172978871502 0 -0.035746455971540032 0.0010603796653487784 0 -0.036186419164217068 0.00057499446180533909 0 -0.03688056956976004 0.0012869978675709905 0 -0.036198995581678439 0.0015384678268027824 0 -0.036501426202442032 0.00097356644437310237 0 -0.036198995581678439 0.0015384678268027824 0 -0.035746455971540032 0.0010603796653487784 0 -0.036501426202442032 0.00097356644437310237 0 -0.036801353413475915 0.00055204463456290213 0 -0.036501426202442032 0.00097356644437310237 0 -0.036186419164217068 0.00057499446180533909 0 -0.035746455971540032 0.0010603796653487784 0 -0.036501426202442032 0.00097356644437310237 0 -0.036186419164217068 0.00057499446180533909 0 -0.036801353413475915 0.00055204463456290213 0 -0.036186419164217068 0.00057499446180533909 0 -0.036443632220337842 0.0001701412594711068 0 -0.036186419164217068 0.00057499446180533909 0 -0.036443632220337842 0.0001701412594711068 0 -0.035829970904643696 0.00015115187365415215 0 -0.035628808242536766 0.00054183172978871502 0 -0.036186419164217068 0.00057499446180533909 0 -0.035829970904643696 0.00015115187365415215 0 -0.035628808242536766 0.00054183172978871502 0 -0.035829970904643696 0.00015115187365415215 0 -0.035236712729960207 0.00027727582479885547 0 -0.035829970904643696 0.00015115187365415215 0 -0.036055913644123305 -0.00020961514713408412 0 -0.035350588515466255 -0.0002373326906576103 0 -0.036643031780177318 -0.00021601945003598739 0 -0.036443632220337842 0.0001701412594711068 0 -0.036055913644123305 -0.00020961514713408412 0 -0.036443632220337842 0.0001701412594711068 0 -0.035829970904643696 0.00015115187365415215 0 -0.036055913644123305 -0.00020961514713408412 0 -0.036643031780177318 -0.00021601945003598739 0 -0.036705420434599449 -0.0005498290897921847 0 -0.036188972147236605 -0.00052241924862997662 0 -0.036643031780177318 -0.00021601945003598739 0 -0.036055913644123305 -0.00020961514713408412 0 -0.036188972147236605 -0.00052241924862997662 0 -0.036055913644123305 -0.00020961514713408412 0 -0.036188972147236605 -0.00052241924862997662 0 -0.03570553961207644 -0.00052410439068487525 0 -0.036055913644123305 -0.00020961514713408412 0 -0.03570553961207644 -0.00052410439068487525 0 -0.035350588515466255 -0.0002373326906576103 0 -0.036188972147236605 -0.00052241924862997662 0 -0.03580509571870738 -0.00078607323381774835 0 -0.036194014762045257 -0.00078762198460134627 0 -0.036188972147236605 -0.00052241924862997662 0 -0.03570553961207644 -0.00052410439068487525 0 -0.03580509571870738 -0.00078607323381774835 0 -0.03570553961207644 -0.00052410439068487525 0 -0.03580509571870738 -0.00078607323381774835 0 -0.035434710477563899 -0.00093394786250426351 0 -0.03580509571870738 -0.00078607323381774835 0 -0.035434710477563899 -0.00093394786250426351 0 -0.035796925764616856 -0.0010372253666514721 0 -0.03580509571870738 -0.00078607323381774835 0 -0.036194014762045257 -0.00078762198460134627 0 -0.035796925764616856 -0.0010372253666514721 0 -0.036705420434599449 -0.0005498290897921847 0 -0.036188972147236605 -0.00052241924862997662 0 -0.036194014762045257 -0.00078762198460134627 0 -0.034849892356428172 -0.0008507803387993102 0 -0.034848919804837009 -0.001157093465662598 0 -0.035434710477563899 -0.00093394786250426351 0 -0.034849892356428172 -0.0008507803387993102 0 -0.034848919804837009 -0.001157093465662598 0 -0.034331547719994429 -0.00095826286411438712 0 -0.034848919804837009 -0.001157093465662598 0 -0.034331547719994429 -0.00095826286411438712 0 -0.034359410857746256 -0.001234199064803285 0 -0.034848919804837009 -0.001157093465662598 0 -0.034359410857746256 -0.001234199064803285 0 -0.034622094507392523 -0.0014457906527500129 0 -0.034848919804837009 -0.001157093465662598 0 -0.035434710477563899 -0.00093394786250426351 0 -0.035634480063316806 -0.0013716419592014718 0 -0.034849892356428172 -0.0008507803387993102 0 -0.035434710477563899 -0.00093394786250426351 0 -0.035119451959957852 -0.00060659228933036976 0 -0.03570553961207644 -0.00052410439068487525 0 -0.035119451959957852 -0.00060659228933036976 0 -0.035350588515466255 -0.0002373326906576103 0 -0.03570553961207644 -0.00052410439068487525 0 -0.035434710477563899 -0.00093394786250426351 0 -0.035119451959957852 -0.00060659228933036976 0 -0.035119451959957852 -0.00060659228933036976 0 -0.034834244042173682 -0.00034383672903309749 0 -0.035350588515466255 -0.0002373326906576103 0 -0.035119451959957852 -0.00060659228933036976 0 -0.034457108087968417 -0.00058270203022065328 0 -0.034834244042173682 -0.00034383672903309749 0 -0.034849892356428172 -0.0008507803387993102 0 -0.035119451959957852 -0.00060659228933036976 0 -0.034457108087968417 -0.00058270203022065328 0 -0.034849892356428172 -0.0008507803387993102 0 -0.034457108087968417 -0.00058270203022065328 0 -0.034331547719994429 -0.00095826286411438712 0 -0.034457108087968417 -0.00058270203022065328 0 -0.034834244042173682 -0.00034383672903309749 0 -0.034166946958401591 -0.00013278263458731213 0 -0.034824161370346218 -1.7862542705529028e-05 0 -0.034697555448152347 0.00035750271786574444 0 -0.034166946958401591 -0.00013278263458731213 0 -0.034834244042173682 -0.00034383672903309749 0 -0.034824161370346218 -1.7862542705529028e-05 0 -0.034166946958401591 -0.00013278263458731213 0 -0.035829970904643696 0.00015115187365415215 0 -0.035350588515466255 -0.0002373326906576103 0 -0.035236712729960207 0.00027727582479885547 0 -0.034824161370346218 -1.7862542705529028e-05 0 -0.035350588515466255 -0.0002373326906576103 0 -0.035236712729960207 0.00027727582479885547 0 -0.034834244042173682 -0.00034383672903309749 0 -0.034824161370346218 -1.7862542705529028e-05 0 -0.035350588515466255 -0.0002373326906576103 0 -0.03502924840939145 0.00074764018006813395 0 -0.035628808242536766 0.00054183172978871502 0 -0.035236712729960207 0.00027727582479885547 0 -0.03502924840939145 0.00074764018006813395 0 -0.035236712729960207 0.00027727582479885547 0 -0.034697555448152347 0.00035750271786574444 0 -0.034824161370346218 -1.7862542705529028e-05 0 -0.035236712729960207 0.00027727582479885547 0 -0.034697555448152347 0.00035750271786574444 0 -0.034070877383896372 0.00056451281099267024 0 -0.034697555448152347 0.00035750271786574444 0 -0.034166946958401591 -0.00013278263458731213 0 -0.034070877383896372 0.00056451281099267024 0 -0.032944180616005674 0.00020193387264052124 0 -0.034166946958401591 -0.00013278263458731213 0 -0.032944180616005674 0.00020193387264052124 0 -0.034166946958401591 -0.00013278263458731213 0 -0.033385878811805533 -0.0005347273266483976 0 -0.032944180616005674 0.00020193387264052124 0 -0.032110447933205805 -0.00079089692213786859 0 -0.033385878811805533 -0.0005347273266483976 0 -0.031997150089038383 0.00099483639791961179 0 -0.032944180616005674 0.00020193387264052124 0 -0.031528506194242745 0.000295030103494002 0 -0.032944180616005674 0.00020193387264052124 0 -0.031528506194242745 0.000295030103494002 0 -0.032110447933205805 -0.00079089692213786859 0 -0.032110447933205805 -0.00079089692213786859 0 -0.032047086643713626 -0.0019151956731828441 0 -0.030247060721852632 -0.0017732119339303163 0 -0.032110447933205805 -0.00079089692213786859 0 -0.033536003381397922 -0.0011824785622924698 0 -0.032047086643713626 -0.0019151956731828441 0 -0.033536003381397922 -0.0011824785622924698 0 -0.034069257101323552 -0.0018839572834056502 0 -0.032047086643713626 -0.0019151956731828441 0 -0.034457108087968417 -0.00058270203022065328 0 -0.034166946958401591 -0.00013278263458731213 0 -0.033955469253543168 -0.00074219688620996759 0 -0.033955469253543168 -0.00074219688620996759 0 -0.033385878811805533 -0.0005347273266483976 0 -0.033536003381397922 -0.0011824785622924698 0 -0.034166946958401591 -0.00013278263458731213 0 -0.033955469253543168 -0.00074219688620996759 0 -0.033385878811805533 -0.0005347273266483976 0 -0.034457108087968417 -0.00058270203022065328 0 -0.033955469253543168 -0.00074219688620996759 0 -0.034331547719994429 -0.00095826286411438712 0 -0.032110447933205805 -0.00079089692213786859 0 -0.033385878811805533 -0.0005347273266483976 0 -0.033536003381397922 -0.0011824785622924698 0 -0.033955469253543168 -0.00074219688620996759 0 -0.033536003381397922 -0.0011824785622924698 0 -0.034331547719994429 -0.00095826286411438712 0 -0.033536003381397922 -0.0011824785622924698 0 -0.034331547719994429 -0.00095826286411438712 0 -0.034359410857746256 -0.001234199064803285 0 -0.033536003381397922 -0.0011824785622924698 0 -0.034359410857746256 -0.001234199064803285 0 -0.034030154348658886 -0.001421077199540547 0 -0.033536003381397922 -0.0011824785622924698 0 -0.034030154348658886 -0.001421077199540547 0 -0.034069257101323552 -0.0018839572834056502 0 -0.034359410857746256 -0.001234199064803285 0 -0.034182141908702036 -0.001582295518746714 0 -0.034622094507392523 -0.0014457906527500129 0 -0.034359410857746256 -0.001234199064803285 0 -0.034030154348658886 -0.001421077199540547 0 -0.034182141908702036 -0.001582295518746714 0 -0.034182141908702036 -0.001582295518746714 0 -0.034069257101323552 -0.0018839572834056502 0 -0.034622094507392523 -0.0014457906527500129 0 -0.034030154348658886 -0.001421077199540547 0 -0.034182141908702036 -0.001582295518746714 0 -0.034069257101323552 -0.0018839572834056502 0 -0.027077883470511252 0.0057314701732143264 0 -0.025972329465579036 0.0060095424634568741 0 -0.019729351538657007 0.01364563478163042 0 -0.019355297885987402 0.013407719010682542 0 -0.019058156762993675 0.013727228684164313 0 -0.019729351538657007 0.01364563478163042 0 -0.019624718715754674 0.013316499791539019 0 -0.019829323127113867 0.013148226375917688 0 -0.019729351538657007 0.01364563478163042 0 -0.019355297885987402 0.013407719010682542 0 -0.019624718715754674 0.013316499791539019 0 -0.019058156762993675 0.013727228684164313 0 -0.018944361862349227 0.013204770699412803 0 -0.018545652214242165 0.013331114808848146 0 -0.019355297885987402 0.013407719010682542 0 -0.019058156762993675 0.013727228684164313 0 -0.018944361862349227 0.013204770699412803 0 -0.018944361862349227 0.013204770699412803 0 -0.019069353849064156 0.012918249155617359 0 -0.019474638250157439 0.013067636363179657 0 -0.019355297885987402 0.013407719010682542 0 -0.018944361862349227 0.013204770699412803 0 -0.019474638250157439 0.013067636363179657 0 -0.018944361862349227 0.013204770699412803 0 -0.019069353849064156 0.012918249155617359 0 -0.018557160427983801 0.012954730480061911 0 -0.019624718715754674 0.013316499791539019 0 -0.019474638250157439 0.013067636363179657 0 -0.019829323127113867 0.013148226375917688 0 -0.019355297885987402 0.013407719010682542 0 -0.019624718715754674 0.013316499791539019 0 -0.019474638250157439 0.013067636363179657 0 -0.019474638250157439 0.013067636363179657 0 -0.019829323127113867 0.013148226375917688 0 -0.01987979817417887 0.012750020617746737 0 -0.019829323127113867 0.013148226375917688 0 -0.020220436141292177 0.012974076078917866 0 -0.01987979817417887 0.012750020617746737 0 -0.019729351538657007 0.01364563478163042 0 -0.019829323127113867 0.013148226375917688 0 -0.020220436141292177 0.012974076078917866 0 -0.033786086328086717 0.00044392089914246197 0 -0.035739023475821641 0.00021724788183183523 0 -0.035527496203640402 -0.0010209298603960954 0 -0.033305974140597841 0.0018437287868573985 0 -0.033786086328086717 0.00044392089914246197 0 -0.035739023475821641 0.00021724788183183523 0 -0.036715565359455159 -0.0017154502524127785 0 -0.035527496203640402 -0.0010209298603960954 0 -0.036477955414029081 -0.0010817094061114771 0 -0.035296190225856887 4.4614969291189199e-05 0 -0.03544608414539771 -0.00023771879116292236 0 -0.036727136574808888 -0.00078297933903141541 0 -0.036477955414029081 -0.0010817094061114771 0 -0.0360876582451733 -0.00093521093507848839 0 -0.035527496203640402 -0.0010209298603960954 0 -0.036477955414029081 -0.0010817094061114771 0 -0.0360876582451733 -0.00093521093507848839 0 -0.036727136574808888 -0.00078297933903141541 0 -0.0360876582451733 -0.00093521093507848839 0 -0.036194014762045257 -0.00078762198460134627 0 -0.036705420434599449 -0.0005498290897921847 0 -0.036727136574808888 -0.00078297933903141541 0 -0.036194014762045257 -0.00078762198460134627 0 -0.035527496203640402 -0.0010209298603960954 0 -0.0360876582451733 -0.00093521093507848839 0 -0.035796925764616856 -0.0010372253666514721 0 -0.0360876582451733 -0.00093521093507848839 0 -0.036194014762045257 -0.00078762198460134627 0 -0.035796925764616856 -0.0010372253666514721 0 -0.035527496203640402 -0.0010209298603960954 0 -0.035796925764616856 -0.0010372253666514721 0 -0.035634480063316806 -0.0013716419592014718 0 -0.035434710477563899 -0.00093394786250426351 0 -0.035796925764616856 -0.0010372253666514721 0 -0.035634480063316806 -0.0013716419592014718 0 -0.027077883470511252 0.0057314701732143264 0 -0.02746049988318857 0.0067020291493036961 0 -0.036391048658840568 -0.0015104493869896509 0 -0.035739023475821641 0.00021724788183183523 0 -0.035527496203640402 -0.0010209298603960954 0 -0.036391048658840568 -0.0015104493869896509 0 -0.035527496203640402 -0.0010209298603960954 0 -0.035634480063316806 -0.0013716419592014718 0 -0.034848919804837009 -0.001157093465662598 0 -0.035634480063316806 -0.0013716419592014718 0 -0.034622094507392523 -0.0014457906527500129 0 -0.034069257101323552 -0.0018839572834056502 0 -0.035634480063316806 -0.0013716419592014718 0 -0.034622094507392523 -0.0014457906527500129 0 -0.027077883470511252 0.0057314701732143264 0 -0.029279458544080296 0.0050560545902354551 0 -0.022684635562916979 0.01183163641955544 0 -0.020359923485636863 0.010740877266633385 0 -0.024034546846328799 0.0094953581334262984 0 -0.022684635562916979 0.01183163641955544 0 -0.020359923485636863 0.010740877266633385 0 -0.02109560656079135 0.013324174083154307 0 -0.020359923485636863 0.010740877266633385 0 -0.024034546846328799 0.0094953581334262984 0 -0.020739899545967163 0.0079695773465600743 0 -0.024034546846328799 0.0094953581334262984 0 -0.026336413431002157 0.009505001070794902 0 -0.02739602348628736 0.0064780781010503417 0 -0.026336413431002157 0.009505001070794902 0 -0.028260172930737595 0.0094155090692775757 0 -0.02739602348628736 0.0064780781010503417 0 -0.028260172930737595 0.0094155090692775757 0 -0.025671481485675152 0.012479189481450565 0 -0.029226788370705387 0.013084842984836345 0 -0.026336413431002157 0.009505001070794902 0 -0.028260172930737595 0.0094155090692775757 0 -0.025671481485675152 0.012479189481450565 0 -0.024034546846328799 0.0094953581334262984 0 -0.026336413431002157 0.009505001070794902 0 -0.025671481485675152 0.012479189481450565 0 -0.022684635562916979 0.01183163641955544 0 -0.024034546846328799 0.0094953581334262984 0 -0.025671481485675152 0.012479189481450565 0 -0.025671481485675152 0.012479189481450565 0 -0.022481008641124733 0.014241263194821822 0 -0.02460759609494758 0.017030790210961211 0 -0.025671481485675152 0.012479189481450565 0 -0.027399943541262916 0.015414943739647061 0 -0.02460759609494758 0.017030790210961211 0 -0.025671481485675152 0.012479189481450565 0 -0.027399943541262916 0.015414943739647061 0 -0.029226788370705387 0.013084842984836345 0 -0.021303489907869091 0.016041758468836983 0 -0.022481008641124733 0.014241263194821822 0 -0.02460759609494758 0.017030790210961211 0 -0.021303489907869091 0.016041758468836983 0 -0.022481008641124733 0.014241263194821822 0 -0.020707856105566646 0.014996828372552324 0 -0.022684635562916979 0.01183163641955544 0 -0.022481008641124733 0.014241263194821822 0 -0.02109560656079135 0.013324174083154307 0 -0.022684635562916979 0.01183163641955544 0 -0.025671481485675152 0.012479189481450565 0 -0.022481008641124733 0.014241263194821822 0 -0.020359923485636863 0.010740877266633385 0 -0.02109560656079135 0.013324174083154307 0 -0.019671096461283503 0.014751814163188872 0 -0.022481008641124733 0.014241263194821822 0 -0.02109560656079135 0.013324174083154307 0 -0.020707856105566646 0.014996828372552324 0 -0.02109560656079135 0.013324174083154307 0 -0.019671096461283503 0.014751814163188872 0 -0.020707856105566646 0.014996828372552324 0 -0.019671096461283503 0.014751814163188872 0 -0.020707856105566646 0.014996828372552324 0 -0.019787801146227794 0.016541953866340241 0 -0.021303489907869091 0.016041758468836983 0 -0.020707856105566646 0.014996828372552324 0 -0.019787801146227794 0.016541953866340241 0 -0.021303489907869091 0.016041758468836983 0 -0.019787801146227794 0.016541953866340241 0 -0.020631506039682862 0.017967311312899189 0 -0.019441992069810413 0.013061570982368877 0 -0.01840729000414983 0.014592306225430288 0 -0.019002185286213464 0.016403727486456583 0 -0.0183960673379602 0.01599736683430503 0 -0.018489677995041313 0.017853370886788979 0 -0.020359923485636863 0.010740877266633385 0 -0.018203796330049857 0.01310653696914655 0 -0.01820540077225705 0.012817612920178818 0 -0.020359923485636863 0.010740877266633385 0 -0.0183960673379602 0.01599736683430503 0 -0.016517193098616274 0.01717653722791487 0 -0.020359923485636863 0.010740877266633385 0 -0.019671096461283503 0.014751814163188872 0 -0.0183960673379602 0.01599736683430503 0 -0.019671096461283503 0.014751814163188872 0 -0.019002185286213464 0.016403727486456583 0 -0.0183960673379602 0.01599736683430503 0 -0.019671096461283503 0.014751814163188872 0 -0.019787801146227794 0.016541953866340241 0 -0.019002185286213464 0.016403727486456583 0 -0.0183960673379602 0.01599736683430503 0 -0.016517193098616274 0.01717653722791487 0 -0.01756194632869194 0.017521055001092325 0 -0.018944361862349227 0.013204770699412803 0 -0.018557160427983801 0.012954730480061911 0 -0.018541715251254167 0.013083604745512969 0 -0.01820540077225705 0.012817612920178818 0 -0.018557160427983801 0.012954730480061911 0 -0.018541715251254167 0.013083604745512969 0 -0.018203796330049857 0.01310653696914655 0 -0.01820540077225705 0.012817612920178818 0 -0.018557160427983801 0.012954730480061911 0 -0.01820540077225705 0.012817612920178818 0 -0.018541715251254167 0.013083604745512969 0 -0.018545652214242165 0.013331114808848146 0 -0.018944361862349227 0.013204770699412803 0 -0.018541715251254167 0.013083604745512969 0 -0.018545652214242165 0.013331114808848146 0 -0.019058156762993675 0.013727228684164313 0 -0.018545652214242165 0.013331114808848146 0 -0.018346526792648206 0.013813914279206427 0 -0.023967733853977942 0.0099761206661410935 0 -0.025714897316223437 0.0062592615422834234 0 -0.025972329465579036 0.0060095424634568741 0 -0.025714897316223437 0.0062592615422834234 0 -0.01820540077225705 0.012817612920178818 0 -0.018545652214242165 0.013331114808848146 0 -0.018346526792648206 0.013813914279206427 0 -0.020359923485636863 0.010740877266633385 0 -0.017351734557111434 0.0089922112991735331 0 -0.020739899545967163 0.0079695773465600743 0 -0.020359923485636863 0.010740877266633385 0 -0.01820540077225705 0.012817612920178818 0 -0.017351734557111434 0.0089922112991735331 0 -0.02784360339986483 0.0048728271613480882 0 -0.027669752161609287 0.0050059125797814307 0 -0.027774556151934873 0.0050446000155106542 0 -0.02784360339986483 0.0048728271613480882 0 -0.027669752161609287 0.0050059125797814307 0 -0.027704427941440516 0.0046578893602010696 0 -0.025714897316223437 0.0062592615422834234 0 -0.025451296295180732 0.0063668170662222216 0 -0.032110447933205805 -0.00079089692213786859 0 -0.030247060721852632 -0.0017732119339303163 0 -0.030352335420967262 -0.00014887106485091218 0 -0.025714897316223437 0.0062592615422834234 0 -0.027093120537047651 0.0037005880507858966 0 -0.031528506194242745 0.000295030103494002 0 -0.030352335420967262 -0.00014887106485091218 0 -0.030154898943657169 0.0013495155017192739 0 -0.031528506194242745 0.000295030103494002 0 -0.032110447933205805 -0.00079089692213786859 0 -0.030352335420967262 -0.00014887106485091218 0 -0.02784360339986483 0.0048728271613480882 0 -0.027704427941440516 0.0046578893602010696 0 -0.027998075303031576 0.0043889192345726259 0 -0.027704427941440516 0.0046578893602010696 0 -0.027998075303031576 0.0043889192345726259 0 -0.028158573739859905 0.0039060096264791661 0 -0.02784360339986483 0.0048728271613480882 0 -0.027998075303031576 0.0043889192345726259 0 -0.028014384344096869 0.004491272609244785 0 -0.028014384344096869 0.004491272609244785 0 -0.027968434124817167 0.0046669394137481678 0 -0.027838991905209103 0.0048885555599254976 0 -0.028014384344096869 0.004491272609244785 0 -0.027968434124817167 0.0046669394137481678 0 -0.028143282490164848 0.0042642341788983046 0 -0.027968434124817167 0.0046669394137481678 0 -0.027838991905209103 0.0048885555599254976 0 -0.027771066110454649 0.0051475516560400897 0 -0.02784360339986483 0.0048728271613480882 0 -0.028014384344096869 0.004491272609244785 0 -0.027838991905209103 0.0048885555599254976 0 -0.024034546846328799 0.0094953581334262984 0 -0.020739899545967163 0.0079695773465600743 0 -0.02739602348628736 0.0064780781010503417 0 -0.02784360339986483 0.0048728271613480882 0 -0.02767784691985422 0.0052526274315373295 0 -0.027774556151934873 0.0050446000155106542 0 -0.025451296295180732 0.0063668170662222216 0 -0.026212014036663216 0.0063303743643272079 0 -0.02784360339986483 0.0048728271613480882 0 -0.027838991905209103 0.0048885555599254976 0 -0.02767784691985422 0.0052526274315373295 0 -0.02767784691985422 0.0052526274315373295 0 -0.027774556151934873 0.0050446000155106542 0 -0.02739602348628736 0.0064780781010503417 0 -0.027838991905209103 0.0048885555599254976 0 -0.02767784691985422 0.0052526274315373295 0 -0.027771066110454649 0.0051475516560400897 0 -0.028260172930737595 0.0094155090692775757 0 -0.02739602348628736 0.0064780781010503417 0 -0.028309577188182711 0.0050201485078631833 0 -0.02767784691985422 0.0052526274315373295 0 -0.02739602348628736 0.0064780781010503417 0 -0.027771066110454649 0.0051475516560400897 0 -0.02739602348628736 0.0064780781010503417 0 -0.027771066110454649 0.0051475516560400897 0 -0.028309577188182711 0.0050201485078631833 0 -0.0030362103126888727 0.0099895977742997574 0 -0.0030007098016313935 0.010813442931405463 0 -0.00316945153743034 0.011227343832187779 0 -0.015234561854719919 0.0086406887221506558 0 -0.014951133585458947 0.007977681350219111 0 -0.027968434124817167 0.0046669394137481678 0 -0.028309577188182711 0.0050201485078631833 0 -0.028175678825907994 0.0043035465037635284 0 -0.0030362103126888727 0.0099895977742997574 0 -0.0028406802488661108 0.010673932654143001 0 -0.0030007098016313935 0.010813442931405463 0 -0.027968434124817167 0.0046669394137481678 0 -0.027771066110454649 0.0051475516560400897 0 -0.028309577188182711 0.0050201485078631833 0 -0.0028406802488661108 0.010673932654143001 0 -0.0030007098016313935 0.010813442931405463 0 -0.0030309427212640233 0.011281786195461094 0 -0.0030309427212640233 0.011281786195461094 0 -0.00316945153743034 0.011227343832187779 0 -0.0026255406159916496 0.011885441242757935 0 -0.0029274865760869715 0.011592216488307725 0 -0.0027658413686601382 0.011788431173736597 0 -0.0023899369357944914 0.011528757695523497 0 -0.0030007098016313935 0.010813442931405463 0 -0.0030309427212640233 0.011281786195461094 0 -0.00316945153743034 0.011227343832187779 0 -0.027968434124817167 0.0046669394137481678 0 -0.028175678825907994 0.0043035465037635284 0 -0.028143282490164848 0.0042642341788983046 0 -0.028014384344096869 0.004491272609244785 0 -0.028143282490164848 0.0042642341788983046 0 -0.028247980869553185 0.0040359553529241369 0 -0.028278507372927551 0.0039801573027695393 0 -0.028247980869553185 0.0040359553529241369 0 -0.028373778752437732 0.0038258564730734323 0 -0.028143282490164848 0.0042642341788983046 0 -0.028278507372927551 0.0039801573027695393 0 -0.028247980869553185 0.0040359553529241369 0 -0.028175678825907994 0.0043035465037635284 0 -0.028143282490164848 0.0042642341788983046 0 -0.028278507372927551 0.0039801573027695393 0 -0.028175678825907994 0.0043035465037635284 0 -0.028278507372927551 0.0039801573027695393 0 -0.028378149668010316 0.0036899170150806316 0 -0.00316945153743034 0.011227343832187779 0 -0.0026255406159916496 0.011885441242757935 0 -0.0025763760829174958 0.01192575370710554 0 -0.0029274865760869715 0.011592216488307725 0 -0.0026255406159916496 0.011885441242757935 0 -0.0027276058112277271 0.011850829083467919 0 -0.0027330199625788068 0.011202462195965296 0 -0.0028776464525400777 0.011480454312085615 0 -0.014951133585458947 0.007977681350219111 0 -0.014465812375797764 0.0079496985268913186 0 -0.028278507372927551 0.0039801573027695393 0 -0.028366970457529138 0.0038006611479963321 0 -0.028378149668010316 0.0036899170150806316 0 -0.028278507372927551 0.0039801573027695393 0 -0.028366970457529138 0.0038006611479963321 0 -0.028373778752437732 0.0038258564730734323 0 -0.028366970457529138 0.0038006611479963321 0 -0.028378149668010316 0.0036899170150806316 0 -0.028470182047445031 0.003727224849450767 0 -0.0026255406159916496 0.011885441242757935 0 -0.0026255657438588442 0.011863731993173705 0 -0.0025530200734182125 0.011842733903082379 0 -0.0026255406159916496 0.011885441242757935 0 -0.0025763760829174958 0.01192575370710554 0 -0.0025530200734182125 0.011842733903082379 0 -0.0026255406159916496 0.011885441242757935 0 -0.0026255657438588442 0.011863731993173705 0 -0.0027276058112277271 0.011850829083467919 0 -0.0026255657438588442 0.011863731993173705 0 -0.0027276058112277271 0.011850829083467919 0 -0.0026755018340792872 0.011883390406524806 0 -0.0029274865760869715 0.011592216488307725 0 -0.0027276058112277271 0.011850829083467919 0 -0.002787885264562584 0.011867008650307343 0 -0.0027276058112277271 0.011850829083467919 0 -0.002787885264562584 0.011867008650307343 0 -0.0026755018340792872 0.011883390406524806 0 -0.0028330515890001807 0.012106420928962585 0 -0.002787885264562584 0.011867008650307343 0 -0.0026755018340792872 0.011883390406524806 0 -0.0028330515890001807 0.012106420928962585 0 -0.0027658413686601382 0.011788431173736597 0 -0.002787885264562584 0.011867008650307343 0 -0.0029274865760869715 0.011592216488307725 0 -0.0027658413686601382 0.011788431173736597 0 -0.002787885264562584 0.011867008650307343 0 -0.027093120537047651 0.0037005880507858966 0 -0.027864940969052295 0.0034510413854588707 0 -0.031997150089038383 0.00099483639791961179 0 -0.031528506194242745 0.000295030103494002 0 -0.030154898943657169 0.0013495155017192739 0 -0.027998075303031576 0.0043889192345726259 0 -0.028158573739859905 0.0039060096264791661 0 -0.028247980869553185 0.0040359553529241369 0 -0.028158573739859905 0.0039060096264791661 0 -0.028247980869553185 0.0040359553529241369 0 -0.0285833169605283 0.0036576381322384588 0 -0.027998075303031576 0.0043889192345726259 0 -0.028014384344096869 0.004491272609244785 0 -0.028247980869553185 0.0040359553529241369 0 -0.028373778752437732 0.0038258564730734323 0 -0.028470182047445031 0.003727224849450767 0 -0.0285833169605283 0.0036576381322384588 0 -0.028247980869553185 0.0040359553529241369 0 -0.028373778752437732 0.0038258564730734323 0 -0.0285833169605283 0.0036576381322384588 0 -0.028366970457529138 0.0038006611479963321 0 -0.028373778752437732 0.0038258564730734323 0 -0.028470182047445031 0.003727224849450767 0 -0.028378149668010316 0.0036899170150806316 0 -0.028535302474436801 0.0037263346405562916 0 -0.028747673154446658 0.0038834297949764331 0 -0.028470182047445031 0.003727224849450767 0 -0.028634953635773515 0.0036942902136844636 0 -0.0285833169605283 0.0036576381322384588 0 -0.028378149668010316 0.0036899170150806316 0 -0.028470182047445031 0.003727224849450767 0 -0.028535302474436801 0.0037263346405562916 0 -0.028470182047445031 0.003727224849450767 0 -0.028535302474436801 0.0037263346405562916 0 -0.028634953635773515 0.0036942902136844636 0 -0.028535302474436801 0.0037263346405562916 0 -0.028634953635773515 0.0036942902136844636 0 -0.028747673154446658 0.0038834297949764331 0 -0.028982785674564807 0.0036258923110473098 0 -0.0285833169605283 0.0036576381322384588 0 -0.029626809136565634 0.0033715961825754722 0 -0.028634953635773515 0.0036942902136844636 0 -0.028982785674564807 0.0036258923110473098 0 -0.0285833169605283 0.0036576381322384588 0 -0.028158573739859905 0.0039060096264791661 0 -0.0285833169605283 0.0036576381322384588 0 -0.029626809136565634 0.0033715961825754722 0 -0.031873492339880981 0.0021013432796637252 0 -0.030154898943657169 0.0013495155017192739 0 -0.029626809136565634 0.0033715961825754722 0 -0.027864940969052295 0.0034510413854588707 0 -0.028138142716670974 0.0036426445219557443 0 -0.031263104590708767 0.0035058877882754389 0 -0.03013325611094636 0.0043117129291266581 0 -0.029626809136565634 0.0033715961825754722 0 -0.028982785674564807 0.0036258923110473098 0 -0.029626809136565634 0.0033715961825754722 0 -0.029389586361196957 0.0039975633112510579 0 -0.03013325611094636 0.0043117129291266581 0 -0.029389586361196957 0.0039975633112510579 0 -0.029108835457890031 0.0045128415190054593 0 -0.03013325611094636 0.0043117129291266581 0 -0.029626809136565634 0.0033715961825754722 0 -0.029389586361196957 0.0039975633112510579 0 -0.0025763760829174958 0.01192575370710554 0 -0.0018601165830110238 0.011372402477017656 0 -0.0023586833190588768 0.011686079436298905 0 -0.028378149668010316 0.0036899170150806316 0 -0.028747673154446658 0.0038834297949764331 0 -0.028953227702795729 0.0045952312316555602 0 -0.028989885159579225 0.0041766770160883886 0 -0.028747673154446658 0.0038834297949764331 0 -0.028953227702795729 0.0045952312316555602 0 -0.014465812375797764 0.0079496985268913186 0 -0.012989335502680679 0.0074929057638341663 0 -0.029389586361196957 0.0039975633112510579 0 -0.028989885159579225 0.0041766770160883886 0 -0.029108835457890031 0.0045128415190054593 0 -0.029389586361196957 0.0039975633112510579 0 -0.028989885159579225 0.0041766770160883886 0 -0.028988326926951351 0.0038986695150373084 0 -0.028982785674564807 0.0036258923110473098 0 -0.029389586361196957 0.0039975633112510579 0 -0.028988326926951351 0.0038986695150373084 0 -0.028989885159579225 0.0041766770160883886 0 -0.028988326926951351 0.0038986695150373084 0 -0.028747673154446658 0.0038834297949764331 0 -0.028634953635773515 0.0036942902136844636 0 -0.028982785674564807 0.0036258923110473098 0 -0.028747673154446658 0.0038834297949764331 0 -0.028982785674564807 0.0036258923110473098 0 -0.028988326926951351 0.0038986695150373084 0 -0.028747673154446658 0.0038834297949764331 0 -0.0018601165830110238 0.011372402477017656 0 -0.0022601469023081763 0.011537430035783258 0 -0.0023586833190588768 0.011686079436298905 0 -0.0018601165830110238 0.011372402477017656 0 -0.0022601469023081763 0.011537430035783258 0 -0.0021374844942777665 0.011258390846820052 0 -0.028989885159579225 0.0041766770160883886 0 -0.028953227702795729 0.0045952312316555602 0 -0.029108835457890031 0.0045128415190054593 0 -0.028922079648593571 0.0047243264265212411 0 -0.029108835457890031 0.0045128415190054593 0 -0.029811252053737101 0.0052068193053716998 0 -0.012989335502680679 0.0074929057638341663 0 -0.013207561398674359 0.0073250675304864189 0 -0.015413868000390201 0.0067344783994596714 0 -0.012989335502680679 0.0074929057638341663 0 -0.029872864286466197 0.0061357934814047941 0 -0.028922079648593571 0.0047243264265212411 0 -0.029811252053737101 0.0052068193053716998 0 -0.03013325611094636 0.0043117129291266581 0 -0.029108835457890031 0.0045128415190054593 0 -0.029811252053737101 0.0052068193053716998 0 -0.031125647737773456 0.0057066100789863461 0 -0.031235346612030729 0.0045934958907026015 0 -0.029811252053737101 0.0052068193053716998 0 -0.031235346612030729 0.0045934958907026015 0 -0.03013325611094636 0.0043117129291266581 0 -0.029811252053737101 0.0052068193053716998 0 -0.0025936304157959792 0.011718766795182366 0 -0.0027704553469675114 0.011732282477117923 0 -0.0024100718953088099 0.011464126975491604 0 -0.0028330515890001807 0.012106420928962585 0 -0.0027704553469675114 0.011732282477117923 0 -0.0026755018340792872 0.011883390406524806 0 -0.0025936304157959792 0.011718766795182366 0 -0.0027704553469675114 0.011732282477117923 0 -0.0026755018340792872 0.011883390406524806 0 -0.0026255657438588442 0.011863731993173705 0 -0.0026755018340792872 0.011883390406524806 0 -0.0025107718397564451 0.011748046914758649 0 -0.0025936304157959792 0.011718766795182366 0 -0.0026755018340792872 0.011883390406524806 0 -0.0025107718397564451 0.011748046914758649 0 -0.0026255657438588442 0.011863731993173705 0 -0.0025107718397564451 0.011748046914758649 0 -0.0025530200734182125 0.011842733903082379 0 -0.0025763760829174958 0.01192575370710554 0 -0.0025530200734182125 0.011842733903082379 0 -0.0023586833190588768 0.011686079436298905 0 -0.0025107718397564451 0.011748046914758649 0 -0.0025530200734182125 0.011842733903082379 0 -0.0023586833190588768 0.011686079436298905 0 -0.0025107718397564451 0.011748046914758649 0 -0.0022601469023081763 0.011537430035783258 0 -0.0024100718953088099 0.011464126975491604 0 -0.0025107718397564451 0.011748046914758649 0 -0.0022601469023081763 0.011537430035783258 0 -0.0023586833190588768 0.011686079436298905 0 -0.0025936304157959792 0.011718766795182366 0 -0.0025107718397564451 0.011748046914758649 0 -0.0024100718953088099 0.011464126975491604 0 -0.0020217905707789908 0.010614926712850569 0 -0.0024100718953088099 0.011464126975491604 0 -0.0021374844942777665 0.011258390846820052 0 -0.0020217905707789908 0.010614926712850569 0 -0.0018601165830110238 0.011372402477017656 0 -0.0021374844942777665 0.011258390846820052 0 -0.0020217905707789908 0.010614926712850569 0 -0.0024100718953088099 0.011464126975491604 0 -0.0026378909191682948 0.011173940052392441 0 -0.0022601469023081763 0.011537430035783258 0 -0.0024100718953088099 0.011464126975491604 0 -0.0021374844942777665 0.011258390846820052 0 -0.0027704553469675114 0.011732282477117923 0 -0.0024100718953088099 0.011464126975491604 0 -0.0026378909191682948 0.011173940052392441 0 -0.0027704553469675114 0.011732282477117923 0 -0.0026378909191682948 0.011173940052392441 0 -0.0032241737696465638 0.011403422436464201 0 -0.0027704553469675114 0.011732282477117923 0 -0.0032241737696465638 0.011403422436464201 0 -0.0034208503193584091 0.012019684604300366 0 -0.0028330515890001807 0.012106420928962585 0 -0.0027704553469675114 0.011732282477117923 0 -0.0034208503193584091 0.012019684604300366 0 -0.0034208503193584091 0.012019684604300366 0 -0.0037429700108759091 0.012038324639848138 0 -0.0037643935998502589 0.012501388303497507 0 -0.0037149598868194108 0.011259713903979396 0 -0.0032241737696465638 0.011403422436464201 0 -0.0037429700108759091 0.012038324639848138 0 -0.0032241737696465638 0.011403422436464201 0 -0.0034208503193584091 0.012019684604300366 0 -0.0037429700108759091 0.012038324639848138 0 -0.0037429700108759091 0.012038324639848138 0 -0.0041035553076424723 0.011762043891449339 0 -0.0036276719120475489 0.013198880325920079 0 -0.0037149598868194108 0.011259713903979396 0 -0.0037429700108759091 0.012038324639848138 0 -0.0041035553076424723 0.011762043891449339 0 -0.0041035553076424723 0.011762043891449339 0 -0.0050663742359358249 0.011846109241944869 0 -0.0036276719120475489 0.013198880325920079 0 -0.0047773880576008759 0.011195949503563897 0 -0.0041035553076424723 0.011762043891449339 0 -0.0050663742359358249 0.011846109241944869 0 -0.0026012755199125545 0.013180948617468664 0 -0.0027631098063231156 0.013111064850731631 0 -0.0025067989624142006 0.016019302645304812 0 -0.0036276719120475489 0.013198880325920079 0 -0.0016770094336430192 0.014193579857811342 0 -0.0036276719120475489 0.013198880325920079 0 -0.0016770094336430192 0.014193579857811342 0 -0.0019210175180183716 0.012588417391311682 0 -0.0036276719120475489 0.013198880325920079 0 -0.0037643935998502589 0.012501388303497507 0 -0.0019210175180183716 0.012588417391311682 0 -0.0037429700108759091 0.012038324639848138 0 -0.0036276719120475489 0.013198880325920079 0 -0.0037643935998502589 0.012501388303497507 0 -0.0037643935998502589 0.012501388303497507 0 -0.0030896465032834225 0.01144898198562282 0 -0.0037754136974231908 0.012326932599060399 0 -0.0011984885849374012 0.011533409250198971 0 -0.00222095851990037 0.011900618346646949 0 -0.0037643935998502589 0.012501388303497507 0 -0.0030896465032834225 0.01144898198562282 0 -0.0019210175180183716 0.012588417391311682 0 -0.00012163762789415758 0.011628118321569727 0 0.0014418617564325191 0.011121279425864911 0 0.00039847257800262501 0.010349519231261978 0 -0.00012163762789415758 0.011628118321569727 0 -0.0015935259002302516 0.012010134727228018 0 -0.00097672963970281673 0.010558969464132529 0 -0.0018129030228466899 0.011134883279404515 0 -0.0023899369357944914 0.011528757695523497 0 -0.0015935259002302516 0.012010134727228018 0 -0.0018129030228466899 0.011134883279404515 0 -0.0015935259002302516 0.012010134727228018 0 -0.00097672963970281673 0.010558969464132529 0 -0.0029274865760869715 0.011592216488307725 0 -0.0023899369357944914 0.011528757695523497 0 -0.0022678561482347994 0.010412474854630075 0 -0.0018129030228466899 0.011134883279404515 0 -0.0023899369357944914 0.011528757695523497 0 -0.0022678561482347994 0.010412474854630075 0 -0.0028330515890001807 0.012106420928962585 0 -0.0027658413686601382 0.011788431173736597 0 -0.0023899369357944914 0.011528757695523497 0 -0.0028330515890001807 0.012106420928962585 0 -0.0023899369357944914 0.011528757695523497 0 -0.0015935259002302516 0.012010134727228018 0 -0.0028330515890001807 0.012106420928962585 0 -0.0034208503193584091 0.012019684604300366 0 -0.0037754136974231908 0.012326932599060399 0 -0.0025344944972011431 0.012010852582162073 0 -0.00222095851990037 0.011900618346646949 0 -0.0034208503193584091 0.012019684604300366 0 -0.0037643935998502589 0.012501388303497507 0 -0.0037754136974231908 0.012326932599060399 0 0.0057702391808388039 0.013545489656781835 0 0.0042741683987215819 0.015434072861872372 0 0.0039944960947504576 0.012660808867128462 0 0.0041897711586022278 0.016333609245654031 0 0.0051024144960446927 0.016226423957286327 0 0.0042741683987215819 0.015434072861872372 0 0.0042741683987215819 0.015434072861872372 0 0.0023023095079274139 0.014177027307396077 0 0.0015293344917676741 0.016598188538546103 0 0.0021569051347934127 0.014132780234795628 0 0.00085139109936037784 0.014077461895309271 0 0.0041897711586022278 0.016333609245654031 0 0.0042741683987215819 0.015434072861872372 0 0.0030999353085186167 0.016198797840122601 0 0.0042741683987215819 0.015434072861872372 0 0.0023023095079274139 0.014177027307396077 0 0.0039944960947504576 0.012660808867128462 0 0.0023023095079274139 0.014177027307396077 0 0.00015625415933175169 0.014174132769879534 0 0.0013736072674174786 0.012402134524228137 0 0.0023023095079274139 0.014177027307396077 0 0.00015625415933175169 0.014174132769879534 0 0.0015293344917676741 0.016598188538546103 0 0.00015625415933175169 0.014174132769879534 0 0.0015293344917676741 0.016598188538546103 0 -0.00073313848641836786 0.01578879026955957 0 -0.0014316804719322741 0.017967500830566158 0 -0.0025067989624142006 0.016019302645304812 0 -0.00073313848641836786 0.01578879026955957 0 -0.0025067989624142006 0.016019302645304812 0 -0.00073313848641836786 0.01578879026955957 0 -0.0016770094336430192 0.014193579857811342 0 0.00015625415933175169 0.014174132769879534 0 -0.0016770094336430192 0.014193579857811342 0 -0.0019210175180183716 0.012588417391311682 0 0.00015625415933175169 0.014174132769879534 0 -0.00073313848641836786 0.01578879026955957 0 -0.0016770094336430192 0.014193579857811342 0 -0.0019210175180183716 0.012588417391311682 0 -0.0003914286754779284 0.010612452825342495 0 0.0013736072674174786 0.012402134524228137 0 -0.0011984885849374012 0.011533409250198971 0 0.00030554395982471588 0.011060362710010721 0 -0.0030896465032834225 0.01144898198562282 0 -0.0019210175180183716 0.012588417391311682 0 -0.0003914286754779284 0.010612452825342495 0 0.00030554395982471588 0.011060362710010721 0 0.0012805910895623777 0.010788099110947628 0 -0.0003914286754779284 0.010612452825342495 0 0.0013736072674174786 0.012402134524228137 0 0.0028811325392117415 0.010533411493172013 0 0.00015625415933175169 0.014174132769879534 0 -0.0019210175180183716 0.012588417391311682 0 0.0013736072674174786 0.012402134524228137 0 0.0023023095079274139 0.014177027307396077 0 0.0013736072674174786 0.012402134524228137 0 0.0039944960947504576 0.012660808867128462 0 0.0013736072674174786 0.012402134524228137 0 0.0039944960947504576 0.012660808867128462 0 0.0028811325392117415 0.010533411493172013 0 0.00602577936280354 0.012102143169002251 0 0.0039944960947504576 0.012660808867128462 0 0.0049349034255423384 0.010793791318357122 0 0.0039944960947504576 0.012660808867128462 0 0.0049349034255423384 0.010793791318357122 0 0.0028811325392117415 0.010533411493172013 0 0.0042208154309527294 0.0092977775284835071 0 0.0028811325392117415 0.010533411493172013 0 0.0028941005454466802 0.0086187176319408691 0 0.0056408199767962507 0.0096429777608847654 0 0.0042208154309527294 0.0092977775284835071 0 0.0049349034255423384 0.010793791318357122 0 0.0056408199767962507 0.0096429777608847654 0 0.0052377675256821722 0.0084556930077124906 0 0.0042208154309527294 0.0092977775284835071 0 0.0042208154309527294 0.0092977775284835071 0 0.0049349034255423384 0.010793791318357122 0 0.0028811325392117415 0.010533411493172013 0 0.0028811325392117415 0.010533411493172013 0 0.0018958901581968138 0.009763480708819567 0 0.0028941005454466802 0.0086187176319408691 0 0.0018958901581968138 0.009763480708819567 0 0.0018159148804117262 0.0086399132482267698 0 0.0028941005454466802 0.0086187176319408691 0 0.0014418617564325191 0.011121279425864911 0 0.0028811325392117415 0.010533411493172013 0 0.0018958901581968138 0.009763480708819567 0 0.0014418617564325191 0.011121279425864911 0 0.0018958901581968138 0.009763480708819567 0 0.00039847257800262501 0.010349519231261978 0 0.0018958901581968138 0.009763480708819567 0 0.0008736285831203196 0.0091474006475380579 0 0.00039847257800262501 0.010349519231261978 0 0.0018958901581968138 0.009763480708819567 0 0.0008736285831203196 0.0091474006475380579 0 0.0018159148804117262 0.0086399132482267698 0 0.0008736285831203196 0.0091474006475380579 0 0.0010853541233501551 0.0080674025393395465 0 0.0018159148804117262 0.0086399132482267698 0 0.0010853541233501551 0.0080674025393395465 0 0.00030382227443122582 0.0076192589594162325 0 0.0012245838159712099 0.0070125392474462275 0 0.0010853541233501551 0.0080674025393395465 0 0.0023376725920488607 0.007586434407265941 0 0.0012245838159712099 0.0070125392474462275 0 0.0023376725920488607 0.007586434407265941 0 0.0021662826830213099 0.0067941482131227988 0 0.0012245838159712099 0.0070125392474462275 0 0.0023376725920488607 0.007586434407265941 0 0.003352687686466461 0.006701986410713511 0 0.0021662826830213099 0.0067941482131227988 0 0.0010853541233501551 0.0080674025393395465 0 0.0023376725920488607 0.007586434407265941 0 0.0018159148804117262 0.0086399132482267698 0 0.0023376725920488607 0.007586434407265941 0 0.0018159148804117262 0.0086399132482267698 0 0.0028941005454466802 0.0086187176319408691 0 0.0023376725920488607 0.007586434407265941 0 0.0028941005454466802 0.0086187176319408691 0 0.004027504082841765 0.0075800469002629189 0 0.0042208154309527294 0.0092977775284835071 0 0.0028941005454466802 0.0086187176319408691 0 0.004027504082841765 0.0075800469002629189 0 0.0023376725920488607 0.007586434407265941 0 0.004027504082841765 0.0075800469002629189 0 0.003352687686466461 0.006701986410713511 0 0.005291249356785821 0.0069986518969232282 0 0.0047068275627547337 0.0062993407035532301 0 0.004027504082841765 0.0075800469002629189 0 0.0052377675256821722 0.0084556930077124906 0 0.0042208154309527294 0.0092977775284835071 0 0.004027504082841765 0.0075800469002629189 0 0.005291249356785821 0.0069986518969232282 0 0.0052377675256821722 0.0084556930077124906 0 0.004027504082841765 0.0075800469002629189 0 -0.0013073264462185902 0.0092184843080906458 0 -0.0022420423432288556 0.009501877452958319 0 -0.0023393588100820884 0.010404592662921859 0 -0.0013073264462185902 0.0092184843080906458 0 -0.0022678561482347994 0.010412474854630075 0 -0.00097672963970281673 0.010558969464132529 0 -0.0017672171817254988 0.0099610130505739612 0 -0.0021938038792274715 0.010474301998789567 0 -0.0030362103126888727 0.0099895977742997574 0 -0.0022420423432288556 0.009501877452958319 0 -0.0023364947793959993 0.0091975154262860549 0 -0.0030362103126888727 0.0099895977742997574 0 -0.0025839024710853902 0.010065625429554685 0 -0.002716188168939899 0.010330392730683206 0 -0.0030362103126888727 0.0099895977742997574 0 -0.0022420423432288556 0.009501877452958319 0 -0.0025839024710853902 0.010065625429554685 0 -0.0022420423432288556 0.009501877452958319 0 -0.0025839024710853902 0.010065625429554685 0 -0.0023393588100820884 0.010404592662921859 0 -0.0028406802488661108 0.010673932654143001 0 -0.0030309427212640233 0.011281786195461094 0 -0.0023393588100820884 0.010404592662921859 0 -0.0027330199625788068 0.011202462195965296 0 -0.0021938038792274715 0.010474301998789567 0 -0.0028406802488661108 0.010673932654143001 0 -0.0023393588100820884 0.010404592662921859 0 -0.002716188168939899 0.010330392730683206 0 -0.0025839024710853902 0.010065625429554685 0 -0.0023393588100820884 0.010404592662921859 0 -0.002716188168939899 0.010330392730683206 0 -0.0030362103126888727 0.0099895977742997574 0 -0.0028406802488661108 0.010673932654143001 0 -0.002716188168939899 0.010330392730683206 0 -0.0018129030228466899 0.011134883279404515 0 -0.0022678561482347994 0.010412474854630075 0 -0.00097672963970281673 0.010558969464132529 0 -0.00012163762789415758 0.011628118321569727 0 -0.00097672963970281673 0.010558969464132529 0 0.00039847257800262501 0.010349519231261978 0 -0.00097672963970281673 0.010558969464132529 0 0.00039847257800262501 0.010349519231261978 0 -0.00031246002171452398 0.0093637564815276016 0 0.0008736285831203196 0.0091474006475380579 0 0.00039847257800262501 0.010349519231261978 0 -0.00031246002171452398 0.0093637564815276016 0 -0.0013073264462185902 0.0092184843080906458 0 -0.00097672963970281673 0.010558969464132529 0 -0.00031246002171452398 0.0093637564815276016 0 -0.0013073264462185902 0.0092184843080906458 0 -0.00031246002171452398 0.0093637564815276016 0 -0.0010554387477060567 0.0085286875604359616 0 -0.00031246002171452398 0.0093637564815276016 0 -0.0010554387477060567 0.0085286875604359616 0 5.1119507525775912e-05 0.0083741915701690921 0 -0.0010554387477060567 0.0085286875604359616 0 5.1119507525775912e-05 0.0083741915701690921 0 -0.0004766836895900431 0.0077719000943868863 0 0.0008736285831203196 0.0091474006475380579 0 -0.00031246002171452398 0.0093637564815276016 0 5.1119507525775912e-05 0.0083741915701690921 0 0.0008736285831203196 0.0091474006475380579 0 0.0010853541233501551 0.0080674025393395465 0 5.1119507525775912e-05 0.0083741915701690921 0 0.00030382227443122582 0.0076192589594162325 0 -0.00037839646470277688 0.0069125644058914042 0 0.0012245838159712099 0.0070125392474462275 0 0.0010853541233501551 0.0080674025393395465 0 5.1119507525775912e-05 0.0083741915701690921 0 0.00030382227443122582 0.0076192589594162325 0 5.1119507525775912e-05 0.0083741915701690921 0 0.00030382227443122582 0.0076192589594162325 0 -0.0004766836895900431 0.0077719000943868863 0 0.00030382227443122582 0.0076192589594162325 0 -0.0004766836895900431 0.0077719000943868863 0 -0.00037839646470277688 0.0069125644058914042 0 -0.0010554387477060567 0.0085286875604359616 0 -0.0004766836895900431 0.0077719000943868863 0 -0.0012702956374032758 0.0075777647886356948 0 -0.004306536498489652 0.0098488174710089135 0 -0.0075584906767252064 0.012101737902581436 0 -0.0004766836895900431 0.0077719000943868863 0 -0.0012702956374032758 0.0075777647886356948 0 -0.00037839646470277688 0.0069125644058914042 0 -0.031858978642180562 0.011207102387090277 0 -0.032186320331060517 0.01543128221871673 0 -0.03577095029296256 0.018243347828138062 0 -0.015726410705931868 0.010945088278704176 0 -0.015382965955855709 0.014097523557698975 0 -0.0010554387477060567 0.0085286875604359616 0 -0.0012702956374032758 0.0075777647886356948 0 -0.0022143984791117267 0.008438791215959798 0 -0.0022143984791117267 0.008438791215959798 0 -0.0022554476812702332 0.0084471741799817326 0 -0.0023256734246638487 0.0087144435095652378 0 -0.0024483861353804155 0.0085493691460007543 0 -0.0022143984791117267 0.008438791215959798 0 -0.0023256734246638487 0.0087144435095652378 0 -0.004306536498489652 0.0098488174710089135 0 -0.0035531754158670123 0.0093299887056517063 0 -0.0013073264462185902 0.0092184843080906458 0 -0.0022420423432288556 0.009501877452958319 0 -0.0018867188786470057 0.0088769305636675067 0 -0.0010554387477060567 0.0085286875604359616 0 -0.0022143984791117267 0.008438791215959798 0 -0.0018867188786470057 0.0088769305636675067 0 -0.0022143984791117267 0.008438791215959798 0 -0.0018867188786470057 0.0088769305636675067 0 -0.0022554476812702332 0.0084471741799817326 0 -0.0022420423432288556 0.009501877452958319 0 -0.0018867188786470057 0.0088769305636675067 0 -0.0023364947793959993 0.0091975154262860549 0 -0.0013073264462185902 0.0092184843080906458 0 -0.0010554387477060567 0.0085286875604359616 0 -0.0018867188786470057 0.0088769305636675067 0 -0.015234561854719919 0.0086406887221506558 0 -0.015726410705931868 0.010945088278704176 0 -0.028260172930737595 0.0094155090692775757 0 -0.028309577188182711 0.0050201485078631833 0 -0.031858978642180562 0.011207102387090277 0 -0.0030362103126888727 0.0099895977742997574 0 -0.0023364947793959993 0.0091975154262860549 0 -0.0022554476812702332 0.0084471741799817326 0 -0.0018867188786470057 0.0088769305636675067 0 -0.0023364947793959993 0.0091975154262860549 0 -0.0022554476812702332 0.0084471741799817326 0 -0.028260172930737595 0.0094155090692775757 0 -0.031858978642180562 0.011207102387090277 0 -0.029226788370705387 0.013084842984836345 0 -0.031858978642180562 0.011207102387090277 0 -0.029226788370705387 0.013084842984836345 0 -0.032186320331060517 0.01543128221871673 0 -0.027399943541262916 0.015414943739647061 0 -0.029197775932995804 0.015723306301405386 0 -0.027968780333927752 0.018971120655490756 0 -0.032186320331060517 0.01543128221871673 0 -0.029197775932995804 0.015723306301405386 0 -0.027968780333927752 0.018971120655490756 0 -0.027399943541262916 0.015414943739647061 0 -0.029226788370705387 0.013084842984836345 0 -0.029197775932995804 0.015723306301405386 0 -0.029226788370705387 0.013084842984836345 0 -0.032186320331060517 0.01543128221871673 0 -0.029197775932995804 0.015723306301405386 0 -0.032186320331060517 0.01543128221871673 0 -0.03577095029296256 0.018243347828138062 0 -0.027968780333927752 0.018971120655490756 0 -0.015382965955855709 0.014097523557698975 0 -0.021587028402612268 0.016485414614788151 0 -0.019632478112589224 0.021106466315984507 0 -0.019512246442332105 0.021198469384959173 0 -0.019576416240493274 0.020690641894733585 0 -0.019569104365608953 0.02082087660511707 0 -0.019632478112589224 0.021106466315984507 0 -0.019576416240493274 0.020690641894733585 0 -0.019632478112589224 0.021106466315984507 0 -0.019593901694247132 0.021077530707492499 0 -0.019683690013454807 0.021236777674629843 0 -0.019569104365608953 0.02082087660511707 0 -0.019593901694247132 0.021077530707492499 0 -0.019446510580431748 0.021008298916840203 0 -0.019569104365608953 0.02082087660511707 0 -0.019632478112589224 0.021106466315984507 0 -0.019593901694247132 0.021077530707492499 0 -0.019632478112589224 0.021106466315984507 0 -0.019208401681972784 0.021451965671757146 0 -0.019726098581719302 0.021239705594847291 0 -0.018876236369754464 0.021863212872565201 0 -0.018794774783665737 0.022030363622981629 0 -0.019632478112589224 0.021106466315984507 0 -0.019512246442332105 0.021198469384959173 0 -0.019208401681972784 0.021451965671757146 0 -0.019512246442332105 0.021198469384959173 0 -0.019547067258262659 0.021135573401198971 0 -0.019576416240493274 0.020690641894733585 0 -0.019512246442332105 0.021198469384959173 0 -0.019547067258262659 0.021135573401198971 0 -0.019208401681972784 0.021451965671757146 0 -0.019134462560040345 0.022701117015829653 0 -0.018455175014715539 0.022746953634173211 0 -0.018399395645650372 0.022340751549407855 0 -0.0024483861353804155 0.0085493691460007543 0 -0.0023256734246638487 0.0087144435095652378 0 -0.0027800644807313866 0.0087924598759190759 0 -0.015382965955855709 0.014097523557698975 0 -0.0075584906767252064 0.012101737902581436 0 -0.0075584906767252064 0.012101737902581436 0 -0.003157643290450127 0.011334701979419368 0 -0.00042614042850715292 0.0069408777802135212 0 0.0012245838159712099 0.0070125392474462275 0 0.0013022491605162864 0.0058874040818531048 0 -0.018455175014715539 0.022746953634173211 0 -0.018399395645650372 0.022340751549407855 0 -0.017722161343007518 0.022404870917314895 0 -0.0075584906767252064 0.012101737902581436 0 -0.0079469884609586101 0.013744711305751129 0 -0.018399395645650372 0.022340751549407855 0 -0.017980568377548436 0.02210764674333841 0 -0.017722161343007518 0.022404870917314895 0 -0.018399395645650372 0.022340751549407855 0 -0.018813051995012556 0.02180962720280713 0 -0.017980568377548436 0.02210764674333841 0 -0.015382965955855709 0.014097523557698975 0 -0.018057129488368337 0.019167116226949225 0 -0.019547067258262659 0.021135573401198971 0 -0.019208401681972784 0.021451965671757146 0 -0.018813051995012556 0.02180962720280713 0 -0.019208401681972784 0.021451965671757146 0 -0.018813051995012556 0.02180962720280713 0 -0.01891269156870173 0.021728523678060493 0 -0.019134462560040345 0.022701117015829653 0 -0.018399395645650372 0.022340751549407855 0 -0.018813051995012556 0.02180962720280713 0 -0.018813051995012556 0.02180962720280713 0 -0.018787326315765747 0.021633472804627046 0 -0.01891269156870173 0.021728523678060493 0 -0.018813051995012556 0.02180962720280713 0 -0.018787326315765747 0.021633472804627046 0 -0.018443554970085905 0.021744725865674462 0 -0.018787326315765747 0.021633472804627046 0 -0.018443554970085905 0.021744725865674462 0 -0.018673356640805484 0.021419727759532419 0 -0.018813051995012556 0.02180962720280713 0 -0.017980568377548436 0.02210764674333841 0 -0.018443554970085905 0.021744725865674462 0 -0.018443554970085905 0.021744725865674462 0 -0.01804946978891956 0.021571768755701392 0 -0.018673356640805484 0.021419727759532419 0 -0.017980568377548436 0.02210764674333841 0 -0.018443554970085905 0.021744725865674462 0 -0.01804946978891956 0.021571768755701392 0 -0.017980568377548436 0.02210764674333841 0 -0.01804946978891956 0.021571768755701392 0 -0.017345965465688624 0.022261543074389083 0 -0.017632802399568537 0.023121156273718243 0 -0.018148914210367659 0.022887642769663648 0 -0.016175179721762096 0.022976642915318563 0 -0.016352395719171485 0.024123868257408112 0 -0.014595518373022929 0.024036883487155911 0 -0.016352395719171485 0.024123868257408112 0 -0.014595518373022929 0.024036883487155911 0 -0.016027226825368963 0.025291119651604736 0 -0.017632802399568537 0.023121156273718243 0 -0.017156848871254352 0.023707329294386258 0 -0.016175179721762096 0.022976642915318563 0 -0.016352395719171485 0.024123868257408112 0 -0.017069351022027928 0.023172017433214745 0 -0.017887029852130115 0.023207814526776154 0 -0.01786601555534947 0.023292655139055301 0 -0.018158212802552278 0.023226792565679048 0 -0.018148914210367659 0.022887642769663648 0 -0.01843525334759007 0.022845049239095985 0 -0.018787326315765747 0.021633472804627046 0 -0.018673356640805484 0.021419727759532419 0 -0.019032546782151587 0.02137233512594252 0 -0.017574523304535624 0.0233528152492678 0 -0.017887029852130115 0.023207814526776154 0 -0.01786601555534947 0.023292655139055301 0 -0.017156848871254352 0.023707329294386258 0 -0.017890921632957187 0.023874396656279957 0 -0.017887029852130115 0.023207814526776154 0 -0.018158212802552278 0.023226792565679048 0 -0.018200668491732821 0.023056823109551157 0 -0.019952966522195945 0.021782146915246152 0 -0.019608156532438428 0.021742478364450517 0 -0.019741783310964021 0.021468324839726435 0 -0.01843525334759007 0.022845049239095985 0 -0.017890921632957187 0.023874396656279957 0 -0.019952966522195945 0.021782146915246152 0 -0.019432394841044837 0.022318918307656747 0 -0.019608156532438428 0.021742478364450517 0 -0.019914581784875346 0.022592104911711167 0 -0.019019164501956697 0.022809093141701382 0 -0.019819398817987246 0.023014112697233358 0 -0.01843525334759007 0.022845049239095985 0 -0.018800478134667859 0.022724573765963853 0 -0.019432394841044837 0.022318918307656747 0 -0.019608156532438428 0.021742478364450517 0 -0.019145929824789739 0.02177384871543217 0 -0.019608156532438428 0.021742478364450517 0 -0.019542778796194482 0.021369090372773517 0 -0.019741783310964021 0.021468324839726435 0 -0.019542778796194482 0.021369090372773517 0 -0.019683690013454807 0.021236777674629843 0 -0.019741783310964021 0.021468324839726435 0 -0.019608156532438428 0.021742478364450517 0 -0.019542778796194482 0.021369090372773517 0 -0.019145929824789739 0.02177384871543217 0 -0.019593901694247132 0.021077530707492499 0 -0.019542778796194482 0.021369090372773517 0 -0.019446510580431748 0.021008298916840203 0 -0.019593901694247132 0.021077530707492499 0 -0.019542778796194482 0.021369090372773517 0 -0.019683690013454807 0.021236777674629843 0 -0.01843525334759007 0.022845049239095985 0 -0.018794774783665737 0.022030363622981629 0 -0.018787326315765747 0.021633472804627046 0 -0.019032546782151587 0.02137233512594252 0 -0.01891269156870173 0.021728523678060493 0 -0.019632478112589224 0.021106466315984507 0 -0.019683690013454807 0.021236777674629843 0 -0.019726098581719302 0.021239705594847291 0 -0.019683690013454807 0.021236777674629843 0 -0.019726098581719302 0.021239705594847291 0 -0.019741783310964021 0.021468324839726435 0 -0.019952966522195945 0.021782146915246152 0 -0.019726098581719302 0.021239705594847291 0 -0.019741783310964021 0.021468324839726435 0 0.0047068275627547337 0.0062993407035532301 0 0.0044475866940091972 0.0056422253640683517 0 0.0036744207272878765 0.0057818698250075209 0 0.0047068275627547337 0.0062993407035532301 0 0.003352687686466461 0.006701986410713511 0 0.0036744207272878765 0.0057818698250075209 0 0.0047068275627547337 0.0062993407035532301 0 0.004027504082841765 0.0075800469002629189 0 0.003352687686466461 0.006701986410713511 0 0.003352687686466461 0.006701986410713511 0 0.0036744207272878765 0.0057818698250075209 0 0.002558942188580425 0.0060673246803446624 0 0.0036744207272878765 0.0057818698250075209 0 0.002558942188580425 0.0060673246803446624 0 0.002962093129694443 0.005236024384399747 0 0.002558942188580425 0.0060673246803446624 0 0.0013022491605162864 0.0058874040818531048 0 0.002962093129694443 0.005236024384399747 0 -0.017722161343007518 0.022404870917314895 0 -0.017605570661167677 0.022205381351487644 0 -0.016876116693889543 0.022227398601821529 0 -0.0079469884609586101 0.013744711305751129 0 -0.0065942048451226917 0.013992076401945932 0 0.002558942188580425 0.0060673246803446624 0 0.0021662826830213099 0.0067941482131227988 0 0.0013022491605162864 0.0058874040818531048 0 0.003352687686466461 0.006701986410713511 0 0.002558942188580425 0.0060673246803446624 0 0.0021662826830213099 0.0067941482131227988 0 0.0021662826830213099 0.0067941482131227988 0 0.0012245838159712099 0.0070125392474462275 0 0.0013022491605162864 0.0058874040818531048 0 -0.017980568377548436 0.02210764674333841 0 -0.017722161343007518 0.022404870917314895 0 -0.017605570661167677 0.022205381351487644 0 -0.017980568377548436 0.02210764674333841 0 -0.017605570661167677 0.022205381351487644 0 -0.017345965465688624 0.022261543074389083 0 -0.017605570661167677 0.022205381351487644 0 -0.017345965465688624 0.022261543074389083 0 -0.017558618954141261 0.02209198070239406 0 -0.017345965465688624 0.022261543074389083 0 -0.017069351022027928 0.023172017433214745 0 -0.017558618954141261 0.02209198070239406 0 -0.017632802399568537 0.023121156273718243 0 -0.017656636620931462 0.023030081640031133 0 -0.016175179721762096 0.022976642915318563 0 -0.017345965465688624 0.022261543074389083 0 -0.017069351022027928 0.023172017433214745 0 -0.017069351022027928 0.023172017433214745 0 -0.01758344734159659 0.023958429338467313 0 -0.017558618954141261 0.02209198070239406 0 -0.016352395719171485 0.024123868257408112 0 -0.017069351022027928 0.023172017433214745 0 -0.01758344734159659 0.023958429338467313 0 -0.016352395719171485 0.024123868257408112 0 -0.01758344734159659 0.023958429338467313 0 -0.017057324246507129 0.024934823948729114 0 -0.014891453075059969 0.023805530541508153 0 -0.014034360439668341 0.024787000241938077 0 -0.01758344734159659 0.023958429338467313 0 -0.017558618954141261 0.02209198070239406 0 -0.019213184243589795 0.024545460087008739 0 -0.017605570661167677 0.022205381351487644 0 -0.016876116693889543 0.022227398601821529 0 -0.017558618954141261 0.02209198070239406 0 -0.016876116693889543 0.022227398601821529 0 -0.017558618954141261 0.02209198070239406 0 -0.016643159044612495 0.020621911365721477 0 -0.0065942048451226917 0.013992076401945932 0 -0.0046923792057986203 0.014223810496379675 0 0.0036744207272878765 0.0057818698250075209 0 0.002962093129694443 0.005236024384399747 0 0.0042309178506705312 0.0049794668773883452 0 -0.016876116693889543 0.022227398601821529 0 -0.014842966939888595 0.021371753949970842 0 -0.016643159044612495 0.020621911365721477 0 0.0047133212429281597 0.0053819793853524282 0 0.0044475866940091972 0.0056422253640683517 0 0.0042309178506705312 0.0049794668773883452 0 0.0044475866940091972 0.0056422253640683517 0 0.0036744207272878765 0.0057818698250075209 0 0.0042309178506705312 0.0049794668773883452 0 -0.014290763515048611 0.019171910929237056 0 -0.014999786252227452 0.01931315724427159 0 -0.014680642824822839 0.018645101237407449 0 -0.014999786252227452 0.01931315724427159 0 -0.015154636833468462 0.018845554487249307 0 -0.014680642824822839 0.018645101237407449 0 -0.014290763515048611 0.019171910929237056 0 -0.014999786252227452 0.01931315724427159 0 -0.014908509873545566 0.020062890223306637 0 -0.013984840245189875 0.019987471935432124 0 -0.014290763515048611 0.019171910929237056 0 -0.014908509873545566 0.020062890223306637 0 -0.013984840245189875 0.019987471935432124 0 -0.014842966939888595 0.021371753949970842 0 -0.014908509873545566 0.020062890223306637 0 -0.014842966939888595 0.021371753949970842 0 -0.014908509873545566 0.020062890223306637 0 -0.016643159044612495 0.020621911365721477 0 -0.014999786252227452 0.01931315724427159 0 -0.014908509873545566 0.020062890223306637 0 -0.016643159044612495 0.020621911365721477 0 -0.011109650745171961 0.029346079712219579 0 -0.014034360439668341 0.024787000241938077 0 -0.014999786252227452 0.01931315724427159 0 -0.015749051087156695 0.019061328356826404 0 -0.016643159044612495 0.020621911365721477 0 -0.020342422348013096 0.027416307181965263 0 -0.01953670374448517 0.026722017180526962 0 -0.019213184243589795 0.024545460087008739 0 -0.014999786252227452 0.01931315724427159 0 -0.015749051087156695 0.019061328356826404 0 -0.015154636833468462 0.018845554487249307 0 -0.020342422348013096 0.027416307181965263 0 -0.020011555806821468 0.027473819749712584 0 -0.019865927773285039 0.027234786560510853 0 -0.020342422348013096 0.027416307181965263 0 -0.020011555806821468 0.027473819749712584 0 -0.019796251923924174 0.027931098674716964 0 -0.020011555806821468 0.027473819749712584 0 -0.019617677650568991 0.027388349135766852 0 -0.019796251923924174 0.027931098674716964 0 -0.020011555806821468 0.027473819749712584 0 -0.019617677650568991 0.027388349135766852 0 -0.019865927773285039 0.027234786560510853 0 -0.020342422348013096 0.027416307181965263 0 -0.019865927773285039 0.027234786560510853 0 -0.01953670374448517 0.026722017180526962 0 -0.019617677650568991 0.027388349135766852 0 -0.019865927773285039 0.027234786560510853 0 -0.01953670374448517 0.026722017180526962 0 -0.0191714438792485 0.027143179613745249 0 -0.019168983721318339 0.027710403550889006 0 -0.018252346249947145 0.027551854145524426 0 -0.019617677650568991 0.027388349135766852 0 -0.0191714438792485 0.027143179613745249 0 -0.01953670374448517 0.026722017180526962 0 -0.019617677650568991 0.027388349135766852 0 -0.0191714438792485 0.027143179613745249 0 -0.019168983721318339 0.027710403550889006 0 -0.019617677650568991 0.027388349135766852 0 -0.019168983721318339 0.027710403550889006 0 -0.019796251923924174 0.027931098674716964 0 -0.018252346249947145 0.027551854145524426 0 -0.018588503086728499 0.026720882213467148 0 -0.017654404943335516 0.026721102560888992 0 -0.0191714438792485 0.027143179613745249 0 -0.018252346249947145 0.027551854145524426 0 -0.018588503086728499 0.026720882213467148 0 -0.018588503086728499 0.026720882213467148 0 -0.018258290887810939 0.025407942073574358 0 -0.017654404943335516 0.026721102560888992 0 -0.0191714438792485 0.027143179613745249 0 -0.018588503086728499 0.026720882213467148 0 -0.01953670374448517 0.026722017180526962 0 -0.018588503086728499 0.026720882213467148 0 -0.01953670374448517 0.026722017180526962 0 -0.018258290887810939 0.025407942073574358 0 -0.01758344734159659 0.023958429338467313 0 -0.019213184243589795 0.024545460087008739 0 -0.018258290887810939 0.025407942073574358 0 -0.01953670374448517 0.026722017180526962 0 -0.019213184243589795 0.024545460087008739 0 -0.018258290887810939 0.025407942073574358 0 -0.018258290887810939 0.025407942073574358 0 -0.017157476747298877 0.025951381538527656 0 -0.017654404943335516 0.026721102560888992 0 -0.018258290887810939 0.025407942073574358 0 -0.017057324246507129 0.024934823948729114 0 -0.017157476747298877 0.025951381538527656 0 -0.01758344734159659 0.023958429338467313 0 -0.018258290887810939 0.025407942073574358 0 -0.017057324246507129 0.024934823948729114 0 -0.017057324246507129 0.024934823948729114 0 -0.017157476747298877 0.025951381538527656 0 -0.016027226825368963 0.025291119651604736 0 -0.016634270927868518 0.027495559470589535 0 -0.016157541230909431 0.028642015473718318 0 -0.017157476747298877 0.025951381538527656 0 -0.016965494257099211 0.027424689115314659 0 -0.015934148283614322 0.028522867055564005 0 -0.017157476747298877 0.025951381538527656 0 -0.017654404943335516 0.026721102560888992 0 -0.016965494257099211 0.027424689115314659 0 -0.018252346249947145 0.027551854145524426 0 -0.017654404943335516 0.026721102560888992 0 -0.016965494257099211 0.027424689115314659 0 -0.016965494257099211 0.027424689115314659 0 -0.016451491445080645 0.029433193660593833 0 -0.015934148283614322 0.028522867055564005 0 -0.016965494257099211 0.027424689115314659 0 -0.017664986330356756 0.028628002417669433 0 -0.016234646429174267 0.029821335754817619 0 -0.016164091117692018 0.029137190706532316 0 -0.015862811676869117 0.030148536792897467 0 -0.018252346249947145 0.027551854145524426 0 -0.016965494257099211 0.027424689115314659 0 -0.017664986330356756 0.028628002417669433 0 -0.017664986330356756 0.028628002417669433 0 -0.016234646429174267 0.029821335754817619 0 -0.017971330953499662 0.029851345831918015 0 -0.015610355278067988 0.03233052985819037 0 -0.016234646429174267 0.029821335754817619 0 -0.017192408161404552 0.031204390382771313 0 -0.016234646429174267 0.029821335754817619 0 -0.017192408161404552 0.031204390382771313 0 -0.017971330953499662 0.029851345831918015 0 -0.017192408161404552 0.031204390382771313 0 -0.017971330953499662 0.029851345831918015 0 -0.019106872155629763 0.031015188343507954 0 -0.017971330953499662 0.029851345831918015 0 -0.019106872155629763 0.031015188343507954 0 -0.01938191315879996 0.029434033894748364 0 -0.01938191315879996 0.029434033894748364 0 -0.018841144357477267 0.02857008644374438 0 -0.019997701044967443 0.028545937010111488 0 -0.017664986330356756 0.028628002417669433 0 -0.017971330953499662 0.029851345831918015 0 -0.018841144357477267 0.02857008644374438 0 -0.017971330953499662 0.029851345831918015 0 -0.01938191315879996 0.029434033894748364 0 -0.018841144357477267 0.02857008644374438 0 -0.019168983721318339 0.027710403550889006 0 -0.018252346249947145 0.027551854145524426 0 -0.018841144357477267 0.02857008644374438 0 -0.018252346249947145 0.027551854145524426 0 -0.017664986330356756 0.028628002417669433 0 -0.018841144357477267 0.02857008644374438 0 -0.019168983721318339 0.027710403550889006 0 -0.018841144357477267 0.02857008644374438 0 -0.019796251923924174 0.027931098674716964 0 -0.018841144357477267 0.02857008644374438 0 -0.019997701044967443 0.028545937010111488 0 -0.019796251923924174 0.027931098674716964 0 -0.011434237329032907 0.030950842693795062 0 -0.011000514769283215 0.029773655869892245 0 -0.010754647968105867 0.02999746832679839 0 -0.011109650745171961 0.029346079712219579 0 -0.0098159855932538828 0.033561362932851307 0 -0.020342422348013096 0.027416307181965263 0 -0.019997701044967443 0.028545937010111488 0 -0.020968368816790425 0.029198251395666515 0 -0.020342422348013096 0.027416307181965263 0 -0.019997701044967443 0.028545937010111488 0 -0.019796251923924174 0.027931098674716964 0 -0.011109650745171961 0.029346079712219579 0 -0.010159588780721582 0.031422639323671564 0 -0.015749051087156695 0.019061328356826404 0 -0.015154636833468462 0.018845554487249307 0 -0.015095561921581584 0.018286058242208452 0 -0.0098159855932538828 0.033561362932851307 0 -0.010159588780721582 0.031422639323671564 0 -0.01938191315879996 0.029434033894748364 0 -0.019997701044967443 0.028545937010111488 0 -0.020968368816790425 0.029198251395666515 0 -0.0024755494396272596 0.047673578874051589 0 -0.003657633848576855 0.050960259005642931 0 -0.0040682284694780512 0.04871630008965256 0 -0.0060168285834807152 0.048964956678699156 0 -0.003657633848576855 0.050960259005642931 0 -0.0040682284694780512 0.04871630008965256 0 -0.019106872155629763 0.031015188343507954 0 -0.01938191315879996 0.029434033894748364 0 -0.020968368816790425 0.029198251395666515 0 -0.010776604307626697 0.036842636718681925 0 -0.0098159855932538828 0.033561362932851307 0 -0.0024755494396272596 0.047673578874051589 0 -0.0026246914474852578 0.048181933773330354 0 -0.0022948309816593297 0.048023767905719349 0 -0.0097637908690176266 0.040974375475192538 0 -0.0098159855932538828 0.033561362932851307 0 -0.0072010208227588687 0.032838926385560088 0 -0.010159588780721582 0.031422639323671564 0 -0.0016159130493872032 0.047566751583524497 0 -0.0020026098104351103 0.047599190090935974 0 -0.0022948309816593297 0.048023767905719349 0 -0.0037735508031672381 0.033911882052629461 0 -0.0072010208227588687 0.032838926385560088 0 -0.013866632607658913 0.018276012293061864 0 -0.014398432475500154 0.01771753792120391 0 -0.014454417855576112 0.018196131084380878 0 -0.013866632607658913 0.018276012293061864 0 -0.014454417855576112 0.018196131084380878 0 -0.014680642824822839 0.018645101237407449 0 -0.013866632607658913 0.018276012293061864 0 -0.014290763515048611 0.019171910929237056 0 -0.014680642824822839 0.018645101237407449 0 -0.014454417855576112 0.018196131084380878 0 -0.014929258491360354 0.018397513246111229 0 -0.014680642824822839 0.018645101237407449 0 -0.0026246914474852578 0.048181933773330354 0 -0.0022948309816593297 0.048023767905719349 0 -0.0025608438664196428 0.048228861386785879 0 -0.014398432475500154 0.01771753792120391 0 -0.014454417855576112 0.018196131084380878 0 -0.014929258491360354 0.018397513246111229 0 -0.015154636833468462 0.018845554487249307 0 -0.015095561921581584 0.018286058242208452 0 -0.014680642824822839 0.018645101237407449 0 -0.010159588780721582 0.031422639323671564 0 -0.010923324009568086 0.030500227371907676 0 -0.013746438820130241 0.026180674388857121 0 -0.012899328021320537 0.02682051226246851 0 -0.013573225479896063 0.027520889172485012 0 -0.016632630369769405 0.02590767782500623 0 -0.017890921632957187 0.023874396656279957 0 -0.013746438820130241 0.026180674388857121 0 -0.014718914462944908 0.02641706314143762 0 -0.013573225479896063 0.027520889172485012 0 -0.013746438820130241 0.026180674388857121 0 -0.012899328021320537 0.02682051226246851 0 -0.013264513662963679 0.02488765897848429 0 -0.020655627456683971 0.024581840330760732 0 -0.019427481765503452 0.024204790654940703 0 -0.019680312505625717 0.02318517078204848 0 -0.020655627456683971 0.024581840330760732 0 -0.019427481765503452 0.024204790654940703 0 -0.019165091534985256 0.025142342792061078 0 -0.019019164501956697 0.022809093141701382 0 -0.019122567847346797 0.023401873211652938 0 -0.019819398817987246 0.023014112697233358 0 -0.020655627456683971 0.024581840330760732 0 -0.019680312505625717 0.02318517078204848 0 -0.021101296340370723 0.022446141002332384 0 -0.018750442266829429 0.023496472080463106 0 -0.017890921632957187 0.023874396656279957 0 -0.013746438820130241 0.026180674388857121 0 -0.013264513662963679 0.02488765897848429 0 -0.014361535424901581 0.025277985296286925 0 -0.014595518373022929 0.024036883487155911 0 -0.013264513662963679 0.02488765897848429 0 -0.014361535424901581 0.025277985296286925 0 -0.014361535424901581 0.025277985296286925 0 -0.016027226825368963 0.025291119651604736 0 -0.014718914462944908 0.02641706314143762 0 -0.014595518373022929 0.024036883487155911 0 -0.014361535424901581 0.025277985296286925 0 -0.016027226825368963 0.025291119651604736 0 -0.017157476747298877 0.025951381538527656 0 -0.016027226825368963 0.025291119651604736 0 -0.015971204470998986 0.027071067102252429 0 -0.016352395719171485 0.024123868257408112 0 -0.017057324246507129 0.024934823948729114 0 -0.016027226825368963 0.025291119651604736 0 -0.015666050357806841 0.026535564350031869 0 -0.015213089833327391 0.027168096543197174 0 -0.017157476747298877 0.025951381538527656 0 -0.015971204470998986 0.027071067102252429 0 -0.016423922045117303 0.028574441571988261 0 -0.016027226825368963 0.025291119651604736 0 -0.015971204470998986 0.027071067102252429 0 -0.01486553292494942 0.027206895200933865 0 -0.013746438820130241 0.026180674388857121 0 -0.014361535424901581 0.025277985296286925 0 -0.014718914462944908 0.02641706314143762 0 -0.015971204470998986 0.027071067102252429 0 -0.01486553292494942 0.027206895200933865 0 -0.015394371052856111 0.028231448593036362 0 -0.015213089833327391 0.027168096543197174 0 -0.014679232577710956 0.028227388472674173 0 -0.015394371052856111 0.028231448593036362 0 -0.015129258944952977 0.029284667398425494 0 -0.013910527622072828 0.028848714930385003 0 -0.01486553292494942 0.027206895200933865 0 -0.015394371052856111 0.028231448593036362 0 -0.013910527622072828 0.028848714930385003 0 -0.015394371052856111 0.028231448593036362 0 -0.016423922045117303 0.028574441571988261 0 -0.015129258944952977 0.029284667398425494 0 -0.015971204470998986 0.027071067102252429 0 -0.015394371052856111 0.028231448593036362 0 -0.016423922045117303 0.028574441571988261 0 -0.015197848229361455 0.030652858695767414 0 -0.016069116720907495 0.031065261818798925 0 -0.016451491445080645 0.029433193660593833 0 -0.015457860081613546 0.030326851702982088 0 -0.016157541230909431 0.028642015473718318 0 -0.015553870794959408 0.030692890079863495 0 -0.016423922045117303 0.028574441571988261 0 -0.015129258944952977 0.029284667398425494 0 -0.015197848229361455 0.030652858695767414 0 -0.016451491445080645 0.029433193660593833 0 -0.015934148283614322 0.028522867055564005 0 -0.015147478697547659 0.032332650777955878 0 -0.015862811676869117 0.030148536792897467 0 -0.015553870794959408 0.030692890079863495 0 -0.015129258944952977 0.029284667398425494 0 -0.01494887028093932 0.030240916727307422 0 -0.015129258944952977 0.029284667398425494 0 -0.014299188102978821 0.030034919847650485 0 -0.013910527622072828 0.028848714930385003 0 -0.015129258944952977 0.029284667398425494 0 -0.01494887028093932 0.030240916727307422 0 -0.014299188102978821 0.030034919847650485 0 -0.01471222793462868 0.030746071780570448 0 -0.01494887028093932 0.030240916727307422 0 -0.014299188102978821 0.030034919847650485 0 -0.014679232577710956 0.028227388472674173 0 -0.015119161032241075 0.028743537573177911 0 -0.014299188102978821 0.030034919847650485 0 -0.013910527622072828 0.028848714930385003 0 -0.013166360954326736 0.030236242293607732 0 -0.014217149729382388 0.031096604376215978 0 -0.014299188102978821 0.030034919847650485 0 -0.013166360954326736 0.030236242293607732 0 -0.012899328021320537 0.02682051226246851 0 -0.013573225479896063 0.027520889172485012 0 -0.012527862370056358 0.028609168466763573 0 -0.020655627456683971 0.024581840330760732 0 -0.020222825830588001 0.026998226814485448 0 -0.019165091534985256 0.025142342792061078 0 -0.016632630369769405 0.02590767782500623 0 -0.015119161032241075 0.028743537573177911 0 -0.020222825830588001 0.026998226814485448 0 -0.018059059977460733 0.026157320063633013 0 -0.017452648823846711 0.027624223056324112 0 -0.018059059977460733 0.026157320063633013 0 -0.017452648823846711 0.027624223056324112 0 -0.016473326459049833 0.026285368445307131 0 -0.015625113137654238 0.028273543857034053 0 -0.017452648823846711 0.027624223056324112 0 -0.016473326459049833 0.026285368445307131 0 -0.018059059977460733 0.026157320063633013 0 -0.017528892645637485 0.024885037745388826 0 -0.016473326459049833 0.026285368445307131 0 -0.020222825830588001 0.026998226814485448 0 -0.018059059977460733 0.026157320063633013 0 -0.019165091534985256 0.025142342792061078 0 -0.018059059977460733 0.026157320063633013 0 -0.017528892645637485 0.024885037745388826 0 -0.019165091534985256 0.025142342792061078 0 -0.018750442266829429 0.023496472080463106 0 -0.018667168695411417 0.023561976920376357 0 -0.017528892645637485 0.024885037745388826 0 -0.019165091534985256 0.025142342792061078 0 -0.018237874708516857 0.023924878449443843 0 -0.019427481765503452 0.024204790654940703 0 -0.019680312505625717 0.02318517078204848 0 -0.018237874708516857 0.023924878449443843 0 -0.019427481765503452 0.024204790654940703 0 -0.019165091534985256 0.025142342792061078 0 -0.018237874708516857 0.023924878449443843 0 -0.017528892645637485 0.024885037745388826 0 -0.018237874708516857 0.023924878449443843 0 -0.017292111026838142 0.023775301769174997 0 -0.018237874708516857 0.023924878449443843 0 -0.017292111026838142 0.023775301769174997 0 -0.018053427932333502 0.022968629053772074 0 -0.017292111026838142 0.023775301769174997 0 -0.018053427932333502 0.022968629053772074 0 -0.016974921286254743 0.02307280216133157 0 -0.019019164501956697 0.022809093141701382 0 -0.018053427932333502 0.022968629053772074 0 -0.01859432786156268 0.023263067504473552 0 -0.019122567847346797 0.023401873211652938 0 -0.018237874708516857 0.023924878449443843 0 -0.01859432786156268 0.023263067504473552 0 -0.018237874708516857 0.023924878449443843 0 -0.018053427932333502 0.022968629053772074 0 -0.01859432786156268 0.023263067504473552 0 -0.018800478134667859 0.022724573765963853 0 -0.018552678980988856 0.02279120392813639 0 -0.019019164501956697 0.022809093141701382 0 -0.019122567847346797 0.023401873211652938 0 -0.01859432786156268 0.023263067504473552 0 -0.01621326995540269 0.023308466148372571 0 -0.016974921286254743 0.02307280216133157 0 -0.016578726148932747 0.022546775732126684 0 -0.01621326995540269 0.023308466148372571 0 -0.016974921286254743 0.02307280216133157 0 -0.016031414350499242 0.024381223255608962 0 -0.017292111026838142 0.023775301769174997 0 -0.016974921286254743 0.02307280216133157 0 -0.016031414350499242 0.024381223255608962 0 -0.017528892645637485 0.024885037745388826 0 -0.017292111026838142 0.023775301769174997 0 -0.016031414350499242 0.024381223255608962 0 -0.01621326995540269 0.023308466148372571 0 -0.016031414350499242 0.024381223255608962 0 -0.015941750057605744 0.023845100571528097 0 -0.015602452453585307 0.024842428729249098 0 -0.015273850248333267 0.02525374450729247 0 -0.016031414350499242 0.024381223255608962 0 -0.015763391748429285 0.023681911312700903 0 -0.015941750057605744 0.023845100571528097 0 -0.016031414350499242 0.024381223255608962 0 -0.016473326459049833 0.026285368445307131 0 -0.013990387517450307 0.026852869340410809 0 -0.017528892645637485 0.024885037745388826 0 -0.016031414350499242 0.024381223255608962 0 -0.016473326459049833 0.026285368445307131 0 -0.015625113137654238 0.028273543857034053 0 -0.016473326459049833 0.026285368445307131 0 -0.013990387517450307 0.026852869340410809 0 -0.014956684658600826 0.025860002110675028 0 -0.015273850248333267 0.02525374450729247 0 -0.015863130593391415 0.022963408263701586 0 -0.015763391748429285 0.023681911312700903 0 -0.016092368625654659 0.023433427089815016 0 -0.016092368625654659 0.023433427089815016 0 -0.015909602279372225 0.023727427539255889 0 -0.015960617750572337 0.023810401196345199 0 -0.015763391748429285 0.023681911312700903 0 -0.015909602279372225 0.023727427539255889 0 -0.015941750057605744 0.023845100571528097 0 -0.015763391748429285 0.023681911312700903 0 -0.016092368625654659 0.023433427089815016 0 -0.015909602279372225 0.023727427539255889 0 -0.017088797664430753 0.022961883671618107 0 -0.016675103330795898 0.023459910706274425 0 -0.017348789306358779 0.023434035167867604 0 -0.016447455155306566 0.022874104264146166 0 -0.016092368625654659 0.023433427089815016 0 -0.016570806966747779 0.023190234260543615 0 -0.017088797664430753 0.022961883671618107 0 -0.016570806966747779 0.023190234260543615 0 -0.016675103330795898 0.023459910706274425 0 -0.016092368625654659 0.023433427089815016 0 -0.016570806966747779 0.023190234260543615 0 -0.016675103330795898 0.023459910706274425 0 -0.016092368625654659 0.023433427089815016 0 -0.016675103330795898 0.023459910706274425 0 -0.015960617750572337 0.023810401196345199 0 -0.016675103330795898 0.023459910706274425 0 -0.016779696089342426 0.023818582991543789 0 -0.015960617750572337 0.023810401196345199 0 -0.016675103330795898 0.023459910706274425 0 -0.017059466519430043 0.02368854276277638 0 -0.017348789306358779 0.023434035167867604 0 -0.016779696089342426 0.023818582991543789 0 -0.017059466519430043 0.02368854276277638 0 -0.017125240988461094 0.02401530044456588 0 -0.016675103330795898 0.023459910706274425 0 -0.016779696089342426 0.023818582991543789 0 -0.017059466519430043 0.02368854276277638 0 -0.017489354192237006 0.023797746499308988 0 -0.017059466519430043 0.02368854276277638 0 -0.017125240988461094 0.02401530044456588 0 -0.017489354192237006 0.023797746499308988 0 -0.017059466519430043 0.02368854276277638 0 -0.017348789306358779 0.023434035167867604 0 -0.018668434081969804 0.024480481085141517 0 -0.017131933727171065 0.024596309349843543 0 -0.017648898670332272 0.024054229252528626 0 -0.019521520270974903 0.019553828925192092 0 -0.019314605168725296 0.019839242907743974 0 -0.017109464051867907 0.024446324753867921 0 -0.017648898670332272 0.024054229252528626 0 -0.017125240988461094 0.02401530044456588 0 -0.016779696089342426 0.023818582991543789 0 -0.017109464051867907 0.024446324753867921 0 -0.017125240988461094 0.02401530044456588 0 -0.015960617750572337 0.023810401196345199 0 -0.015583455895937836 0.023420409342664112 0 -0.015655420964572283 0.02334530905206654 0 -0.019521520270974903 0.019553828925192092 0 -0.0185250459620874 0.020092688703017544 0 -0.016779696089342426 0.023818582991543789 0 -0.017109464051867907 0.024446324753867921 0 -0.015960617750572337 0.023810401196345199 0 -0.015240167368435198 0.023550486117039235 0 -0.015960617750572337 0.023810401196345199 0 -0.015583455895937836 0.023420409342664112 0 -0.019521520270974903 0.019553828925192092 0 -0.018547636873254971 0.017895076744990919 0 -0.015240167368435198 0.023550486117039235 0 -0.015583455895937836 0.023420409342664112 0 -0.015418551614546607 0.023036277371532101 0 -0.015583455895937836 0.023420409342664112 0 -0.015655420964572283 0.02334530905206654 0 -0.015418551614546607 0.023036277371532101 0 -0.02043552094754823 0.010884523707313914 0 -0.020613852609721005 0.011226335088243675 0 -0.020367667962783075 0.011354018323286003 0 -0.02043552094754823 0.010884523707313914 0 -0.020367667962783075 0.011354018323286003 0 -0.019988149234487582 0.011339312557655128 0 -0.020613852609721005 0.011226335088243675 0 -0.020620675634749511 0.011419150685892982 0 -0.020367667962783075 0.011354018323286003 0 -0.015941750057605744 0.023845100571528097 0 -0.015831526098078384 0.023617588395038473 0 -0.015842669292066146 0.023234774588263615 0 -0.015909602279372225 0.023727427539255889 0 -0.015941750057605744 0.023845100571528097 0 -0.015831526098078384 0.023617588395038473 0 -0.015909602279372225 0.023727427539255889 0 -0.015960617750572337 0.023810401196345199 0 -0.015831526098078384 0.023617588395038473 0 -0.015960617750572337 0.023810401196345199 0 -0.015831526098078384 0.023617588395038473 0 -0.015655420964572283 0.02334530905206654 0 -0.015655420964572283 0.02334530905206654 0 -0.015842669292066146 0.023234774588263615 0 -0.015537917969261381 0.022807048396537823 0 -0.015831526098078384 0.023617588395038473 0 -0.015655420964572283 0.02334530905206654 0 -0.015842669292066146 0.023234774588263615 0 -0.015655420964572283 0.02334530905206654 0 -0.015537917969261381 0.022807048396537823 0 -0.015418551614546607 0.023036277371532101 0 -0.01621326995540269 0.023308466148372571 0 -0.015842669292066146 0.023234774588263615 0 -0.016033368963109029 0.022788068714228078 0 -0.01621326995540269 0.023308466148372571 0 -0.015941750057605744 0.023845100571528097 0 -0.015842669292066146 0.023234774588263615 0 -0.015842669292066146 0.023234774588263615 0 -0.016033368963109029 0.022788068714228078 0 -0.015537917969261381 0.022807048396537823 0 -0.016033368963109029 0.022788068714228078 0 -0.015537917969261381 0.022807048396537823 0 -0.016060396280341633 0.021866192660171944 0 -0.015822327893017421 0.022138305547845027 0 -0.016298261144743947 0.02162159969864056 0 -0.015537917969261381 0.022807048396537823 0 -0.015281015675735327 0.022074337906855108 0 -0.015418551614546607 0.023036277371532101 0 -0.017933783018830893 0.017006568479081462 0 -0.018547636873254971 0.017895076744990919 0 -0.019476500047927371 0.011780264950722541 0 -0.019988149234487582 0.011339312557655128 0 -0.01989753469323188 0.011729198485889989 0 -0.019476500047927371 0.011780264950722541 0 -0.019759985204995268 0.012026458389700269 0 -0.019444404188838152 0.012206540433702348 0 -0.019476500047927371 0.011780264950722541 0 -0.019759985204995268 0.012026458389700269 0 -0.01989753469323188 0.011729198485889989 0 -0.015537917969261381 0.022807048396537823 0 -0.015281015675735327 0.022074337906855108 0 -0.015848033718252202 0.021833976291796064 0 -0.015281015675735327 0.022074337906855108 0 -0.015848033718252202 0.021833976291796064 0 -0.015506417943683001 0.020377184379375274 0 -0.02052329393062725 0.011593219549176203 0 -0.020620675634749511 0.011419150685892982 0 -0.020367667962783075 0.011354018323286003 0 -0.02052329393062725 0.011593219549176203 0 -0.020185687000544884 0.011621730611752739 0 -0.020412497854214465 0.011821850719800062 0 -0.02052329393062725 0.011593219549176203 0 -0.020367667962783075 0.011354018323286003 0 -0.020185687000544884 0.011621730611752739 0 -0.020185687000544884 0.011621730611752739 0 -0.019988149234487582 0.011339312557655128 0 -0.01989753469323188 0.011729198485889989 0 -0.020367667962783075 0.011354018323286003 0 -0.020185687000544884 0.011621730611752739 0 -0.019988149234487582 0.011339312557655128 0 -0.019759985204995268 0.012026458389700269 0 -0.020072568698656184 0.011899702889062096 0 -0.020025825097848358 0.012176906034598209 0 -0.019759985204995268 0.012026458389700269 0 -0.01989753469323188 0.011729198485889989 0 -0.020072568698656184 0.011899702889062096 0 -0.020185687000544884 0.011621730611752739 0 -0.020072568698656184 0.011899702889062096 0 -0.020412497854214465 0.011821850719800062 0 -0.020185687000544884 0.011621730611752739 0 -0.01989753469323188 0.011729198485889989 0 -0.020072568698656184 0.011899702889062096 0 -0.020072568698656184 0.011899702889062096 0 -0.020412497854214465 0.011821850719800062 0 -0.020338450688789391 0.012133606698946706 0 -0.020673039709592587 0.011970188656379197 0 -0.020412497854214465 0.011821850719800062 0 -0.020338450688789391 0.012133606698946706 0 -0.020656349369214476 0.011743341860044908 0 -0.02052329393062725 0.011593219549176203 0 -0.020412497854214465 0.011821850719800062 0 -0.020673039709592587 0.011970188656379197 0 -0.020656349369214476 0.011743341860044908 0 -0.020412497854214465 0.011821850719800062 0 -0.020662094032079276 0.012368326176518955 0 -0.020673039709592587 0.011970188656379197 0 -0.020338450688789391 0.012133606698946706 0 -0.020662094032079276 0.012368326176518955 0 -0.020338450688789391 0.012133606698946706 0 -0.020158335200109876 0.012457147359243255 0 -0.020338450688789391 0.012133606698946706 0 -0.020025825097848358 0.012176906034598209 0 -0.020158335200109876 0.012457147359243255 0 -0.020072568698656184 0.011899702889062096 0 -0.020338450688789391 0.012133606698946706 0 -0.020025825097848358 0.012176906034598209 0 -0.019759985204995268 0.012026458389700269 0 -0.020025825097848358 0.012176906034598209 0 -0.019790983517363504 0.012379252976684643 0 -0.020025825097848358 0.012176906034598209 0 -0.020158335200109876 0.012457147359243255 0 -0.019790983517363504 0.012379252976684643 0 -0.020220436141292177 0.012974076078917866 0 -0.01987979817417887 0.012750020617746737 0 -0.020158335200109876 0.012457147359243255 0 -0.01987979817417887 0.012750020617746737 0 -0.020158335200109876 0.012457147359243255 0 -0.019790983517363504 0.012379252976684643 0 -0.027235522371548283 0.0080724506735245886 0 -0.02746049988318857 0.0067020291493036961 0 -0.020662094032079276 0.012368326176518955 0 -0.020220436141292177 0.012974076078917866 0 -0.020158335200109876 0.012457147359243255 0 -0.033305974140597841 0.0018437287868573985 0 -0.033858886482756582 0.0032366931975664486 0 -0.035739023475821641 0.00021724788183183523 0 -0.017933783018830893 0.017006568479081462 0 -0.017791539337049155 0.016078069408522046 0 -0.019476500047927371 0.011780264950722541 0 -0.01885889564805936 0.01227036094132246 0 -0.019444404188838152 0.012206540433702348 0 -0.01885889564805936 0.01227036094132246 0 -0.019444404188838152 0.012206540433702348 0 -0.019330984539297262 0.012605186536680581 0 -0.019759985204995268 0.012026458389700269 0 -0.019444404188838152 0.012206540433702348 0 -0.019790983517363504 0.012379252976684643 0 -0.019444404188838152 0.012206540433702348 0 -0.019790983517363504 0.012379252976684643 0 -0.019330984539297262 0.012605186536680581 0 -0.019474638250157439 0.013067636363179657 0 -0.01987979817417887 0.012750020617746737 0 -0.019330984539297262 0.012605186536680581 0 -0.01987979817417887 0.012750020617746737 0 -0.019790983517363504 0.012379252976684643 0 -0.019330984539297262 0.012605186536680581 0 -0.01885889564805936 0.01227036094132246 0 -0.019330984539297262 0.012605186536680581 0 -0.018793354382907988 0.01273333255807477 0 -0.019069353849064156 0.012918249155617359 0 -0.019474638250157439 0.013067636363179657 0 -0.019330984539297262 0.012605186536680581 0 -0.019069353849064156 0.012918249155617359 0 -0.019330984539297262 0.012605186536680581 0 -0.018793354382907988 0.01273333255807477 0 -0.019069353849064156 0.012918249155617359 0 -0.018557160427983801 0.012954730480061911 0 -0.018793354382907988 0.01273333255807477 0 -0.01840729000414983 0.014592306225430288 0 -0.017791539337049155 0.016078069408522046 0 -0.018203796330049857 0.01310653696914655 0 -0.018557160427983801 0.012954730480061911 0 -0.018793354382907988 0.01273333255807477 0 -0.018203796330049857 0.01310653696914655 0 -0.01885889564805936 0.01227036094132246 0 -0.018793354382907988 0.01273333255807477 0 -0.016517193098616274 0.01717653722791487 0 -0.015506417943683001 0.020377184379375274 0 -0.017184729169653221 0.018827920687924524 0 -0.015506417943683001 0.020377184379375274 0 -0.017227589006947468 0.020369974824082496 0 -0.017184729169653221 0.018827920687924524 0 -0.016298261144743947 0.02162159969864056 0 -0.017537045916315889 0.020411796436231915 0 -0.015848033718252202 0.021833976291796064 0 -0.015506417943683001 0.020377184379375274 0 -0.017227589006947468 0.020369974824082496 0 -0.016912876204762305 0.020699017916470271 0 -0.019776837162677956 0.019045678455305415 0 -0.018700011481249286 0.020699173181170434 0 -0.016912876204762305 0.020699017916470271 0 -0.018700011481249286 0.020699173181170434 0 -0.017896273995662581 0.021541333927870911 0 -0.016912876204762305 0.020699017916470271 0 -0.019776837162677956 0.019045678455305415 0 -0.020631506039682862 0.017967311312899189 0 -0.017537045916315889 0.020411796436231915 0 -0.018725377204110757 0.019338423584367808 0 -0.017227589006947468 0.020369974824082496 0 -0.017184729169653221 0.018827920687924524 0 -0.018489677995041313 0.017853370886788979 0 -0.017227589006947468 0.020369974824082496 0 -0.018489677995041313 0.017853370886788979 0 -0.020631506039682862 0.017967311312899189 0 -0.017184729169653221 0.018827920687924524 0 -0.01756194632869194 0.017521055001092325 0 -0.018489677995041313 0.017853370886788979 0 -0.016517193098616274 0.01717653722791487 0 -0.017184729169653221 0.018827920687924524 0 -0.01756194632869194 0.017521055001092325 0 -0.0183960673379602 0.01599736683430503 0 -0.01756194632869194 0.017521055001092325 0 -0.018489677995041313 0.017853370886788979 0 -0.019787801146227794 0.016541953866340241 0 -0.019002185286213464 0.016403727486456583 0 -0.018489677995041313 0.017853370886788979 0 -0.019776837162677956 0.019045678455305415 0 -0.020631506039682862 0.017967311312899189 0 -0.02460759609494758 0.017030790210961211 0 -0.019787801146227794 0.016541953866340241 0 -0.018489677995041313 0.017853370886788979 0 -0.020631506039682862 0.017967311312899189 0 -0.021303489907869091 0.016041758468836983 0 -0.020631506039682862 0.017967311312899189 0 -0.02460759609494758 0.017030790210961211 0 -0.02102244535937926 0.017209250280434386 0 -0.021587028402612268 0.016485414614788151 0 -0.019776837162677956 0.019045678455305415 0 -0.019576416240493274 0.020690641894733585 0 -0.019541605084113615 0.020381913909634987 0 -0.019776837162677956 0.019045678455305415 0 -0.027968780333927752 0.018971120655490756 0 -0.02460759609494758 0.017030790210961211 0 -0.027399943541262916 0.015414943739647061 0 -0.027968780333927752 0.018971120655490756 0 -0.02460759609494758 0.017030790210961211 0 -0.019541605084113615 0.020381913909634987 0 -0.019446510580431748 0.021008298916840203 0 -0.018882188107674433 0.021353434026569657 0 -0.019569104365608953 0.02082087660511707 0 -0.019576416240493274 0.020690641894733585 0 -0.019541605084113615 0.020381913909634987 0 -0.019569104365608953 0.02082087660511707 0 -0.019541605084113615 0.020381913909634987 0 -0.019446510580431748 0.021008298916840203 0 -0.019776837162677956 0.019045678455305415 0 -0.019541605084113615 0.020381913909634987 0 -0.018700011481249286 0.020699173181170434 0 -0.019541605084113615 0.020381913909634987 0 -0.018700011481249286 0.020699173181170434 0 -0.018882188107674433 0.021353434026569657 0 -0.018882188107674433 0.021353434026569657 0 -0.019145929824789739 0.02177384871543217 0 -0.018178262637024711 0.022158591390060312 0 -0.018700011481249286 0.020699173181170434 0 -0.018882188107674433 0.021353434026569657 0 -0.017896273995662581 0.021541333927870911 0 -0.018882188107674433 0.021353434026569657 0 -0.018178262637024711 0.022158591390060312 0 -0.017896273995662581 0.021541333927870911 0 -0.019542778796194482 0.021369090372773517 0 -0.019446510580431748 0.021008298916840203 0 -0.019274710568025741 0.021379674712990446 0 -0.019446510580431748 0.021008298916840203 0 -0.018882188107674433 0.021353434026569657 0 -0.019274710568025741 0.021379674712990446 0 -0.018882188107674433 0.021353434026569657 0 -0.019274710568025741 0.021379674712990446 0 -0.019145929824789739 0.02177384871543217 0 -0.019542778796194482 0.021369090372773517 0 -0.019274710568025741 0.021379674712990446 0 -0.019145929824789739 0.02177384871543217 0 -0.019432394841044837 0.022318918307656747 0 -0.018053427932333502 0.022968629053772074 0 -0.019145929824789739 0.02177384871543217 0 -0.018053427932333502 0.022968629053772074 0 -0.019145929824789739 0.02177384871543217 0 -0.018178262637024711 0.022158591390060312 0 -0.018053427932333502 0.022968629053772074 0 -0.016974921286254743 0.02307280216133157 0 -0.018178262637024711 0.022158591390060312 0 -0.016974921286254743 0.02307280216133157 0 -0.017330118174185939 0.022237890673368756 0 -0.016578726148932747 0.022546775732126684 0 -0.016974921286254743 0.02307280216133157 0 -0.018178262637024711 0.022158591390060312 0 -0.017330118174185939 0.022237890673368756 0 -0.017330118174185939 0.022237890673368756 0 -0.016578726148932747 0.022546775732126684 0 -0.016926210312778467 0.021834297731753997 0 -0.016033368963109029 0.022788068714228078 0 -0.016060396280341633 0.021866192660171944 0 -0.016578726148932747 0.022546775732126684 0 -0.01621326995540269 0.023308466148372571 0 -0.016033368963109029 0.022788068714228078 0 -0.016578726148932747 0.022546775732126684 0 -0.016060396280341633 0.021866192660171944 0 -0.016912876204762305 0.020699017916470271 0 -0.016926210312778467 0.021834297731753997 0 -0.016060396280341633 0.021866192660171944 0 -0.016578726148932747 0.022546775732126684 0 -0.016926210312778467 0.021834297731753997 0 -0.016912876204762305 0.020699017916470271 0 -0.017896273995662581 0.021541333927870911 0 -0.016926210312778467 0.021834297731753997 0 -0.017330118174185939 0.022237890673368756 0 -0.017896273995662581 0.021541333927870911 0 -0.016926210312778467 0.021834297731753997 0 -0.018178262637024711 0.022158591390060312 0 -0.017330118174185939 0.022237890673368756 0 -0.017896273995662581 0.021541333927870911 0 
</DataArray>
</PointData>
<CellData Scalars="region_id,cross_section_updated," Vectors="" Tensors="stress,">
<DataArray type="Float64" Name="region_id" format="ascii">
5 5 5 5 5 6 5 5 5 5 5 5 5 6 5 5 5 5 6 5 5 6 5 5 5 5 6 5 5 5 5 6 5 5 5 5 5 5 5 5 5 5 5 5 5 6 5 5 6 5 5 5 5 5 6 5 5 5 5 5 5 5 6 5 5 5 5 6 5 5 5 5 5 5 5 5 5 6 5 5 6 5 5 6 5 5 5 5 6 5 5 5 5 5 5 5 6 6 6 5 5 6 5 5 5 5 5 6 5 5 5 5 5 5 5 5 5 5 5 5 5 6 5 5 5 6 5 5 5 5 5 5 6 5 5 5 5 5 5 5 5 5 5 5 5 5 5 5 5 5 5 5 5 5 5 5 5 5 6 5 5 5 6 5 5 6 5 5 5 5 5 5 5 5 5 5 5 6 5 5 5 5 5 5 5 5 6 5 5 5 5 5 5 5 5 6 5 5 5 5 5 5 5 5 5 6 5 5 5 5 5 5 5 5 5 5 5 5 5 5 5 5 5 5 5 5 5 5 5 6 5 5 5 6 5 6 5 6 5 5 6 5 5 5 6 5 6 5 6 5 6 6 5 6 5 5 6 5 6 5 5 5 6 5 6 6 5 5 6 5 5 5 6 5 6 6 6 5 6 5 5 5 6 5 6 6 6 5 5 6 6 5 5 5 5 6 5 6 5 5 6 5 5 5 6 5 6 6 6 5 5 5 6 5 6 6 6 6 5 5 5 6 6 5 5 6 6 6 5 6 5 5 5 5 6 5 5 5 5 5 5 5 6 5 5 5 5 5 5 6 6 5 5 5 6 5 5 5 6 5 6 5 6 6 5 5 5 5 6 5 5 6 5 5 5 5 6 5 6 5 5 5 5 5 6 6 5 5 5 5 5 5 5 5 6 5 5 5 6 5 5 6 5 6 5 5 5 5 5 5 5 5 5 5 5 6 5 6 5 6 5 5 5 6 5 6 5 6 5 5 5 5 5 5 6 5 6 5 5 5 6 5 5 5 6 5 6 6 5 5 5 5 6 5 5 5 5 6 6 5 5 6 5 6 5 6 6 5 5 5 6 5 5 5 5 6 5 5 5 5 5 5 5 5 5 5 5 6 5 5 5 5 6 5 5 5 6 5 6 6 6 5 5 5 6 6 5 6 5 5 6 5 5 5 5 6 5 5 5 5 5 5 5 5 5 5 5 6 6 5 5 6 5 5 5 6 5 5 5 5 5 5 6 5 5 5 6 5 5 5 6 5 5 5 5 5 5 5 5 5 5 5 6 5 5 5 6 5 5 5 5 5 5 5 6 5 5 5 5 5 6 5 5 5 5 5 5 5 5 5 5 5 5 5 5 5 5 5 5 5 6 5 5 5 5 6 5 5 6 5 5 5 5 5 5 5 6 5 5 5 5 5 5 5 5 6 5 6 5 5 6 5 5 5 6 5 5 6 5 5 5 6 5 6 5 5 6 5 6 5 5 5 5 5 5 5 5 5 5 5 5 5 5 5 5 5 5 5 5 5 5 6 5 6 5 6 5 5 5 5 5 5 5 5 5 5 5 5 5 5 5 6 5 5 5 5 5 5 5 5 5 6 5 5 5 5 5 5 5 5 5 5 5 5 5 5 5 5 5 5 5 5 5 5 5 5 5 5 5 5 5 6 5 5 6 5 5 5 6 6 5 6 5 5 5 5 5 6 5 5 5 5 5 6 5 5 5 5 5 5 5 5 5 5 5 5 5 5 5 5 5 5 5 5 5 5 5 5 5 5 5 5 5 5 5 5 5 5 5 5 5 5 5 5 5 5 5 5 5 5 5 5 5 6 5 5 5 5 5 5 5 5 5 5 5 5 5 5 5 6 5 5 5 5 6 5 5 5 5 5 5 5 5 5 5 5 5 5 5 5 5 5 5 5 5 5 5 5 5 5 5 5 6 5 5 6 5 6 6 6 6 5 5 6 5 5 5 5 5 5 5 5 5 5 5 5 5 5 5 5 5 6 5 5 6 5 6 5 5 5 5 6 5 6 5 5 5 5 6 5 5 5 6 5 5 5 5 5 6 5 6 5 5 6 6 5 6 5 5 5 5 5 5 5 5 5 5 5 6 5 5 5 6 5 5 5 6 5 5 6 6 6 5 5 5 5 5 5 5 5 5 5 5 6 5 5 5 5 5 5 5 5 6 6 6 5 5 5 5 5 5 5 5 6 6 5 5 5 6 5 5 6 5 5 5 5 5 5 5 5 5 5 5 6 5 5 5 5 5 5 5 5 6 5 5 5 5 5 5 5 5 5 5 6 5 6 6 6 5 5 5 5 5 5 5 6 6 5 6 5 5 5 5 5 6 5 6 6 5 5 5 6 5 6 5 5 5 5 6 5 5 5 5 5 5 5 5 5 5 5 5 5 5 5 5 5 6 5 5 5 6 5 5 5 5 5 6 5 5 5 5 5 5 6 5 6 5 5 5 5 5 5 5 5 6 5 5 5 6 5 5 5 5 5 5 5 5 5 5 5 5 5 5 5 5 5 5 5 5 5 5 5 5 5 6 6 6 5 5 5 5 6 5 5 5 5 6 5 5 5 5 5 5 5 6 5 5 5 5 5 5 5 5 6 5 5 5 5 5 5 5 5 5 5 5 5 6 5 5 5 5 5 5 6 5 5 5 5 5 5 5 5 6 5 5 5 6 5 5 5 5 5 5 5 5 5 5 5 5 6 5 5 5 5 5 5 5 5 5 5 5 5 5 5 5 5 5 5 5 5 5 5 5 5 5 5 5 5 5 5 5 5 5 5 5 5 5 5 5 5 5 5 5 5 5 5 5 6 5 5 5 5 5 5 5 5 5 5 5 5 5 5 5 5 5 5 5 5 5 5 5 5 6 5 5 5 5 5 5 5 5 5 5 6 5 5 6 5 5 5 5 5 5 5 5 5 6 5 6 5 5 5 5 6 5 5 6 5 6 5 5 5 5 5 6 5 5 5 5 5 5 5 5 6 5 5 5 5 5 5 5 5 5 5 5 5 5 5 6 5 6 6 5 5 5 5 5 6 5 5 5 5 5 5 5 5 5 5 5 5 5 5 5 6 5 5 5 5 5 5 5 5 5 5 5 5 5 5 5 5 6 5 5 5 5 5 6 6 5 5 6 5 5 5 5 5 5 5 5 5 5 6 5 5 5 5 5 5 5 5 5 6 5 6 5 5 5 5 5 6 5 5 5 5 6 5 5 5 6 5 5 5 6 5 5 6 5 5 5 5 5 5 5 5 5 5 5 5 5 5 5 5 6 5 5 5 5 5 5 5 6 5 5 5 5 5 5 5 5 5 5 5 5 5 5 5 5 5 5 5 5 5 5 5 5 5 5 5 6 5 5 5 5 6 5 5 5 6 5 5 5 5 5 5 5 5 5 6 5 6 5 5 5 5 5 5 5 5 5 5 5 5 5 5 5 5 5 5 6 6 5 5 5 6 5 5 6 5 5 6 5 5 5 6 5 5 6 5 5 5 5 5 5 5 5 5 5 5 5 5 5 5 5 5 5 5 5 6 5 6 5 5 5 5 5 5 5 5 5 5 5 6 5 6 5 5 5 6 5 5 5 5 5 6 5 5 5 5 5 5 6 5 5 5 5 5 5 5 5 5 5 5 6 5 5 5 5 5 5 5 5 6 5 5 5 6 5 5 6 5 5 5 5 5 6 5 5 5 5 5 5 5 5 5 6 5 5 6 5 6 5 6 6 6 5 6 5 5 5 5 5 5 6 5 5 5 5 5 5 6 5 5 5 5 5 5 5 6 5 5 5 5 6 5 5 5 5 5 6 5 6 5 5 5 5 5 5 5 5 5 5 6 5 5 5 5 5 5 5 6 5 5 5 5 5 5 5 6 5 6 5 5 5 5 5 5 5 5 6 5 5 5 6 6 5 5 5 5 5 6 6 5 6 5 5 6 5 5 6 5 5 5 5 5 5 5 5 6 5 5 5 5 5 6 5 5 5 5 6 5 5 6 5 5 5 5 5 5 5 5 5 5 5 5 5 5 5 5 5 5 5 5 5 5 5 5 5 5 5 5 5 5 5 5 5 5 5 5 5 5 5 5 5 6 5 5 6 5 5 5 5 5 6 5 5 5 5 6 5 5 5 5 5 5 5 5 5 5 5 5 5 5 5 5 5 5 5 5 5 5 5 5 6 5 5 5 6 5 5 5 5 5 5 6 5 5 5 5 5 5 5 5 5 5 5 6 5 6 6 5 5 6 5 5 5 5 5 5 5 5 5 5 5 6 5 5 6 5 5 5 5 5 5 5 5 5 5 5 5 5 5 5 6 5 5 5 5 5 5 5 6 5 6 5 5 5 5 6 5 6 5 5 5 5 5 5 5 5 5 6 5 5 5 5 5 5 5 5 5 5 5 5 5 5 5 5 5 6 5 5 5 5 5 5 5 5 5 5 5 5 5 5 5 5 5 5 5 5 5 5 5 5 5 6 6 5 5 5 5 5 5 5 5 5 5 5 6 5 5 5 5 6 5 5 5 5 6 5 5 5 5 5 5 5 5 6 5 5 5 5 5 5 5 5 5 6 5 5 5 5 5 5 5 5 5 5 5 5 5 5 5 5 5 5 5 5 6 5 5 5 5 5 5 5 5 5 5 5 5 5 5 6 5 6 5 5 5 5 5 5 5 5 6 5 5 6 5 5 5 5 5 5 5 5 5 5 5 5 5 5 5 5 5 5 5 5 5 5 5 5 5 5 5 5 5 5 5 5 5 5 5 5 6 5 5 6 5 5 5 5 6 5 6 5 5 6 5 6 5 5 5 5 5 6 5 5 5 5 5 5 5 5 5 5 5 5 6 5 5 5 6 5 5 5 5 5 5 5 5 5 6 5 5 5 5 6 6 5 5 5 5 5 5 5 5 6 5 5 5 5 5 6 5 5 5 6 5 5 5 6 5 5 5 5 6 5 5 5 5 5 5 5 5 5 5 5 5 5 5 6 5 5 5 5 5 5 6 5 6 6 5 6 5 6 5 5 5 5 6 5 5 5 5 6 5 5 5 5 5 5 5 5 5 6 5 5 5 5 5 5 5 5 5 5 5 5 5 5 6 5 5 5 6 5 5 5 6 5 6 5 5 5 5 5 5 5 5 5 5 5 5 5 5 5 5 6 5 5 5 5 5 5 6 5 5 5 5 5 5 5 5 5 5 5 5 5 5 5 5 5 5 6 5 5 5 5 5 5 5 5 5 5 5 5 5 5 5 5 5 5 5 5 5 5 5 5 5 5 5 5 5 5 5 5 5 5 6 5 5 5 5 6 5 5 5 5 5 5 5 6 5 5 5 5 5 5 5 5 5 6 5 5 6 5 5 5 5 5 6 5 5 5 6 5 5 6 5 5 5 5 5 5 5 5 5 5 5 5 5 5 5 5 5 5 5 5 6 5 5 5 5 5 5 5 5 5 5 6 6 5 6 5 5 5 5 5 6 5 5 5 5 6 5 5 5 5 5 6 5 6 5 5 6 5 5 5 5 5 5 5 5 6 5 5 5 5 5 5 6 5 5 5 5 5 5 6 5 5 5 5 6 5 5 6 5 6 5 5 6 5 5 5 5 5 5 6 5 5 5 5 6 5 5 5 5 5 5 5 5 6 6 5 5 5 5 5 5 5 5 6 5 5 5 5 5 5 6 5 5 5 5 5 5 5 6 5 5 5 6 5 5 5 5 5 5 5 5 5 5 5 5 6 5 5 5 5 6 5 5 6 5 5 5 5 6 5 5 5 6 6 5 5 5 6 5 5 5 6 5 5 5 5 5 5 5 5 5 6 5 5 5 6 5 5 5 5 5 5 5 5 5 5 5 5 6 5 6 5 5 6 5 5 6 5 5 5 5 5 5 5 6 5 5 5 5 5 6 5 6 5 5 5 6 6 5 6 6 5 6 5 5 5 5 5 5 6 5 6 5 5 5 5 5 5 5 5 5 5 5 5 5 6 5 5 6 5 6 5 5 6 5 5 5 6 6 5 5 6 5 5 5 5 5 5 5 5 5 5 5 5 5 5 5 5 5 5 5 5 5 5 5 6 6 5 6 5 6 5 5 6 6 5 5 6 5 5 6 5 5 6 5 6 5 5 5 5 6 5 5 5 5 6 5 6 6 5 6 5 5 6 6 5 5 5 6 5 5 5 5 6 6 5 5 5 5 5 6 5 5 5 5 5 5 5 5 5 5 5 6 5 6 5 6 5 5 6 5 6 5 5 5 5 5 5 5 5 6 5 5 6 5 5 5 5 6 5 5 5 5 5 5 5 5 5 5 5 5 6 5 5 5 5 5 5 5 5 5 5 5 6 5 5 5 5 5 5 6 5 6 5 5 6 5 5 5 5 5 5 5 5 5 5 5 5 5 5 5 5 5 6 6 5 5 5 6 5 5 6 5 5 5 5 5 5 5 5 5 5 5 5 5 5 5 5 5 5 5 5 5 5 5 5 5 6 6 5 5 5 5 5 5 5 5 5 5 5 6 5 5 5 5 5 5 5 5 5 5 5 5 5 5 5 5 5 5 5 5 5 5 5 5 5 5 5 5 5 5 5 5 5 6 5 5 5 5 5 6 5 5 6 5 5 6 6 5 5 5 5 5 5 5 5 5 5 5 5 5 6 5 5 6 5 5 5 5 5 5 6 5 5 6 5 5 5 5 5 5 5 5 5 5 5 5 5 6 5 5 5 5 5 5 5 6 5 5 5 5 5 5 5 5 5 5 5 5 6 5 5 6 5 5 5 5 5 5 5 5 5 5 5 5 5 5 5 5 5 5 5 5 6 5 5 6 5 6 5 5 5 6 5 5 6 5 6 5 5 5 6 5 5 5 5 6 5 5 5 5 5 5 5 6 5 5 5 6 5 5 5 5 5 5 5 5 5 5 5 5 6 5 5 5 5 5 5 5 5 6 5 5 5 5 5 5 5 5 5 5 5 6 5 5 5 5 5 5 5 5 5 5 5 5 5 5 5 5 5 5 5 6 6 5 5 5 6 5 5 5 5 5 5 5 5 5 5 5 5 6 5 5 5 5 5 5 5 5 5 6 5 5 5 5 5 5 5 5 5 5 5 5 5 5 5 5 6 5 6 5 5 5 5 5 6 5 5 5 5 6 5 5 5 6 5 5 5 6 5 5 5 5 5 5 5 5 5 6 5 5 5 6 5 5 6 5 5 5 5 5 5 6 5 5 5 5 5 5 5 5 6 5 5 5 6 5 5 5 5 5 5 5 5 5 5 5 5 5 5 5 5 5 5 5 5 5 5 5 5 5 5 5 6 5 5 5 5 5 5 5 6 5 5 5 5 5 5 5 5 5 5 5 5 5 5 5 5 5 5 5 5 5 5 5 5 5 6 5 6 5 5 5 5 5 5 6 5 5 5 6 5 5 6 5 5 5 5 5 5 5 5 5 5 5 5 6 5 5 5 5 5 6 5 5 5 5 5 5 5 5 5 5 5 5 5 6 5 5 5 6 5 5 5 5 5 5 5 5 5 5 5 5 6 6 5 5 5 5 6 5 5 5 5 5 5 5 5 5 6 6 5 5 5 5 5 6 5 5 5 5 5 6 5 5 5 5 5 6 5 6 5 5 5 5 6 5 6 5 6 6 5 5 5 5 5 5 5 6 6 5 5 5 5 5 5 6 6 6 5 6 6 5 5 5 6 5 5 5 5 5 6 6 6 5 6 5 5 5 6 5 6 6 5 5 5 5 5 5 5 6 6 5 5 6 6 6 5 5 5 5 5 5 5 5 5 5 5 5 5 5 5 5 5 5 5 5 5 5 5 5 5 5 5 5 5 5 5 5 5 5 5 5 5 5 5 5 6 5 5 5 5 5 5 5 5 5 5 6 5 5 5 5 5 5 6 5 5 6 5 5 5 5 5 5 5 5 5 5 5 5 5 6 5 6 5 5 5 5 6 5 5 5 6 5 5 6 5 5 5 6 5 5 6 5 5 5 5 5 6 5 5 5 5 5 5 5 6 5 5 5 5 5 5 5 6 5 5 6 5 5 5 5 6 5 6 5 5 5 5 5 6 5 5 5 5 6 5 5 5 5 5 5 6 6 5 5 5 5 5 6 5 5 6 5 5 5 5 5 5 5 5 5 5 6 5 5 5 5 5 5 5 5 5 5 5 5 5 5 5 5 5 5 6 5 5 5 5 5 5 6 5 5 5 5 5 5 5 6 6 5 5 5 5 6 5 5 5 5 5 5 5 6 5 5 6 5 6 6 6 5 5 5 5 5 5 6 5 5 5 5 5 6 5 5 5 5 6 5 5 5 6 5 5 5 6 5 5 5 5 5 5 5 5 5 5 5 5 5 5 5 5 5 5 5 5 5 5 5 5 5 6 5 5 5 5 5 5 5 6 5 6 5 5 5 5 5 5 6 5 5 6 5 5 5 6 5 5 6 5 5 5 5 5 6 5 5 5 6 6 5 5 5 5 5 5 5 5 5 5 5 5 6 5 5 5 5 5 5 5 5 5 6 5 5 5 5 5 6 6 5 5 5 5 5 5 5 5 5 6 5 5 5 5 5 5 5 5 6 5 5 5 5 5 5 5 5 5 5 5 5 5 5 5 5 5 5 6 5 5 5 5 6 5 6 5 6 5 5 5 5 5 5 5 5 5 5 5 5 5 5 5 5 5 6 5 5 5 5 5 6 5 5 5 6 6 5 5 5 5 5 6 5 5 5 5 6 5 5 5 5 5 5 5 5 6 5 5 5 5 5 5 5 6 5 5 5 5 5 5 5 5 5 6 5 5 5 5 5 5 5 5 5 5 5 5 5 5 5 5 5 5 6 5 5 5 5 5 5 5 5 5 5 5 5 5 6 5 5 5 5 5 5 6 5 5 6 5 5 6 5 5 5 5 5 5 5 5 5 5 5 5 5 5 5 5 5 5 5 5 5 5 5 5 5 5 6 5 6 5 6 6 5 5 5 6 5 5 5 5 5 5 5 5 5 6 6 5 6 5 5 5 5 5 5 5 5 5 5 5 5 5 5 6 5 6 6 5 6 5 5 5 5 5 5 5 5 5 6 6 5 5 5 5 5 5 5 5 5 5 5 5 5 5 5 5 5 5 5 5 5 5 6 5 5 5 5 5 6 5 5 5 5 5 6 5 5 5 6 5 5 5 5 5 5 5 5 5 6 5 5 5 5 6 5 5 5 5 5 5 6 5 5 5 5 5 5 5 6 5 5 5 5 6 5 5 5 5 5 5 5 5 5 5 6 5 5 5 5 6 5 5 5 6 5 5 5 5 5 6 5 5 5 5 5 5 5 5 5 5 5 5 5 5 6 6 5 5 6 5 5 5 5 5 5 5 6 5 5 5 5 5 5 6 5 5 5 5 5 5 5 5 5 5 5 5 5 5 5 5 5 5 5 5 5 5 5 6 5 5 5 5 5 5 5 5 6 5 5 5 5 6 5 5 5 5 5 6 5 6 5 6 5 5 5 5 5 5 5 6 5 5 5 6 5 5 5 5 5 6 5 5 5 5 5 6 5 6 5 5 6 5 6 5 5 5 5 5 6 5 5 5 6 5 5 5 5 5 5 5 5 5 5 6 5 5 5 5 5 5 5 5 5 5 5 5 5 5 5 5 5 5 5 5 5 5 6 5 5 5 5 5 5 5 5 5 5 5 5 5 5 5 5 5 5 6 5 5 5 6 5 5 5 5 5 5 6 5 5 5 6 6 5 6 5 6 6 5 6 5 5 6 5 5 6 6 5 5 5 5 5 5 5 5 6 5 6 5 5 5 5 5 5 5 5 5 5 5 5 5 5 5 5 5 5 5 5 5 5 6 5 5 5 5 5 5 5 5 6 5 5 6 5 5 6 6 5 5 6 5 5 5 5 5 5 5 5 5 5 5 5 5 5 5 5 5 5 5 5 5 5 5 5 5 5 5 5 5 5 5 5 5 5 5 5 5 5 5 6 5 6 5 5 5 5 5 5 5 5 5 5 5 5 5 5 5 5 5 5 5 5 5 5 5 5 5 5 5 5 5 5 5 5 5 5 5 5 5 5 5 5 6 5 5 6 5 5 5 5 5 6 5 6 5 5 6 5 5 5 5 5 5 6 5 5 5 5 5 5 5 5 5 5 5 6 5 5 6 6 5 6 5 5 6 5 5 5 5 6 5 5 5 5 5 5 5 5 5 6 5 6 5 5 5 5 5 5 5 6 5 6 5 5 5 5 5 5 5 5 5 6 5 6 5 5 5 5 5 5 5 5 5 5 6 5 5 5 6 5 5 6 5 5 6 5 5 5 5 6 5 5 5 6 5 5 5 5 5 5 5 5 5 5 5 5 5 5 6 5 5 5 5 5 5 6 5 6 5 6 5 5 5 6 5 5 5 5 5 5 5 5 6 5 5 5 5 5 6 5 5 6 5 5 5 5 5 5 5 5 5 6 5 5 5 6 5 5 5 5 5 5 6 5 5 5 5 5 5 5 5 5 5 5 5 5 5 5 5 5 5 5 5 5 5 5 5 5 5 5 5 5 5 5 6 5 5 5 5 5 6 5 5 6 6 5 5 5 5 6 5 5 5 5 5 6 5 5 5 5 5 5 5 5 5 5 5 5 5 5 5 5 6 5 5 5 5 5 5 5 5 6 6 5 5 5 5 5 5 6 5 5 5 5 6 5 5 5 5 5 5 5 5 5 5 5 5 5 5 5 5 5 5 5 5 5 5 5 5 6 5 5 6 5 5 5 5 5 5 5 5 5 5 5 5 5 5 5 5 5 5 5 5 5 5 5 5 5 5 5 6 5 6 5 5 5 5 5 6 5 5 5 5 5 5 5 5 5 5 5 5 5 5 5 5 5 5 5 5 6 6 5 6 5 5 5 5 5 5 5 5 5 5 5 5 5 5 5 5 6 5 5 5 6 5 5 5 5 5 5 5 5 5 5 5 5 5 6 5 5 5 5 5 5 5 5 5 5 5 5 5 5 5 5 5 5 5 5 5 5 6 5 5 5 5 5 5 5 5 5 5 5 5 5 6 5 6 5 5 6 6 5 5 5 5 5 5 5 5 5 5 5 5 5 5 5 5 5 5 5 5 6 5 5 6 5 5 5 6 5 5 5 5 5 5 6 5 5 5 6 5 5 5 5 5 5 5 5 6 5 5 6 5 5 6 5 6 5 5 5 5 6 6 5 5 6 6 5 5 6 5 5 5 5 6 5 5 6 6 5 6 5 5 5 5 5 5 5 5 5 5 5 5 5 5 5 5 5 5 5 5 6 5 5 5 5 6 5 5 5 5 6 6 5 5 5 5 5 5 5 5 5 5 5 5 6 5 5 5 6 5 5 5 5 5 5 5 6 5 5 5 6 5 5 6 6 5 5 5 6 5 5 5 6 5 5 5 5 5 5 5 5 5 5 5 5 5 5 5 5 5 5 6 5 5 5 5 5 5 5 5 5 5 5 5 5 5 5 5 5 5 6 6 5 5 5 5 5 6 6 5 6 5 5 5 5 5 5 5 5 5 6 5 5 5 6 5 5 5 5 5 5 5 5 5 5 5 5 5 5 6 5 5 5 5 5 5 5 6 5 5 6 5 5 5 5 5 5 6 5 5 5 5 6 5 5 5 5 5 5 6 5 5 5 5 5 5 5 5 6 6 5 5 5 6 6 5 5 5 5 5 6 5 5 5 5 5 5 6 5 5 5 5 6 5 5 5 5 5 6 5 5 5 5 6 5 5 5 5 5 5 5 5 5 5 5 5 5 5 5 5 5 5 5 5 5 5 5 5 5 6 5 5 5 5 6 5 6 5 6 5 5 6 5 5 6 5 5 6 5 5 5 5 5 5 6 5 5 6 5 6 6 6 5 5 6 5 6 6 5 5 5 6 5 6 5 5 5 5 5 5 6 5 5 5 6 5 5 5 5 5 5 5 6 5 5 5 6 5 6 6 5 5 5 5 5 5 5 6 5 5 5 5 5 5 5 5 6 6 5 5 5 5 6 5 5 6 5 5 5 6 5 5 5 6 6 5 5 5 5 6 5 5 5 5 5 6 6 5 5 5 5 5 5 5 5 5 5 5 5 5 5 5 5 5 5 5 5 5 5 5 5 5 5 5 5 5 5 5 6 5 5 5 6 5 5 5 5 5 5 5 5 5 5 5 5 5 5 5 6 5 6 6 5 5 6 5 5 5 5 5 5 5 5 5 5 5 5 5 5 5 5 5 5 5 5 5 5 5 6 5 5 6 6 5 5 5 5 5 5 5 6 5 5 5 6 5 5 5 5 6 6 5 5 5 5 5 5 5 6 5 5 5 5 6 5 5 5 5 6 5 5 5 5 5 5 5 5 5 5 5 5 5 5 5 5 5 5 5 6 5 5 5 5 5 5 5 5 5 5 5 5 5 5 5 5 6 5 5 5 6 5 5 5 5 5 5 5 5 5 6 5 5 5 5 5 5 5 5 5 5 5 5 5 5 5 5 5 5 5 5 5 6 5 5 5 5 5 5 5 5 5 5 5 5 5 5 5 5 5 6 5 5 5 5 5 6 5 5 5 5 5 5 5 5 5 5 5 5 5 5 5 5 5 5 5 5 5 5 5 5 5 5 5 6 5 5 6 5 5 5 6 5 5 5 5 5 5 5 5 5 5 5 5 5 5 5 6 5 6 5 5 5 5 5 5 5 5 5 6 5 5 5 5 5 5 5 5 5 6 6 5 5 5 5 5 5 5 5 5 5 5 5 5 5 5 5 5 5 5 5 5 5 5 5 5 5 5 5 5 5 5 5 5 5 5 5 5 5 5 5 5 5 5 5 5 5 5 5 5 5 5 5 5 5 5 5 5 5 5 5 5 5 5 5 5 5 5 5 5 5 5 6 5 5 5 5 5 5 6 5 5 5 5 5 5 5 5 5 6 5 6 5 5 5 5 5 5 5 5 5 5 5 5 5 5 5 5 5 5 5 5 5 5 5 5 5 5 5 5 5 5 5 5 5 5 6 5 5 5 6 6 5 5 5 5 5 5 5 5 5 5 5 5 5 5 5 5 5 5 5 5 5 5 6 6 5 5 5 5 5 5 5 5 6 5 5 5 5 5 5 6 5 5 5 5 5 6 5 5 5 5 6 5 5 5 6 5 5 5 6 5 5 6 5 5 5 5 5 5 5 5 5 5 5 5 5 6 5 5 5 5 5 5 5 5 6 5 5 5 5 5 5 5 5 5 5 5 6 5 5 5 6 5 5 5 5 6 5 5 5 5 5 5 5 5 6 5 6 5 5 6 5 5 5 5 5 6 5 5 5 5 5 5 5 5 5 5 5 5 6 5 5 5 5 5 5 5 5 5 6 5 5 5 5 5 5 6 5 5 5 5 5 5 5 6 5 5 5 5 5 6 5 5 5 5 5 5 5 5 5 5 5 5 5 5 5 5 5 5 5 5 5 5 5 5 5 5 5 5 5 5 5 5 5 5 5 5 5 5 5 5 5 5 5 5 5 5 5 6 5 6 5 5 5 5 5 5 5 5 5 5 5 5 5 5 6 5 5 5 5 5 5 5 5 5 5 5 5 5 5 5 6 5 5 6 5 6 5 5 5 5 5 6 5 5 5 5 5 5 5 5 5 5 5 5 5 5 5 5 5 5 5 5 6 5 5 5 5 5 5 5 5 5 5 5 6 5 6 5 5 6 5 6 5 5 5 5 5 5 5 6 5 6 5 5 5 5 6 5 5 5 5 6 6 5 5 6 5 5 5 5 5 5 5 5 5 5 5 5 5 5 5 5 6 5 5 5 5 5 5 5 5 5 5 5 5 5 5 6 5 6 5 5 5 5 5 5 5 6 5 6 5 5 5 5 5 5 5 5 5 6 6 5 5 5 6 5 5 5 5 6 5 6 5 5 6 5 6 6 6 5 5 6 5 5 5 6 6 6 5 5 5 5 5 5 5 5 5 5 5 6 5 5 5 5 5 5 6 5 5 5 6 5 5 5 5 5 5 5 5 6 5 5 5 6 5 5 5 5 5 5 5 5 5 5 5 5 5 5 5 5 5 5 5 5 5 5 5 5 5 5 5 5 5 5 5 5 5 5 5 5 5 5 5 5 5 5 5 5 5 5 5 5 5 5 5 5 5 5 5 5 5 5 5 5 6 5 5 5 5 5 6 5 5 5 5 6 5 5 5 6 5 5 5 5 5 5 5 5 5 5 5 5 5 5 5 5 5 5 5 5 5 5 5 5 5 5 5 5 5 5 5 5 5 5 5 5 5 5 5 5 6 5 5 6 5 5 5 5 5 5 5 6 5 5 5 5 5 5 5 5 5 5 5 6 5 5 6 5 6 5 5 5 6 5 5 5 5 5 5 5 5 6 5 5 5 5 6 5 5 5 5 6 5 6 5 5 5 5 5 5 5 5 5 5 5 5 6 5 6 5 5 5 5 5 5 5 5 5 5 5 5 5 6 5 5 5 5 5 5 5 5 5 6 5 5 5 6 5 5 5 5 5 5 5 5 5 5 5 5 5 5 5 5 5 5 5 5 5 5 5 5 5 5 5 5 5 5 5 5 5 5 5 6 5 5 6 5 5 5 5 6 5 5 5 5 5 5 5 5 5 5 5 5 5 5 5 6 5 5 5 5 5 5 5 5 5 6 5 6 5 5 5 5 5 5 5 6 5 5 5 5 5 5 5 5 5 5 5 5 5 5 6 5 5 5 5 5 5 5 5 5 5 5 6 5 5 5 5 5 5 5 5 5 5 5 5 5 5 5 5 5 5 5 5 5 5 5 6 5 6 5 5 5 5 5 5 6 5 6 5 5 5 6 5 5 5 6 5 5 5 6 5 5 6 5 5 5 5 5 5 5 6 5 5 5 5 5 5 5 6 5 5 5 5 5 5 5 5 5 5 5 5 5 6 5 5 5 5 5 5 5 5 6 5 5 5 5 5 5 5 5 5 5 5 5 5 5 5 5 5 5 5 5 6 5 5 5 5 5 5 5 5 5 5 5 5 5 5 5 5 5 5 5 5 5 5 5 5 5 5 5 5 5 5 5 5 5 5 5 5 5 5 5 5 5 5 5 5 5 5 5 5 5 5 6 5 6 5 5 5 6 5 5 6 6 5 6 5 5 5 5 5 5 5 5 5 5 5 5 5 5 5 5 5 5 5 5 5 5 5 5 5 5 5 5 5 5 5 5 5 5 5 6 5 5 5 5 6 5 5 6 5 5 5 6 5 5 5 5 6 5 6 6 5 5 5 5 6 5 5 5 6 5 5 5 6 5 5 5 5 5 5 6 5 5 5 5 5 5 5 5 5 5 5 5 5 5 5 5 5 5 5 5 6 5 5 5 5 5 5 5 5 5 5 5 5 5 5 5 5 5 5 6 5 5 6 5 5 6 5 5 5 5 5 5 5 5 5 5 5 6 5 5 5 5 6 5 5 5 5 6 5 5 5 6 5 5 5 5 5 5 5 5 5 5 5 5 5 5 5 5 5 5 5 5 5 5 5 5 5 6 5 5 5 5 5 5 5 5 6 5 5 5 6 5 5 5 5 5 5 5 5 5 5 5 5 5 5 5 5 5 5 5 5 5 5 5 5 6 5 5 5 6 5 5 5 5 5 5 5 5 6 5 5 6 5 5 5 5 6 5 5 5 5 5 5 5 6 5 6 5 5 6 5 5 6 6 5 5 5 5 5 5 5 5 5 5 5 5 5 5 5 5 5 5 5 5 5 6 5 5 5 5 6 5 5 5 5 5 5 5 5 5 5 5 5 5 6 5 5 6 5 5 5 5 5 5 5 5 5 5 5 5 5 5 5 5 5 5 5 5 5 5 5 5 5 5 5 5 5 5 5 5 5 5 5 5 5 5 5 5 5 5 5 5 5 5 5 5 5 5 5 5 5 5 5 5 5 5 5 5 5 5 5 5 5 5 5 5 5 5 5 5 5 5 5 5 5 5 5 5 5 5 5 5 5 5 5 5 5 5 5 5 5 5 5 5 5 5 5 5 5 5 5 5 5 5 5 5 5 5 5 5 5 5 5 5 5 5 5 5 5 5 5 5 5 5 5 5 6 5 5 5 5 5 5 5 6 5 5 5 5 5 5 5 5 5 6 5 6 5 5 5 6 5 5 6 5 5 5 5 5 5 5 5 5 5 5 5 5 5 5 5 5 5 5 5 5 5 5 5 5 5 5 5 5 5 5 5 5 5 5 5 5 6 5 5 6 6 5 5 6 5 5 6 5 5 5 6 5 5 5 5 5 5 5 5 5 6 5 5 5 5 5 5 6 5 5 5 5 5 5 5 5 5 5 5 5 5 5 5 5 5 5 5 5 5 5 5 5 5 5 5 5 5 5 5 6 5 5 5 5 5 5 5 5 5 5 5 5 5 5 5 5 5 5 5 5 5 5 5 5 5 5 5 5 5 5 5 5 5 5 5 5 5 5 5 5 5 5 5 5 5 5 6 5 6 5 5 5 5 6 5 5 5 5 6 5 5 5 5 6 5 5 5 5 5 5 5 5 6 5 5 6 5 6 5 5 5 5 6 5 5 6 6 5 5 5 5 5 5 6 5 5 5 5 5 5 5 5 5 5 6 6 5 5 5 5 5 6 5 5 6 5 5 5 5 6 5 5 6 5 5 5 5 5 5 5 5 5 5 5 5 5 5 5 5 5 5 5 5 5 5 5 5 5 5 5 5 5 6 5 6 5 5 5 5 5 5 5 5 5 5 5 5 5 6 5 5 5 5 6 6 5 5 5 5 5 5 5 5 5 5 5 5 5 5 5 5 5 5 5 5 5 5 5 5 5 5 5 5 5 5 5 5 5 5 5 5 5 5 5 5 5 5 6 5 5 5 6 5 5 5 5 5 5 5 5 5 5 5 5 5 5 5 5 5 5 5 5 6 5 5 6 5 5 5 5 5 5 5 5 5 6 5 5 5 5 5 6 5 5 5 5 5 6 5 6 5 5 5 5 5 5 5 5 5 5 5 5 5 6 5 5 5 6 6 5 5 5 5 5 5 5 5 6 5 5 6 5 5 6 6 5 5 5 5 5 6 5 5 5 5 5 5 5 6 5 5 6 6 5 5 5 5 5 5 6 6 5 5 5 6 5 5 5 5 5 5 5 6 5 5 5 5 5 5 5 5 5 5 5 5 5 5 5 5 5 5 5 5 5 5 5 5 5 5 6 5 5 5 5 5 5 5 6 5 5 5 5 5 5 5 5 5 5 5 6 5 5 5 5 5 5 5 5 6 5 5 5 5 5 5 5 5 5 5 5 5 5 5 5 5 6 5 5 5 6 5 5 5 5 5 6 5 5 5 5 5 5 5 5 5 5 5 5 5 5 6 5 5 5 5 6 5 5 6 5 5 5 5 5 6 5 5 5 5 5 5 5 5 5 5 5 5 5 5 6 5 6 5 5 5 6 5 6 5 6 5 5 5 5 5 5 6 6 5 5 5 5 5 5 6 5 6 5 5 5 5 5 5 5 5 5 5 5 5 5 5 5 5 5 6 5 5 5 6 6 5 5 5 5 5 6 5 5 6 6 5 5 5 5 5 5 5 5 5 5 5 5 5 5 5 5 5 5 5 5 5 5 5 5 5 5 5 5 5 5 5 5 5 5 5 5 5 5 5 5 5 5 5 5 6 5 5 6 6 6 5 5 5 5 5 5 6 5 5 5 5 5 5 5 5 5 6 5 5 5 6 5 5 5 5 5 5 5 5 5 5 5 5 5 5 5 5 5 5 5 5 6 5 5 5 5 6 5 5 5 5 5 5 5 5 5 5 5 5 5 5 5 5 5 5 5 5 5 5 5 5 5 5 5 5 5 5 5 5 5 5 6 5 6 5 5 5 5 5 5 5 5 6 5 5 5 6 5 6 5 5 5 5 5 5 5 5 6 5 5 5 5 6 5 5 5 5 6 5 5 5 5 5 5 5 6 5 5 5 5 6 5 5 5 5 5 5 5 5 5 5 5 5 5 5 5 5 5 5 5 5 5 5 5 5 5 5 5 5 5 5 5 5 5 5 5 5 5 5 5 5 5 5 5 5 5 5 6 5 5 5 5 6 6 5 5 6 6 5 5 5 5 5 5 5 5 5 5 5 5 5 5 5 5 5 5 5 6 5 5 5 6 6 5 5 5 5 5 5 5 5 5 5 5 5 5 5 5 5 5 5 5 5 5 5 5 5 5 5 5 6 5 5 5 5 5 5 5 6 5 5 5 5 5 5 5 5 5 5 5 5 5 5 5 6 5 5 5 5 5 5 5 5 6 5 6 6 5 5 5 5 5 5 5 5 5 5 5 5 6 5 5 5 5 5 5 5 5 5 5 5 5 5 5 5 5 5 5 6 5 5 5 6 5 5 5 5 5 5 5 5 6 5 5 5 5 5 5 5 5 5 5 5 5 5 5 5 6 5 5 5 6 5 5 5 5 5 5 5 5 5 5 5 5 5 5 5 5 5 5 5 5 5 5 5 5 5 5 5 5 5 5 5 5 5 6 5 6 5 5 5 5 5 5 5 5 6 5 5 5 5 5 5 5 5 5 6 5 5 6 5 5 5 5 5 6 5 5 5 5 6 5 5 5 5 6 5 5 5 6 5 6 5 5 6 5 5 5 5 5 5 5 5 5 5 5 5 5 5 6 5 5 6 5 6 5 5 5 6 5 5 6 5 5 5 5 6 5 6 5 5 5 5 5 5 6 5 6 5 5 5 5 5 6 5 5 5 5 6 5 5 5 5 5 5 6 5 5 5 5 5 5 5 5 5 5 5 5 5 5 5 5 5 5 5 5 5 5 5 5 5 5 5 5 5 5 5 5 5 6 6 5 5 5 5 5 5 5 5 5 5 6 5 5 6 6 5 6 5 5 5 5 5 5 5 6 5 5 5 5 5 5 5 5 5 5 5 5 6 5 5 5 5 6 5 5 5 5 5 5 5 5 5 5 5 5 6 5 5 5 5 5 5 5 5 5 5 5 5 5 5 5 5 5 6 5 5 5 5 5 6 5 5 5 6 5 5 5 5 5 5 6 5 6 5 5 5 6 5 5 5 5 5 5 5 5 5 6 5 5 6 5 5 5 5 5 5 5 6 5 5 5 5 5 5 5 5 5 5 5 5 5 6 5 5 6 5 5 5 5 5 5 6 5 5 5 5 5 5 6 5 5 5 5 5 5 5 6 5 5 5 5 5 5 5 5 5 5 5 5 5 5 5 5 5 5 5 5 5 5 6 5 5 5 5 5 5 5 5 5 5 6 5 5 5 5 6 6 5 5 5 5 6 5 5 5 5 5 5 5 5 5 6 5 5 5 5 5 5 5 5 5 5 5 6 5 5 5 6 5 5 5 6 5 5 5 5 5 5 5 5 5 5 5 5 6 5 5 5 5 5 6 5 5 6 5 5 5 5 5 5 5 5 5 5 5 5 5 5 6 5 5 5 5 5 5 5 6 5 5 5 6 5 5 5 5 5 6 5 5 5 5 5 5 5 5 5 6 5 5 5 5 5 5 5 5 6 5 5 5 5 5 6 5 5 5 5 5 5 5 6 5 5 5 5 5 5 5 5 5 5 5 5 5 5 5 5 5 5 5 5 5 5 5 5 5 5 5 5 5 5 5 5 5 5 5 5 5 5 5 5 5 5 5 5 5 5 5 5 6 5 5 5 5 5 5 5 6 5 5 5 5 5 5 5 5 5 5 5 5 5 5 5 5 5 5 5 5 5 5 6 6 5 5 6 6 5 5 5 5 5 5 5 6 5 5 5 5 5 5 5 5 5 5 5 5 5 5 6 5 5 5 5 5 5 5 5 6 5 5 6 5 5 5 6 5 5 5 5 5 5 5 5 5 5 5 5 5 5 5 5 5 5 5 5 5 5 5 5 5 5 5 5 6 5 5 5 5 5 5 5 5 6 5 5 5 5 5 5 6 6 5 5 5 5 6 5 5 6 5 5 6 5 5 5 5 5 5 6 5 5 5 5 5 5 5 5 6 5 5 5 5 5 5 5 5 5 5 5 6 5 5 6 5 5 5 5 5 5 5 6 5 5 5 6 5 6 5 6 5 5 5 5 5 5 5 5 5 5 5 5 5 5 5 5 5 6 5 6 5 5 5 5 5 5 5 5 5 5 6 5 5 5 5 5 5 5 6 5 5 5 6 5 6 6 5 5 6 5 5 5 5 6 5 5 5 6 5 5 5 6 5 6 6 5 5 5 5 5 5 6 5 5 5 5 5 5 5 5 6 6 6 5 6 5 5 6 6 5 5 6 5 5 5 5 5 5 5 5 5 5 5 6 5 5 5 5 5 5 5 5 5 5 5 5 5 6 6 5 5 5 5 6 5 5 5 6 5 5 5 5 5 6 6 5 5 5 6 5 5 5 5 5 5 5 5 5 5 5 5 5 5 5 6 5 5 5 6 5 5 5 6 5 5 5 5 5 5 6 5 5 5 5 5 6 5 5 5 5 5 5 5 5 6 5 5 5 5 5 5 5 5 5 6 5 5 5 5 6 5 6 5 5 6 5 6 5 5 5 5 5 5 6 5 6 6 5 5 5 5 5 5 5 5 6 5 6 5 6 5 6 5 5 5 5 5 5 5 5 5 5 5 6 5 5 5 6 5 5 5 5 5 5 5 5 6 5 5 5 5 5 5 5 5 5 6 5 5 5 5 6 5 5 6 5 5 5 5 5 5 5 5 5 6 5 5 5 6 5 5 5 5 5 5 5 5 5 5 5 5 5 5 5 5 5 5 5 6 5 5 5 5 5 5 5 5 5 5 6 5 5 5 5 5 5 5 5 5 5 5 5 5 5 5 5 5 5 5 5 5 5 5 5 5 5 5 5 5 5 5 5 5 5 5 5 5 5 5 5 5 5 5 5 5 6 6 5 5 5 5 5 5 5 5 5 5 5 5 5 6 6 5 5 5 6 5 5 6 5 5 5 6 5 5 5 6 5 5 5 5 5 5 5 5 6 5 5 6 5 6 6 5 5 5 5 5 5 6 5 6 6 6 5 5 6 5 5 6 6 5 5 5 5 5 5 5 5 5 5 5 5 5 5 5 5 5 5 5 5 5 6 5 5 5 5 5 5 5 5 5 6 5 5 5 5 5 5 5 6 6 5 5 5 5 5 5 5 5 5 5 5 5 5 5 5 5 5 5 5 5 5 5 5 6 5 6 5 5 5 5 5 5 5 6 5 5 5 6 6 5 5 6 5 5 5 5 6 5 5 5 6 5 5 5 6 5 5 5 5 5 5 5 5 5 6 6 5 5 5 5 5 6 5 5 6 6 6 5 5 5 5 5 6 5 5 5 5 5 5 5 5 5 6 5 6 5 5 5 5 5 5 5 5 5 5 5 5 5 5 5 5 5 5 5 5 5 5 5 5 6 5 5 5 5 6 6 5 5 5 6 5 5 5 5 5 5 5 5 5 5 5 5 5 5 5 5 6 5 5 5 6 5 5 6 5 5 5 5 5 5 5 5 5 5 5 5 5 6 5 5 6 5 5 5 6 5 6 5 6 5 6 6 6 5 5 5 5 5 5 5 5 6 5 5 5 5 5 5 5 5 6 5 5 6 5 5 5 5 5 5 5 5 5 5 5 5 5 5 5 5 5 5 5 5 5 6 5 5 5 5 5 5 5 5 5 5 6 5 6 5 5 6 5 6 5 6 5 5 6 5 6 5 5 6 5 5 5 6 5 5 5 5 5 5 5 5 5 5 5 5 5 5 5 5 5 5 5 5 5 5 5 5 5 5 5 5 5 5 5 5 5 5 5 5 5 5 5 5 5 5 5 5 5 5 5 5 5 5 5 5 5 5 5 5 5 5 5 5 5 6 5 5 6 5 5 5 5 5 5 6 6 5 5 5 5 5 5 5 5 5 5 5 5 5 5 5 5 5 5 6 5 5 5 6 5 5 5 5 5 5 5 5 5 5 5 5 5 5 5 5 6 5 5 5 5 5 5 5 6 5 5 5 5 5 5 5 5 6 5 6 5 5 5 5 5 5 5 5 5 5 5 5 5 5 5 5 6 5 5 5 5 5 5 5 6 5 5 5 5 6 5 5 5 5 5 5 5 6 5 5 6 6 5 5 6 5 5 5 5 5 5 6 5 5 5 5 5 5 5 5 5 6 5 5 6 5 5 6 5 5 6 5 5 5 5 5 6 5 5 5 5 5 5 5 5 6 5 5 5 5 5 5 5 6 5 5 5 5 5 5 5 5 5 5 5 5 6 5 5 5 5 5 5 5 6 6 5 6 5 6 5 5 5 5 5 5 5 5 5 5 5 5 5 5 5 6 5 6 5 5 5 5 5 5 5 5 6 5 6 5 6 5 6 5 6 5 5 6 5 5 5 5 5 6 5 5 5 5 5 5 5 5 6 5 5 5 5 5 6 5 5 6 5 6 6 5 5 5 5 5 5 5 5 6 5 5 5 5 5 5 5 5 5 5 5 5 5 6 5 5 5 5 5 5 5 6 5 5 5 6 5 5 5 5 5 5 5 5 5 5 5 5 5 5 5 5 5 6 5 5 5 5 5 5 5 6 5 5 6 5 5 5 5 5 5 5 5 5 5 5 5 5 5 5 6 5 5 5 5 6 5 5 5 5 5 5 5 5 5 5 5 5 5 5 5 5 5 5 5 5 5 5 5 5 5 6 5 5 5 5 5 5 6 5 5 5 5 5 5 5 5 5 6 6 5 5 5 6 5 6 5 5 5 5 5 5 5 5 5 5 5 5 5 5 5 6 5 5 5 5 5 5 5 5 5 5 5 5 6 6 5 5 5 5 5 5 5 5 6 5 5 6 5 5 6 6 5 5 5 5 5 5 5 6 5 5 5 5 5 5 5 5 5 6 5 5 5 6 5 5 5 5 5 6 5 5 5 5 5 5 5 5 5 5 5 5 6 5 5 5 6 5 5 5 6 5 5 5 5 5 5 5 5 5 5 5 5 5 5 5 5 5 5 5 5 5 5 5 5 5 5 5 5 5 5 5 5 6 5 5 5 5 5 5 5 5 5 5 5 5 5 5 5 5 5 5 5 5 5 5 5 5 6 5 6 5 5 6 5 5 5 5 5 5 5 5 5 6 5 5 5 5 5 5 5 5 5 5 5 5 5 5 6 5 5 5 5 6 5 5 5 6 5 5 5 5 5 5 5 5 5 5 5 5 5 5 5 5 5 5 5 5 5 5 5 5 5 5 5 5 5 5 5 5 5 5 5 5 5 5 5 5 5 5 5 5 5 5 5 5 5 5 5 5 5 5 5 5 5 5 5 5 5 5 5 5 5 5 5 5 5 5 5 5 5 5 5 5 5 5 5 5 5 5 5 5 5 5 5 5 5 5 5 5 5 5 5 5 5 5 5 5 5 5 5 5 5 5 5 5 5 5 5 5 5 5 5 5 5 5 5 5 5 5 5 5 5 5 5 5 5 5 5 5 5 5 5 5 5 5 5 5 5 5 5 5 5 5 5 5 5 5 5 5 5 5 5 5 5 5 5 5 5 5 5 5 5 5 5 5 5 5 5 5 5 5 5 5 5 5 5 5 5 5 5 5 5 5 5 5 5 6 5 5 5 5 5 5 5 5 5 5 5 5 5 5 5 5 6 5 5 5 5 5 5 5 5 6 5 5 5 5 6 5 5 5 5 5 5 5 5 5 5 5 5 5 5 5 5 5 5 5 5 5 5 6 5 5 5 5 5 5 5 5 5 5 5 5 5 6 6 5 5 5 5 5 6 5 6 5 5 5 5 5 5 5 5 5 5 5 6 5 5 5 5 5 5 5 6 5 5 5 5 5 5 5 5 5 5 5 5 5 5 5 6 6 5 5 5 5 5 5 5 5 5 5 5 5 6 5 5 5 5 5 5 5 5 5 5 5 5 5 5 5 5 6 5 5 5 5 5 5 5 6 5 5 5 5 5 5 5 5 5 5 6 6 5 5 5 5 5 5 5 5 5 5 5 5 5 5 5 5 5 5 5 5 5 5 5 5 5 5 5 5 5 5 6 5 5 5 5 5 6 5 5 5 5 5 5 5 5 5 5 6 5 5 5 5 6 5 5 5 5 5 5 5 5 5 5 6 5 6 5 5 5 5 5 5 5 5 5 5 5 5 5 5 5 5 5 5 5 5 5 5 5 5 5 5 5 5 5 5 5 6 5 5 5 5 5 6 5 5 5 5 5 5 5 5 5 5 5 5 5 5 5 5 5 5 6 5 5 6 5 5 5 6 5 5 5 5 5 6 5 5 5 5 5 5 5 5 5 5 6 5 5 5 5 5 5 6 5 5 5 5 5 6 6 5 5 6 5 5 6 5 5 5 5 5 5 5 5 5 5 6 5 5 6 5 5 6 5 5 6 5 5 6 5 5 6 5 5 5 5 5 5 6 5 5 5 5 5 5 5 5 5 5 5 6 5 5 5 5 5 5 5 6 5 5 5 5 6 5 5 5 6 5 5 5 5 5 5 5 5 5 5 5 6 5 5 5 5 5 5 5 5 5 5 5 5 5 5 5 5 5 5 5 5 5 5 5 5 6 5 5 5 5 5 6 5 5 5 5 5 5 5 5 5 5 5 5 5 5 6 5 5 6 5 6 5 5 5 5 6 5 6 6 5 6 5 5 5 5 5 5 5 6 5 6 5 5 5 5 5 5 6 5 5 5 5 5 5 6 5 5 5 5 6 5 5 5 5 5 6 5 5 6 5 5 5 5 6 5 5 5 5 6 5 5 5 5 5 5 6 5 5 5 5 5 5 5 5 5 6 5 5 5 5 5 5 6 5 5 5 5 6 5 5 5 5 5 5 5 5 5 5 5 5 5 5 5 5 6 5 5 5 6 5 5 6 5 5 5 5 5 5 5 5 5 5 5 5 5 5 5 5 6 5 6 5 5 5 5 5 5 5 5 5 5 5 5 5 5 5 5 5 5 5 5 5 5 5 5 5 5 6 5 5 6 5 5 5 5 5 5 5 5 5 5 6 5 5 5 5 6 5 5 5 5 6 5 5 5 5 5 5 5 5 5 6 5 5 5 5 5 5 5 5 5 5 5 5 5 5 5 5 5 5 5 5 5 5 5 5 5 5 5 5 
</DataArray>
<DataArray type="Float64" Name="stress" NumberOfComponents="9" format="ascii">
-1469610647.975769 1539619010.7492485 0 1539619010.7492485 1091285.5040721893 0 0 0 0 -655941921.78452682 1791513083.8267918 0 1791513083.8267918 -420261553.53675079 0 0 0 0 -403473.57098388672 1557177317.9140835 0 1557177317.9140835 -1016147974.3753586 0 0 0 0 -517611393.10604477 1174954438.64361 0 1174954438.64361 -1225583833.011261 0 0 0 0 -475531462.60515594 1366436376.7557144 0 1366436376.7557144 -1221208754.9653513 0 0 0 0 -7985094.758988902 1498039.5032137185 0 1498039.5032137185 -653533.99782292917 0 0 0 0 -79209570.880950928 -302700587.91704559 0 -302700587.91704559 589072519.42351913 0 0 0 0 -660798799.51937866 195403148.58588791 0 195403148.58588791 320528557.54964828 0 0 0 0 -1746755547.1389427 1483712605.5142746 0 1483712605.5142746 -489624549.77474213 0 0 0 0 -1456098049.4814339 1757760642.7761402 0 1757760642.7761402 -1742682952.2261963 0 0 0 0 -570102775.9010849 576363878.33111572 0 576363878.33111572 -265674645.48715019 0 0 0 0 -2332556482.5776443 1114452217.4692192 0 1114452217.4692192 -106813439.99754333 0 0 0 0 6136328.1827888489 18423301.124713898 0 18423301.124713898 4416.9452590942383 0 0 0 0 -3090521.1734199971 1089668.6610575188 0 1089668.6610575188 -2632471.8769437373 0 0 0 0 -7254762.7625904083 18181389.670751572 0 18181389.670751572 -1895463.4368667603 0 0 0 0 -9623651.7326202393 17650746.018005371 0 17650746.018005371 1004.0662648824543 0 0 0 0 -5130353.1159248352 12375770.36536026 0 12375770.36536026 713170.7649307251 0 0 0 0 -10576615.029846191 19764233.494480133 0 19764233.494480133 -955072.59811019897 0 0 0 0 -7542929.1941586435 5208574.3749368414 0 5208574.3749368414 -3520902.3513917625 0 0 0 0 -5976219.2748336792 19924647.734855652 0 19924647.734855652 -12291220.405677795 0 0 0 0 -8965567.6178131104 15870267.343757629 0 15870267.343757629 -3154888.7867431641 0 0 0 0 4147351.2500361353 16102350.494601212 0 16102350.494601212 -5334597.8956911415 0 0 0 0 110374241.19884491 -21660126.938766479 0 -21660126.938766479 13743807.468544006 0 0 0 0 204732326.87849426 -7252848.5679855347 0 -7252848.5679855347 -68241657.70300293 0 0 0 0 88566766.548469543 19852583.90511322 0 19852583.90511322 -16533974.968002319 0 0 0 0 158976477.56752014 195312325.1513443 0 195312325.1513443 157102344.4074707 0 0 0 0 -21734770.550186209 24867014.454351775 0 24867014.454351775 -9014643.6554528624 0 0 0 0 -49680776.69178772 237754503.69739532 0 237754503.69739532 148503303.47103882 0 0 0 0 19299303.26750946 93798817.829902649 0 93798817.829902649 -1003027.6719665527 0 0 0 0 111118813.12565994 68999717.980800629 0 68999717.980800629 -95759895.070709229 0 0 0 0 -210968205.08201599 73108047.154060364 0 73108047.154060364 505438550.14692688 0 0 0 0 -22850879.230500251 8598778.1773776263 0 8598778.1773776263 360702.49375143275 0 0 0 0 -670008635.01787186 481886034.33069038 0 481886034.33069038 -336121141.81599808 0 0 0 0 -167584225.32609558 66513915.149047852 0 66513915.149047852 -1282019.2969207764 0 0 0 0 -18164909.150642395 277329061.96448135 0 277329061.96448135 -102270742.00050354 0 0 0 0 -222026949.75488281 319670435.57341385 0 319670435.57341385 283204542.47494888 0 0 0 0 99758471.066208363 107868256.41854043 0 107868256.41854043 -296902236.0085907 0 0 0 0 -5048132.3562011719 91439437.757148743 0 91439437.757148743 -297821872.46491241 0 0 0 0 -16644815.463928223 235046360.50273132 0 235046360.50273132 -310799038.66568375 0 0 0 0 -22348795.816223145 188432708.07801819 0 188432708.07801819 -302204213.96359253 0 0 0 0 100176249.15448958 207072812.01919416 0 207072812.01919416 -318022847.97380066 0 0 0 0 -133360951.90740967 186189638.82382202 0 186189638.82382202 -37891585.808628082 0 0 0 0 -255807324.51911926 -28489651.767715454 0 -28489651.767715454 -367601452.06585693 0 0 0 0 -367935704.88710403 281330123.60739613 0 281330123.60739613 -90897730.60206604 0 0 0 0 63217562.459182739 124724132.27397156 0 124724132.27397156 -465938620.94860077 0 0 0 0 410024.10787984729 1858090.6004030928 0 1858090.6004030928 -549916.36746622622 0 0 0 0 -376882924.82556152 349071283.59526825 0 349071283.59526825 -256450777.62280273 0 0 0 0 -113265721.27212143 -118579728.24096489 0 -118579728.24096489 -179120632.68652344 0 0 0 0 169584.15607771277 665429.27921542153 0 665429.27921542153 677695.48326468468 0 0 0 0 -299540426.61355591 281463491.81175232 0 281463491.81175232 -38517499.561828613 0 0 0 0 -21690782.468215942 180399183.39603424 0 180399183.39603424 -364841982.13079834 0 0 0 0 -131061508.74072266 346615853.86010742 0 346615853.86010742 -601053297.91639709 0 0 0 0 -16341423.716552734 233747673.66374207 0 233747673.66374207 -362746126.60717249 0 0 0 0 -37907061.062805176 27441735.957481384 0 27441735.957481384 4389298.772819519 0 0 0 0 -2975209.7056307308 6862694.4104579464 0 6862694.4104579464 6036660.650074929 0 0 0 0 33537974.017578125 41555534.431877136 0 41555534.431877136 -66086182.781425476 0 0 0 0 -19957270.958580017 23105415.890476227 0 23105415.890476227 -62644147.898002625 0 0 0 0 -25796587.82029295 83207757.748859406 0 83207757.748859406 -157146999.71524048 0 0 0 0 -61565016.963132858 133790957.53251743 0 133790957.53251743 -172507460.48368835 0 0 0 0 17925001.839797974 154448903.92677689 0 154448903.92677689 -179714802.13851929 0 0 0 0 334486463.19780731 242347771.04739761 0 242347771.04739761 -36258867.199432373 0 0 0 0 45827208.921279907 118011070.58996201 0 118011070.58996201 -3277652.653137207 0 0 0 0 -20480492.280826718 25961475.737375349 0 25961475.737375349 -8642687.7627389878 0 0 0 0 173807577.04379272 72325655.605743408 0 72325655.605743408 31644168.2029953 0 0 0 0 250405638.0374527 78576437.452306747 0 78576437.452306747 -98156322.162353516 0 0 0 0 63299327.24281311 140282274.67405701 0 140282274.67405701 -68538254.698883057 0 0 0 0 -26665902.540344238 -46789208.1925354 0 -46789208.1925354 13303296.399654388 0 0 0 0 5051906.3324172422 2869889.1804596484 0 2869889.1804596484 -4995249.2513881326 0 0 0 0 65893170.688476562 -30583981.930580139 0 -30583981.930580139 -111984514.13305664 0 0 0 0 -1245831.1392211914 17196012.474346161 0 17196012.474346161 -55601532.613121033 0 0 0 0 145215410.39141083 103557150.46458435 0 103557150.46458435 5037731.9406585693 0 0 0 0 200160758.22036743 79219529.064872742 0 79219529.064872742 -16556342.334365845 0 0 0 0 212542021.92581177 42977049.72726059 0 42977049.72726059 -11911031.771957397 0 0 0 0 217697422.19949341 59641269.284923553 0 59641269.284923553 -6149157.6141662598 0 0 0 0 116024528.75402832 -44333383.320240021 0 -44333383.320240021 -33940919.58241272 0 0 0 0 184730996.86167145 60129316.123809814 0 60129316.123809814 -21847901.984436035 0 0 0 0 -12198876.145736694 66737319.407924652 0 66737319.407924652 61395926.253376007 0 0 0 0 6285467.3774244934 7933689.7595222518 0 7933689.7595222518 -4386481.2051725388 0 0 0 0 6896405.9466094971 13843785.031567574 0 13843785.031567574 3005630.2576370239 0 0 0 0 2922413.8033027649 6897258.6702919006 0 6897258.6702919006 4813747.724899292 0 0 0 0 1384346.9800643027 10109177.369019054 0 10109177.369019054 -1671478.7801682025 0 0 0 0 58336124.890342712 40386832.97820282 0 40386832.97820282 -60748003.921279907 0 0 0 0 23034932.718981743 36481045.892966747 0 36481045.892966747 -12427776.324142456 0 0 0 0 12959449.81275627 17062307.002630517 0 17062307.002630517 -6168878.82545688 0 0 0 0 11715053.080993652 -54709308.002239227 0 -54709308.002239227 -6514200.9069633484 0 0 0 0 10155384.779434204 13195621.772117615 0 13195621.772117615 4994631.6482086182 0 0 0 0 -28941718.859977722 38960669.712114334 0 38960669.712114334 11055930.692176819 0 0 0 0 20810229.659446716 -3663680.0030975342 0 -3663680.0030975342 3783049.0048217773 0 0 0 0 -2480957.6083117127 9342271.6238834709 0 9342271.6238834709 6099165.6802416146 0 0 0 0 -16382844.611495972 2912100.166841507 0 2912100.166841507 21119498.98090744 0 0 0 0 29564.501419067383 22321915.61838913 0 22321915.61838913 -23990513.45263195 0 0 0 0 -1678986.9075546265 16167663.620973587 0 16167663.620973587 965740.06458282471 0 0 0 0 9825048.9341888428 5089596.9933815002 0 5089596.9933815002 -29906743.180604935 0 0 0 0 8702422.1674499512 2953854.9496574402 0 2953854.9496574402 -16011413.152648926 0 0 0 0 -450468910.31330872 643271901.73891449 0 643271901.73891449 -806875991.9855423 0 0 0 0 -12866486.108894348 -2504839.3734893799 0 -2504839.3734893799 18914157.913078308 0 0 0 0 -1701542.5043024868 -668205.74323070794 0 -668205.74323070794 -1594059.8197927773 0 0 0 0 61828.394850913435 432803.48651758581 0 432803.48651758581 -274363.88526028395 0 0 0 0 2335196.9449417517 5226424.6763684452 0 5226424.6763684452 -6469944.1280520558 0 0 0 0 492805.9211807251 6180389.0281829834 0 6180389.0281829834 -14279072.95639801 0 0 0 0 -1971477.4414367676 9147324.3997116089 0 9147324.3997116089 -12572731.655786514 0 0 0 0 3072638.3177009523 7185722.1913819313 0 7185722.1913819313 -8227147.4552927464 0 0 0 0 -8622847.3992919922 14911839.235126495 0 14911839.235126495 -3046115.7680206299 0 0 0 0 -9690778.2223205566 25667057.069927216 0 25667057.069927216 -4745822.3201446533 0 0 0 0 -3222757.364982605 -15816992.671237946 0 -15816992.671237946 -7588048.1843719482 0 0 0 0 -5517417.0961761475 21353405.281478882 0 21353405.281478882 -31115315.751571655 0 0 0 0 -16219979.887802124 24023209.538269043 0 24023209.538269043 8776373.8521957397 0 0 0 0 1211358.4912817627 -818588.60870242119 0 -818588.60870242119 -3674239.4491835833 0 0 0 0 -12102098.973144531 -2546994.6164665222 0 -2546994.6164665222 70418935.166423798 0 0 0 0 -805400.78649139404 698915423.76321983 0 698915423.76321983 -1163612114.2449284 0 0 0 0 -364658879.92568588 702850580.43513489 0 702850580.43513489 -922505109.79358673 0 0 0 0 -506127680.54707336 940857282.03847885 0 940857282.03847885 -889459221.96477461 0 0 0 0 -889429.79730791366 1059796152.9105843 0 1059796152.9105843 -1051794316.3820572 0 0 0 0 -555288802.7924881 894479277.76424217 0 894479277.76424217 -525331358.38040161 0 0 0 0 -1127747839.3408661 1313122921.0477676 0 1313122921.0477676 -634840053.90792847 0 0 0 0 -1234373627.0202866 764515894.23754168 0 764515894.23754168 -114914099.51929474 0 0 0 0 -476246389.12480164 301547927.74249268 0 301547927.74249268 -117966037.70568556 0 0 0 0 -111307504.50180531 283526588.0614841 0 283526588.0614841 -420076815.19291687 0 0 0 0 -132513665.72001648 65187426.280357361 0 65187426.280357361 -159012248.05504608 0 0 0 0 -83717728.012084961 216866560.14642334 0 216866560.14642334 -548755923.44329834 0 0 0 0 -403153185.75393677 339473076.71356964 0 339473076.71356964 -409142212.09851837 0 0 0 0 554604.16365563869 468835.61421868205 0 468835.61421868205 -2062146.2582184002 0 0 0 0 -323209405.26226807 457735507.80918884 0 457735507.80918884 -600895325.11991882 0 0 0 0 -443107187.82128906 507436867.82611084 0 507436867.82611084 -621331113.49954224 0 0 0 0 -852513766.54692841 689494509.96233749 0 689494509.96233749 -417179124.77787781 0 0 0 0 9097216.5695023313 7386697.8077425547 0 7386697.8077425547 1835426.4396254122 0 0 0 0 -48040774.374552727 19605471.344136715 0 19605471.344136715 289480168.10011292 0 0 0 0 -26221109.356948853 66224332.491279602 0 66224332.491279602 -17875167.797492981 0 0 0 0 10980146.860414505 43935039.664049149 0 43935039.664049149 -5336775.3394470215 0 0 0 0 9555073.7427864075 59345902.846340179 0 59345902.846340179 -63974678.240505219 0 0 0 0 3484272.250837326 121445330.28271866 0 121445330.28271866 14902759.033584595 0 0 0 0 -44300651.027854919 56338159.210824966 0 56338159.210824966 -22572205.417724609 0 0 0 0 2995054.9317006981 304532.66304057464 0 304532.66304057464 616691.72236038744 0 0 0 0 -260774976.04862213 76747777.56269455 0 76747777.56269455 108174739.20540619 0 0 0 0 459664381.70204282 412689641.48890638 0 412689641.48890638 239836984.45630646 0 0 0 0 308556604.89977312 355629378.84517527 0 355629378.84517527 98994407.32472229 0 0 0 0 301519477.96468639 312373541.75876808 0 312373541.75876808 147356164.54528809 0 0 0 0 130418145.17800903 219676017.69683838 0 219676017.69683838 348448.78471374512 0 0 0 0 -85424518.200065613 224483805.19538498 0 224483805.19538498 214897875.11829376 0 0 0 0 12715678.909706116 119403587.03276062 0 119403587.03276062 15292164.389297485 0 0 0 0 72110539.087520599 143744356.00658798 0 143744356.00658798 -11929446.407287598 0 0 0 0 26556908.722122192 157452227.00178146 0 157452227.00178146 102341495.09407806 0 0 0 0 111232557.06169701 167617316.12589264 0 167617316.12589264 9295.5703353881836 0 0 0 0 120520131.08986664 200837969.61856461 0 200837969.61856461 90137514.43560791 0 0 0 0 164446812.25655365 109718855.44612122 0 109718855.44612122 55901785.111373901 0 0 0 0 170251733.17568588 152148070.03185272 0 152148070.03185272 -89914917.821151733 0 0 0 0 72901566.95905304 166830825.10818481 0 166830825.10818481 82661542.528312683 0 0 0 0 74234453.136203766 79403008.707275391 0 79403008.707275391 -86420892.883201599 0 0 0 0 73271776.287088394 35349607.011724472 0 35349607.011724472 -141633653.42077637 0 0 0 0 63530566.579147339 50775609.033882141 0 50775609.033882141 -81884317.576583862 0 0 0 0 103001347.96543121 89152131.313327789 0 89152131.313327789 -108508176.05003357 0 0 0 0 40859665.785556793 88475488.489334106 0 88475488.489334106 -54412514.170227051 0 0 0 0 64342381.245162964 123040354.77611542 0 123040354.77611542 -4887977.7381801605 0 0 0 0 39917962.073120117 81856758.58782196 0 81856758.58782196 -49136302.063301086 0 0 0 0 40710645.850837827 39416828.533227146 0 39416828.533227146 -84304708.975952148 0 0 0 0 25675663.430007935 28816400.563423157 0 28816400.563423157 -68001121.236053467 0 0 0 0 25022025.108421326 24371507.704727173 0 24371507.704727173 -23414228.13419342 0 0 0 0 26671386.098762512 -27060901.171813965 0 -27060901.171813965 -73140174.408103943 0 0 0 0 1433654.8591078557 1939642.2550622281 0 1939642.2550622281 786393.9184564352 0 0 0 0 -681188.64307403564 -28085355.808227539 0 -28085355.808227539 56084974.832359791 0 0 0 0 12423444.07522583 -65662871.283720016 0 -65662871.283720016 -177722424.08372498 0 0 0 0 -101695220.32749557 109659832.05410957 0 109659832.05410957 -72825261.134262085 0 0 0 0 -1091559.9640727267 5898339.9589285627 0 5898339.9589285627 79206.970074519515 0 0 0 0 -80452449.518154144 69356537.855325699 0 69356537.855325699 -57910298.818878174 0 0 0 0 -43336047.043243408 157173790.41870117 0 157173790.41870117 -109491733.93582153 0 0 0 0 1226054.6971797273 3419440.9049695805 0 3419440.9049695805 -2215359.8313926607 0 0 0 0 86840079.065151215 -25834966.517299652 0 -25834966.517299652 -250214402.74237061 0 0 0 0 -34683837.595539093 63957112.64913559 0 63957112.64913559 -166495736.3722229 0 0 0 0 -56624671.936725616 117976932.6982193 0 117976932.6982193 -134610523.27932739 0 0 0 0 82013021.686767578 74204375.244873047 0 74204375.244873047 -170555189.54705811 0 0 0 0 19159995.185455322 156579427.93796539 0 156579427.93796539 -152086269.89526367 0 0 0 0 52388492.557876587 66352568.03553772 0 66352568.03553772 -125247439.0029068 0 0 0 0 35499292.074407578 101587977.65940666 0 101587977.65940666 -162624007.76805115 0 0 0 0 67382173.337051392 35005230.006393433 0 35005230.006393433 -134539314.14112854 0 0 0 0 81128084.226821899 43508068.88633728 0 43508068.88633728 -263252895.2457428 0 0 0 0 76558854.327140808 100394375.12223053 0 100394375.12223053 -147424537.05104256 0 0 0 0 58205445.440589905 81052774.708435059 0 81052774.708435059 -97281359.06879425 0 0 0 0 -497124.41133524477 2516930.3547552451 0 2516930.3547552451 384833.71912236512 0 0 0 0 31494683.918395996 76041384.114692688 0 76041384.114692688 179844790.59829712 0 0 0 0 -36818385.491470337 103533870.48892212 0 103533870.48892212 -100326408.78678131 0 0 0 0 45616092.036987305 55365999.959838867 0 55365999.959838867 94527.922660481709 0 0 0 0 100352466.00059509 111520778.5696907 0 111520778.5696907 44118637.432861328 0 0 0 0 129297697.41194916 156217119.29281807 0 156217119.29281807 113080363.03762817 0 0 0 0 -12316338.880523682 18351290.729705811 0 18351290.729705811 108019051.67308807 0 0 0 0 -12455490.286424041 -765618.58329635859 0 -765618.58329635859 22752516.569259644 0 0 0 0 16726550.28163147 49973472.110729218 0 49973472.110729218 40550369.728851318 0 0 0 0 -194637.84942568839 5055227.1467743516 0 5055227.1467743516 -408052.45263577253 0 0 0 0 -555086.34294128418 16162153.359733582 0 16162153.359733582 2302449.4325370789 0 0 0 0 -4793675.4749603271 104912184.53445435 0 104912184.53445435 26154549.766174316 0 0 0 0 -9130026.0239105225 -22126385.553184509 0 -22126385.553184509 -359983686.31481934 0 0 0 0 -9541043.1661911011 31606019.19103241 0 31606019.19103241 -118587263.8132515 0 0 0 0 -5546289.4743556976 8938528.4491081238 0 8938528.4491081238 1365467.3954086304 0 0 0 0 -3659419.2392501831 21219119.182538986 0 21219119.182538986 13822.131782531738 0 0 0 0 -8569486.2880706787 19997216.165187836 0 19997216.165187836 4117923.0261230469 0 0 0 0 -6838752.0905532837 18197945.045150757 0 18197945.045150757 -10061823.748682022 0 0 0 0 2000138.9351971596 7348101.1861002892 0 7348101.1861002892 -2758379.7981319204 0 0 0 0 135327656.68688202 230674831.95529175 0 230674831.95529175 -237515031.96696472 0 0 0 0 -548890702.4781189 -165238228.164505 0 -165238228.164505 134315062.88252258 0 0 0 0 -298282455.76034546 222952541.35707855 0 222952541.35707855 -38778919.729034424 0 0 0 0 281108140.8164444 5995110.8293304443 0 5995110.8293304443 -450666875.54478455 0 0 0 0 209056113.23942566 184370363.91571808 0 184370363.91571808 -199636028.3155365 0 0 0 0 70463848.217926025 34512643.077194214 0 34512643.077194214 -295690654.22738647 0 0 0 0 7462018.5230712891 -10484486.480476379 0 -10484486.480476379 -194378763.74154663 0 0 0 0 -331721878.85558319 -26761966.650428772 0 -26761966.650428772 9688642.5412902832 0 0 0 0 79718033.504364014 -177762248.49076843 0 -177762248.49076843 -418729654.24126244 0 0 0 0 -393926.29209943116 1921670.0165507309 0 1921670.0165507309 -219718.77371533215 0 0 0 0 -86027356.813995361 -11408626.675231934 0 -11408626.675231934 6837837.979598999 0 0 0 0 -27274387.875335693 2260277.7759628296 0 2260277.7759628296 -44414781.272720337 0 0 0 0 -17133597.073356628 24805241.337175369 0 24805241.337175369 24494622.312072754 0 0 0 0 -9126734.7606201172 7794733.430847168 0 7794733.430847168 33920477.060150146 0 0 0 0 -49991954.522872925 -2326777.7721252441 0 -2326777.7721252441 25257039.923675537 0 0 0 0 -76011345.071136475 -10352867.069160461 0 -10352867.069160461 31526951.269500732 0 0 0 0 -109403588.54549408 14127699.719490051 0 14127699.719490051 47392814.523605347 0 0 0 0 -66061487.838813782 69276282.142448425 0 69276282.142448425 46527069.039745331 0 0 0 0 -24397464.930595398 169806368.80609131 0 169806368.80609131 -28522725.768173218 0 0 0 0 -237032600.66903687 57908939.309936523 0 57908939.309936523 51703987.990943909 0 0 0 0 -15385624.3019104 48498183.269554138 0 48498183.269554138 29836129.209457397 0 0 0 0 -32783365.5103302 50709577.217422485 0 50709577.217422485 38805051.001182556 0 0 0 0 -35977169.299827576 34267733.305923462 0 34267733.305923462 30698167.449951172 0 0 0 0 -46855262.280910492 3850807.1319046021 0 3850807.1319046021 23459597.352233887 0 0 0 0 -75730893.598617554 22236353.390869141 0 22236353.390869141 43368585.177688599 0 0 0 0 -50042853.356811523 20931950.859085083 0 20931950.859085083 26573078.783905029 0 0 0 0 -37744899.595176697 11971042.343715668 0 11971042.343715668 11175125.978668213 0 0 0 0 -40769766.438537598 34011868.037460327 0 34011868.037460327 39908171.342567444 0 0 0 0 -30983423.329904556 40016530.818273544 0 40016530.818273544 34285781.139007568 0 0 0 0 -20092266.302886963 34226029.600204468 0 34226029.600204468 12993867.276771545 0 0 0 0 -33386617.897689819 31472128.635299683 0 31472128.635299683 27135655.903884888 0 0 0 0 -35551980.134490967 31682802.32963562 0 31682802.32963562 27952595.186288834 0 0 0 0 -34321629.057941437 30977198.646533966 0 30977198.646533966 1449135.1428833008 0 0 0 0 -510198.77087938786 1190207.2530288622 0 1190207.2530288622 1591937.6309745908 0 0 0 0 -28407511.546142578 30203259.180728912 0 30203259.180728912 24117981.305343628 0 0 0 0 -19902938.534545898 14116947.713180542 0 14116947.713180542 28429524.493896484 0 0 0 0 -5060986.954864502 60620874.517471313 0 60620874.517471313 29989256.746353149 0 0 0 0 -19256151.029119834 27949446.006050017 0 27949446.006050017 -5624804.0293298513 0 0 0 0 -13244786.833374023 41588278.79201889 0 41588278.79201889 20328168.896873474 0 0 0 0 1099156.1554815769 11726727.667383552 0 11726727.667383552 -456606.41036897618 0 0 0 0 69054705.661941528 142206274.80701447 0 142206274.80701447 130225376.97366691 0 0 0 0 -14106730.12362989 21322081.827465206 0 21322081.827465206 9951279.3769324124 0 0 0 0 20495845.696075439 72317645.898319244 0 72317645.898319244 36033924.044158936 0 0 0 0 27059311.386489868 63415660.5897789 0 63415660.5897789 36803740.610528469 0 0 0 0 18464907.497579098 27936460.066655323 0 27936460.066655323 -2672429.6699434882 0 0 0 0 44529066.096923828 65364031.487693787 0 65364031.487693787 4076600.4628448486 0 0 0 0 -7598064.974407196 19332767.554000854 0 19332767.554000854 7796408.5621871948 0 0 0 0 -12265936.20375061 21676077.506879807 0 21676077.506879807 3632738.4732513428 0 0 0 0 -13370177.447073907 16829433.806896985 0 16829433.806896985 2762790.0299415886 0 0 0 0 -8774605.3134155273 21442726.475738525 0 21442726.475738525 -8167814.2204008102 0 0 0 0 -10975292.218720749 19954508.519242432 0 19954508.519242432 13407659.84124116 0 0 0 0 2075350.6944580078 12517109.19317627 0 12517109.19317627 2243897.7982959747 0 0 0 0 -539837.72900272906 23434159.678427275 0 23434159.678427275 7120970.0968718547 0 0 0 0 3218787.1357421875 14596536.538085938 0 14596536.538085938 -1821918.0571289062 0 0 0 0 -6714575.1796170697 22116619.874688625 0 22116619.874688625 12375826.032502189 0 0 0 0 -10285558.510638416 21665490.329436466 0 21665490.329436466 2905500.9961721515 0 0 0 0 3074459.9201278687 20456516.397993088 0 20456516.397993088 2087461.6702423096 0 0 0 0 -3842784.5523662418 17080867.697427671 0 17080867.697427671 5109936.6066765077 0 0 0 0 -5021248.6726951599 23281994.306947708 0 23281994.306947708 3011071.0244064331 0 0 0 0 -10319951.097419739 19118653.11819458 0 19118653.11819458 5209577.598555088 0 0 0 0 -7854442.9015541375 23450869.057748005 0 23450869.057748005 9699419.3617641628 0 0 0 0 -9871998.4428348541 22491744.022054672 0 22491744.022054672 3728713.8175735474 0 0 0 0 -7058431.6596807763 18931276.448512442 0 18931276.448512442 165988.8263017945 0 0 0 0 -12077046.074829102 18104936.592903137 0 18104936.592903137 -3545011.3957214355 0 0 0 0 -6141162.1448822021 17822432.426574707 0 17822432.426574707 9627858.0230047703 0 0 0 0 -2359332.7382717133 22726466.209188461 0 22726466.209188461 -1666433.5289382935 0 0 0 0 3987674.9454580359 19687893.864760373 0 19687893.864760373 10440920.865069404 0 0 0 0 -3050185.7571697235 17171180.677260399 0 17171180.677260399 6607094.8421554565 0 0 0 0 1942477.2170375809 18076232.458109692 0 18076232.458109692 5361994.4096995294 0 0 0 0 3676.2223545238376 15184957.197518811 0 15184957.197518811 47824.054167112801 0 0 0 0 1325888.6141433716 18410262.35842514 0 18410262.35842514 10420191.856281281 0 0 0 0 283231.2346496582 17132838.645431519 0 17132838.645431519 9799755.9419136047 0 0 0 0 49024.139157831669 14014356.571512252 0 14014356.571512252 -3757954.1299323626 0 0 0 0 259259.86667442322 16957344.034347534 0 16957344.034347534 8592024.3358306885 0 0 0 0 -5635855.5447387695 14116521.070640564 0 14116521.070640564 4293262.4508666992 0 0 0 0 -3092794.9476623535 16855213.311538696 0 16855213.311538696 3792196.0260884762 0 0 0 0 -745978.60837200657 14519079.680072363 0 14519079.680072363 6781103.3276628256 0 0 0 0 -2035445.6015129089 16895303.821689606 0 16895303.821689606 10282825.069694519 0 0 0 0 -16215627.716535617 16681703.32560651 0 16681703.32560651 9278172.7318812162 0 0 0 0 -7640819.128324382 12191671.272343636 0 12191671.272343636 6233450.0133380145 0 0 0 0 2892820.7221211605 11022253.667831471 0 11022253.667831471 3637375.8561611921 0 0 0 0 -3780080.154083252 8895094.062789917 0 8895094.062789917 1875095.9480438232 0 0 0 0 -4218821.2842761129 11840333.635746136 0 11840333.635746136 3423067.3681338653 0 0 0 0 33148539.979545593 31100918.097587585 0 31100918.097587585 8324205.2820892334 0 0 0 0 2016765.7461061478 12348691.546827316 0 12348691.546827316 2776246.0313796997 0 0 0 0 -853010.28539276123 10291482.785188675 0 10291482.785188675 3043999.221824646 0 0 0 0 228711.32854643837 3098035.5581700355 0 3098035.5581700355 2737275.9431647211 0 0 0 0 -588799.59913635254 13441619.32321167 0 13441619.32321167 9796379.7475891113 0 0 0 0 -4567942.1672374178 13315245.877119996 0 13315245.877119996 3240336.739748776 0 0 0 0 7948137.9759991318 14211684.742206167 0 14211684.742206167 -2574267.0388935804 0 0 0 0 1084555.892253045 9349522.8343942128 0 9349522.8343942128 6372658.2094070613 0 0 0 0 5127234.7466201782 61804764.676467896 0 61804764.676467896 66126577.782552719 0 0 0 0 19524515.949920654 16091941.807014465 0 16091941.807014465 35401075.251800537 0 0 0 0 4517344.346566543 19958050.565850951 0 19958050.565850951 -7022758.5844090767 0 0 0 0 4868064.5422264263 16574354.344565138 0 16574354.344565138 -172666.11753438786 0 0 0 0 27517697.781635284 32561393.114944458 0 32561393.114944458 -29447024.230529785 0 0 0 0 4269169.722076416 12521980.990890503 0 12521980.990890503 340686.23014068604 0 0 0 0 5995293.0166053772 25463295.837265015 0 25463295.837265015 9060637.7639465332 0 0 0 0 -23314187.68271637 57900590.693267822 0 57900590.693267822 -24035142.301567078 0 0 0 0 9880813.9921746477 21366667.42483262 0 21366667.42483262 2644246.6579938419 0 0 0 0 782274.34671401978 27144416.042682648 0 27144416.042682648 363383.58311462402 0 0 0 0 2419728.788963506 6605879.1538251638 0 6605879.1538251638 -1375096.4208625406 0 0 0 0 31339585.179067612 28254217.762868404 0 28254217.762868404 -35458723.778274536 0 0 0 0 -2428105.5786628723 28626600.369716644 0 28626600.369716644 489205.30281066895 0 0 0 0 1540984.6431644941 14342848.224083193 0 14342848.224083193 3467538.4899208695 0 0 0 0 -497868.38491535187 29333433.583676338 0 29333433.583676338 307353.09895324707 0 0 0 0 11322360.283531189 18927800.253555298 0 18927800.253555298 11572902.023284912 0 0 0 0 2436342.9112472534 13685648.058135986 0 13685648.058135986 3944904.0294799805 0 0 0 0 6749450.0697567165 11108562.355451193 0 11108562.355451193 4644119.978756249 0 0 0 0 5329636.1924209595 18356079.125232697 0 18356079.125232697 8977872.7054634094 0 0 0 0 4737510.0706605501 14784544.098661143 0 14784544.098661143 10407505.138740242 0 0 0 0 5045904.2073567286 13414656.614834674 0 13414656.614834674 6566358.8100617677 0 0 0 0 4767174.3448391706 13046499.819974052 0 13046499.819974052 8682252.0650123656 0 0 0 0 5006586.2535552979 11546471.178718567 0 11546471.178718567 9560623.6147384644 0 0 0 0 -2256536.842918396 15560756.470756531 0 15560756.470756531 3371814.7268218994 0 0 0 0 13820703.355300903 16575028.89755249 0 16575028.89755249 4915781.1842412949 0 0 0 0 3438872.5882766396 15412953.169342987 0 15412953.169342987 -515640.0040286053 0 0 0 0 3248894.4792785645 15916170.816009521 0 15916170.816009521 4215275.2617797852 0 0 0 0 6064498.1911351047 18071918.115291707 0 18071918.115291707 8051934.0457877219 0 0 0 0 -4125270.4544038642 21402670.051458441 0 21402670.051458441 10053466.707145214 0 0 0 0 749985.97703203559 22450031.365884401 0 22450031.365884401 5394276.1428561453 0 0 0 0 -2477992.8878196999 18552849.156085029 0 18552849.156085029 -3694068.8260101601 0 0 0 0 116324.32988739014 25428145.458679199 0 25428145.458679199 -1729395.2021636963 0 0 0 0 -7468949.1909255981 29797280.05745697 0 29797280.05745697 5797580.2777557373 0 0 0 0 7057056.2766036987 32813818.274337769 0 32813818.274337769 -12709440.327697754 0 0 0 0 20271905.798058234 22355423.452646758 0 22355423.452646758 -6762890.9579805434 0 0 0 0 355574.16498406976 432745.00956350937 0 432745.00956350937 323588.20793248713 0 0 0 0 3856664.2309265137 9135669.1281585693 0 9135669.1281585693 10161579.093261719 0 0 0 0 5236725.135383606 10794292.656143188 0 10794292.656143188 1784680.0018310547 0 0 0 0 16716482.756390829 17323432.937388331 0 17323432.937388331 -2989496.862028867 0 0 0 0 -2982561.8139600316 11604904.365861461 0 11604904.365861461 6554180.3650232852 0 0 0 0 6807132.2943006009 23534714.364880815 0 23534714.364880815 1588571.655823614 0 0 0 0 974056.14511108398 32187654.941719055 0 32187654.941719055 7616625.7928466797 0 0 0 0 3477063.5459318832 23459141.483450547 0 23459141.483450547 3768670.8948596921 0 0 0 0 -14175608.133865356 35238133.805549622 0 35238133.805549622 14291819.318336487 0 0 0 0 12612827.048107147 31854246.420467377 0 31854246.420467377 6796937.0175476074 0 0 0 0 17557909.281761169 31847834.299598694 0 31847834.299598694 -7129320.5147399902 0 0 0 0 56833613.582078934 37776207.143864632 0 37776207.143864632 -18356483.208984375 0 0 0 0 2040369.3683758713 1130083.8098774981 0 1130083.8098774981 548379.18333846331 0 0 0 0 -12303739.694709778 39753063.502891541 0 39753063.502891541 9268805.3416595459 0 0 0 0 -6199523.4542160034 45581206.145370483 0 45581206.145370483 1637895.7916297913 0 0 0 0 -6486310.2468109131 45245344.148674011 0 45245344.148674011 5422855.2711486816 0 0 0 0 -21185438.202857971 49227865.422492981 0 49227865.422492981 7838264.7107696533 0 0 0 0 -12144071.594276428 41262578.418663025 0 41262578.418663025 4553769.3380279541 0 0 0 0 -1346030.9470672607 37383231.345161438 0 37383231.345161438 12286919.334602356 0 0 0 0 -8107344.8533325195 48063227.059652328 0 48063227.059652328 578875.56848144531 0 0 0 0 5470153.9004171938 25802806.356072679 0 25802806.356072679 5364038.3863065466 0 0 0 0 -25070316.989547729 25501428.462356567 0 25501428.462356567 -6985582.1530838013 0 0 0 0 -3127032.3134803772 36905253.858394623 0 36905253.858394623 10025611.267791748 0 0 0 0 1781094.6338233948 38948873.874435425 0 38948873.874435425 9872893.0689468384 0 0 0 0 23213379.572906494 21583797.191825867 0 21583797.191825867 17001929.843112946 0 0 0 0 -40294062.164077759 36852916.60269165 0 36852916.60269165 1399925.228225708 0 0 0 0 50137718.840545654 -2350054.757019043 0 -2350054.757019043 -38688394.340270996 0 0 0 0 11522176.881368116 27015655.187565926 0 27015655.187565926 -6512588.9288479686 0 0 0 0 1344725.7400828674 354359.04076999426 0 354359.04076999426 -1123463.5886919647 0 0 0 0 4231478.825302124 34728941.669166565 0 34728941.669166565 -10012648.594604492 0 0 0 0 22568110.405990601 35619930.919400215 0 35619930.919400215 -15306869.014007568 0 0 0 0 10513311.754694104 27468123.843056202 0 27468123.843056202 -19486757.989151001 0 0 0 0 6370866.7750120237 26415643.595540222 0 26415643.595540222 4817528.3982148515 0 0 0 0 7995302.9213180542 27663194.398147583 0 27663194.398147583 4834411.6817002296 0 0 0 0 11400965.223854065 36883760.337432861 0 36883760.337432861 4990901.7378082275 0 0 0 0 44367730.394035339 10872614.244506836 0 10872614.244506836 -16904975.540008545 0 0 0 0 1992835.1351949144 3852835.8767360561 0 3852835.8767360561 1325670.2923929691 0 0 0 0 -25012100.667121887 43215080.798891068 0 43215080.798891068 12196159.647903442 0 0 0 0 8800078.0440625697 18850943.249653473 0 18850943.249653473 -1142729.0649531472 0 0 0 0 -17374508.63263607 59895074.929592133 0 59895074.929592133 45958092.571334839 0 0 0 0 -11975263.570618128 7903643.403184548 0 7903643.403184548 4733442.5811186777 0 0 0 0 18221951.970406357 28283016.33680439 0 28283016.33680439 -8107222.402698651 0 0 0 0 -53098918.597623825 93484630.563972473 0 93484630.563972473 104318861.40567398 0 0 0 0 -25021430.612281799 118569751.46141052 0 118569751.46141052 63590703.881988525 0 0 0 0 -14827322.143591881 51308070.167388916 0 51308070.167388916 -92019553.84967041 0 0 0 0 -111660354.56941986 44468010.476699829 0 44468010.476699829 64417370.857154846 0 0 0 0 -62651.58174101077 9587389.2720892578 0 9587389.2720892578 1246353.0146768223 0 0 0 0 41834033.596870422 133606900.29463196 0 133606900.29463196 -248010264.86813354 0 0 0 0 109469567.22270012 1019183.8561401367 0 1019183.8561401367 21337756.823501587 0 0 0 0 18825019.68852802 28272063.16140303 0 28272063.16140303 -6401450.5418221951 0 0 0 0 19617344.722352982 24507015.986118317 0 24507015.986118317 -2902231.8159103394 0 0 0 0 6566889.5703964233 24926789.941139221 0 24926789.941139221 -2873137.0735697746 0 0 0 0 -24736408.937479019 44717789.399021149 0 44717789.399021149 -342487.09251403809 0 0 0 0 -253078023.5369935 52700005.372084618 0 52700005.372084618 115314889.55206299 0 0 0 0 4538842.0310531752 1349344.1258044173 0 1349344.1258044173 -53251.413962140679 0 0 0 0 -155366806.13531113 109772492.94373322 0 109772492.94373322 5563012.3948059082 0 0 0 0 -1818512.1104335152 -34127.73716564104 0 -34127.73716564104 439051.58755134046 0 0 0 0 5152923.2573013306 29631884.97234726 0 29631884.97234726 -2165155.1703624725 0 0 0 0 13995178.080242157 28930837.161300659 0 28930837.161300659 -7174719.7372360229 0 0 0 0 -118407.30298900604 30828571.561358452 0 30828571.561358452 -2429796.9402313232 0 0 0 0 8111771.0697097778 23655557.290250778 0 23655557.290250778 -8816657.1436462402 0 0 0 0 9816080.6087722778 26262354.494853973 0 26262354.494853973 -13138497.306503296 0 0 0 0 20836311.395147305 29955959.335630789 0 29955959.335630789 -7501193.8091105819 0 0 0 0 7865219.3366318196 24080634.264429405 0 24080634.264429405 4871707.0132677779 0 0 0 0 8111621.6264724731 27054993.787872314 0 27054993.787872314 -8025246.1783370972 0 0 0 0 -33982888.717029572 71434398.023990631 0 71434398.023990631 -3790916.001159668 0 0 0 0 -899068139.82041931 -98326539.424716949 0 -98326539.424716949 328109562.98562622 0 0 0 0 -391455854.09752655 28043312.870613098 0 28043312.870613098 212207794.73054504 0 0 0 0 -665329461.90904808 41938329.123708725 0 41938329.123708725 250684599.88439941 0 0 0 0 -330462729.25728989 -31023073.267242432 0 -31023073.267242432 122574239.72264099 0 0 0 0 -837044269.72604179 204741372.90525246 0 204741372.90525246 252412706.84812927 0 0 0 0 47506830.072370529 21262711.566469193 0 21262711.566469193 20777462.506767273 0 0 0 0 1274281.1074340651 4566948.6457207398 0 4566948.6457207398 1832500.8676572442 0 0 0 0 -315586971.87479401 219574970.99958038 0 219574970.99958038 485542867.90568542 0 0 0 0 47208927.638210163 55719344.476735443 0 55719344.476735443 6629776.9058380127 0 0 0 0 145032852.21165657 47186348.104867935 0 47186348.104867935 -102423478.28569984 0 0 0 0 4312868.0694141146 5740811.1398729179 0 5740811.1398729179 1910042.554162249 0 0 0 0 163485909.67956257 30473822.727293015 0 30473822.727293015 -104675829.80371475 0 0 0 0 1259655.9989519119 -7195503.3872127533 0 -7195503.3872127533 79935786.099254608 0 0 0 0 -5861359.2664490324 19913736.582999881 0 19913736.582999881 13874177.260179907 0 0 0 0 107914167.26485825 -1065189.5375976562 0 -1065189.5375976562 -64659452.571191788 0 0 0 0 -491514.53701926768 1221314.2971034572 0 1221314.2971034572 635671.72101920098 0 0 0 0 -437709747.06552505 -112197564.10258865 0 -112197564.10258865 -170972567.20671082 0 0 0 0 -727488648.4138298 -243716671.10220337 0 -243716671.10220337 96232973.972198486 0 0 0 0 -682608253.08446789 -80300134.724311829 0 -80300134.724311829 248413270.25271606 0 0 0 0 -322947662.14292908 93486913.749767303 0 93486913.749767303 50111774.194004059 0 0 0 0 -303085851.43888569 42128540.463874817 0 42128540.463874817 182904848.02617645 0 0 0 0 -286540785.19968224 177913248.89792252 0 177913248.89792252 -18509675.695148468 0 0 0 0 -178261027.8392601 320710726.83691025 0 320710726.83691025 157759260.96565247 0 0 0 0 -288800990.64598751 172601873.5956955 0 172601873.5956955 20172547.837165833 0 0 0 0 -111704565.94364357 182658218.01422119 0 182658218.01422119 -243883020.74272537 0 0 0 0 -133485137.86576462 272764653.15746689 0 272764653.15746689 -131048747.3674469 0 0 0 0 -222846239.64683533 229632864.57904053 0 229632864.57904053 32385032.301089287 0 0 0 0 -4655612.2208744064 20024367.899047203 0 20024367.899047203 6922888.5677030608 0 0 0 0 -629379.60303497314 12827583.732398987 0 12827583.732398987 -2908277.3359935284 0 0 0 0 10930870.758571057 17578367.988180526 0 17578367.988180526 3107789.2134799808 0 0 0 0 51993567.569244385 -17071090.29624176 0 -17071090.29624176 -21789649.959564209 0 0 0 0 1170287.3024931001 20493109.956153665 0 20493109.956153665 224667.79573551565 0 0 0 0 -252379982.51785469 141834855.71486759 0 141834855.71486759 -70325682.51512146 0 0 0 0 -312915671.07691622 146414723.76356316 0 146414723.76356316 4041547.7681274414 0 0 0 0 54053349.541000843 48361257.018342972 0 48361257.018342972 9014170.498550415 0 0 0 0 7549998.2599928817 12612360.162038242 0 12612360.162038242 4060879.8820931017 0 0 0 0 36500646.384681702 14866512.175987244 0 14866512.175987244 1010866.0753288269 0 0 0 0 -1682839.9264593199 369964.72521294653 0 369964.72521294653 156784.43315012008 0 0 0 0 2980707.6976699829 18510639.608058929 0 18510639.608058929 4268080.4656267166 0 0 0 0 13290948.248639651 14739844.230630752 0 14739844.230630752 1392170.6954163685 0 0 0 0 -4338863.5698699951 17437153.323150635 0 17437153.323150635 5279480.0284962654 0 0 0 0 23070748.172668457 22602437.755739212 0 22602437.755739212 -3415409.1850585938 0 0 0 0 19291881.941986084 12902393.334583282 0 12902393.334583282 8747679.1226496696 0 0 0 0 6657695.9162750244 25158632.056732178 0 25158632.056732178 4445455.0802783966 0 0 0 0 19542649.228889465 23598168.315345764 0 23598168.315345764 723948.03384399414 0 0 0 0 -5051295.5741043091 19650655.947246552 0 19650655.947246552 9795246.707611084 0 0 0 0 -2666643.9030489568 15817380.862219479 0 15817380.862219479 4886169.1786559671 0 0 0 0 6118891.0801315308 10059130.091445923 0 10059130.091445923 3986018.8059387207 0 0 0 0 9702840.0430089086 19586610.043896504 0 19586610.043896504 4663663.9393568635 0 0 0 0 30950376.544342041 43198836.315917969 0 43198836.315917969 10960162.638473511 0 0 0 0 385734.04209756851 38032522.155229092 0 38032522.155229092 15043227.751846313 0 0 0 0 17564085.578701019 22244521.374298096 0 22244521.374298096 4336507.7624737024 0 0 0 0 -3441353.6973868189 15807530.501243446 0 15807530.501243446 2868610.528115809 0 0 0 0 45095912.373718262 34572088.744552612 0 34572088.744552612 16141462.837757111 0 0 0 0 41205585.99181366 32800754.389099121 0 32800754.389099121 15399577.721420288 0 0 0 0 56938611.789299011 21011928.378929138 0 21011928.378929138 19918869.513565063 0 0 0 0 -2517810.1800540378 20746709.460712217 0 20746709.460712217 10743586.865451492 0 0 0 0 830267.54313659668 14040705.675495148 0 14040705.675495148 3183291.9910888672 0 0 0 0 14677995.368343845 19453526.170278288 0 19453526.170278288 3779803.5445440263 0 0 0 0 19672757.029683061 23739128.622747019 0 23739128.622747019 -2791829.0978316851 0 0 0 0 26183684.423164368 25988928.324676514 0 25988928.324676514 -9622735.040977478 0 0 0 0 -21881253.084396362 15805728.491264343 0 15805728.491264343 20561178.755355835 0 0 0 0 -21241511.377756119 1284293.8729915619 0 1284293.8729915619 12619093.751968384 0 0 0 0 61099150.971206665 28087518.339073181 0 28087518.339073181 16031399.09336853 0 0 0 0 3885832.8027207777 17567195.734374832 0 17567195.734374832 9941979.4329729527 0 0 0 0 61943052.294937134 29782058.862728119 0 29782058.862728119 13531095.350215912 0 0 0 0 75191339.448513031 46559057.638801575 0 46559057.638801575 38127490.130142212 0 0 0 0 82805275.649429321 14261353.572136402 0 14261353.572136402 2809194.0459289551 0 0 0 0 -28824315.073242188 21549318.847585678 0 21549318.847585678 -3287736.7863349915 0 0 0 0 12780800.975273669 30398011.957482181 0 30398011.957482181 5541154.6586080045 0 0 0 0 13946821.305894248 31404576.562245131 0 31404576.562245131 -4502937.1137880273 0 0 0 0 7970190.1808013916 16157721.679214478 0 16157721.679214478 477522.50889587402 0 0 0 0 22562405.453296661 22185509.333755493 0 22185509.333755493 2983688.1218338013 0 0 0 0 -729275.06688432395 24211502.804082178 0 24211502.804082178 2216969.1142739132 0 0 0 0 9016999.4060058594 16573998.535667419 0 16573998.535667419 9404907.0849914551 0 0 0 0 4147860.4916250622 14615509.242062651 0 14615509.242062651 1146311.6206986681 0 0 0 0 -15948416.726913452 33080088.507635117 0 33080088.507635117 3154194.507270813 0 0 0 0 -8956551.5875454247 29239871.789022438 0 29239871.789022438 7489402.0930452533 0 0 0 0 -6310949.3964349329 32291418.480551325 0 32291418.480551325 5219614.323383823 0 0 0 0 -14078009.635242462 47362901.316003799 0 47362901.316003799 14313087.247489929 0 0 0 0 -17467604.524856567 49202243.34410429 0 49202243.34410429 17202610.819206238 0 0 0 0 49650857.758338928 43933477.783309937 0 43933477.783309937 8805549.7751159668 0 0 0 0 6379517.4238213673 4310048.8037841208 0 4310048.8037841208 2520008.9485151619 0 0 0 0 -23441347.714458466 35305950.307178497 0 35305950.307178497 38183603.084475517 0 0 0 0 40277144.659538269 49671707.323205948 0 49671707.323205948 5293644.4267883301 0 0 0 0 34897963.072805405 53209235.9220438 0 53209235.9220438 4828805.4078979492 0 0 0 0 -555822.87703704834 45665386.98727417 0 45665386.98727417 12416818.412117004 0 0 0 0 2939531.3608752601 23669470.584584109 0 23669470.584584109 -581329.77967754006 0 0 0 0 5219839.9314002991 44943245.938194275 0 44943245.938194275 13070373.683380127 0 0 0 0 -5012964.5500411987 47629814.016658783 0 47629814.016658783 12805888.614128113 0 0 0 0 -9162339.7996368408 43511322.247718811 0 43511322.247718811 19847291.152555227 0 0 0 0 -10255473.646661758 41564889.223360062 0 41564889.223360062 23365554.934074402 0 0 0 0 -4591820.4398803711 48133352.872207642 0 48133352.872207642 11074277.168281555 0 0 0 0 -35409098.162689209 52475904.502944946 0 52475904.502944946 20968895.368816376 0 0 0 0 -9685799.4733047485 51431655.472173691 0 51431655.472173691 17487424.328453064 0 0 0 0 -17640872.224136353 46832758.594497681 0 46832758.594497681 15608750.211883545 0 0 0 0 -13557901.06259346 61512560.212355614 0 61512560.212355614 8568391.0431518555 0 0 0 0 5257267.1536865234 41818442.20508194 0 41818442.20508194 13120759.141387939 0 0 0 0 -2598035.0619354248 46686603.760219574 0 46686603.760219574 10245077.615715027 0 0 0 0 -1484818.6271353066 3229481.7909429092 0 3229481.7909429092 4941014.9148146957 0 0 0 0 18412912.928497314 57860821.323898315 0 57860821.323898315 4711555.4056282043 0 0 0 0 -6121451.6113586426 22020884.813995361 0 22020884.813995361 -8569316.0192108154 0 0 0 0 19267947.081558228 45559740.243293762 0 45559740.243293762 1984841.8748703003 0 0 0 0 -21936327.561206818 6119706.7117290497 0 6119706.7117290497 47446551.893585205 0 0 0 0 -6556344.7885650545 24603869.981001906 0 24603869.981001906 4769608.7175141573 0 0 0 0 -10303911.247314453 21391136.385925293 0 21391136.385925293 -8100318.3509979248 0 0 0 0 -6606505.0923461914 22684262.295257568 0 22684262.295257568 -3393638.6785888672 0 0 0 0 -40449573.147490501 18117633.621282578 0 18117633.621282578 40635127.332275391 0 0 0 0 14150779.505500048 20063469.617777251 0 20063469.617777251 4071746.1181334704 0 0 0 0 46884979.398864746 44511220.552703857 0 44511220.552703857 481071.67379760742 0 0 0 0 -13255017.286047414 11371246.665526822 0 11371246.665526822 1211035.5910677612 0 0 0 0 13640882.709741212 27710969.845400572 0 27710969.845400572 -14710090.636433154 0 0 0 0 811954.21086496487 1482339.0366445556 0 1482339.0366445556 -736506.4513849169 0 0 0 0 197663.10528564453 21879821.728565216 0 21879821.728565216 -8744213.0536746979 0 0 0 0 11463558.39736557 39789093.214978218 0 39789093.214978218 10263564.884037018 0 0 0 0 10414294.146503448 34893851.369139194 0 34893851.369139194 7108717.7874107361 0 0 0 0 1922310.3973279744 28038118.578086615 0 28038118.578086615 -4249116.15060452 0 0 0 0 -14376887.303160772 24138449.120561652 0 24138449.120561652 5217718.9125114381 0 0 0 0 7014018.7772331238 42899129.38233757 0 42899129.38233757 8707822.5866737366 0 0 0 0 -15769958.703729451 26243833.088046871 0 26243833.088046871 870289.75086313486 0 0 0 0 14446234.062294006 49733786.29331398 0 49733786.29331398 -5524730.4171218872 0 0 0 0 -17429093.959186554 41513049.985248566 0 41513049.985248566 14595354.730818748 0 0 0 0 -12556926.33678861 17723603.981165051 0 17723603.981165051 4729395.5800899379 0 0 0 0 -7506863.460067749 48996489.556377411 0 48996489.556377411 519347.58283615112 0 0 0 0 -29218386.981498718 18081815.1699543 0 18081815.1699543 40139023.149093628 0 0 0 0 -40616053.753433228 31662031.311676025 0 31662031.311676025 23969077.545531273 0 0 0 0 -47159819.3216362 25946630.17778492 0 25946630.17778492 34186560.245735168 0 0 0 0 -23987521.146299109 27699764.642017089 0 27699764.642017089 12220329.705168389 0 0 0 0 -43162321.419130325 38834401.198307514 0 38834401.198307514 27046018.5534935 0 0 0 0 -43408725.748552322 41945115.907533646 0 41945115.907533646 56862726.570896149 0 0 0 0 -69357342.482089996 63436181.228095055 0 63436181.228095055 25132299.760852814 0 0 0 0 -52657493.106023788 1618109.5474286079 0 1618109.5474286079 16771227.053382874 0 0 0 0 -142881599.96755981 -20871030.180152893 0 -20871030.180152893 6029259.7715377808 0 0 0 0 -46648329.992141724 33703881.05664444 0 33703881.05664444 13777195.356542587 0 0 0 0 -104095846.39968872 46896650.769763947 0 46896650.769763947 17278117.756912231 0 0 0 0 -50131963.333465576 99308614.087691307 0 99308614.087691307 -17668591.975376129 0 0 0 0 -41761348.195953369 46493978.458106995 0 46493978.458106995 35533683.565797806 0 0 0 0 3430001.0013237 45995237.013910294 0 45995237.013910294 32001351.585773468 0 0 0 0 -26501718.171958923 65163152.81278801 0 65163152.81278801 10149938.158521175 0 0 0 0 -15045042.586137749 31078502.200204123 0 31078502.200204123 7002730.8787581623 0 0 0 0 1292488.8230721876 31591366.0647019 0 31591366.0647019 8141649.3884363621 0 0 0 0 -6439387.1263427734 55484812.670068741 0 55484812.670068741 7894360.7816348076 0 0 0 0 10306587.042495728 37558235.695631027 0 37558235.695631027 -5904461.1786613464 0 0 0 0 26617986.18827536 17042515.090603918 0 17042515.090603918 -8977162.382642746 0 0 0 0 21035522.723587036 35560813.16069603 0 35560813.16069603 -4736933.2994370461 0 0 0 0 10120894.604804039 38876584.994435906 0 38876584.994435906 4991423.9436187744 0 0 0 0 86266876.278770447 27236209.706705093 0 27236209.706705093 -7337565.729385376 0 0 0 0 -2707131.5689669773 659282.08276737481 0 659282.08276737481 533673.6397960335 0 0 0 0 6973529.0588054657 39687010.568878412 0 39687010.568878412 -1386135.9051055908 0 0 0 0 5010687.8026733398 52998016.531573296 0 52998016.531573296 18183366.601222992 0 0 0 0 6656682.5310821533 29261865.243227959 0 29261865.243227959 -2014611.0765113831 0 0 0 0 15390382.605121613 47697136.326530457 0 47697136.326530457 12728755.113327503 0 0 0 0 -8142419.81549263 30839586.882665634 0 30839586.882665634 15293775.296440125 0 0 0 0 -11919723.2726717 15494163.322299004 0 15494163.322299004 -3882390.5994949341 0 0 0 0 -224516.37562766857 33016712.208278306 0 33016712.208278306 12212768.491764136 0 0 0 0 -35069719.447540283 30257170.190364838 0 30257170.190364838 6664317.5929985046 0 0 0 0 71766957.312175751 51305348.649553299 0 51305348.649553299 25496269.219234467 0 0 0 0 70048327.606092453 47727595.10601902 0 47727595.10601902 19103872.991718292 0 0 0 0 29490287.107702248 7768625.5839562202 0 7768625.5839562202 -8772077.9891824201 0 0 0 0 69506266.274646759 52122078.849838257 0 52122078.849838257 30452299.887519836 0 0 0 0 29201118.06111145 16847534.339427948 0 16847534.339427948 6669576.603302002 0 0 0 0 163786230.43076324 68026923.195278168 0 68026923.195278168 -4039509.5008430481 0 0 0 0 -3062213.0524853431 15570255.513191417 0 15570255.513191417 9857018.8381693065 0 0 0 0 142993948.34794998 483180.50562000275 0 483180.50562000275 -26068750.717041016 0 0 0 0 67636902.928855896 50231971.789138794 0 50231971.789138794 32951840.05430603 0 0 0 0 69107459.565963745 48118763.890113831 0 48118763.890113831 35985163.351608276 0 0 0 0 72063859.540138245 43590254.067527771 0 43590254.067527771 25641635.071113586 0 0 0 0 73841916.448516846 38792942.533737183 0 38792942.533737183 38584455.626869202 0 0 0 0 83852343.782375336 41122019.460723877 0 41122019.460723877 19976896.370948792 0 0 0 0 67140666.766304016 40387267.445449829 0 40387267.445449829 32375312.687469482 0 0 0 0 90851438.057739258 33252072.487758636 0 33252072.487758636 25262041.505672455 0 0 0 0 57506879.207828522 43263771.806465149 0 43263771.806465149 27895292.298885345 0 0 0 0 55724546.883403778 21517229.574172974 0 21517229.574172974 19071106.351518631 0 0 0 0 35527769.984906197 32562625.096788645 0 32562625.096788645 23090485.376903534 0 0 0 0 -4848491.8266076334 27714915.602988336 0 27714915.602988336 11940035.470710859 0 0 0 0 68682618.795520306 34145444.873661041 0 34145444.873661041 11441076.890975952 0 0 0 0 -49505211.188415527 14096560.044931412 0 14096560.044931412 48349414.408218384 0 0 0 0 48083931.111719131 26823698.541143417 0 26823698.541143417 8568501.4979457855 0 0 0 0 -14369828.266870709 25983635.191094335 0 25983635.191094335 10665955.133992523 0 0 0 0 34770172.135774612 39247531.933262825 0 39247531.933262825 -1244130.7229881287 0 0 0 0 57767834.731822968 27057743.709340096 0 27057743.709340096 -25175304.855731964 0 0 0 0 46195715.508665085 62131197.523548126 0 62131197.523548126 -52334855.954210281 0 0 0 0 45511763.048734665 41453967.598693848 0 41453967.598693848 17959275.464939117 0 0 0 0 66323267.616411209 35918920.829232693 0 35918920.829232693 14695710.992332458 0 0 0 0 42801535.333873749 32629676.70737648 0 32629676.70737648 24219970.667883873 0 0 0 0 55445914.974280834 66225438.977115154 0 66225438.977115154 44090731.223716736 0 0 0 0 1051191.6712738052 3665724.276258938 0 3665724.276258938 621501.20072712004 0 0 0 0 86378194.907817364 67354307.228512287 0 67354307.228512287 -135119911.95471954 0 0 0 0 -490956291.77991676 -126867555.42314148 0 -126867555.42314148 75371960.229177952 0 0 0 0 -196101080.91499519 -30820379.786090851 0 -30820379.786090851 47484955.843774796 0 0 0 0 -185126002.90069389 -46858294.713891983 0 -46858294.713891983 7192013.6843528748 0 0 0 0 95031292.671402097 73416933.115473032 0 73416933.115473032 26001988.426567078 0 0 0 0 7967315.2540779281 11955884.354724843 0 11955884.354724843 1254477.169818826 0 0 0 0 -119140792.1743803 100350481.83625317 0 100350481.83625317 6084627.7593078613 0 0 0 0 -119351161.20192146 94454019.49155426 0 94454019.49155426 52668577.397064209 0 0 0 0 -301589831.03132629 94113586.505279541 0 94113586.505279541 48691286.37664032 0 0 0 0 -135823345.65197754 82036746.587112427 0 82036746.587112427 16532583.142105103 0 0 0 0 -86701068.076293945 81041612.112922668 0 81041612.112922668 10997154.518699646 0 0 0 0 -258558658.34709549 181029777.94196701 0 181029777.94196701 -12245869.889541626 0 0 0 0 60708389.646652222 -4485704.6173095703 0 -4485704.6173095703 34023037.372571945 0 0 0 0 -70865708.743370056 50389330.662466049 0 50389330.662466049 17570068.89906311 0 0 0 0 76697426.329147339 37974815.008331299 0 37974815.008331299 20013211.535591125 0 0 0 0 42353156.494781494 -7074274.7544136047 0 -7074274.7544136047 3546470.6070718765 0 0 0 0 15027630.947166443 64165854.639677048 0 64165854.639677048 -33076075.574783325 0 0 0 0 -91986232.875659943 115406253.29370117 0 115406253.29370117 -18871479.471847534 0 0 0 0 -485239866.82942963 202011869.70972061 0 202011869.70972061 53328240.463386536 0 0 0 0 -262506917.3915596 -1588978.1346969604 0 -1588978.1346969604 -15513799.098892212 0 0 0 0 -303465980.60419607 297701332.14584565 0 297701332.14584565 -47656545.862625122 0 0 0 0 -386617999.23058319 144287635.98868942 0 144287635.98868942 79941601.036758423 0 0 0 0 -345113063.16928005 -145052501.37854385 0 -145052501.37854385 -262952875.62849426 0 0 0 0 -38828838.520683289 -3757700.5298843384 0 -3757700.5298843384 -21981037.987482071 0 0 0 0 -5491945.5960693359 125467712.34155273 0 125467712.34155273 -147809255.17125511 0 0 0 0 1362815.9903444648 2035530.8346495703 0 2035530.8346495703 -1963190.7906615771 0 0 0 0 -25045415.527196884 44590727.758185863 0 44590727.758185863 -43300437.412097931 0 0 0 0 44059204.139568329 -16209124.740446091 0 -16209124.740446091 191633348.06505585 0 0 0 0 41049754.479190826 -5065283.908159256 0 -5065283.908159256 151623551.21678925 0 0 0 0 -332703701.19378662 84516537.541233063 0 84516537.541233063 357923080.18719482 0 0 0 0 2611852.8405383378 260283.06334640831 0 260283.06334640831 -1426635.5453654006 0 0 0 0 -97040049.733161926 -96736302.960932732 0 -96736302.960932732 453306496.12885666 0 0 0 0 69721271.739685059 -204398319.91698456 0 -204398319.91698456 -12162029.587532043 0 0 0 0 2856752.9652931243 -1540385.7688338906 0 -1540385.7688338906 -1947595.5245431364 0 0 0 0 -112163.26454925537 43392771.714075089 0 43392771.714075089 -51141053.647363663 0 0 0 0 76692623.05960083 22752686.559782028 0 22752686.559782028 -266874652.34418869 0 0 0 0 -4207747.508108139 17430858.408071995 0 17430858.408071995 -22446625.349510193 0 0 0 0 43151796.011299133 -25248782.36687851 0 -25248782.36687851 -44914951.049385071 0 0 0 0 79420453.624465942 41869241.562725067 0 41869241.562725067 -4705944.2410507202 0 0 0 0 3903305.1205558777 71779552.762428761 0 71779552.762428761 89140902.99395752 0 0 0 0 -131591471.79165649 148737046.87631226 0 148737046.87631226 224070353.19358826 0 0 0 0 501270.98345837742 2513592.9515591785 0 2513592.9515591785 7496.7424269765615 0 0 0 0 13058569.876022339 22833249.438026428 0 22833249.438026428 -5258393.4959182739 0 0 0 0 16900039.904724121 44159730.996818542 0 44159730.996818542 2017547.8702774048 0 0 0 0 8082.3275146484375 46130597.040895462 0 46130597.040895462 16542775.888134003 0 0 0 0 52396.670219168183 32288409.707177706 0 32288409.707177706 3910794.817199707 0 0 0 0 5441030.5123138428 34631620.669780731 0 34631620.669780731 -751486.40197944641 0 0 0 0 -22204698.501678467 22895448.714912415 0 22895448.714912415 6955816.0122909546 0 0 0 0 -13835384.359100342 7496717.8983383179 0 7496717.8983383179 -1660277.966796875 0 0 0 0 -1320001.9151306152 42330441.22644043 0 42330441.22644043 8451323.5816650391 0 0 0 0 -111060.72231593728 578054.33588696271 0 578054.33588696271 -245566.52119106147 0 0 0 0 8008143.5060310364 -8412788.6968460083 0 -8412788.6968460083 8597587.7824821472 0 0 0 0 540650.89507901296 6711189.2917554379 0 6711189.2917554379 643995.63744433224 0 0 0 0 -16571841.055206299 24769426.454184532 0 24769426.454184532 12035537.486309052 0 0 0 0 -22136353.372394562 4440436.1985778809 0 4440436.1985778809 21178260.048553467 0 0 0 0 -4839673.2977311462 3855070.6647679508 0 3855070.6647679508 594150.57389353495 0 0 0 0 253851.23394775391 15942535.895652771 0 15942535.895652771 -7109025.8737564087 0 0 0 0 -13329281.342712402 14663372.917922974 0 14663372.917922974 6587666.8406897783 0 0 0 0 -3771942.3023452759 11980082.597187042 0 11980082.597187042 -7587412.3778457642 0 0 0 0 -2771180.2913100421 6216404.7659522668 0 6216404.7659522668 166774.06505134376 0 0 0 0 -5812443.1888198853 22792340.032001495 0 22792340.032001495 -18370737.132883072 0 0 0 0 -1864440.2935495377 -19613349.967289209 0 -19613349.967289209 100766591.69835663 0 0 0 0 -1067750.2600848377 5342115.8189994246 0 5342115.8189994246 -3343599.9439306669 0 0 0 0 -14222062.465179443 10891542.17156601 0 10891542.17156601 -8802392.2701473236 0 0 0 0 -2356799.2290534973 12432200.904884338 0 12432200.904884338 4311444.8550300598 0 0 0 0 -7349935.9734191895 18170870.30368042 0 18170870.30368042 -894736.31868636608 0 0 0 0 3770060.8453683779 14470893.408309601 0 14470893.408309601 4851114.3593952805 0 0 0 0 -3433043.0381393433 11846813.174480438 0 11846813.174480438 5127872.250543952 0 0 0 0 -1148265.9055714719 10787778.760928631 0 10787778.760928631 -1752629.0835533142 0 0 0 0 -37804475.874481201 27649231.1875 0 27649231.1875 40485393.11699295 0 0 0 0 -54088543.778842926 -12737761.406065941 0 -12737761.406065941 136753913.09260559 0 0 0 0 -586824.54701096937 996404.55142802745 0 996404.55142802745 321411.2191555053 0 0 0 0 -20591023.128067017 33164044.560556412 0 33164044.560556412 26551998.659240723 0 0 0 0 -14921180.362450436 10412556.67627389 0 10412556.67627389 3566196.3763405383 0 0 0 0 -32847745.882446289 24445843.828338623 0 24445843.828338623 41903282.506229401 0 0 0 0 -16836926.262672424 39372063.084014893 0 39372063.084014893 21524522.678611755 0 0 0 0 -31246756.836982727 58809559.722511292 0 58809559.722511292 -2951299.4118118286 0 0 0 0 -40582759.891719818 40190372.843545914 0 40190372.843545914 50688049.1355896 0 0 0 0 -15712120.238189697 5746073.2842464447 0 5746073.2842464447 45894132.622520447 0 0 0 0 -38083944.911026001 39406717.414491653 0 39406717.414491653 36718209.45463562 0 0 0 0 -65461216.977249146 78059764.632991791 0 78059764.632991791 2620486.2188339233 0 0 0 0 -32221736.203109741 47722697.992355347 0 47722697.992355347 48198131.516838074 0 0 0 0 -71317662.304553986 23349236.577848434 0 23349236.577848434 70305555.058578491 0 0 0 0 -26360155.755569458 71018023.415687561 0 71018023.415687561 -15685314.205440521 0 0 0 0 -21617300.036743164 97376121.493999481 0 97376121.493999481 -253296429.75223541 0 0 0 0 -16986193.886306763 74263630.627758026 0 74263630.627758026 -75051410.852493286 0 0 0 0 -7534756.261031121 34132668.840622112 0 34132668.840622112 1293861.4189071655 0 0 0 0 27497857.085037231 -32138018.255872726 0 -32138018.255872726 67996031.567989349 0 0 0 0 37227347.617797852 416862.90821838379 0 416862.90821838379 175837482.90209198 0 0 0 0 -62903378.577331543 -20213829.685825348 0 -20213829.685825348 105491696.49898911 0 0 0 0 -160005208.03919983 54478162.708431244 0 54478162.708431244 180287767.87334061 0 0 0 0 -114494210.93511963 151082010.1884861 0 151082010.1884861 -39608346.252922058 0 0 0 0 197039861.81032562 22669071.400279999 0 22669071.400279999 -76224180.093067169 0 0 0 0 -73679708.21942997 41106366.250818253 0 41106366.250818253 125471060.02679443 0 0 0 0 -97523310.091466904 182860218.3368125 0 182860218.3368125 139618908.34298325 0 0 0 0 122969009.41014862 187279813.85561752 0 187279813.85561752 99762310.998668671 0 0 0 0 -3165963.6179571748 3457974.4252193049 0 3457974.4252193049 3014665.3678057566 0 0 0 0 38869561.367385864 249481205.82012081 0 249481205.82012081 211938429.87508392 0 0 0 0 -4579647.9261292219 3077573.5696207583 0 3077573.5696207583 154990.2549854517 0 0 0 0 -25996975.683921814 29140360.969415665 0 29140360.969415665 76393960.257770538 0 0 0 0 -1071303.3500043154 -145650.79896010458 0 -145650.79896010458 -378985.78154425509 0 0 0 0 -35935654.362487793 -2748892.5613632202 0 -2748892.5613632202 168973428.61507702 0 0 0 0 -8539620.9960212708 15810164.241565704 0 15810164.241565704 79668317.369148254 0 0 0 0 -18080661.837478638 45415579.364421844 0 45415579.364421844 110466729.9607811 0 0 0 0 -22300425.226486206 59164172.554611206 0 59164172.554611206 65785052.422286034 0 0 0 0 -9410825.806602478 41288767.300031662 0 41288767.300031662 26401747.956752777 0 0 0 0 -8182804.0317831039 59575494.030856609 0 59575494.030856609 57152055.72580719 0 0 0 0 -18443391.549026489 38287375.956520081 0 38287375.956520081 25538521.677051544 0 0 0 0 -9225737.7768554688 94370631.800998688 0 94370631.800998688 76565900.682920456 0 0 0 0 -1371636.8282089233 90804826.534793854 0 90804826.534793854 -2273463.704498291 0 0 0 0 200113862.26356506 44224918.904943466 0 44224918.904943466 -25683868.487533569 0 0 0 0 85772055.309654236 311295173.13829422 0 311295173.13829422 24740318.085960388 0 0 0 0 77377462.299057007 81686105.720027924 0 81686105.720027924 -15302226.656980515 0 0 0 0 59478350.109790802 -6792418.0539226532 0 -6792418.0539226532 -18115816.680847168 0 0 0 0 -11718369.160858154 -19878078.679656982 0 -19878078.679656982 9223136.713760376 0 0 0 0 -6320794.6849441528 92206299.042495728 0 92206299.042495728 73802468.450839996 0 0 0 0 -1869560.2221613899 2063373.6856268197 0 2063373.6856268197 1805493.8398136497 0 0 0 0 -239131072.80536652 120516612.17230988 0 120516612.17230988 82460535.540952682 0 0 0 0 448353714.17799377 405604115.81180096 0 405604115.81180096 199866780.02229881 0 0 0 0 -23775295.263778687 287023717.19139671 0 287023717.19139671 256516066.85001373 0 0 0 0 -6028648.5695800781 273615562.59221458 0 273615562.59221458 265954253.35429382 0 0 0 0 -5100139.6604919434 251561517.68417549 0 251561517.68417549 216395327.63833618 0 0 0 0 11396787.809574127 195103287.40644646 0 195103287.40644646 105140719.53493881 0 0 0 0 -63733920.257011414 195332308.72186089 0 195332308.72186089 243540335.03730202 0 0 0 0 -86869839.986824036 -4326877.0309410095 0 -4326877.0309410095 197813539.23704529 0 0 0 0 -37124604.448509216 104218221.68875504 0 104218221.68875504 340817928.06018639 0 0 0 0 -1705810.6013017446 1789660.9064120352 0 1789660.9064120352 1651099.808961533 0 0 0 0 298916749.35765076 278962015.58782959 0 278962015.58782959 193945570.36240113 0 0 0 0 -374907502.14073181 -64304135.522964478 0 -64304135.522964478 289870308.07513428 0 0 0 0 -237715284.68919373 -61227969.868041992 0 -61227969.868041992 187087006.67072487 0 0 0 0 -26742813.469146729 -2481750.0294437408 0 -2481750.0294437408 922563132.90454674 0 0 0 0 38652766.056606293 53904133.241064072 0 53904133.241064072 314364747.32214737 0 0 0 0 -50935792.41642952 246294391.89930439 0 246294391.89930439 427557412.92093658 0 0 0 0 16835734.528709412 189224363.18099785 0 189224363.18099785 363953673.89122009 0 0 0 0 293369.80186462402 248823170.54384422 0 248823170.54384422 448302302.96587753 0 0 0 0 -81878.126182556152 261887605.48382187 0 261887605.48382187 260157689.21457481 0 0 0 0 33687366.291595459 261146367.32684517 0 261146367.32684517 276835532.61392593 0 0 0 0 -47167230.468284607 248001050.22669792 0 248001050.22669792 276572348.27572632 0 0 0 0 20872030.082393646 235353447.29248428 0 235353447.29248428 183651676.6308136 0 0 0 0 -7122.4172821044922 245518709.80859184 0 245518709.80859184 41096120.25994873 0 0 0 0 -49291285.365631104 208653309.87251854 0 208653309.87251854 184711028.17578471 0 0 0 0 -19892311.968997955 244032624.61978102 0 244032624.61978102 83700072.020500183 0 0 0 0 -83178236.273231506 199768682.55930328 0 199768682.55930328 70155771.276128292 0 0 0 0 -48268277.467468262 130972935.15795517 0 130972935.15795517 -9402079.7788686752 0 0 0 0 51131811.424198151 298652350.19394875 0 298652350.19394875 156246831.41078949 0 0 0 0 -69127568.84526062 223225761.90425491 0 223225761.90425491 243533507.44284582 0 0 0 0 -27614743.505191803 202002209.84886456 0 202002209.84886456 -110267214.77813148 0 0 0 0 -141396820.29633331 225780888.59789658 0 225780888.59789658 178306846.25085831 0 0 0 0 -138355711.74332857 315316243.21677244 0 315316243.21677244 -202967463.66327286 0 0 0 0 -111237778.70816135 116136882.80790639 0 116136882.80790639 -155805327.73027802 0 0 0 0 -74971222.036338806 265671415.31135559 0 265671415.31135559 -318089574.48316669 0 0 0 0 -27221.70979309082 222630990.99181271 0 222630990.99181271 -166853633.79359627 0 0 0 0 -33940465.364559174 143247141.45213127 0 143247141.45213127 -317225130.93284225 0 0 0 0 -42748095.242256165 161205334.95293427 0 161205334.95293427 -204748822.70883083 0 0 0 0 -5106.2970962524414 188462770.2174902 0 188462770.2174902 -337423326.23599052 0 0 0 0 -33789622.861907959 103544180.94946098 0 103544180.94946098 -454591073.97040558 0 0 0 0 -1131338.6951795369 2529337.3574314956 0 2529337.3574314956 8874857.3033115789 0 0 0 0 -3111.169921875 5585296.6767997742 0 5585296.6767997742 3568317.0586662292 0 0 0 0 3491009.5459442139 25775200.572187424 0 25775200.572187424 139520502.99337769 0 0 0 0 1040497.8428045511 -316203.2341478914 0 -316203.2341478914 -1086500.587791048 0 0 0 0 -30369580.200317383 37272673.433265686 0 37272673.433265686 10102315.376967371 0 0 0 0 -20569936.330673218 27363424.339361191 0 27363424.339361191 9745930.6721743941 0 0 0 0 2848528.4169368744 32649813.830449462 0 32649813.830449462 96097385.816492081 0 0 0 0 -11292376.845641553 2258335.3880640678 0 2258335.3880640678 9824289.5837504864 0 0 0 0 9985651.9599763155 6633540.1657473147 0 6633540.1657473147 913855.94744285569 0 0 0 0 -7706108.1904411316 168838201.62888336 0 168838201.62888336 -325302636.33412552 0 0 0 0 12011569.281767875 4980102.4781168103 0 4980102.4781168103 -1333632.0569833182 0 0 0 0 -100598025.79338837 94324619.504814148 0 94324619.504814148 -53617420.086372375 0 0 0 0 -135446028.11553383 44763842.031613827 0 44763842.031613827 73641578.53963089 0 0 0 0 -107478582.70411682 18483101.949810028 0 18483101.949810028 41705233.691717148 0 0 0 0 -18992693.631210327 11282451.032817841 0 11282451.032817841 23632550.640595615 0 0 0 0 -35377234.199350357 22521360.90501833 0 22521360.90501833 24254464.887683868 0 0 0 0 -12950399.073997512 510285.84198851511 0 510285.84198851511 9899069.4534222744 0 0 0 0 16205585.480163574 80299995.804485321 0 80299995.804485321 66567981.226811886 0 0 0 0 -84635371.573659897 -14734432.765190125 0 -14734432.765190125 32448461.10549736 0 0 0 0 -86529453.731285095 -53837064.642731667 0 -53837064.642731667 -20496771.782441854 0 0 0 0 -83852715.689987183 -20200825.229313135 0 -20200825.229313135 70470844.687639236 0 0 0 0 -91821618.94367981 -124303510.62752628 0 -124303510.62752628 -31932798.826743841 0 0 0 0 -12329837.716924101 -170168.34734713659 0 -170168.34734713659 9603642.8402261324 0 0 0 0 -38047046.754470825 -7928115.4322490692 0 -7928115.4322490692 48214112.628406763 0 0 0 0 37170143.019737244 77118705.330872536 0 77118705.330872536 -11811673.840078354 0 0 0 0 51234255.875358582 -9859471.2906637192 0 -9859471.2906637192 -110974517.16167927 0 0 0 0 31517500.690986633 96425168.596870422 0 96425168.596870422 103182657.42577839 0 0 0 0 -53294.291945433346 65823093.619030319 0 65823093.619030319 78155010.169681549 0 0 0 0 5078079.8009796143 47448511.185806274 0 47448511.185806274 118471554.98483276 0 0 0 0 3299058.0854759216 55739465.979387045 0 55739465.979387045 87346005.670917511 0 0 0 0 9454003.2783508301 20715563.781259537 0 20715563.781259537 61488608.525100708 0 0 0 0 66531659.665344238 -94504842.036987305 0 -94504842.036987305 283387629.50412083 0 0 0 0 252111052.20142746 -80137977.031679392 0 -80137977.031679392 33571287.545757294 0 0 0 0 65504835.777709961 -45917560.340501785 0 -45917560.340501785 67675342.890541077 0 0 0 0 194321507.97869682 125133562.71437538 0 125133562.71437538 114659723.51230621 0 0 0 0 477641043.49951172 -34443182.882246971 0 -34443182.882246971 200127828.09742451 0 0 0 0 23716849.17363739 16431228.64555788 0 16431228.64555788 81053575.60187149 0 0 0 0 155269868.04188538 -39390984.669998169 0 -39390984.669998169 -127472562.68330956 0 0 0 0 63360715.089111328 -33047934.744215012 0 -33047934.744215012 21850529.28421402 0 0 0 0 24783073.579879761 -118217200.89732265 0 -118217200.89732265 67373038.685195923 0 0 0 0 99428083.313529968 -85288668.357101917 0 -85288668.357101917 -83843422.976856232 0 0 0 0 30457286.468994141 -54661300.234022141 0 -54661300.234022141 -95069105.067803383 0 0 0 0 -8735637.3627319336 -106219331.82899094 0 -106219331.82899094 -61865659.816224307 0 0 0 0 6650111.4892120361 -99400619.938656807 0 -99400619.938656807 -127230206.31354904 0 0 0 0 -40949780.446212769 -66337676.189378738 0 -66337676.189378738 -76864355.584831238 0 0 0 0 -18632480.143432617 -112826032.60742188 0 -112826032.60742188 -82900568.706346512 0 0 0 0 -13403841.130935669 -121452247.9532671 0 -121452247.9532671 16389040.945457458 0 0 0 0 24669948.739883423 -80104198.316320419 0 -80104198.316320419 -62058494.148739159 0 0 0 0 -113026662.52012634 -55722270.966846466 0 -55722270.966846466 -58279409.805990219 0 0 0 0 -70442211.912345886 -112662613.28501225 0 -112662613.28501225 9660022.6904678345 0 0 0 0 -93849251.98085022 -45075898.557278633 0 -45075898.557278633 128068876.11874008 0 0 0 0 -38695675.259613037 -90099966.302309036 0 -90099966.302309036 5591489.2115850449 0 0 0 0 4304304.146697998 -110924115.27274513 0 -110924115.27274513 137135367.25844574 0 0 0 0 -36558863.358581543 -50520441.88469696 0 -50520441.88469696 57115021.305193901 0 0 0 0 -14501870.185806274 27298910.809244156 0 27298910.809244156 218541030.28860855 0 0 0 0 -35371434.240419388 -38919211.967132092 0 -38919211.967132092 105032292.96144104 0 0 0 0 -110669071.72816467 -1861314.4171772003 0 -1861314.4171772003 181911589.88153839 0 0 0 0 -75136802.513496399 37383306.384660721 0 37383306.384660721 -38879485.681587219 0 0 0 0 -44066789.451141357 119642749.86735916 0 119642749.86735916 105691812.11685944 0 0 0 0 11539706.000076294 24795376.795417786 0 24795376.795417786 138109317.07385445 0 0 0 0 289321787.24107361 139613849.71815777 0 139613849.71815777 308889211.03861618 0 0 0 0 246453508.68874359 200788501.33071232 0 200788501.33071232 245600347.90142441 0 0 0 0 506542632.89503479 388160887.4265728 0 388160887.4265728 165779987.67181015 0 0 0 0 45711521.162704468 -38378134.899683952 0 -38378134.899683952 277897854.57481575 0 0 0 0 221713213.61569214 62218535.995235443 0 62218535.995235443 237583310.9195385 0 0 0 0 387486365.42773819 397080320.03330469 0 397080320.03330469 1201171717.5062523 0 0 0 0 465314616.9347229 278260524.91606903 0 278260524.91606903 356146624.0708847 0 0 0 0 165640263.9811058 148706968.10336924 0 148706968.10336924 618319664.71107101 0 0 0 0 849973149.59672546 707535048.5764904 0 707535048.5764904 330780715.47902298 0 0 0 0 398788163.84503174 350462991.10913658 0 350462991.10913658 474715513.0146904 0 0 0 0 872720848.67042542 319156355.82936096 0 319156355.82936096 224378863.1879158 0 0 0 0 948940444.83976746 564257575.38218117 0 564257575.38218117 -151252714.13917542 0 0 0 0 -787643.16624563932 2187078.1744968966 0 2187078.1744968966 329694.33661305159 0 0 0 0 -309380.45204162598 158048673.0018425 0 158048673.0018425 398498899.041008 0 0 0 0 792000975.41888428 228920462.63342524 0 228920462.63342524 -126891291.51099396 0 0 0 0 469556998.25447655 89797784.049711466 0 89797784.049711466 -172939902.18341827 0 0 0 0 583937034.71116638 382957187.00616074 0 382957187.00616074 -34369257.649242401 0 0 0 0 665710131.48783112 520607231.63290644 0 520607231.63290644 98365994.691123962 0 0 0 0 529699696.22677612 295130758.30357361 0 295130758.30357361 328923909.3446846 0 0 0 0 336702563.58922577 254944110.02143288 0 254944110.02143288 61298431.895019531 0 0 0 0 583621096.1880908 389255961.01139975 0 389255961.01139975 -152904013.62362671 0 0 0 0 547869885.84170151 552791769.46219444 0 552791769.46219444 142544174.73589706 0 0 0 0 712659133.36847687 508523325.44067955 0 508523325.44067955 -98081901.400892258 0 0 0 0 374464091.85797119 312424085.69497108 0 312424085.69497108 -21827102.931930542 0 0 0 0 107863017.35852814 133390024.99781036 0 133390024.99781036 27117501.510948181 0 0 0 0 -26333355.740859985 103735128.14120483 0 103735128.14120483 -39184043.968063354 0 0 0 0 375486363.13378906 338358857.53946686 0 338358857.53946686 -104014451.17336273 0 0 0 0 544713055.69448853 435468671.09943771 0 435468671.09943771 -91042374.752914429 0 0 0 0 10626381.745641053 3755345.2049957663 0 3755345.2049957663 -1631010.8672986031 0 0 0 0 -161844820.45768738 285139237.27684021 0 285139237.27684021 -131368323.10839558 0 0 0 0 -65239910.294929504 -5086925.2083930969 0 -5086925.2083930969 -78030996.404806137 0 0 0 0 348024071.71733093 240790289.911026 0 240790289.911026 44102841.03242588 0 0 0 0 622652460.86557007 215064366.08594131 0 215064366.08594131 -347351505.9515686 0 0 0 0 5137985.7084833235 1287676.4768288657 0 1287676.4768288657 -1271404.2424905002 0 0 0 0 -23901751.168037415 154956310.04806328 0 154956310.04806328 -119468130.07847404 0 0 0 0 -208640799.79954147 272954317.01423073 0 272954317.01423073 472134757.59122467 0 0 0 0 274138829.10932159 546032566.905406 0 546032566.905406 298690705.31467247 0 0 0 0 -60665497.805164337 389709050.84484482 0 389709050.84484482 261399991.20402908 0 0 0 0 161956356.0471344 121676029.98640823 0 121676029.98640823 44210762.898979187 0 0 0 0 4775959.3569335938 197821578.85985947 0 197821578.85985947 54954281.641700745 0 0 0 0 -130746331.65066528 86854104.306724548 0 86854104.306724548 103281848.15317154 0 0 0 0 437003452.32479858 -17014461.885765076 0 -17014461.885765076 110881396.16647339 0 0 0 0 273503965.03285599 401025144.62182808 0 401025144.62182808 378926202.09800339 0 0 0 0 146813978.20349121 71131406.454406738 0 71131406.454406738 369581856.57958353 0 0 0 0 593986159.05986023 304490307.38975143 0 304490307.38975143 10152560.930122375 0 0 0 0 168653406.02511597 120274037.30516815 0 120274037.30516815 55278422.195051193 0 0 0 0 137642327.81467247 -18388756.895459175 0 -18388756.895459175 -8589525.9691696167 0 0 0 0 -23589407.783676147 58023415.441757202 0 58023415.441757202 126908680.02626801 0 0 0 0 41322681.56300354 49093594.388584137 0 49093594.388584137 -15785587.752311707 0 0 0 0 -95843568.227783203 76608653.042678833 0 76608653.042678833 -76613793.918128967 0 0 0 0 -46242911.359222412 -12575134.052864075 0 -12575134.052864075 22961990.468666077 0 0 0 0 -127446622.57316017 98723561.535579681 0 98723561.535579681 -86381673.376983643 0 0 0 0 -411871171.18450928 167082367.60484314 0 167082367.60484314 -60384234.083068848 0 0 0 0 -198781834.5887146 106071775.72717285 0 106071775.72717285 -112511489.92079163 0 0 0 0 -440640802.07559204 12757823.669258118 0 12757823.669258118 -51406863.351303101 0 0 0 0 -185538883.6991272 18047924.832127571 0 18047924.832127571 -53810520.114120483 0 0 0 0 -247379048.30123901 128918889.76061249 0 128918889.76061249 -23069029.591665268 0 0 0 0 -236077862.03847885 59739415.08672905 0 59739415.08672905 -118136600.86331177 0 0 0 0 -55502338.179290771 130580416.91098785 0 130580416.91098785 -37857355.356864929 0 0 0 0 -312777336.44683075 59964349.143323898 0 59964349.143323898 93377185.688308716 0 0 0 0 -179837069.93362427 170431461.76576996 0 170431461.76576996 74405564.659313202 0 0 0 0 -830959.93199707568 10226739.919642791 0 10226739.919642791 2733871.917109102 0 0 0 0 -106937594.06003571 66283466.741069794 0 66283466.741069794 -30249192.601409912 0 0 0 0 -330504757.63000488 157683891.59240532 0 157683891.59240532 44016814.832647324 0 0 0 0 -209842.15233069658 6119574.1584293172 0 6119574.1584293172 3951147.6380114704 0 0 0 0 -2184882.888168335 3433609.6032686234 0 3433609.6032686234 -1144449.923614502 0 0 0 0 1041261.631843254 17497352.753479522 0 17497352.753479522 -496986.36628846079 0 0 0 0 -7857796.069966957 7259532.9121155441 0 7259532.9121155441 -779412.0617948398 0 0 0 0 19003585.870239675 1045484.0542628393 0 1045484.0542628393 -3328031.0427338481 0 0 0 0 10639277.744167194 27732574.345396131 0 27732574.345396131 -1450094.9298125878 0 0 0 0 65059249.091506958 -2465839.8983306885 0 -2465839.8983306885 -11153174.268432617 0 0 0 0 46158310.71540451 34082280.098788738 0 34082280.098788738 -35372651.103961945 0 0 0 0 3694754.2007310875 2735853.3264975697 0 2735853.3264975697 -1196015.0503086001 0 0 0 0 -589855906.96166992 128098426.28018188 0 128098426.28018188 15376220.217254639 0 0 0 0 -19479118.491859436 38731064.104757309 0 38731064.104757309 894244.4008140564 0 0 0 0 -13075184.927986145 24775646.070093155 0 24775646.070093155 4772136.9494628906 0 0 0 0 35042596.685913086 32119064.530521393 0 32119064.530521393 -1289720.8250579834 0 0 0 0 4464565.9838600159 34702678.351574898 0 34702678.351574898 9551953.6848602295 0 0 0 0 4392313.8978004456 34059328.137944221 0 34059328.137944221 4504595.5760650635 0 0 0 0 18739263.307296753 24766454.346189499 0 24766454.346189499 4067897.0794906616 0 0 0 0 15432902.364341736 31787995.053056717 0 31787995.053056717 -2338093.1890144348 0 0 0 0 17223202.3695755 41477663.402051926 0 41477663.402051926 11543204.516716003 0 0 0 0 5509356.1398735046 29764660.903457642 0 29764660.903457642 2150247.7068939209 0 0 0 0 5403018.9861602783 28942004.503887177 0 28942004.503887177 7475342.1744117737 0 0 0 0 5393370.7967453003 29468139.520856857 0 29468139.520856857 3408120.9660491943 0 0 0 0 4194880.3168182373 29532472.407501221 0 29532472.407501221 12548210.271353722 0 0 0 0 -9698874.1419525146 25536402.899723053 0 25536402.899723053 -4642089.8296489716 0 0 0 0 20544580.863739014 31681243.311752319 0 31681243.311752319 27563233.571479797 0 0 0 0 -9047135.9676208496 24216362.28584671 0 24216362.28584671 8192632.9215927124 0 0 0 0 -10445748.436462402 26473671.849027634 0 26473671.849027634 4627523.1742630005 0 0 0 0 -6410466.8431879133 16623649.492572542 0 16623649.492572542 2949153.823287949 0 0 0 0 -11485107.880081177 20542957.545276642 0 20542957.545276642 2338875.1701602936 0 0 0 0 20516897.69960022 31690246.780492783 0 31690246.780492783 27718787.721206665 0 0 0 0 -4657949.1271884739 30324934.279590227 0 30324934.279590227 -1979828.0346795064 0 0 0 0 7539552.9441680908 73132515.556228638 0 73132515.556228638 40738782.464254856 0 0 0 0 4827180.1873911768 34636690.661905393 0 34636690.661905393 -4851404.3831691192 0 0 0 0 -7048648.5289916992 4552950.1410140991 0 4552950.1410140991 20241119.157778502 0 0 0 0 5287889.1926116943 36859629.478250504 0 36859629.478250504 -3490855.6750907898 0 0 0 0 -13526993.110107422 29589772.89806366 0 29589772.89806366 5048632.225025177 0 0 0 0 -91626887.112670898 17555686.165710449 0 17555686.165710449 -39874339.359619141 0 0 0 0 -24838465.740177512 16683823.113017373 0 16683823.113017373 9731161.7364052534 0 0 0 0 -45567620.179519653 46169450.992569923 0 46169450.992569923 35556964.124656677 0 0 0 0 -11595646.187605441 1424167.7623792775 0 1424167.7623792775 6102239.3945864215 0 0 0 0 -24594591.738433838 20231976.713428497 0 20231976.713428497 12235384.677894592 0 0 0 0 68969190.662719727 -84041897.162097931 0 -84041897.162097931 24255160.889328003 0 0 0 0 -6273943.0313014984 12786103.136495113 0 12786103.136495113 2539668.1786346436 0 0 0 0 -11120081.841186523 -3493887.574224472 0 -3493887.574224472 -12350448.477443695 0 0 0 0 -7050981.8771445751 408525.2568795979 0 408525.2568795979 4259523.0328825377 0 0 0 0 9072847.2391357422 21109845.825286865 0 21109845.825286865 -13356188.643841743 0 0 0 0 -9110918.9658660889 10116347.243900299 0 10116347.243900299 25331143.050796509 0 0 0 0 -1459985.2642211914 9529077.2148571014 0 9529077.2148571014 3004547.3732290268 0 0 0 0 -3288858.354822956 12118115.371608086 0 12118115.371608086 -2972829.7976389974 0 0 0 0 -5745611.8418197632 9742138.9900074005 0 9742138.9900074005 3669195.6406650543 0 0 0 0 -29834460.850624084 34588910.334980965 0 34588910.334980965 -19759735.58694458 0 0 0 0 -24484400.134155273 21346656.385852814 0 21346656.385852814 -2075261.4610176086 0 0 0 0 -30658976.457763672 14399673.411834717 0 14399673.411834717 -9386678.5324401855 0 0 0 0 -3498194.9912414551 5412827.9584388733 0 5412827.9584388733 -2273062.9154131413 0 0 0 0 -10933846.362800881 5838973.0066422522 0 5838973.0066422522 8354620.9665637296 0 0 0 0 -100233914.26300049 239134739.70965576 0 239134739.70965576 -137330148.28630066 0 0 0 0 -4196750.192319721 4709609.6006138846 0 4709609.6006138846 2377524.9937784038 0 0 0 0 -252187421.67028809 211766374.99480438 0 211766374.99480438 -38805393.1132164 0 0 0 0 -107824142.73343658 53191985.849046707 0 53191985.849046707 -62048811.442733765 0 0 0 0 -3615299.9435462952 7199632.1291076466 0 7199632.1291076466 -1335630.6368707195 0 0 0 0 2662578.055033043 10930738.92997244 0 10930738.92997244 -2303757.6544273645 0 0 0 0 -2423633.411277771 11405688.676794052 0 11405688.676794052 -3193305.9572048187 0 0 0 0 -3374772.3717633635 7506754.4485020749 0 7506754.4485020749 1066145.7088825316 0 0 0 0 -4110554.0817260742 6603729.4964866638 0 6603729.4964866638 2798403.3418035507 0 0 0 0 -2572297.104850769 7837760.7335033417 0 7837760.7335033417 2334617.9831314087 0 0 0 0 -133308500.16532183 77140812.294646502 0 77140812.294646502 102127618.36591339 0 0 0 0 -150779309.74835014 107313269.40027618 0 107313269.40027618 256460733.04855347 0 0 0 0 -101974158.20194721 231310074.37067127 0 231310074.37067127 -118353797.71084404 0 0 0 0 13150913.8288517 103823642.77864933 0 103823642.77864933 15458205.964344025 0 0 0 0 -17709561.375061035 112472732.31358528 0 112472732.31358528 17886104.799823761 0 0 0 0 -11374518.069002151 90191209.266337395 0 90191209.266337395 84669875.078708649 0 0 0 0 22115928.443435669 73904615.328222275 0 73904615.328222275 26426341.88193512 0 0 0 0 -12958576.061717987 72906741.876983643 0 72906741.876983643 26749600.328092575 0 0 0 0 11593371.91283989 96786044.476178169 0 96786044.476178169 -11060906.905860901 0 0 0 0 -11418377.366892476 32823181.306659266 0 32823181.306659266 3589393.4249947891 0 0 0 0 20550676.821922302 67170062.930534363 0 67170062.930534363 6216764.762103796 0 0 0 0 43401425.333223104 48487646.31747818 0 48487646.31747818 8316685.7811698914 0 0 0 0 40339160.738720894 58964988.224650383 0 58964988.224650383 14853672.421447754 0 0 0 0 -17794650.568102006 31036252.627693862 0 31036252.627693862 6112401.2131715566 0 0 0 0 14070173.596595764 34295342.171644211 0 34295342.171644211 12399103.303752184 0 0 0 0 32126603.804172516 52214375.216968536 0 52214375.216968536 4981398.8304519653 0 0 0 0 25439550.629159927 44511868.994768143 0 44511868.994768143 -9811073.1538619995 0 0 0 0 3497649.6702402681 37599191.790070742 0 37599191.790070742 -4832004.7394821662 0 0 0 0 -13626474.092658997 27371797.610858917 0 27371797.610858917 36542607.485883474 0 0 0 0 23869090.920795441 79316718.091614723 0 79316718.091614723 -18547137.377796173 0 0 0 0 -20374825.455185033 26968402.370291881 0 26968402.370291881 -3829711.1164823845 0 0 0 0 -3771956.2336122729 28096724.826955065 0 28096724.826955065 2047102.7404721268 0 0 0 0 -969759.70254701376 6753836.3750526421 0 6753836.3750526421 405728.76614213735 0 0 0 0 -4319297.034116745 49558912.094429016 0 49558912.094429016 10894954.987373352 0 0 0 0 -25330000.409929276 79310754.380655289 0 79310754.380655289 18043256.489691734 0 0 0 0 -53057439.080574036 64094137.09387207 0 64094137.09387207 44991819.624296188 0 0 0 0 -83766723.199256897 56473289.156074524 0 56473289.156074524 62067228.740592957 0 0 0 0 -100527768.63170052 81268471.164634228 0 81268471.164634228 73014701.594234467 0 0 0 0 -57921272.35836792 136318204.81389618 0 136318204.81389618 -123215159.14365387 0 0 0 0 -35339341.570110321 87853529.911304474 0 87853529.911304474 -108538962.0458107 0 0 0 0 -53434667.435359955 13947039.057937622 0 13947039.057937622 -70610699.206607819 0 0 0 0 -33340928.841003418 52699280.819988251 0 52699280.819988251 -126126276.60438538 0 0 0 0 -34613456.696668625 51382650.373140335 0 51382650.373140335 -55980406.081893921 0 0 0 0 -193761874.73958206 -16916678.013076782 0 -16916678.013076782 142725231.98344421 0 0 0 0 -9408231.5789580569 7548215.3470370527 0 7548215.3470370527 3312535.5772078633 0 0 0 0 -120653410.39142299 49464341.348103523 0 49464341.348103523 36233662.503440857 0 0 0 0 -127248075.20639801 113288793.87509155 0 113288793.87509155 -44862139.733108521 0 0 0 0 -69856184.578125954 54818590.678533554 0 54818590.678533554 12727827.947952271 0 0 0 0 -69150590.476286888 43217507.045605659 0 43217507.045605659 44099375.015918732 0 0 0 0 -75399391.475723267 66694487.97841835 0 66694487.97841835 20809251.828056335 0 0 0 0 -103234055.73510075 32173145.076284409 0 32173145.076284409 41230988.785865784 0 0 0 0 -62620799.40423584 48362614.856460571 0 48362614.856460571 45743563.230049133 0 0 0 0 20665362.801826477 37138178.228616714 0 37138178.228616714 55354890.274684906 0 0 0 0 -26605344.17449725 26220368.241292797 0 26220368.241292797 -1628621.8899036646 0 0 0 0 -13023769.133238599 39129037.024827853 0 39129037.024827853 -5811452.3134462573 0 0 0 0 -40695200.594745398 30700532.941262137 0 30700532.941262137 9155966.2902026139 0 0 0 0 57649110.63508606 100813047.98826981 0 100813047.98826981 63269510.60250473 0 0 0 0 -137871750.40190125 449520944.19699287 0 449520944.19699287 173850797.37080812 0 0 0 0 -709119235.86572266 -228344824.81733322 0 -228344824.81733322 -44588245.340051651 0 0 0 0 45970211.808654785 23131057.361068726 0 23131057.361068726 139512983.87718773 0 0 0 0 -243545954.41275024 -293581720.39776421 0 -293581720.39776421 163950665.15742874 0 0 0 0 264451788.01150513 -22181709.69152832 0 -22181709.69152832 -160830985.03340387 0 0 0 0 25950922.249053955 92501519.255369186 0 92501519.255369186 44631052.670135021 0 0 0 0 -277812547.12124634 190065562.84326744 0 190065562.84326744 267330101.91021347 0 0 0 0 -29237136.67114383 24618793.529971212 0 24618793.529971212 5408403.05876996 0 0 0 0 -518383.2529720962 -286808.48027456645 0 -286808.48027456645 526042.06252860464 0 0 0 0 26562273.123657227 -84611530.103071213 0 -84611530.103071213 33148087.930863917 0 0 0 0 6473108.3715515137 32728801.3683815 0 32728801.3683815 -33897341.963420868 0 0 0 0 -135732947.92156982 59374271.530380249 0 59374271.530380249 18364238.619232178 0 0 0 0 -9260092.9891121536 -2134824.4762833714 0 -2134824.4762833714 10874182.148860104 0 0 0 0 -12520071.516932487 49922462.551027715 0 49922462.551027715 131599280.5667305 0 0 0 0 -13070442.37677002 43896027.883019447 0 43896027.883019447 151111070.91679955 0 0 0 0 -8886187.8367191255 3004732.2339253202 0 3004732.2339253202 5077337.6919679269 0 0 0 0 -332534735.22745132 -64114148.903951645 0 -64114148.903951645 -714158.38571548462 0 0 0 0 77165177.208610535 113445922.5810957 0 113445922.5810957 59453971.999746323 0 0 0 0 -13101373.124557495 42854739.425873041 0 42854739.425873041 164115463.8563118 0 0 0 0 -26767548.34135437 90344733.043104172 0 90344733.043104172 81430018.316654205 0 0 0 0 -24770683.519891739 116821868.16818643 0 116821868.16818643 158094582.08646774 0 0 0 0 35793581.158843994 329618876.72304058 0 329618876.72304058 88877567.382000208 0 0 0 0 -246493753.52008057 362579773.09801579 0 362579773.09801579 47803313.912646294 0 0 0 0 -34676982.275648117 174190628.75367165 0 174190628.75367165 -171652167.5499115 0 0 0 0 -500946023.26599121 319740967.53166199 0 319740967.53166199 159602645.93558121 0 0 0 0 -178615482.90483093 -3287408.1062831879 0 -3287408.1062831879 23848655.119018555 0 0 0 0 39982838.385233164 315628678.62574005 0 315628678.62574005 150500940.29488754 0 0 0 0 -3100371.5871605277 965236.03684092313 0 965236.03684092313 1853192.8973065987 0 0 0 0 -126720832.75128174 116764554.34515953 0 116764554.34515953 263794626.84126043 0 0 0 0 -397303148.23407745 409612172.61398792 0 409612172.61398792 -18252459.791049957 0 0 0 0 402583600.98934937 83702584.20063591 0 83702584.20063591 -76270478.791149139 0 0 0 0 88347915.650924683 25964772.249359131 0 25964772.249359131 25461344.50630188 0 0 0 0 4632358.2373809814 184629011.41212654 0 184629011.41212654 -125848739.95540619 0 0 0 0 -189884685.59155273 -880891.95756149292 0 -880891.95756149292 -104580364.36109591 0 0 0 0 -522761025.93334961 264775774.58822441 0 264775774.58822441 21501285.470794678 0 0 0 0 -152089600.73370361 227340667.28915024 0 227340667.28915024 -96913998.66078949 0 0 0 0 754786.15402634442 3179214.6486182362 0 3179214.6486182362 851798.87350320816 0 0 0 0 89189632.042129517 93787604.551259995 0 93787604.551259995 -35929122.359250069 0 0 0 0 148761717.16821289 21180133.612522125 0 21180133.612522125 -20169027.791107178 0 0 0 0 77852276.289459229 14479567.569738388 0 14479567.569738388 31671357.980297089 0 0 0 0 116489669.77701569 70060641.724354744 0 70060641.724354744 -4253528.0344009399 0 0 0 0 77067983.245895386 6996050.4392566681 0 6996050.4392566681 -45238526.767154694 0 0 0 0 173305618.36196899 44063307.75434494 0 44063307.75434494 -37470798.26621151 0 0 0 0 278870152.23825073 122747114.89998627 0 122747114.89998627 175094.17653274536 0 0 0 0 119626874.39848328 34456941.197292328 0 34456941.197292328 27289205.75447464 0 0 0 0 138994288.27864456 64153944.013674974 0 64153944.013674974 60125004.977546692 0 0 0 0 151500715.58268738 148832158.36446381 0 148832158.36446381 15385471.947018623 0 0 0 0 -6043213.0436193943 6893669.8307072669 0 6893669.8307072669 5034594.6408025641 0 0 0 0 -11286620.621887207 13625378.329133749 0 13625378.329133749 11465340.265468597 0 0 0 0 -35731975.364003703 35017363.273765467 0 35017363.273765467 13644641.021871988 0 0 0 0 -46043562.483144164 38070847.342217267 0 38070847.342217267 28684445.773786891 0 0 0 0 3002573.0241257548 18318325.775308594 0 18318325.775308594 10788873.809488546 0 0 0 0 287387003.01965332 108663495.44761086 0 108663495.44761086 -27757650.84262085 0 0 0 0 328968540.04412842 62382127.342344284 0 62382127.342344284 20511704.125808716 0 0 0 0 13969858.130926132 31261003.467862368 0 31261003.467862368 18887355.396575928 0 0 0 0 270521612.20962524 128512990.11074448 0 128512990.11074448 -71613786.991588593 0 0 0 0 262335839.59317017 109501155.7572403 0 109501155.7572403 64422707.759021759 0 0 0 0 37402919.513641357 35825885.10218811 0 35825885.10218811 18750790.325546265 0 0 0 0 451779308.37840271 286367413.64521408 0 286367413.64521408 12736079.749778748 0 0 0 0 -29543538.757719554 40191236.764332101 0 40191236.764332101 10918258.210733935 0 0 0 0 -1777964.5484481156 37948045.343403459 0 37948045.343403459 -7424846.8481979631 0 0 0 0 -51459843.806739807 28948969.107316971 0 28948969.107316971 -34145990.521018982 0 0 0 0 -33584291.847569332 18857076.05665686 0 18857076.05665686 14684182.086416952 0 0 0 0 28296029.551979065 219196331.23184395 0 219196331.23184395 390852290.4121666 0 0 0 0 -27949259.626670837 209155651.55775833 0 209155651.55775833 494054162.33845139 0 0 0 0 169647993.46759033 586676075.37087822 0 586676075.37087822 1081256574.6589813 0 0 0 0 1045526186.2200623 168451362.58360958 0 168451362.58360958 378201552.41630936 0 0 0 0 -57349017.323486328 -103902225.75029755 0 -103902225.75029755 531441254.04409981 0 0 0 0 -1028528.4234467447 3919773.5778448284 0 3919773.5778448284 2634892.4984388873 0 0 0 0 1043634728.4751167 203902182.96891117 0 203902182.96891117 31901242.448310852 0 0 0 0 68578.478313267231 1645274.5878201667 0 1645274.5878201667 -472011.68951376807 0 0 0 0 -8781751.8280315697 4633630.4739443297 0 4633630.4739443297 2865075.2510263757 0 0 0 0 -4403366.8581771851 12853274.409311295 0 12853274.409311295 7282218.1516780853 0 0 0 0 121471483.43065643 -50052817.858368874 0 -50052817.858368874 -45303905.248908997 0 0 0 0 37730932.63949585 69166484.48711586 0 69166484.48711586 112546135.03582191 0 0 0 0 -8807551.3419243246 4722281.363247239 0 4722281.363247239 1445887.9738873169 0 0 0 0 -2905018.1658630371 30773127.189764023 0 30773127.189764023 39779405.111759186 0 0 0 0 -9426338.1232738346 4770811.4007204333 0 4770811.4007204333 946976.2403129423 0 0 0 0 -156500424.86602783 47288739.324817657 0 47288739.324817657 41412134.825504303 0 0 0 0 26814979.436325073 15263136.561988831 0 15263136.561988831 53560653.206941128 0 0 0 0 -17431312.215637207 -29468610.094997406 0 -29468610.094997406 33839722.127326965 0 0 0 0 -53465.547637939453 -35791728.539394379 0 -35791728.539394379 35907621.601085663 0 0 0 0 -1944387.5933425277 70006.929156690836 0 70006.929156690836 1136479.0429070257 0 0 0 0 40546430.261230469 2895948.2475242615 0 2895948.2475242615 16757552.320997238 0 0 0 0 -13298549.546852112 6339386.6393938065 0 6339386.6393938065 162238942.98949051 0 0 0 0 19666876.386749268 88468376.919557571 0 88468376.919557571 193761108.08354568 0 0 0 0 15039255.531860352 32598249.556594849 0 32598249.556594849 142215610.83854675 0 0 0 0 -38225622.215589046 66450885.32043916 0 66450885.32043916 230186569.18266869 0 0 0 0 137322834.80540466 260800819.58857441 0 260800819.58857441 331820769.31215954 0 0 0 0 65128973.02709198 158709763.82671452 0 158709763.82671452 236033037.94612217 0 0 0 0 91821412.139955521 81419757.795974731 0 81419757.795974731 163632141.97918129 0 0 0 0 282605585.204422 104332105.9070797 0 104332105.9070797 205258357.01359367 0 0 0 0 404929382.88622284 411019463.84765315 0 411019463.84765315 237698694.63741493 0 0 0 0 127553317.77316284 465397372.57612514 0 465397372.57612514 363673620.76548576 0 0 0 0 152173392.85385895 451497508.56155396 0 451497508.56155396 479575509.93687439 0 0 0 0 108032590.93249512 337067539.17805767 0 337067539.17805767 219426997.53440475 0 0 0 0 397858111.78088379 381283617.13192892 0 381283617.13192892 203716063.17161369 0 0 0 0 259596743.29680634 328965006.31966114 0 328965006.31966114 351084238.73429537 0 0 0 0 248699929.72623825 78530593.069155693 0 78530593.069155693 -223986712.54327106 0 0 0 0 -69705300.60749054 165834547.86714172 0 165834547.86714172 187037608.53432387 0 0 0 0 5660596.3105403334 -496803.46053844318 0 -496803.46053844318 -1299481.3141713552 0 0 0 0 -18416177.136989594 63541729.629765034 0 63541729.629765034 -56905152.391189575 0 0 0 0 34249403.855102539 214150391.03708935 0 214150391.03708935 -280776636.93332767 0 0 0 0 -55894614.651306152 25072858.718197823 0 25072858.718197823 55083299.148648262 0 0 0 0 -3080668.6546655595 333864.39729414694 0 333864.39729414694 2216723.7205642904 0 0 0 0 -14024812.472595215 37336006.960839748 0 37336006.960839748 -26289288.289626598 0 0 0 0 151815508.41212463 94461004.462758064 0 94461004.462758064 99957608.974116325 0 0 0 0 10141591.130271912 -17843055.924263954 0 -17843055.924263954 48012321.388874054 0 0 0 0 -74831507.071525574 17711803.607128382 0 17711803.607128382 52559917.997486115 0 0 0 0 259989709.56707764 6072489.5070619583 0 6072489.5070619583 -113394452.77151775 0 0 0 0 2681038.5549269617 -405687.69445835799 0 -405687.69445835799 -636089.59751840122 0 0 0 0 486416523.04759598 283587099.39725399 0 283587099.39725399 59571409.427621841 0 0 0 0 174677961.54299927 389607214.18782043 0 389607214.18782043 367393505.93838644 0 0 0 0 88212796.279144287 249892534.25205898 0 249892534.25205898 151974027.1882782 0 0 0 0 95399677.088615417 344906576.34298897 0 344906576.34298897 198919504.03408623 0 0 0 0 197376210.49147034 254574850.38205481 0 254574850.38205481 278892566.82254791 0 0 0 0 147442714.18409729 121919079.66160583 0 121919079.66160583 34592648.539699554 0 0 0 0 -2110914.8676399887 -661371.80552164 0 -661371.80552164 1411941.5726997009 0 0 0 0 42049204.712059021 63688320.052183151 0 63688320.052183151 -197198886.69140577 0 0 0 0 -940679.01808288693 -689843.74091385026 0 -689843.74091385026 678549.65471392218 0 0 0 0 22650314.868379593 -9139810.3563630581 0 -9139810.3563630581 -466652295.74213505 0 0 0 0 27189573.196128845 364486822.0361948 0 364486822.0361948 485692548.96646595 0 0 0 0 -32380452.743743896 228630556.15850973 0 228630556.15850973 -270810831.30627823 0 0 0 0 59437148.495117188 146340403.28853941 0 146340403.28853941 -109976318.6929183 0 0 0 0 20492541.222576141 152861513.76913977 0 152861513.76913977 65798171.749740601 0 0 0 0 27883807.578224182 112307563.95657349 0 112307563.95657349 1636687.351252079 0 0 0 0 13653048.895446777 92749888.566825449 0 92749888.566825449 24286181.189068794 0 0 0 0 -2367336.7152633667 38104277.607525826 0 38104277.607525826 -74124048.429574013 0 0 0 0 5626434.9480830431 9479948.0699386448 0 9479948.0699386448 1430271.4459674098 0 0 0 0 111565333.17627335 66400919.053883433 0 66400919.053883433 3104178.6273040771 0 0 0 0 72803275.801025391 57773863.97810173 0 57773863.97810173 47659000.872200012 0 0 0 0 111628706.60909057 69978296.361283422 0 69978296.361283422 45375747.888780594 0 0 0 0 -46364898.631908007 22424742.388241231 0 22424742.388241231 16121160.975219496 0 0 0 0 113947562.58168793 35049165.912538528 0 35049165.912538528 38092054.600990295 0 0 0 0 68951246.673118591 149285574.46525431 0 149285574.46525431 97118175.730689049 0 0 0 0 65113595.006492615 195222672.85694075 0 195222672.85694075 72797816.166657448 0 0 0 0 -5931226.4089584351 346267195.72595119 0 346267195.72595119 78581211.115902901 0 0 0 0 -123450494.03823853 252660188.39548945 0 252660188.39548945 184306696.78997993 0 0 0 0 -404911035.05765533 69900011.390224934 0 69900011.390224934 133292607.85572433 0 0 0 0 -37376687.764793396 127340971.77631378 0 127340971.77631378 133594708.17846107 0 0 0 0 -49017993.434509277 307712304.10132694 0 307712304.10132694 155912736.70398045 0 0 0 0 -97257630.417930603 222072653.59571505 0 222072653.59571505 140511058.37187767 0 0 0 0 27087233.469802856 422433323.18176699 0 422433323.18176699 249355391.42036021 0 0 0 0 16125675.127380371 246482370.26637745 0 246482370.26637745 199520831.01014709 0 0 0 0 -47502788.003562927 202467990.29164171 0 202467990.29164171 -6746242.8375120163 0 0 0 0 -77473892.139902115 271987131.53129679 0 271987131.53129679 -50187791.041763783 0 0 0 0 95688359.973213196 248459860.93928313 0 248459860.93928313 -39351901.524793625 0 0 0 0 102039112.6987381 186717990.03783512 0 186717990.03783512 -10296099.537179232 0 0 0 0 61182750.347595215 243805983.96530104 0 243805983.96530104 -51842412.448219299 0 0 0 0 46468615.939903259 219305795.81018627 0 219305795.81018627 55245034.163190842 0 0 0 0 173302258.6778717 204030528.48717117 0 204030528.48717117 -32577434.040011406 0 0 0 0 160173649.99887276 142503028.36349237 0 142503028.36349237 -189632.71960258484 0 0 0 0 323690497.81956482 106303692.26804304 0 106303692.26804304 -63161824.64624095 0 0 0 0 207979576.74685669 120693540.79867554 0 120693540.79867554 -55982713.459539413 0 0 0 0 220573343.09221458 69872041.48934561 0 69872041.48934561 18691106.669412613 0 0 0 0 128713823.39459991 18638549.552759171 0 18638549.552759171 -6664180.7358541489 0 0 0 0 164118585.06043243 98973273.880537391 0 98973273.880537391 9225961.1397829056 0 0 0 0 169988729.65589905 119251928.17163801 0 119251928.17163801 34961905.573945999 0 0 0 0 18947131.081271619 16900195.83431074 0 16900195.83431074 473377.7678005062 0 0 0 0 2815053.658718057 12541072.356481649 0 12541072.356481649 -3202375.6891934662 0 0 0 0 -9047657.5151526257 17635965.540901668 0 17635965.540901668 18014146.787462272 0 0 0 0 -180427405.32606506 95547847.752837181 0 95547847.752837181 74850915.817111969 0 0 0 0 -22506643.311309814 14739914.918237925 0 14739914.918237925 -5641495.8058643341 0 0 0 0 325471413.17268658 42280875.238621771 0 42280875.238621771 161277936.48052216 0 0 0 0 -123288284.53437805 -46739724.469185829 0 -46739724.469185829 -397684886.84502792 0 0 0 0 13586047.004278902 7324996.2721999064 0 7324996.2721999064 -11443923.55946295 0 0 0 0 745796828.13806152 -14126945.766828895 0 -14126945.766828895 -115165917.10422671 0 0 0 0 851949349.08452606 154787663.67918396 0 154787663.67918396 12662545.131839752 0 0 0 0 362733845.11868286 -406760910.92460632 0 -406760910.92460632 588699806.80310822 0 0 0 0 466021225.25675297 -20298620.620262682 0 -20298620.620262682 -81571162.254063606 0 0 0 0 12110923.707230695 12668911.253753103 0 12668911.253753103 -16416122.128628539 0 0 0 0 322496326.30147457 -40690157.295039743 0 -40690157.295039743 -81199357.027235031 0 0 0 0 307745415.3358469 101859127.59312445 0 101859127.59312445 -49599658.812839508 0 0 0 0 448194564.37002373 131865056.55052814 0 131865056.55052814 -44129782.258072853 0 0 0 0 521880680.36282349 78147600.408169746 0 78147600.408169746 -4970589.6207017899 0 0 0 0 388976458.24478149 315642183.01953316 0 315642183.01953316 136030241.71994019 0 0 0 0 293124005.05046844 194488670.05029511 0 194488670.05029511 -10197671.224640846 0 0 0 0 237543866.96811295 257021053.57424581 0 257021053.57424581 -19103694.893162727 0 0 0 0 3493029.4519495815 -956658.312863281 0 -956658.312863281 -521139.87835936807 0 0 0 0 806612370.15447998 -78800351.425260842 0 -78800351.425260842 -804776616.69012022 0 0 0 0 215683469.68444824 326798543.38867235 0 326798543.38867235 351315942.88451433 0 0 0 0 652230168.50756836 369382796.99379253 0 369382796.99379253 146483758.86810398 0 0 0 0 3350472.4969406128 197438692.06515718 0 197438692.06515718 276200869.63240576 0 0 0 0 -19344193.944999695 72606136.169014513 0 72606136.169014513 -52204910.773078918 0 0 0 0 -59596747.965408325 153794572.25031811 0 153794572.25031811 -114400055.92361832 0 0 0 0 -45756027.265304565 209972142.06491065 0 209972142.06491065 63183375.940843105 0 0 0 0 -28698683.521636963 135596633.36970019 0 135596633.36970019 -173858339.10096741 0 0 0 0 5738472.6234197319 -327102.93556181248 0 -327102.93556181248 -575770.81221468712 0 0 0 0 227968018.03316116 560231778.61324763 0 560231778.61324763 -354226636.9063127 0 0 0 0 80684055.462738037 304643533.52227843 0 304643533.52227843 -4630507.8263607621 0 0 0 0 11149578.894439697 591136892.24882913 0 591136892.24882913 498886745.74174011 0 0 0 0 287714462.0229187 411251580.98738337 0 411251580.98738337 533883257.78701794 0 0 0 0 550184904.37004852 159899365.75122598 0 159899365.75122598 101756370.79665601 0 0 0 0 810513022.60848999 227099160.341856 0 227099160.341856 608568626.69400048 0 0 0 0 900804681.78544617 487232853.30324185 0 487232853.30324185 398430345.11495066 0 0 0 0 -277330287.68035889 244895158.39522049 0 244895158.39522049 97444040.939359903 0 0 0 0 605317878.53166199 -357338931.70793808 0 -357338931.70793808 -529034528.70365697 0 0 0 0 661812126.15228271 -137003037.82076633 0 -137003037.82076633 55759154.518868446 0 0 0 0 860598413.53121948 -11508703.759065509 0 -11508703.759065509 -201884247.47782421 0 0 0 0 1141613365.9025421 -311237745.31273651 0 -311237745.31273651 10480411.103147984 0 0 0 0 361364.39052128792 4226821.9643592238 0 4226821.9643592238 5565415.1968237218 0 0 0 0 2006652126.1385651 -26561836.285490036 0 -26561836.285490036 305138344.4094348 0 0 0 0 1032601407.8898926 -168836843.44183445 0 -168836843.44183445 -156938628.60062885 0 0 0 0 980751488.4493866 -448344730.55065954 0 -448344730.55065954 244492426.40051651 0 0 0 0 797258576.18545532 -301925355.92353356 0 -301925355.92353356 230721086.33787489 0 0 0 0 204361066.58766937 -365556315.84426475 0 -365556315.84426475 562018204.12262344 0 0 0 0 66990255.77040863 -565034904.37431145 0 -565034904.37431145 -428090896.34894753 0 0 0 0 -5433256.5538217947 2722043.0484411493 0 2722043.0484411493 951930.37738510221 0 0 0 0 108568723.64261627 -348713995.90988064 0 -348713995.90988064 897960339.87910461 0 0 0 0 9391021.4359436035 -136651744.59322739 0 -136651744.59322739 327631695.1811142 0 0 0 0 50145472.640686035 -294685475.65356159 0 -294685475.65356159 600987820.22562027 0 0 0 0 106416857.73976135 -237105776.65656662 0 -237105776.65656662 452408091.39607239 0 0 0 0 186651565.3269043 -325172858.26054764 0 -325172858.26054764 345694987.80851746 0 0 0 0 189917721.94668579 -211213495.9152813 0 -211213495.9152813 51684989.079853058 0 0 0 0 264910719.81671143 -296909510.62984085 0 -296909510.62984085 5711647.8788566589 0 0 0 0 217224116.83531189 -356450351.16399765 0 -356450351.16399765 139324958.28188324 0 0 0 0 13156189.001795426 15299728.503454685 0 15299728.503454685 -12016432.309203915 0 0 0 0 -364221712.6431427 300177666.29075146 0 300177666.29075146 189505925.31309509 0 0 0 0 -50578717.636516571 8460227.4376718402 0 8460227.4376718402 5154966.7406077385 0 0 0 0 668238250.93226624 -163522983.12332702 0 -163522983.12332702 -331695151.52877092 0 0 0 0 -1033798.2302054614 12349217.406847559 0 12349217.406847559 13413787.584517229 0 0 0 0 196584230.14935303 575304608.52742958 0 575304608.52742958 -55635063.550784826 0 0 0 0 220040631.52096558 464775101.6895777 0 464775101.6895777 61391714.945036232 0 0 0 0 1020831.3143234253 407758625.52436852 0 407758625.52436852 516833371.15308726 0 0 0 0 -3978031.5060920715 335416430.41080606 0 335416430.41080606 216724384.81280231 0 0 0 0 26094896.371101379 264287219.86539292 0 264287219.86539292 216684876.4333601 0 0 0 0 116029232.90872192 270252225.17346096 0 270252225.17346096 34704266.955870807 0 0 0 0 52744053.965312958 178717897.09925091 0 178717897.09925091 -27879261.215245724 0 0 0 0 2605789.7431488037 201713575.5814414 0 201713575.5814414 -26447153.846146345 0 0 0 0 -13186694.571510315 138530064.33888334 0 138530064.33888334 -116816249.99345303 0 0 0 0 -84065333.039840698 120637145.23418713 0 120637145.23418713 -111094378.70550346 0 0 0 0 -87814415.471710205 126102879.66820955 0 126102879.66820955 -73737670.707328796 0 0 0 0 139786774.37913513 237124431.46617317 0 237124431.46617317 -463480645.89997447 0 0 0 0 2395653.0750676841 -95770.673296278343 0 -95770.673296278343 -146638.72618547778 0 0 0 0 -63543099.90512085 576126178.241552 0 576126178.241552 939828223.43113399 0 0 0 0 -61345682.350179672 455988794.84730196 0 455988794.84730196 499178094.01095343 0 0 0 0 5896500.660484314 530561928.40313196 0 530561928.40313196 535843446.62889463 0 0 0 0 170097153.68242645 456204499.98509711 0 456204499.98509711 440199871.2489785 0 0 0 0 -62196360.250507355 227517320.97277778 0 227517320.97277778 481639284.34133649 0 0 0 0 -33046804.949802399 225785999.25254571 0 225785999.25254571 392806128.24895298 0 0 0 0 22619175.234268188 231546059.25005889 0 231546059.25005889 327343761.37112677 0 0 0 0 183496296.54879761 257418409.85432824 0 257418409.85432824 323482626.8714233 0 0 0 0 96436428.420288086 271315356.03437281 0 271315356.03437281 302169495.23438835 0 0 0 0 -2213232.9005279541 242579069.18336993 0 242579069.18336993 362603479.98324108 0 0 0 0 28565450.607797623 293096849.56993914 0 293096849.56993914 258515688.50782871 0 0 0 0 -5846078.7628707886 302994835.91697407 0 302994835.91697407 362207686.96692258 0 0 0 0 24270885.937765121 297058354.64790297 0 297058354.64790297 295587367.15041447 0 0 0 0 20927543.160797119 261064120.19837165 0 261064120.19837165 242743402.14148808 0 0 0 0 11085897.225631714 253663862.55555344 0 253663862.55555344 263814407.25923067 0 0 0 0 32186637.851470947 269703992.09423423 0 269703992.09423423 166500834.50536728 0 0 0 0 62346804.963600159 356225815.14843655 0 356225815.14843655 382310215.72655773 0 0 0 0 22938206.286102295 268818706.3375864 0 268818706.3375864 376926738.36248016 0 0 0 0 30223342.664894104 261261357.77621412 0 261261357.77621412 425871972.97774792 0 0 0 0 24080784.633758545 272394486.82843375 0 272394486.82843375 314394656.94930267 0 0 0 0 11259252.055496216 258329618.98818254 0 258329618.98818254 301015624.27832705 0 0 0 0 47131741.259689331 313366269.05571604 0 313366269.05571604 300620422.49934995 0 0 0 0 45512771.896476746 316493539.59712625 0 316493539.59712625 302303674.32237148 0 0 0 0 55128674.499732971 335609223.50845194 0 335609223.50845194 323655237.75590253 0 0 0 0 80403896.594543457 293915914.27232563 0 293915914.27232563 229638694.55329704 0 0 0 0 48182228.681159973 326300191.24377936 0 326300191.24377936 295701876.69621849 0 0 0 0 75823991.716590881 314389002.76548934 0 314389002.76548934 251369288.12532616 0 0 0 0 1268502.7817153931 197419474.63055956 0 197419474.63055956 364975338.55095518 0 0 0 0 24091462.042579651 149699155.97925404 0 149699155.97925404 115458238.38258114 0 0 0 0 107773334.11961365 202763233.0825336 0 202763233.0825336 81649648.285658836 0 0 0 0 74011816.381046295 125788071.46174586 0 125788071.46174586 91887832.274151325 0 0 0 0 98305857.088386536 174045149.70523882 0 174045149.70523882 112308412.15300918 0 0 0 0 157476149.80813408 162434963.00990194 0 162434963.00990194 108653502.37379551 0 0 0 0 134204616.01490021 225324726.44955468 0 225324726.44955468 185534489.97810555 0 0 0 0 55481980.855789185 267802098.08939981 0 267802098.08939981 237220588.87679887 0 0 0 0 41220120.00201416 293226702.42977595 0 293226702.42977595 236831386.29824352 0 0 0 0 17501804.071533203 268126573.06185424 0 268126573.06185424 245278360.67957878 0 0 0 0 -2959060.4690628052 10731469.394604445 0 10731469.394604445 1672116.6361346543 0 0 0 0 186969727.86228943 97325603.713959694 0 97325603.713959694 90449132.673644543 0 0 0 0 347774654.66633606 48208226.599144936 0 48208226.599144936 63191962.724933863 0 0 0 0 205707220.70088196 123919480.61515856 0 123919480.61515856 -47257091.374975145 0 0 0 0 210481573.81988525 151139609.10475492 0 151139609.10475492 96157147.569271564 0 0 0 0 321956194.72470093 149740943.6553669 0 149740943.6553669 83862111.956749916 0 0 0 0 208997102.22080135 126390991.91908535 0 126390991.91908535 82411628.146409988 0 0 0 0 -180824671.01126099 46496851.008600235 0 46496851.008600235 -4547472.9639726281 0 0 0 0 471678856.41220856 167285652.14770043 0 167285652.14770043 -25483330.842957497 0 0 0 0 -389503.48755645752 332805055.84747672 0 332805055.84747672 -172689904.93366241 0 0 0 0 -782431.1894569546 2539729.1450920403 0 2539729.1450920403 -99560.084163533524 0 0 0 0 322014442.77337646 259707114.29487419 0 259707114.29487419 -54679142.633332253 0 0 0 0 129335793.24839783 303286106.26889133 0 303286106.26889133 137487300.38203305 0 0 0 0 -139422706.80479431 299777787.41229677 0 299777787.41229677 137982064.93660069 0 0 0 0 108511552.94281006 422335684.50854635 0 422335684.50854635 -64312692.207352638 0 0 0 0 120552293.54179382 398147017.73039436 0 398147017.73039436 151791180.34600747 0 0 0 0 229546470.36871338 258202791.66286469 0 258202791.66286469 150189679.53571799 0 0 0 0 253575294.58838081 214737421.6217401 0 214737421.6217401 22815809.044830322 0 0 0 0 251240325.02552795 226243246.33463573 0 226243246.33463573 148070856.35211945 0 0 0 0 244815647.05099487 339759474.52114367 0 339759474.52114367 197654640.51654148 0 0 0 0 175069996.21989822 278836609.37280655 0 278836609.37280655 357537978.79434109 0 0 0 0 308293366.29998779 293727008.06692791 0 293727008.06692791 357960708.39308715 0 0 0 0 219670.89064788818 326571765.47926188 0 326571765.47926188 454924477.45849895 0 0 0 0 142568029.87864685 330074738.61761379 0 330074738.61761379 273481050.96216393 0 0 0 0 129377950.37136841 313372774.39608955 0 313372774.39608955 287904602.9552207 0 0 0 0 116672060.96849442 287808299.40401745 0 287808299.40401745 264435236.87562275 0 0 0 0 197576289.90568542 250193066.00868702 0 250193066.00868702 175090444.22037029 0 0 0 0 189362480.9365387 235652731.37693882 0 235652731.37693882 177997968.16906166 0 0 0 0 193851893.14628601 331110107.10002899 0 331110107.10002899 267432133.3866207 0 0 0 0 224060089.39190674 280332536.96747351 0 280332536.96747351 404075627.45769918 0 0 0 0 174800373.12236786 332264330.33054256 0 332264330.33054256 393781078.42001534 0 0 0 0 223438481.90989685 358057464.89340258 0 358057464.89340258 389182005.61494637 0 0 0 0 133620468.86686707 339648696.44054985 0 339648696.44054985 386460074.96519947 0 0 0 0 58313994.679832458 342062311.82206655 0 342062311.82206655 655917122.33363628 0 0 0 0 26183960.958122253 211528790.29761362 0 211528790.29761362 1425318371.1694698 0 0 0 0 3256952.2194696814 -7260.0330203473568 0 -7260.0330203473568 -231747.81613144465 0 0 0 0 24785792.681491852 100695055.60025299 0 100695055.60025299 529920442.50239658 0 0 0 0 5464463.1089248657 86382017.340358734 0 86382017.340358734 575856468.0465045 0 0 0 0 16024199.666625977 251002032.80196857 0 251002032.80196857 635325186.70563793 0 0 0 0 171896839.78216553 333997901.75967455 0 333997901.75967455 597367643.76566887 0 0 0 0 422336360.80056763 459232675.89961815 0 459232675.89961815 632215210.48911452 0 0 0 0 286325831.39270782 149109555.53257179 0 149109555.53257179 652919578.37181616 0 0 0 0 -159868.8570098877 208205685.48686409 0 208205685.48686409 855361634.73087502 0 0 0 0 247576298.10235596 493306926.69522572 0 493306926.69522572 523571483.67989731 0 0 0 0 353025328.59435844 238146271.56637287 0 238146271.56637287 -10268309.277381897 0 0 0 0 170988033.08343124 66119319.742640495 0 66119319.742640495 111936970.03562737 0 0 0 0 -1301117.1558837593 -1933870.6862957655 0 -1933870.6862957655 1651876.2668475285 0 0 0 0 17005779.610443115 161444927.27698565 0 161444927.27698565 320444813.18268204 0 0 0 0 324998.94993591309 91887299.337490559 0 91887299.337490559 107899665.77155757 0 0 0 0 7839151.0836161077 1668729.8739484251 0 1668729.8739484251 -257086.64377630316 0 0 0 0 49166773.089996338 -24679537.881725311 0 -24679537.881725311 -10914990.290772438 0 0 0 0 -37854198.852638245 96048082.857688189 0 96048082.857688189 -79209516.458316803 0 0 0 0 204323385.66687012 62217212.602949142 0 62217212.602949142 -206628756.83301258 0 0 0 0 -101265545.01016998 2824392.6548118591 0 2824392.6548118591 63863920.988351822 0 0 0 0 22773520.681419373 43038134.57010746 0 43038134.57010746 161795168.94863605 0 0 0 0 13168266.513031006 338596.52236175537 0 338596.52236175537 57207415.14342165 0 0 0 0 41715591.826164246 26956482.523293018 0 26956482.523293018 -30812819.23299408 0 0 0 0 -76358410.157821655 27236163.700063705 0 27236163.700063705 101819081.35220909 0 0 0 0 -14576872.443649292 32524688.738901138 0 32524688.738901138 78392115.928438187 0 0 0 0 -2714217.0933940262 -2244301.1836181469 0 -2244301.1836181469 3660703.4942812603 0 0 0 0 25536837.117904663 39224089.215066433 0 39224089.215066433 5581700.6283330917 0 0 0 0 -2110998.4160611033 2430261.819633896 0 2430261.819633896 4718097.788133827 0 0 0 0 -19771134.003540039 -78185991.578426361 0 -78185991.578426361 -164127210.33372498 0 0 0 0 -24967254.565052032 51956609.012814045 0 51956609.012814045 34389369.010530472 0 0 0 0 25384187.16885376 52490709.171037197 0 52490709.171037197 199382938.64420795 0 0 0 0 18972758.408813477 8937539.8783035278 0 8937539.8783035278 -8399082.7228775024 0 0 0 0 9996600.9291665554 5089261.8066530041 0 5089261.8066530041 105201.21114674769 0 0 0 0 -3079263.4103393555 35076999.291705132 0 35076999.291705132 210476295.35593033 0 0 0 0 -90091164.045257568 -16524821.665813446 0 -16524821.665813446 -134956290.39102936 0 0 0 0 -1419602.7187494189 2077605.1345898872 0 2077605.1345898872 5016710.3711868655 0 0 0 0 248056.17230224609 2079526.975769043 0 2079526.975769043 4134555.6836929321 0 0 0 0 -6190401.0799051523 4993451.2022282518 0 4993451.2022282518 8038504.4773731176 0 0 0 0 -6071555.1558227539 -123277917.94890594 0 -123277917.94890594 -168193599.28708267 0 0 0 0 -95077278.29284668 -64420231.134912014 0 -64420231.134912014 -158659227.47676086 0 0 0 0 -41374635.689300537 -59914105.324363708 0 -59914105.324363708 -172976654.52355957 0 0 0 0 -34217940.243499756 -125768959.748909 0 -125768959.748909 -162272136.04285049 0 0 0 0 -86003579.866439819 -40432706.48395443 0 -40432706.48395443 -171717822.56388855 0 0 0 0 -10890334.605013251 -4382.7175593748689 0 -4382.7175593748689 9737588.6504035499 0 0 0 0 -76589451.354125977 -67659058.331119537 0 -67659058.331119537 -165956825.60797119 0 0 0 0 -23246345.003448486 -79984706.031547546 0 -79984706.031547546 -139366848.81396198 0 0 0 0 -4268177.7244720459 -92613778.995682716 0 -92613778.995682716 -158885929.92385483 0 0 0 0 -35513155.186187744 -110319042.59736633 0 -110319042.59736633 -125281543.25282669 0 0 0 0 39009054.583709717 -86728802.973770142 0 -86728802.973770142 -141199313.10477829 0 0 0 0 53360853.77456665 49425172.646018982 0 49425172.646018982 -334816801.82485652 0 0 0 0 37917673.031890869 -103217537.22960854 0 -103217537.22960854 -135193838.88018799 0 0 0 0 102100328.84164429 -11336716.802975655 0 -11336716.802975655 -340654114.91801643 0 0 0 0 4780065.4262560755 840069.07816898078 0 840069.07816898078 -629917.75879375543 0 0 0 0 5833714.0102539062 -27553436.009128571 0 -27553436.009128571 -202004907.51400375 0 0 0 0 85497142.249816895 -51351068.38125515 0 -51351068.38125515 -233026403.41330719 0 0 0 0 19447078.913635254 13958114.709285736 0 13958114.709285736 -247412877.19491863 0 0 0 0 -103967714.18286133 8091323.7474632263 0 8091323.7474632263 -178452297.56100273 0 0 0 0 -21438290.11730957 -19938669.99810791 0 -19938669.99810791 -205495443.57513046 0 0 0 0 -53539773.971252441 18129555.799690247 0 18129555.799690247 -231894341.96656036 0 0 0 0 -89567052.988586426 44117259.058811188 0 44117259.058811188 -212159443.47055244 0 0 0 0 26219204.142770767 -28956205.104957581 0 -28956205.104957581 -213142016.58314896 0 0 0 0 23293686.05229187 -96540525.197948456 0 -96540525.197948456 -252512872.19634819 0 0 0 0 39152335.321533203 -11088328.732488632 0 -11088328.732488632 -131150677.80100513 0 0 0 0 -7274351.0499362946 37187539.267993212 0 37187539.267993212 10497424.044390678 0 0 0 0 -2075718.407043457 6327837.9854536057 0 6327837.9854536057 25005295.756574631 0 0 0 0 15514453.444854736 -29006639.271972656 0 -29006639.271972656 -4258814.7698869705 0 0 0 0 3360215.7526550293 9954891.998837471 0 9954891.998837471 27275737.996706963 0 0 0 0 -3296398.870976299 2945567.9912367561 0 2945567.9912367561 3426242.6400499395 0 0 0 0 3442712.3494567871 10006630.657500267 0 10006630.657500267 27124865.928489208 0 0 0 0 1248483.7844348401 5768190.5658844858 0 5768190.5658844858 1458436.2459146157 0 0 0 0 -1583347.4899119437 1325118.7831948735 0 1325118.7831948735 6068405.6558753494 0 0 0 0 8477946.7127532959 11502754.098871231 0 11502754.098871231 119147419.35674858 0 0 0 0 -4400295.5791778564 93380041.483105659 0 93380041.483105659 238635112.40370941 0 0 0 0 30150582.575424194 102815489.73737335 0 102815489.73737335 151612548.10110879 0 0 0 0 34104672.841537476 106347657.6512413 0 106347657.6512413 129053865.65156555 0 0 0 0 18375371.889190674 172229625.75852108 0 172229625.75852108 153818461.09774661 0 0 0 0 -737626.34156997502 314951.18950295821 0 314951.18950295821 2127759.3250830015 0 0 0 0 26420079.174858093 169737335.11679101 0 169737335.11679101 153903899.84334373 0 0 0 0 9337983.3981819153 168312797.40831077 0 168312797.40831077 160065036.85823631 0 0 0 0 16732850.783081055 165162069.08311081 0 165162069.08311081 160233533.01127636 0 0 0 0 10953168.095375061 172016684.27425456 0 172016684.27425456 230770631.58414936 0 0 0 0 12620607.489971161 176644413.2762332 0 176644413.2762332 241670926.90001965 0 0 0 0 -11099380.651813507 168024111.51743186 0 168024111.51743186 304247208.42471886 0 0 0 0 -4828457.1855163574 178095808.42339945 0 178095808.42339945 319845408.96944904 0 0 0 0 -21755243.305892944 188992196.18274117 0 188992196.18274117 520110559.5784483 0 0 0 0 31265227.83391571 268267088.74213505 0 268267088.74213505 354547236.41176224 0 0 0 0 -2302454.5744590759 40262644.944600344 0 40262644.944600344 330683505.26641273 0 0 0 0 21867001.000732422 34020170.122385979 0 34020170.122385979 216713041.89383698 0 0 0 0 -1701975.7350006104 73798049.256115913 0 73798049.256115913 345750694.22037888 0 0 0 0 3763020.4370117188 89816517.927598953 0 89816517.927598953 205505685.73838031 0 0 0 0 139278193.53586292 -88341246.813935518 0 -88341246.813935518 -687091555.15991211 0 0 0 0 4342172.4867343903 26767956.367155075 0 26767956.367155075 -284177360.42894173 0 0 0 0 -992851.84087446891 39056.162551980466 0 39056.162551980466 470579.18319667317 0 0 0 0 -496875550.47070503 -388879410.24854946 0 -388879410.24854946 -400051191.0360589 0 0 0 0 -308304996.36406994 -746564890.3854115 0 -746564890.3854115 -974348564.86727333 0 0 0 0 88234241.925292969 -14041643.847068787 0 -14041643.847068787 -601277128.79811287 0 0 0 0 -90185906.094348907 20703421.081653595 0 20703421.081653595 -453406046.33584213 0 0 0 0 -115205521.2711134 -216260387.3847363 0 -216260387.3847363 -622494700.23596764 0 0 0 0 -11709884.711795807 -120194168.23803329 0 -120194168.23803329 -827304657.44841814 0 0 0 0 -61713495.140937805 103882237.23544502 0 103882237.23544502 -427058018.01622868 0 0 0 0 8035394.2792205811 -118123630.40589619 0 -118123630.40589619 -278383456.95416832 0 0 0 0 -15866984.804485321 166261952.14726257 0 166261952.14726257 -73777078.975517273 0 0 0 0 61479984.53271246 -80338283.389399529 0 -80338283.389399529 156418703.54434776 0 0 0 0 99381313.943347931 -62451491.839295387 0 -62451491.839295387 -518142081.60981178 0 0 0 0 -91790116.682490349 -102945105.56921196 0 -102945105.56921196 -146497438.43426538 0 0 0 0 841443108.85415459 136059958.16072845 0 136059958.16072845 -320602445.09536076 0 0 0 0 72230115.085612297 279266847.54267168 0 279266847.54267168 59940249.375822067 0 0 0 0 173844222.49857855 186879744.08534551 0 186879744.08534551 -361178307.72787476 0 0 0 0 207602189.18692207 342342061.49099064 0 342342061.49099064 -113023247.50695896 0 0 0 0 -414787.23231607862 2421412.8036348512 0 2421412.8036348512 980310.2945078034 0 0 0 0 735738075.64107561 -55566699.980443954 0 -55566699.980443954 -514823094.21005726 0 0 0 0 48360030.235972404 -8044008.8090362549 0 -8044008.8090362549 -286288512.18139505 0 0 0 0 -171459818.48560858 -296380788.39336991 0 -296380788.39336991 -342092132.83117485 0 0 0 0 116082727.89751053 40965335.122756958 0 40965335.122756958 -379434352.93073905 0 0 0 0 10176719.708795547 -79498895.034025669 0 -79498895.034025669 -314838914.58553553 0 0 0 0 -1298175.8108040988 6334084.1933409031 0 6334084.1933409031 -5000135.2598170666 0 0 0 0 -3178669.4408846293 2071076.9258399038 0 2071076.9258399038 3327433.7225414547 0 0 0 0 31450808.98555851 -64592804.025175154 0 -64592804.025175154 65739591.47478053 0 0 0 0 211780106.23860931 272279482.32607079 0 272279482.32607079 63641420.685129881 0 0 0 0 -874794.70104041137 2309050.4095165692 0 2309050.4095165692 -2070903.1511224527 0 0 0 0 -23867235.248246193 -405985994.31733704 0 -405985994.31733704 -655084625.00356674 0 0 0 0 211647830.53166389 251472641.867028 0 251472641.867028 450569025.86274755 0 0 0 0 478366693.13802338 399520834.38117456 0 399520834.38117456 515383579.81790924 0 0 0 0 563262038.30897903 226988264.63576174 0 226988264.63576174 219972528.87077522 0 0 0 0 687392509.19912529 789833436.40696144 0 789833436.40696144 436654419.8666358 0 0 0 0 607869362.52384186 544381652.71625137 0 544381652.71625137 499521579.54998124 0 0 0 0 461336846.33416176 325944326.05660343 0 325944326.05660343 523444448.15796238 0 0 0 0 -1456089334.3215156 -184854175.48874667 0 -184854175.48874667 233791300.62414074 0 0 0 0 534867420.07910156 121741147.06132412 0 121741147.06132412 195903700.52102518 0 0 0 0 -2267430285.7631702 800866865.90726149 0 800866865.90726149 -870410617.04058266 0 0 0 0 -2657902.0649175011 2105845.463970745 0 2105845.463970745 1251037.6099143187 0 0 0 0 -1541448185.0889931 622702781.33719015 0 622702781.33719015 -36937647.301523209 0 0 0 0 901570882.84075546 385899222.38444185 0 385899222.38444185 -65154973.592143774 0 0 0 0 -1754377146.6215076 -736715917.1140492 0 -736715917.1140492 843108050.9714427 0 0 0 0 -2507260026.7068462 253337372.76476434 0 253337372.76476434 302716274.98575032 0 0 0 0 639471945.92873096 -844802348.44809592 0 -844802348.44809592 327021866.37072361 0 0 0 0 746979108.2639122 1124530726.0456209 0 1124530726.0456209 -87936108.354901195 0 0 0 0 667559230.57789326 394416778.7818805 0 394416778.7818805 327670846.24076557 0 0 0 0 597536873.44079971 484664949.96366072 0 484664949.96366072 469329119.77124214 0 0 0 0 404520523.38011169 327075255.39248562 0 327075255.39248562 537491032.48812151 0 0 0 0 -7139934.9436874129 6063776.6411867188 0 6063776.6411867188 -433267.63574031508 0 0 0 0 566282996.09369659 332210368.9549551 0 332210368.9549551 381571812.44590092 0 0 0 0 32531924.34419981 43146290.422181509 0 43146290.422181509 22460734.35691341 0 0 0 0 -48960383.228807449 166659390.2065953 0 166659390.2065953 -136363793.31222725 0 0 0 0 15089153.781785488 31285612.499247015 0 31285612.499247015 -70877648.157601833 0 0 0 0 -34905811.756479263 153393719.38895154 0 153393719.38895154 -229936532.47547817 0 0 0 0 -112888245.0340271 698678417.51941872 0 698678417.51941872 -602759138.15618134 0 0 0 0 -205323566.92658424 341747765.62626696 0 341747765.62626696 -260604485.16675568 0 0 0 0 5986532.0264533767 6466964.7446908653 0 6466964.7446908653 -19280.990922825411 0 0 0 0 63047022.867333412 -25063161.141152263 0 -25063161.141152263 69086129.95662117 0 0 0 0 296378419.70573044 376926033.21923351 0 376926033.21923351 -358837240.47887707 0 0 0 0 275433961.56428909 107104200.90972972 0 107104200.90972972 -216726171.01010841 0 0 0 0 -99370907.778460503 84813263.442935705 0 84813263.442935705 27969415.348522186 0 0 0 0 30660563.041679371 45313507.919710666 0 45313507.919710666 20292713.009003699 0 0 0 0 -94096243.108718872 67323487.990188837 0 67323487.990188837 40077752.011875153 0 0 0 0 -84042829.505022049 66592858.620816231 0 66592858.620816231 45387462.44934082 0 0 0 0 -84591007.119422913 61328142.812400818 0 61328142.812400818 1043651.0390167236 0 0 0 0 22398195.446793824 19679431.68728552 0 19679431.68728552 -3197376.4186736997 0 0 0 0 -847929218.35633087 1184612790.5522385 0 1184612790.5522385 907590472.81790161 0 0 0 0 78265436.979482651 58094069.851442695 0 58094069.851442695 115472210.63475883 0 0 0 0 114226107.05717659 54773953.631175041 0 54773953.631175041 -2685374.3954925537 0 0 0 0 21498699.104282476 52355530.884551659 0 52355530.884551659 2470520.5248922519 0 0 0 0 151297657.15636253 264664634.38574076 0 264664634.38574076 -470040554.50149345 0 0 0 0 -731562442.22665787 -778428059.92101717 0 -778428059.92101717 -251372789.68377733 0 0 0 0 32436237.025583319 9720545.5233939122 0 9720545.5233939122 -2325609.5364438221 0 0 0 0 -95374336.327838898 40611215.422410965 0 40611215.422410965 16982770.913389206 0 0 0 0 -89196762.949487686 49003404.975577831 0 49003404.975577831 19901462.736122131 0 0 0 0 -72020253.925140381 46810666.531980515 0 46810666.531980515 17593749.526351929 0 0 0 0 669702124.65581131 599062988.76536751 0 599062988.76536751 375441047.69566965 0 0 0 0 -26617599.032238007 -749143276.0219183 0 -749143276.0219183 -1429613452.2603168 0 0 0 0 895450048.89120483 565396944.19176483 0 565396944.19176483 -79357108.658504486 0 0 0 0 609391927.20385742 495015209.55248833 0 495015209.55248833 -149976424.03299713 0 0 0 0 348730751.52619553 375245344.53285313 0 375245344.53285313 -204645202.92348862 0 0 0 0 807333057.67965698 124493783.8842907 0 124493783.8842907 -791333017.58167267 0 0 0 0 1005459882.3144836 448007710.39508247 0 448007710.39508247 -493864524.52975082 0 0 0 0 522873962.54526138 269933059.43923378 0 269933059.43923378 -26715397.366630554 0 0 0 0 641636522.03318405 472992736.78600025 0 472992736.78600025 296153386.85457039 0 0 0 0 569984865.95138741 312527974.79083776 0 312527974.79083776 283888735.61047173 0 0 0 0 373519709.23731232 212598076.44632792 0 212598076.44632792 -35599826.588350296 0 0 0 0 -742440191.12317276 945255463.03336096 0 945255463.03336096 494077909.58537251 0 0 0 0 305561412.91344452 350841648.34140396 0 350841648.34140396 -298435566.43954468 0 0 0 0 -5474709.7401258275 3505323.2774192654 0 3505323.2774192654 814104.66516357567 0 0 0 0 410301081.84620667 403897777.89851761 0 403897777.89851761 29500518.964675903 0 0 0 0 349718602.96379089 150433139.80795479 0 150433139.80795479 256956739.79931068 0 0 0 0 236969983.78202057 454890825.79826927 0 454890825.79826927 -379113539.72324181 0 0 0 0 301195687.80170822 399282696.6056385 0 399282696.6056385 -357676184.59091663 0 0 0 0 460034527.1565094 388947844.06045532 0 388947844.06045532 -360464634.8850193 0 0 0 0 436017276.41576195 431599535.16131413 0 431599535.16131413 -749162278.28059006 0 0 0 0 427484003.60500336 316918532.2916832 0 316918532.2916832 -555297858.46135712 0 0 0 0 12434413.574603289 6472753.2703375593 0 6472753.2703375593 -1208190.7047425434 0 0 0 0 412439042.46750641 522874456.64141083 0 522874456.64141083 -842950450.86761475 0 0 0 0 147247034.59391594 172718834.05205297 0 172718834.05205297 -584344711.37677097 0 0 0 0 108372286.99053764 268336657.80871105 0 268336657.80871105 -130100565.59545898 0 0 0 0 238610310.79529762 79418966.167246819 0 79418966.167246819 -780594398.17468393 0 0 0 0 337388936.54290009 405527521.57347631 0 405527521.57347631 -560058942.55151176 0 0 0 0 121792695.98624802 257023107.8663559 0 257023107.8663559 -540379074.30537796 0 0 0 0 59266166.059848547 207535941.21556795 0 207535941.21556795 -778824814.63368225 0 0 0 0 64945183.380612612 82040953.184802532 0 82040953.184802532 -1075855721.1718903 0 0 0 0 41771835.016876221 -8634678.2606201172 0 -8634678.2606201172 -1185020479.4089966 0 0 0 0 26734101.421733856 139029317.60647011 0 139029317.60647011 -1264658851.8863373 0 0 0 0 -26367853.964920044 -234989774.31685638 0 -234989774.31685638 -914695139.37716675 0 0 0 0 -98066182.207279205 -30534292.487998009 0 -30534292.487998009 -1151246391.9671478 0 0 0 0 178830859.602005 546557242.52399063 0 546557242.52399063 -653612416.88895988 0 0 0 0 4214881.380027771 -227713366.44303513 0 -227713366.44303513 -1169553278.2435646 0 0 0 0 222455621.74227142 -68533222.98740387 0 -68533222.98740387 -1620952639.2451401 0 0 0 0 -19856401.293190002 98062898.271881104 0 98062898.271881104 -708499267.00402069 0 0 0 0 -143458840.9320755 17002717.914908409 0 17002717.914908409 -305264422.97469711 0 0 0 0 -72181945.0626297 66258856.130811691 0 66258856.130811691 -702833676.97276163 0 0 0 0 -105084504.31961823 123571419.86868668 0 123571419.86868668 -260942856.83787537 0 0 0 0 -123890664.74238157 143498843.51560593 0 143498843.51560593 -179509535.39305496 0 0 0 0 -91779540.510387421 48051832.694601059 0 48051832.694601059 -298791284.95540714 0 0 0 0 -60416819.040485859 93490346.799891949 0 93490346.799891949 15371538.568710327 0 0 0 0 -85890373.223625183 -16378173.126038551 0 -16378173.126038551 61697055.011192322 0 0 0 0 -23065927.98651886 49309105.585659981 0 49309105.585659981 -86133513.396011353 0 0 0 0 -142551656.50717735 38620054.088438034 0 38620054.088438034 -61283850.338867188 0 0 0 0 -42801323.700714111 16429884.885803938 0 16429884.885803938 141693417.29671288 0 0 0 0 70715161.024074554 -84843282.208292007 0 -84843282.208292007 57343539.622961044 0 0 0 0 6775086.4442187417 34968507.589347079 0 34968507.589347079 21154500.48870774 0 0 0 0 7840274.3781900406 88874634.039638519 0 88874634.039638519 24149285.890602112 0 0 0 0 23746181.282902718 25557089.159248829 0 25557089.159248829 47308522.76360321 0 0 0 0 -4651971.0751914978 30037472.346132278 0 30037472.346132278 54253946.37053299 0 0 0 0 -76310272.299812317 25284315.800197601 0 25284315.800197601 -4823644.1482445598 0 0 0 0 9429005.5279534832 3058978.6070227139 0 3058978.6070227139 -746827.69073625654 0 0 0 0 -62380942.230224609 36906275.796230316 0 36906275.796230316 -5272323.2715988159 0 0 0 0 209560830.81458664 69876318.262213707 0 69876318.262213707 -293582.931183815 0 0 0 0 8900454.8500499725 81580916.632612228 0 81580916.632612228 49162986.770225525 0 0 0 0 3562903.2186207529 40040488.344937176 0 40040488.344937176 -18885978.518348776 0 0 0 0 182994900.02121162 7019059.9089889526 0 7019059.9089889526 -29724280.172473907 0 0 0 0 -272518518.04939461 137352827.30473757 0 137352827.30473757 -64031029.568462372 0 0 0 0 -198813063.63183594 399433303.69248199 0 399433303.69248199 87432088.151123047 0 0 0 0 -187617099.09802246 94348074.395366669 0 94348074.395366669 35852155.405815125 0 0 0 0 -8123417.596244812 38615543.526086807 0 38615543.526086807 -128728146.376297 0 0 0 0 25414666.514053345 123117646.22816086 0 123117646.22816086 -165962195.57562542 0 0 0 0 176679140.26831055 157524819.66781616 0 157524819.66781616 55394615.504272461 0 0 0 0 72547083.728157043 352588612.55219841 0 352588612.55219841 49726363.986610413 0 0 0 0 96758352.871147156 184442321.44620323 0 184442321.44620323 139318847.20859528 0 0 0 0 -8267525.4451958574 32592934.879097302 0 32592934.879097302 -20534604.414706465 0 0 0 0 216532499.59440613 330452323.41384888 0 330452323.41384888 405690977.55555725 0 0 0 0 1166481.3760839328 645317.72462884337 0 645317.72462884337 -1490276.5861992203 0 0 0 0 112783391.88377762 10267132.492189407 0 10267132.492189407 144418229.20755768 0 0 0 0 4016059.0901145935 59414305.938976288 0 59414305.938976288 124576197.19235992 0 0 0 0 164425925.17527771 93674896.822256088 0 93674896.822256088 63271577.027526855 0 0 0 0 92124239.877998352 144149488.66625977 0 144149488.66625977 41284997.21963501 0 0 0 0 23102624.359119415 100817106.68621063 0 100817106.68621063 155714654.55211544 0 0 0 0 63464878.299383879 68131690.750440121 0 68131690.750440121 29087672.62146759 0 0 0 0 -11292143.804317474 80239503.091999054 0 80239503.091999054 106866850.03001785 0 0 0 0 -16298549.560928345 -4070322.6857051849 0 -4070322.6857051849 -18805110.309463501 0 0 0 0 -66685350.127469063 19454789.181112289 0 19454789.181112289 61102980.260059357 0 0 0 0 -46235163.538866997 3966143.3216738701 0 3966143.3216738701 72415612.513244629 0 0 0 0 -25488841.78740263 100546804.90650558 0 100546804.90650558 186554832.64382172 0 0 0 0 -39447177.305760384 158275081.04840279 0 158275081.04840279 195350498.24850464 0 0 0 0 -149021856.78800774 -55187793.300296783 0 -55187793.300296783 112043696.19239807 0 0 0 0 79026986.335420609 130869871.98052979 0 130869871.98052979 112949983.06110382 0 0 0 0 57922832.935501099 244454025.95818329 0 244454025.95818329 458543266.66461182 0 0 0 0 173428419.25679016 131696920.93435669 0 131696920.93435669 162474545.36616516 0 0 0 0 218694753.50946045 318549981.95735168 0 318549981.95735168 345603545.4105835 0 0 0 0 304647071.94299889 482497103.97867584 0 482497103.97867584 470982395.83932495 0 0 0 0 -3856221.482313022 1093915.6473512277 0 1093915.6473512277 4045109.7271253765 0 0 0 0 7865020.7315296326 24433717.721555013 0 24433717.721555013 17184437.110293783 0 0 0 0 26255544.645875931 23928698.824768066 0 23928698.824768066 46032274.107276917 0 0 0 0 -44108518.600625992 20511617.089084625 0 20511617.089084625 35759964.946178913 0 0 0 0 -56762624.155401468 30402720.438755035 0 30402720.438755035 44212640.235542297 0 0 0 0 943039.90630004834 12480292.237361036 0 12480292.237361036 4366380.8280878849 0 0 0 0 -53960958.469090462 -13640342.538059235 0 -13640342.538059235 15838573.770139694 0 0 0 0 74440966.300128698 -61486163.790229797 0 -61486163.790229797 103746145.09992599 0 0 0 0 1362571.3787318068 10100373.308482904 0 10100373.308482904 15309960.492542177 0 0 0 0 351002633.97950172 179885949.42463875 0 179885949.42463875 111283464.2865963 0 0 0 0 435649345.85774422 396597267.28805733 0 396597267.28805733 69246125.221597672 0 0 0 0 8622054.8909426127 5145689.3640252203 0 5145689.3640252203 4099020.7203749157 0 0 0 0 401026237.15724754 84144429.578422546 0 84144429.578422546 38612496.649526596 0 0 0 0 872927595.54226112 534691152.48643494 0 534691152.48643494 351941012.45231247 0 0 0 0 1111153541.6239128 416563903.30975914 0 416563903.30975914 858609.72390174866 0 0 0 0 -714505.60144842649 3877889.4612407219 0 3877889.4612407219 1263603.8184991926 0 0 0 0 376495753.10412407 774935212.13089848 0 774935212.13089848 390433783.87794495 0 0 0 0 99551958.764657021 174733524.86201239 0 174733524.86201239 531723237.27720261 0 0 0 0 1995020.8531037159 888695.59031433612 0 888695.59031433612 2221328.9210038371 0 0 0 0 59606518.625102997 -32218988.444095612 0 -32218988.444095612 -6440326.4918766022 0 0 0 0 59299396.672311783 59122304.400876999 0 59122304.400876999 34350660.158763885 0 0 0 0 31583140.69376421 18277613.431338787 0 18277613.431338787 -19007221.044075012 0 0 0 0 4061791.4683876038 57970029.921738625 0 57970029.921738625 66427623.995304108 0 0 0 0 1186497.1703300476 44525851.029905319 0 44525851.029905319 53944736.624908447 0 0 0 0 54928673.951660156 152796645.35073566 0 152796645.35073566 32026733.082042694 0 0 0 0 315698475.07484818 58061357.151462555 0 58061357.151462555 -26918766.109603882 0 0 0 0 348891054.81847334 142662776.77568388 0 142662776.77568388 -43820794.923034668 0 0 0 0 244333491.68956208 146934081.73975539 0 146934081.73975539 -43085217.976932526 0 0 0 0 220066710.28173828 60111813.318408966 0 60111813.318408966 -26214244.14152956 0 0 0 0 217174332.78198433 378418019.66985416 0 378418019.66985416 42513205.700365782 0 0 0 0 658037787.65082359 269397805.82101154 0 269397805.82101154 -141101955.59757042 0 0 0 0 201298107.98514509 121984580.3256433 0 121984580.3256433 -127716039.5283699 0 0 0 0 -103757340.09741974 26639153.672664642 0 26639153.672664642 -47806293.488761902 0 0 0 0 -34917641.125976562 152683592.7459507 0 152683592.7459507 -84390626.695549965 0 0 0 0 -85827312.663108826 -7238372.7478151321 0 -7238372.7478151321 -185753492.04253387 0 0 0 0 10303482.766698837 82358952.057444572 0 82358952.057444572 24972774.596313477 0 0 0 0 547191424.81425643 804438670.1709733 0 804438670.1709733 525395656.55392838 0 0 0 0 -65693554.140254974 22052181.053936958 0 22052181.053936958 949619167.62643981 0 0 0 0 128883945.87997723 367820499.29178572 0 367820499.29178572 960316472.65057278 0 0 0 0 -1153360.5728835296 5981949.8390178755 0 5981949.8390178755 2121836.0314148925 0 0 0 0 476875000.154953 648024882.8768158 0 648024882.8768158 36264220.530490875 0 0 0 0 1692966.1609654222 4473441.9499653876 0 4473441.9499653876 1941320.5658027977 0 0 0 0 474862015.65062952 611805912.31626654 0 611805912.31626654 -358708263.96227646 0 0 0 0 -415925482.67644835 220983086.04822445 0 220983086.04822445 126733969.96350002 0 0 0 0 498494007.4837274 207236440.51246518 0 207236440.51246518 -480586628.40415192 0 0 0 0 1221042050.2891169 648320890.13924122 0 648320890.13924122 -88754742.613121033 0 0 0 0 497557604.12799072 232723619.90027809 0 232723619.90027809 -59807862.296841145 0 0 0 0 217496673.74086332 370734545.07765198 0 370734545.07765198 374686092.8192749 0 0 0 0 319780787.25169754 302632290.56241417 0 302632290.56241417 298278139.98170471 0 0 0 0 122613412.09015179 76532885.008769989 0 76532885.008769989 2009334.0766019821 0 0 0 0 -202996445.85680389 230881184.34014416 0 230881184.34014416 213652796.53092957 0 0 0 0 -69254670.275963783 33590197.790349722 0 33590197.790349722 68091523.933891296 0 0 0 0 -187630313.3812933 213442074.49779701 0 213442074.49779701 -180697255.03766632 0 0 0 0 -1425415.0999151766 11773312.111169755 0 11773312.111169755 7078358.1642904095 0 0 0 0 -464686952.43184805 557874436.19738293 0 557874436.19738293 -132216988.28030825 0 0 0 0 -21750469.285020538 17761242.379444364 0 17761242.379444364 18923491.565978266 0 0 0 0 -63613088.419018745 30906522.861065865 0 30906522.861065865 -6280666.89727211 0 0 0 0 -50056231.180702209 92382838.76628685 0 92382838.76628685 74958363.519177914 0 0 0 0 72149920.798065186 178950095.53006268 0 178950095.53006268 119725061.40101051 0 0 0 0 -29325420.246536858 40657068.702121727 0 40657068.702121727 -2223678.8758464064 0 0 0 0 -51702673.154905319 23036096.444149494 0 23036096.444149494 30191559.127858162 0 0 0 0 -30591919.691540718 33192063.405461311 0 33192063.405461311 -6152248.8098361492 0 0 0 0 -55826805.016680717 60460988.355074883 0 60460988.355074883 51165644.931880951 0 0 0 0 -64271903.186879158 97505528.953855515 0 97505528.953855515 17703901.855542183 0 0 0 0 -40578964.507295609 111544681.03385353 0 111544681.03385353 -32325189.395381927 0 0 0 0 -21610727.577492211 16205195.900318164 0 16205195.900318164 12534374.250709945 0 0 0 0 -73279349.690411329 85942431.622826815 0 85942431.622826815 190460515.32842636 0 0 0 0 -74055649.226857185 180415045.11356354 0 180415045.11356354 121137562.30640841 0 0 0 0 -75171836.351029396 225039994.47245169 0 225039994.47245169 431770891.61872244 0 0 0 0 -22941756.289543629 64203093.192268848 0 64203093.192268848 66669988.638587952 0 0 0 0 -62823684.228985786 -8508859.9948148727 0 -8508859.9948148727 241946796.67643785 0 0 0 0 -36607060.134017944 44398084.896955013 0 44398084.896955013 -4518305.7435024977 0 0 0 0 -31965266.884351641 5930566.6536247171 0 5930566.6536247171 11462665.556341846 0 0 0 0 128123512.73751831 27255230.812652588 0 27255230.812652588 -113779194.77910614 0 0 0 0 -106837849.15985298 -77476698.836264372 0 -77476698.836264372 304348096.70886993 0 0 0 0 -90706329.016983032 11517697.67473793 0 11517697.67473793 190682557.92257309 0 0 0 0 12726874.347692966 -195681564.41466427 0 -195681564.41466427 360718734.40899658 0 0 0 0 -97074142.876861572 -39606066.122701645 0 -39606066.122701645 521160191.37060356 0 0 0 0 -134572453.75228119 -86146900.070373535 0 -86146900.070373535 582634035.83697319 0 0 0 0 -144586538.02023315 7117368.8313360214 0 7117368.8313360214 345391212.68463421 0 0 0 0 -132755060.00073242 47461361.658610344 0 47461361.658610344 316249913.22551346 0 0 0 0 -170839322.14131165 -14325486.006590843 0 -14325486.006590843 441818983.74313164 0 0 0 0 -71606192.279602051 -48221905.287350178 0 -48221905.287350178 96534583.293241501 0 0 0 0 -68055974.174674988 54100523.543180466 0 54100523.543180466 39004465.42491436 0 0 0 0 -29268322.727669269 13563139.681547761 0 13563139.681547761 11663108.998045065 0 0 0 0 -74974224.926071167 1537748.0300168991 0 1537748.0300168991 44477914.604249954 0 0 0 0 -73391641.350738525 86276136.56066227 0 86276136.56066227 144676965.80870914 0 0 0 0 -133132779.91357708 37354054.372454792 0 37354054.372454792 216362317.2026825 0 0 0 0 -157832163.5408783 141397057.85684967 0 141397057.85684967 377048044.06910801 0 0 0 0 -156854722.7301712 130839932.72074652 0 130839932.72074652 210301206.60809708 0 0 0 0 -37251284.338142395 140288760.15816689 0 140288760.15816689 170675261.19812584 0 0 0 0 -77836270.57535553 45046520.18632704 0 45046520.18632704 30885112.123222351 0 0 0 0 -29310440.980520248 70321998.245884418 0 70321998.245884418 -14517785.591070175 0 0 0 0 -35278427.660197213 44563359.358242542 0 44563359.358242542 -3030475.0395069607 0 0 0 0 -92170431.114875793 30231301.938412666 0 30231301.938412666 30882515.015308008 0 0 0 0 -106336920.0954771 -22043091.78943634 0 -22043091.78943634 19556577.742507935 0 0 0 0 -75844142.874599457 51890481.233623505 0 51890481.233623505 107803545.73948574 0 0 0 0 -40897757.348885484 33386138.013462499 0 33386138.013462499 20065059.748125687 0 0 0 0 84534943.930366516 65313749.00495708 0 65313749.00495708 -12585474.515164971 0 0 0 0 7747481.66065979 8617970.3832054138 0 8617970.3832054138 46971447.134964049 0 0 0 0 -42110779.917293809 31803674.863780618 0 31803674.863780618 22846343.775508318 0 0 0 0 -67821816.768562317 57071097.499191761 0 57071097.499191761 -19209958.834009171 0 0 0 0 6559143.2714233398 17099755.336583853 0 17099755.336583853 16498568.542993307 0 0 0 0 -43262400.851425171 4619896.6628288031 0 4619896.6628288031 56642712.342260242 0 0 0 0 -87136982.581993103 -14309961.235838115 0 -14309961.235838115 30586255.34185183 0 0 0 0 24863082.493118286 60107830.540163755 0 60107830.540163755 -65814726.296460927 0 0 0 0 10822788.456594981 14198810.549999624 0 14198810.549999624 -1286502.8104653466 0 0 0 0 -29692007.595217705 21814737.439138651 0 21814737.439138651 -4509263.9171190262 0 0 0 0 -91306788.619876385 70269049.039459988 0 70269049.039459988 6154558.8613245487 0 0 0 0 -28810011.894638062 7038209.3848741055 0 7038209.3848741055 -2510994.4752063751 0 0 0 0 -51991151.050827026 31754017.364368916 0 31754017.364368916 29466935.476645231 0 0 0 0 -25461141.016494751 27434611.803859293 0 27434611.803859293 9097013.7421994209 0 0 0 0 -61615455.631278992 46661579.059887707 0 46661579.059887707 18923065.870312214 0 0 0 0 91057320.138824463 60002495.401096344 0 60002495.401096344 24898345.457733154 0 0 0 0 -166436008.90837097 128555763.13956571 0 128555763.13956571 56187482.127013922 0 0 0 0 -128919781.7228775 52324411.176645175 0 52324411.176645175 30108569.390112441 0 0 0 0 -6044854.237610016 -1780446.141288653 0 -1780446.141288653 1447441.7802622383 0 0 0 0 -65497346.470184326 -4449328.9648549259 0 -4449328.9648549259 -8415978.3639783859 0 0 0 0 -143463735.23695374 -63761108.005621493 0 -63761108.005621493 12087050.687304527 0 0 0 0 -21941710.309113484 30279444.29532513 0 30279444.29532513 17989582.589313246 0 0 0 0 -16724079.658370972 10849276.905243278 0 10849276.905243278 -2140493.9558334351 0 0 0 0 -631002.44101783633 21045582.285516016 0 21045582.285516016 5258206.196765 0 0 0 0 -15046212.056793213 7447265.4210591316 0 7447265.4210591316 -1310456.4787445068 0 0 0 0 8776081.3502045199 25208640.101462908 0 25208640.101462908 14182050.278234977 0 0 0 0 2342966.9817413948 23487264.017864078 0 23487264.017864078 -2486776.462506379 0 0 0 0 -12794991.911324278 7508347.4758729786 0 7508347.4758729786 -1301551.0938188205 0 0 0 0 56960698.496948242 9804911.4322748184 0 9804911.4322748184 3518293.0717158318 0 0 0 0 6455829.0965925306 1654765.5430015698 0 1654765.5430015698 -1669448.7953702621 0 0 0 0 90635569.052152634 153216907.55638203 0 153216907.55638203 -22308271.295490801 0 0 0 0 -41744020.89730072 107432144.19117048 0 107432144.19117048 -111383815.7712605 0 0 0 0 -10912097.264205933 29715034.585632622 0 29715034.585632622 84245060.45629549 0 0 0 0 -198042471.97792053 -45298551.574707307 0 -45298551.574707307 39618738.747051537 0 0 0 0 -9423936.8728256226 -38744937.19079417 0 -38744937.19079417 68298620.56937933 0 0 0 0 -159221768.57879639 92985335.440232277 0 92985335.440232277 101672096.42692745 0 0 0 0 -35394493.745202444 32002119.828314535 0 32002119.828314535 19032016.822364926 0 0 0 0 85069333.18624115 -84784450.050243378 0 -84784450.050243378 32666099.395547867 0 0 0 0 -116042350.15756226 -86886680.139387131 0 -86886680.139387131 58637361.421964169 0 0 0 0 -28588219.327036858 99125474.100469828 0 99125474.100469828 4570411.492477417 0 0 0 0 -6015857.0776844025 70454140.574313164 0 70454140.574313164 -44650826.269284248 0 0 0 0 93016659.476664543 252209834.70625019 0 252209834.70625019 116981519.79738903 0 0 0 0 236386434.78443909 88576348.883954048 0 88576348.883954048 -17214353.658827782 0 0 0 0 1553266.6582554858 1531783.8309177016 0 1531783.8309177016 -749619.1976422742 0 0 0 0 23170473.539094925 15860721.511572838 0 15860721.511572838 -19244124.522816896 0 0 0 0 259185288.83269548 15024016.647986531 0 15024016.647986531 -31911316.332863808 0 0 0 0 24770526.887002945 124828056.08363199 0 124828056.08363199 25876239.647985458 0 0 0 0 20718374.413366318 110981225.63365841 0 110981225.63365841 23843020.62996304 0 0 0 0 -74326356.130037308 149089059.17220116 0 149089059.17220116 258539822.74835873 0 0 0 0 163917216.09659719 239263239.35850585 0 239263239.35850585 110107131.13732719 0 0 0 0 64667704.599098206 125951014.81867683 0 125951014.81867683 -40748202.888388634 0 0 0 0 -31165181.970548514 34034303.285057768 0 34034303.285057768 22191701.2584178 0 0 0 0 -137410067.93936825 30508147.676843882 0 30508147.676843882 131764553.79292107 0 0 0 0 5618982.308599472 111083615.97555542 0 111083615.97555542 48652115.60840416 0 0 0 0 13510638.896621466 137213905.62139583 0 137213905.62139583 75228516.225170135 0 0 0 0 -106280201.10027313 28395306.379776716 0 28395306.379776716 59866493.454939842 0 0 0 0 -23337913.327107329 39186109.897929609 0 39186109.897929609 28415262.046150878 0 0 0 0 -47959008.775390625 65973320.444130898 0 65973320.444130898 41425315.345022202 0 0 0 0 6704796.6010751724 111134416.44602299 0 111134416.44602299 41812766.092720032 0 0 0 0 -95347505.341911316 70950936.573540449 0 70950936.573540449 78230923.603708744 0 0 0 0 60082732.106140137 53905422.810180664 0 53905422.810180664 45707137.135549545 0 0 0 0 -133466160.11943054 -38830762.017669797 0 -38830762.017669797 4040201.6256542206 0 0 0 0 -30786918.335193589 22794096.817114048 0 22794096.817114048 19700828.34670921 0 0 0 0 -83715454.87677002 -79472743.938043356 0 -79472743.938043356 31209554.54148221 0 0 0 0 -4727887.0789682306 -2084800.1010902151 0 -2084800.1010902151 835414.92682462651 0 0 0 0 37467743.017648697 238164659.67825365 0 238164659.67825365 36788647.160787582 0 0 0 0 185165736.43281883 273862498.22994059 0 273862498.22994059 -194120946.38600159 0 0 0 0 33359735.011960983 231660981.42855072 0 231660981.42855072 42989443.571730614 0 0 0 0 139660583.22609329 388338879.36059403 0 388338879.36059403 102704222.80864525 0 0 0 0 -61143430.530185699 200638223.47101021 0 200638223.47101021 139053169.56504536 0 0 0 0 -59161187.237441063 177308415.42046547 0 177308415.42046547 80124242.454698563 0 0 0 0 981282.63231086731 147479651.58845329 0 147479651.58845329 85239929.11837101 0 0 0 0 -11426257.582737923 107260590.65287948 0 107260590.65287948 -17715335.343560219 0 0 0 0 -84919730.351458549 135887221.93036795 0 135887221.93036795 221571737.39768314 0 0 0 0 -21397448.990154266 89623678.692605734 0 89623678.692605734 -48901720.070526123 0 0 0 0 3858146.2775815781 4639925.6626307666 0 4639925.6626307666 -2752839.0880904924 0 0 0 0 -18106493.311718941 101852587.69224262 0 101852587.69224262 -54673501.77108717 0 0 0 0 -7896838.5631637573 60908320.694814682 0 60908320.694814682 -102716480.27532721 0 0 0 0 67400014.908354759 109326155.39110947 0 109326155.39110947 -72107635.403444767 0 0 0 0 69499270.048384666 61685873.803853512 0 61685873.803853512 -207437199.37831688 0 0 0 0 98227283.882364631 118505141.06817031 0 118505141.06817031 -148705606.83577538 0 0 0 0 31420688.505144119 10634647.092813969 0 10634647.092813969 -113090878.79690456 0 0 0 0 10357220.82805115 17024771.801807672 0 17024771.801807672 -103039745.41576672 0 0 0 0 -1457888.1211548932 11094721.461305397 0 11094721.461305397 -5799748.1416476425 0 0 0 0 49315787.111571789 73866710.574268609 0 73866710.574268609 64631775.38501668 0 0 0 0 41752245.561453819 77837929.997649372 0 77837929.997649372 63790306.654148519 0 0 0 0 40627883.532138824 17454527.390841484 0 17454527.390841484 29642216.620642185 0 0 0 0 6294980.3543300629 37736586.968736649 0 37736586.968736649 61473657.738964081 0 0 0 0 67887069.298100948 48466438.791173458 0 48466438.791173458 32345153.348814011 0 0 0 0 61979660.522434235 68834886.43565464 0 68834886.43565464 50473043.148620605 0 0 0 0 -3447604.7042274475 68153713.597234726 0 68153713.597234726 169965140.85593033 0 0 0 0 -380716.23914590944 299874.60623958241 0 299874.60623958241 -92360.576949242968 0 0 0 0 8873939.887029171 30507110.965297759 0 30507110.965297759 -73944061.997811317 0 0 0 0 7582953.2320492715 8123360.5419812044 0 8123360.5419812044 -9189087.2949864864 0 0 0 0 969052.84072971344 17201607.621965647 0 17201607.621965647 -28980236.781318665 0 0 0 0 20196067.35357666 22062904.474350929 0 22062904.474350929 -30390686.726722717 0 0 0 0 3055287.0504641533 28249538.738415956 0 28249538.738415956 -38283670.538859844 0 0 0 0 13594362.884425163 20899351.824324369 0 20899351.824324369 -34014237.744229794 0 0 0 0 -3084989.520488739 25752272.37414217 0 25752272.37414217 -25026079.828624368 0 0 0 0 -3168905.2727737427 18976862.513402939 0 18976862.513402939 -19022192.844322205 0 0 0 0 -3280374.767911911 25581647.511892796 0 25581647.511892796 -19137904.819814675 0 0 0 0 -3167865.2754478455 18520341.296365738 0 18520341.296365738 -26186055.771268845 0 0 0 0 15673577.103621257 24423091.266182013 0 24423091.266182013 -696153.03530513123 0 0 0 0 4491004.2176618576 45261912.167096138 0 45261912.167096138 37313147.143810272 0 0 0 0 -15220515.757377625 38380075.518587112 0 38380075.518587112 52726729.903839111 0 0 0 0 -23155862.780311584 41049151.488407135 0 41049151.488407135 52159983.425657272 0 0 0 0 4696099.1125399172 30633984.191747837 0 30633984.191747837 16603342.759146342 0 0 0 0 -2139621.5509347618 2280383.2964227758 0 2280383.2964227758 10111070.691200897 0 0 0 0 -22618984.691991806 15139044.257270813 0 15139044.257270813 45735096.07714653 0 0 0 0 10462143.462797165 43624162.541797638 0 43624162.541797638 64332529.648674011 0 0 0 0 3217579.465763092 16813082.513428211 0 16813082.513428211 39036708.898761749 0 0 0 0 17986462.199739456 -1276468.1159362793 0 -1276468.1159362793 58704272.807640076 0 0 0 0 30088232.818241119 17377365.323923111 0 17377365.323923111 36157795.534543991 0 0 0 0 13228009.525768053 23139252.111836366 0 23139252.111836366 1067500.9994113026 0 0 0 0 -546737.24456953257 2822722.7206132356 0 2822722.7206132356 5680861.0371495634 0 0 0 0 92014947.182869911 185501518.7270658 0 185501518.7270658 334473866.22638321 0 0 0 0 23546274.262412533 10398034.152418911 0 10398034.152418911 -6140462.012445027 0 0 0 0 53225033.386084557 15121464.616800547 0 15121464.616800547 -10740358.275862217 0 0 0 0 8833052.1299245358 6152697.6526347399 0 6152697.6526347399 861203.59926319122 0 0 0 0 -6317031.0604417948 18230497.437607527 0 18230497.437607527 1895541.9762657173 0 0 0 0 16098461.206855774 14810245.899647713 0 14810245.899647713 32182707.947415352 0 0 0 0 24066278.266507149 42528608.149499536 0 42528608.149499536 18856573.075265884 0 0 0 0 -8234182.0957807861 21321175.52467481 0 21321175.52467481 18153612.316356421 0 0 0 0 8137932.8824691772 44814222.250164986 0 44814222.250164986 37012684.877790451 0 0 0 0 42672915.03968811 32588222.30334568 0 32588222.30334568 24034220.398301125 0 0 0 0 27105447.059085846 49038575.753265381 0 49038575.753265381 40496836.381850243 0 0 0 0 28159703.154514551 53548845.929211497 0 53548845.929211497 27672828.020915985 0 0 0 0 3991185.3841896057 36613779.221385956 0 36613779.221385956 24578270.463141084 0 0 0 0 25279927.990770102 43695896.32649684 0 43695896.32649684 -25071418.898241997 0 0 0 0 23802660.497951508 26350052.871835232 0 26350052.871835232 -3616863.1559877396 0 0 0 0 -35065634.075912476 41075495.661817551 0 41075495.661817551 -35471746.617149115 0 0 0 0 -8093847.3669492565 40875019.990749411 0 40875019.990749411 -797853.67753756046 0 0 0 0 -32110792.943921804 50466575.719506502 0 50466575.719506502 -44876207.74243927 0 0 0 0 -25199588.631393433 38918684.429542542 0 38918684.429542542 -43279670.447646141 0 0 0 0 -30675194.557952881 39533001.658309937 0 39533001.658309937 -43152723.302217007 0 0 0 0 3915292.3569793701 31857284.230321884 0 31857284.230321884 20441963.528829575 0 0 0 0 18149166.410469055 79757433.892982483 0 79757433.892982483 60415165.465298653 0 0 0 0 21333298.227315128 62094923.223112486 0 62094923.223112486 -3509017.030636427 0 0 0 0 -10516507.166702271 -23284845.904848099 0 -23284845.904848099 -25952137.18106842 0 0 0 0 -10243971.092243195 100015596.96576262 0 100015596.96576262 11545518.464990616 0 0 0 0 9243227.8666582108 113886429.06817508 0 113886429.06817508 -9724028.5724487305 0 0 0 0 26333586.309560776 117636441.31381178 0 117636441.31381178 17977679.772713661 0 0 0 0 -2846570.3968119472 50539908.275241621 0 50539908.275241621 23389264.416395828 0 0 0 0 -29015034.06445694 59264333.727379799 0 59264333.727379799 -35678368.536254883 0 0 0 0 -16968106.834220886 57929982.035476685 0 57929982.035476685 -60310738.898511887 0 0 0 0 6286256.1834830195 35229579.354139417 0 35229579.354139417 16896293.709629886 0 0 0 0 54256858.607319832 77960425.722229481 0 77960425.722229481 -77897987.655854702 0 0 0 0 -9630860.346988678 90161780.425655365 0 90161780.425655365 -25006378.536148071 0 0 0 0 20995607.888261795 57612383.939257622 0 57612383.939257622 -53450244.389626503 0 0 0 0 92532992.65979971 108259251.87674192 0 108259251.87674192 -19404469.437734604 0 0 0 0 94121685.428422898 33103987.004943497 0 33103987.004943497 -41369760.886374474 0 0 0 0 412435.88816642761 47229642.448847294 0 47229642.448847294 -43484892.793210149 0 0 0 0 -69076218.639117241 98477654.123999596 0 98477654.123999596 30681863.23802948 0 0 0 0 -19493651.201198339 53953612.899660826 0 53953612.899660826 8998716.5623321533 0 0 0 0 -41081391.800258636 59988508.85203743 0 59988508.85203743 83165265.70255661 0 0 0 0 -84127337.668571472 117103837.53486633 0 117103837.53486633 61483066.77233696 0 0 0 0 1322885.2941818237 137899213.9961319 0 137899213.9961319 26275316.677651882 0 0 0 0 -84077815.993797302 153867651.49528313 0 153867651.49528313 29603644.238189697 0 0 0 0 -50604243.086402893 134416423.47756958 0 134416423.47756958 26097246.115279198 0 0 0 0 83693860.491764069 215527637.0473156 0 215527637.0473156 6934113.5615921021 0 0 0 0 -1512683.9798316956 81652783.796867371 0 81652783.796867371 -17555407.770271301 0 0 0 0 -11410971.494574547 50696341.807016373 0 50696341.807016373 -36042630.347724915 0 0 0 0 -8566876.8383750916 52814115.74143219 0 52814115.74143219 -44658311.262769699 0 0 0 0 22269096.720674515 73429055.488206863 0 73429055.488206863 -21298137.294029236 0 0 0 0 17377504.385065079 79881688.752477169 0 79881688.752477169 -19679882.10118866 0 0 0 0 8743285.1852226257 80618402.296775818 0 80618402.296775818 -7453472.3281288147 0 0 0 0 145504046.79672623 68428184.199747086 0 68428184.199747086 -8730402.9433178902 0 0 0 0 16376021.445350647 57840476.998495102 0 57840476.998495102 21772504.977282524 0 0 0 0 -27137877.220767975 62794043.022499084 0 62794043.022499084 22191598.883563995 0 0 0 0 -52108768.032653809 66473038.459850311 0 66473038.459850311 32059939.63593483 0 0 0 0 -31906458.336463928 47985441.2722435 0 47985441.2722435 13842506.204639435 0 0 0 0 -60984142.97484684 82257175.535146236 0 82257175.535146236 -25362093.585365295 0 0 0 0 -23704820.187545776 42825348.053913116 0 42825348.053913116 -50244687.775917053 0 0 0 0 365806.29863357544 40397887.611019135 0 40397887.611019135 -20995153.990699768 0 0 0 0 -17528119.529949188 56532550.605434418 0 56532550.605434418 -35515317.145126343 0 0 0 0 -18916200.524936676 37522677.871095657 0 37522677.871095657 -47285716.978187561 0 0 0 0 -28319286.91166687 28704681.358440399 0 28704681.358440399 -61055922.905158997 0 0 0 0 27886480.783678055 55214109.339723587 0 55214109.339723587 52107812.087474823 0 0 0 0 -56967878.719099045 75566788.200163841 0 75566788.200163841 61954120.516906738 0 0 0 0 -71592203.89752388 45205050.260580063 0 45205050.260580063 63013647.982143402 0 0 0 0 -48707892.705379486 79296487.136472225 0 79296487.136472225 95567103.031387329 0 0 0 0 -22013409.903055191 36536077.741764069 0 36536077.741764069 58679187.723941803 0 0 0 0 20377627.915281773 37473818.16632843 0 37473818.16632843 105012813.16588211 0 0 0 0 199829045.3441124 121177669.76200485 0 121177669.76200485 70642906.814050674 0 0 0 0 153477610.08608627 13299239.351130486 0 13299239.351130486 -10309281.408309937 0 0 0 0 18945792.498271942 34563221.126110077 0 34563221.126110077 45366260.881324768 0 0 0 0 808355.23261260986 -3014053.8655672073 0 -3014053.8655672073 -23209236.783845901 0 0 0 0 989655.34559350926 1010342.2397148367 0 1010342.2397148367 -3227528.3802956939 0 0 0 0 132691625.51720238 -15943366.633537292 0 -15943366.633537292 -2700511.5414142609 0 0 0 0 206579554.2704497 -42842581.382943153 0 -42842581.382943153 5810539.2373046875 0 0 0 0 591688.33696790785 428653.67498826608 0 428653.67498826608 -264443.84238468856 0 0 0 0 -117911716.30421066 176526412.90814209 0 176526412.90814209 39056580.6003685 0 0 0 0 -137080767.76687956 71032739.895690918 0 71032739.895690918 -24341980.162506104 0 0 0 0 -111666266.29661179 71035418.866128922 0 71035418.866128922 13668058.987579346 0 0 0 0 -98415141.223213196 114744443.50961876 0 114744443.50961876 -166492664.95480347 0 0 0 0 -142483394.84730339 105161732.83240318 0 105161732.83240318 5644459.6473464966 0 0 0 0 1162609.8847226873 2636857.2078862377 0 2636857.2078862377 1938830.2833516411 0 0 0 0 -211529540.74270821 134824808.87861347 0 134824808.87861347 -64697089.07093811 0 0 0 0 -147752636.29154968 212438800.88713646 0 212438800.88713646 -161753556.91170061 0 0 0 0 42972979.685382843 -19575667.07433033 0 -19575667.07433033 -17088680.940593719 0 0 0 0 41083415.667032242 -39058739.48888588 0 -39058739.48888588 47876739.76348114 0 0 0 0 503261.02740652952 1047338.2224752046 0 1047338.2224752046 -2871045.0674368292 0 0 0 0 -32194471.169851303 785279.01632118225 0 785279.01632118225 29308171.840147018 0 0 0 0 38286258.354978561 -36850456.866735458 0 -36850456.866735458 -11771508.617071152 0 0 0 0 184704748.2045269 8226693.1083164215 0 8226693.1083164215 -20055735.58663559 0 0 0 0 -101906292.69092321 -159445080.32094145 0 -159445080.32094145 -42891396.388620377 0 0 0 0 -336813101.53131485 103555151.22156906 0 103555151.22156906 100550733.53953695 0 0 0 0 185671417.99484372 287259481.34036964 0 287259481.34036964 163578094.08324814 0 0 0 0 199663726.00887489 230402731.96508217 0 230402731.96508217 73874440.452278137 0 0 0 0 181849396.80455935 327575708.683339 0 327575708.683339 338353431.32835007 0 0 0 0 56236558.462646961 63703141.613353252 0 63703141.613353252 121322358.56999969 0 0 0 0 94577458.135257721 91010688.78215313 0 91010688.78215313 43319538.207679749 0 0 0 0 63183711.530260086 128362400.27122498 0 128362400.27122498 198661334.55283165 0 0 0 0 62759175.197027206 47313344.480989456 0 47313344.480989456 -8849298.8327674866 0 0 0 0 13488179.67382431 37226845.711109161 0 37226845.711109161 89290780.543914795 0 0 0 0 -14799635.059720993 717319.77417945862 0 717319.77417945862 50148328.271816254 0 0 0 0 -52205462.051961899 63813785.659539223 0 63813785.659539223 10440476.141242981 0 0 0 0 -103930451.93322754 45899769.046051025 0 45899769.046051025 6475652.5007209778 0 0 0 0 -75592953.990114212 107103139.54023552 0 107103139.54023552 -75915791.27980423 0 0 0 0 -92439225.189155579 77913381.785801888 0 77913381.785801888 -138160663.05345535 0 0 0 0 -57579776.111289978 131947022.10050583 0 131947022.10050583 -73962525.398347855 0 0 0 0 195377444.3013382 169625655.46270561 0 169625655.46270561 -88400497.759903908 0 0 0 0 -59886540.173305511 55405646.707155228 0 55405646.707155228 22111153.755426407 0 0 0 0 391201339.28694725 351412077.14266205 0 351412077.14266205 -215449951.38764191 0 0 0 0 -67909175.21769762 53103648.435216427 0 53103648.435216427 -118844526.35335541 0 0 0 0 -156284021.50917053 265472603.62140465 0 265472603.62140465 -174360211.19652939 0 0 0 0 1525252.5515695289 2474542.6792635284 0 2474542.6792635284 1859088.570452068 0 0 0 0 -1477186.0977606773 52110909.358918667 0 52110909.358918667 4255483.130027771 0 0 0 0 133604620.67641258 55667426.075654984 0 55667426.075654984 -6009350.935593605 0 0 0 0 24440408.280762672 87982438.392860413 0 87982438.392860413 188002881.52287674 0 0 0 0 834856.97945504636 1114664.5838046297 0 1114664.5838046297 797738.25417841226 0 0 0 0 122082335.19143486 410779938.46146584 0 410779938.46146584 565416802.60486031 0 0 0 0 269047520.22207451 538912441.52377558 0 538912441.52377558 350409526.0928154 0 0 0 0 240190908.74036407 386117342.09965706 0 386117342.09965706 79618249.069156647 0 0 0 0 240582250.61821246 378676761.50066626 0 378676761.50066626 176410745.7894516 0 0 0 0 345532230.89101601 323641015.19869041 0 323641015.19869041 195802057.08796024 0 0 0 0 289326862.45660973 237406654.18246651 0 237406654.18246651 79658513.283233643 0 0 0 0 898628.11389282718 564042.72768023238 0 564042.72768023238 -28405.38534784317 0 0 0 0 423199414.24895239 62496808.606589317 0 62496808.606589317 2597182.3208770752 0 0 0 0 582878752.3557663 213891968.91049385 0 213891968.91049385 -208773748.85470581 0 0 0 0 682622570.52256393 59503047.187774658 0 59503047.187774658 -188931382.00123215 0 0 0 0 618121147.65880013 315964264.7991066 0 315964264.7991066 81420180.831761777 0 0 0 0 446191946.23073006 467594476.150424 0 467594476.150424 192032469.62962532 0 0 0 0 33939474.543272018 307113.21305274963 0 307113.21305274963 59056714.420022964 0 0 0 0 31799108.872262955 -24522172.644499779 0 -24522172.644499779 -52068841.021266937 0 0 0 0 -33960053.776082993 54184994.957071304 0 54184994.957071304 69762273.444793701 0 0 0 0 141076437.20016289 87549524.960981369 0 87549524.960981369 75131339.748954773 0 0 0 0 19457727.792604446 -12236497.084690094 0 -12236497.084690094 39591923.529258728 0 0 0 0 64364952.039159775 -15876365.980717659 0 -15876365.980717659 32090791.27580452 0 0 0 0 5291825.2638626685 15780108.434860775 0 15780108.434860775 14277567.183544207 0 0 0 0 13122561.149968624 8180190.2459921837 0 8180190.2459921837 51574541.727996826 0 0 0 0 -10703541.03029391 183699.77396893129 0 183699.77396893129 8654894.5980038606 0 0 0 0 8802980.0226879716 12625157.858447973 0 12625157.858447973 1269806.4689418171 0 0 0 0 172740.14733862877 5724444.6205663681 0 5724444.6205663681 -859448.0503692627 0 0 0 0 -7963966.0685005188 -9709401.3946304321 0 -9709401.3946304321 64445481.999103546 0 0 0 0 2045713.9103856804 14712180.373621125 0 14712180.373621125 1998888.6516650468 0 0 0 0 -55787030.098257601 74619601.185131073 0 74619601.185131073 99079538.282951355 0 0 0 0 89178862.129032135 -727975142.71966553 0 -727975142.71966553 -300811768.39653778 0 0 0 0 -56472492.082202911 -44209594.02173996 0 -44209594.02173996 42514710.770584106 0 0 0 0 82278407.730895042 -273594342.18843555 0 -273594342.18843555 -373662296.09693909 0 0 0 0 -145516740.72605658 137517591.4257226 0 137517591.4257226 -465256.42630767822 0 0 0 0 1162852488.4546623 -14085695.55198288 0 -14085695.55198288 -714422407.53548813 0 0 0 0 215681293.17230797 10438106.197414398 0 10438106.197414398 -80199470.424125671 0 0 0 0 434105580.36421204 831428939.78428268 0 831428939.78428268 2015812258.4269657 0 0 0 0 1460247880.2677116 -658108523.28666306 0 -658108523.28666306 342279858.49308014 0 0 0 0 -551091130.20090294 222415826.85241127 0 222415826.85241127 429690016.5933466 0 0 0 0 3472722.8172755241 5466058.5333265066 0 5466058.5333265066 24766564.481657028 0 0 0 0 -5885617.32202355 17665268.382459834 0 17665268.382459834 21973299.30781959 0 0 0 0 853102358.85942841 467803168.7218399 0 467803168.7218399 -38810803.395172119 0 0 0 0 1721693621.6961803 694040190.63222313 0 694040190.63222313 -289246833.25313187 0 0 0 0 9676307.6104220971 2479832.0656726919 0 2479832.0656726919 -2553521.2583853267 0 0 0 0 430385331.6701622 890319822.25410175 0 890319822.25410175 1515682755.6836128 0 0 0 0 164885569.90527344 220852243.35384369 0 220852243.35384369 229738330.48810577 0 0 0 0 -54923788.333783627 81179955.024996281 0 81179955.024996281 130387681.96454334 0 0 0 0 -54348752.104729652 57580514.911417961 0 57580514.911417961 -6398967.3029737473 0 0 0 0 662489639.06894851 482822503.12912691 0 482822503.12912691 -13845901.514263153 0 0 0 0 994515700.33709717 690533525.03436184 0 690533525.03436184 93510226.31183815 0 0 0 0 667707661.86459017 449092965.60324013 0 449092965.60324013 -84860486.284091949 0 0 0 0 1098312326.7713127 501992599.66267776 0 501992599.66267776 -339368931.02120018 0 0 0 0 1267205648.2653961 -198839339.41244602 0 -198839339.41244602 -210925958.44823837 0 0 0 0 1770322036.9281607 751741242.40663338 0 751741242.40663338 -260040326.79250717 0 0 0 0 443020331.83718491 789097515.6234436 0 789097515.6234436 202727485.20845127 0 0 0 0 1061547486.7345762 416644258.13862181 0 416644258.13862181 -393606201.19159317 0 0 0 0 23055724.157478333 -12625.634397268295 0 -12625.634397268295 7725916.5447463989 0 0 0 0 -209771642.29197502 153168319.6217947 0 153168319.6217947 -66949169.280250549 0 0 0 0 -1527695.1154403687 -1501808.0902690887 0 -1501808.0902690887 21677908.559106827 0 0 0 0 -1461527.303929857 17587131.275817603 0 17587131.275817603 12417129.272351138 0 0 0 0 22548387.592783928 2288402.868897438 0 2288402.868897438 -1279291.9026660919 0 0 0 0 32929436.043474197 42019220.237100601 0 42019220.237100601 11889925.082010269 0 0 0 0 10459400.523605347 17801459.776214123 0 17801459.776214123 4326799.4437866211 0 0 0 0 13330058.523935318 9703658.8009595871 0 9703658.8009595871 25814436.487878799 0 0 0 0 2514902787.3051338 281997169.10981083 0 281997169.10981083 -64973513.496017933 0 0 0 0 1495671434.3107262 661413448.92609596 0 661413448.92609596 -323365998.90944386 0 0 0 0 1197713364.0782776 301886076.42519665 0 301886076.42519665 142271440.70750427 0 0 0 0 541677.0716663748 778164.79151920881 0 778164.79151920881 698298.61139619723 0 0 0 0 1014940480.3178978 592156015.6137867 0 592156015.6137867 161421136.43130493 0 0 0 0 -168383.69943890348 3356864.2641369142 0 3356864.2641369142 4483137.6607862152 0 0 0 0 1113920136.6678038 -417684003.64501917 0 -417684003.64501917 1097423812.560153 0 0 0 0 1005743036.4111748 1083323805.9130516 0 1083323805.9130516 981531222.01708317 0 0 0 0 2098036699.1588116 988354569.5591507 0 988354569.5591507 221170458.35786819 0 0 0 0 1210955.0014634132 122552878.82496691 0 122552878.82496691 931968501.38806248 0 0 0 0 -6038593.3159982823 7581573.0528898723 0 7581573.0528898723 6351313.7299633771 0 0 0 0 551367497.47714186 1316963613.5822344 0 1316963613.5822344 657360571.28337669 0 0 0 0 -3048128.6762597002 2663957.5274667544 0 2663957.5274667544 191232.38145418931 0 0 0 0 611308347.73349953 250569609.66973639 0 250569609.66973639 -179254982.05957699 0 0 0 0 725131721.2713089 638561090.8625164 0 638561090.8625164 -366346757.57903767 0 0 0 0 757400872.26766467 419147772.75599033 0 419147772.75599033 -100318239.31631708 0 0 0 0 483099132.82794189 545078811.01762104 0 545078811.01762104 -91753429.964520156 0 0 0 0 61466336.268281043 135913411.72608322 0 135913411.72608322 60074631.462865233 0 0 0 0 22610074.222310066 -3921032.6950097084 0 -3921032.6950097084 18826632.135530233 0 0 0 0 53699190.566101074 70861685.905463338 0 70861685.905463338 5935156.0029773712 0 0 0 0 169331466.42840195 -454935405.67533827 0 -454935405.67533827 415540661.8462944 0 0 0 0 633333745.5843277 268278237.80600071 0 268278237.80600071 -138375239.26680851 0 0 0 0 -6741409.2144505773 7737079.5398854287 0 7737079.5398854287 4946685.8174248692 0 0 0 0 429584423.80569458 294682479.34018803 0 294682479.34018803 418619531.02559185 0 0 0 0 -373404981.63245583 152368235.09130907 0 152368235.09130907 131096112.02533722 0 0 0 0 -490610797.06346512 192812296.0840807 0 192812296.0840807 125937222.52914047 0 0 0 0 -382556909.09333229 178403716.38804531 0 178403716.38804531 112723853.2956295 0 0 0 0 -223342012.20393562 121761559.83756518 0 121761559.83756518 15628666.741827011 0 0 0 0 -238794774.29705524 101486292.30571461 0 101486292.30571461 73611411.4830513 0 0 0 0 -326859753.75450134 192053202.13301897 0 192053202.13301897 73928968.256418228 0 0 0 0 -184145032.57481003 203268075.05001521 0 203268075.05001521 8870016.1887216568 0 0 0 0 -62824248.399723053 144057335.51285601 0 144057335.51285601 -15448200.406610489 0 0 0 0 -177779591.52934837 211782090.14046502 0 211782090.14046502 770396.61128044128 0 0 0 0 -343730609.36663055 395193750.94917011 0 395193750.94917011 -164332772.23126864 0 0 0 0 -380722479.22778702 212451547.54799366 0 212451547.54799366 66596437.370329857 0 0 0 0 -384410759.75071216 238670896.41854429 0 238670896.41854429 108008761.57186127 0 0 0 0 -552408626.57180023 392794402.57274675 0 392794402.57274675 2041678.0602955818 0 0 0 0 -488295688.5660162 296857270.10606813 0 296857270.10606813 104086833.77726555 0 0 0 0 -1056388787.7839642 -231884948.50774777 0 -231884948.50774777 235491900.73613262 0 0 0 0 -132199850.2807312 -168897661.81296206 0 -168897661.81296206 139537274.5121932 0 0 0 0 -4843174.9449440297 5221492.8749657553 0 5221492.8749657553 2860926.3354441514 0 0 0 0 -6717654.7464942932 38651161.111770391 0 38651161.111770391 25661976.048739433 0 0 0 0 723695753.56014442 679218269.50059414 0 679218269.50059414 82322489.871688128 0 0 0 0 599724022.33806229 266017125.76356906 0 266017125.76356906 268666927.06674004 0 0 0 0 -49955262.939037323 -8935959.1225004196 0 -8935959.1225004196 24020045.164230704 0 0 0 0 36103554.289961696 19528324.806352258 0 19528324.806352258 -19703498.972728729 0 0 0 0 -142521177.448349 30578604.944005489 0 30578604.944005489 60973655.476550579 0 0 0 0 -489735811.45889676 21284971.418307319 0 21284971.418307319 125434449.72064972 0 0 0 0 -140640909.3362112 38578076.785607576 0 38578076.785607576 28029758.240146637 0 0 0 0 -301935015.3290844 155427809.23040104 0 155427809.23040104 7138927.0587806702 0 0 0 0 -146623113.60726166 113995137.95786858 0 113995137.95786858 16503786.360665321 0 0 0 0 -29138955.229991913 29379887.745989323 0 29379887.745989323 -24897934.526281834 0 0 0 0 -9980080.5291385651 -2408092.4457921982 0 -2408092.4457921982 3297875.5055217743 0 0 0 0 -42471843.944890976 2504410.514588356 0 2504410.514588356 2989528.185696125 0 0 0 0 -1345641.3759498596 10833644.660802841 0 10833644.660802841 -3933898.3940601349 0 0 0 0 -73655536.278738022 -23362070.756219864 0 -23362070.756219864 33052047.027358055 0 0 0 0 -66815903.033154011 92200265.056831837 0 92200265.056831837 -95336703.669612885 0 0 0 0 51728582.913818359 108599959.55857658 0 108599959.55857658 -250558038.778584 0 0 0 0 -647697531.80080223 247529973.63353348 0 247529973.63353348 139484189.4404707 0 0 0 0 -340112187.29099751 368480065.85774064 0 368480065.85774064 -200277087.64507961 0 0 0 0 -396761071.16495132 187491324.31286526 0 187491324.31286526 107168334.44099712 0 0 0 0 -226419596.29145229 31291091.901764333 0 31291091.901764333 39274306.455635071 0 0 0 0 -228040946.06550217 12375561.569512367 0 12375561.569512367 102095285.76462364 0 0 0 0 -420916580.88431549 82186772.739411354 0 82186772.739411354 90823820.916482925 0 0 0 0 -572985002.04820442 37205379.046172142 0 37205379.046172142 172055327.92585373 0 0 0 0 -129284567.16797447 300657136.56329107 0 300657136.56329107 -441101552.74750233 0 0 0 0 -6282107.4936773665 580670.74187480006 0 580670.74187480006 2205176.1089306399 0 0 0 0 -791630.94288463518 4625303.1977498941 0 4625303.1977498941 1772507.2401084404 0 0 0 0 -1605752440.1416092 304080954.66890812 0 304080954.66890812 -13445830.864420891 0 0 0 0 -290772719.80476189 -69182431.806326389 0 -69182431.806326389 180371350.18352795 0 0 0 0 -974451204.72246683 -173285160.46719304 0 -173285160.46719304 271674258.47852325 0 0 0 0 -1078115861.3975289 748640654.97248375 0 748640654.97248375 -163854908.21957588 0 0 0 0 -302942763.06708407 -299715308.64270496 0 -299715308.64270496 250089617.3917942 0 0 0 0 -803334862.35413551 268144414.45961761 0 268144414.45961761 104787170.68950653 0 0 0 0 -247156775.55457306 -321662900.92196274 0 -321662900.92196274 213294689.34885502 0 0 0 0 -215568266.30030203 -305867351.05367947 0 -305867351.05367947 211467000.84555817 0 0 0 0 -221583748.75354767 -312240077.53607941 0 -312240077.53607941 209434896.79172516 0 0 0 0 -225772224.40215492 -306594404.10978889 0 -306594404.10978889 223555106.15767288 0 0 0 0 -259861471.13063145 583092666.58768845 0 583092666.58768845 -838140263.57124519 0 0 0 0 -5387184.6116849873 -1663232.030472653 0 -1663232.030472653 -347222.56461989321 0 0 0 0 -1166680205.3251469 647703979.49751854 0 647703979.49751854 -25935423.014467239 0 0 0 0 -216885907.24228287 -303235738.46594238 0 -303235738.46594238 221821209.76172829 0 0 0 0 -491489660.94115067 -73004959.013942719 0 -73004959.013942719 189468281.95129013 0 0 0 0 143988601.76405716 -71924170.152415276 0 -71924170.152415276 189039431.13490295 0 0 0 0 -14984388.818931054 10544472.393843878 0 10544472.393843878 7359100.4637642298 0 0 0 0 -10533489.955319405 5933364.1202754974 0 5933364.1202754974 59255483.633171082 0 0 0 0 140151107.01170778 126526479.84140396 0 126526479.84140396 112764153.48947334 0 0 0 0 -6333636.1234416962 -15841276.096416473 0 -15841276.096416473 20939237.68195343 0 0 0 0 -37208720.337949753 54366500.992230415 0 54366500.992230415 92371564.554794312 0 0 0 0 -13888152.513868365 4160309.3916963944 0 4160309.3916963944 5078615.6002389286 0 0 0 0 -461931441.75900996 492989309.52258623 0 492989309.52258623 393364136.87003326 0 0 0 0 373977096.33200073 -301332514.99917603 0 -301332514.99917603 -408780822.97788644 0 0 0 0 297829283.07540494 178205972.09963322 0 178205972.09963322 -466399636.06089211 0 0 0 0 176775071.65992117 -167712053.40284348 0 -167712053.40284348 88276330.982134819 0 0 0 0 136288487.69760752 28831806.135288239 0 28831806.135288239 -12302032.735944748 0 0 0 0 309650911.54862964 94610395.917204142 0 94610395.917204142 11400414.004501343 0 0 0 0 -18820768.955571175 11870925.075858116 0 11870925.075858116 16566827.584194183 0 0 0 0 -23087918.682590008 14164308.397820473 0 14164308.397820473 25840176.413824081 0 0 0 0 2014035.9612962669 7725858.1487966618 0 7725858.1487966618 3571633.1273013046 0 0 0 0 -15284824.34715414 22609059.029376984 0 22609059.029376984 19020250.098436356 0 0 0 0 5547421.8443850279 475611.07529115677 0 475611.07529115677 -16982217.653816223 0 0 0 0 -47678725.625752926 -39533473.475667953 0 -39533473.475667953 -28219325.914031506 0 0 0 0 -31243622.898325443 -249810.49374485016 0 -249810.49374485016 7147699.0123119354 0 0 0 0 -16013898.30230093 11425357.17902565 0 11425357.17902565 -2930473.4755649567 0 0 0 0 -97662205.408606052 168980984.38632584 0 168980984.38632584 -291775776.97756267 0 0 0 0 -66323262.019274473 252271958.10593987 0 252271958.10593987 -302372714.63173294 0 0 0 0 47786637.876670837 163531476.68653154 0 163531476.68653154 -710914462.28992081 0 0 0 0 -696898756.91433811 131311930.4702549 0 131311930.4702549 146047875.72611809 0 0 0 0 273469.0687304819 648888.76326576248 0 648888.76326576248 323405.49686357006 0 0 0 0 -59699975.899393082 -62585612.625212669 0 -62585612.625212669 -33468974.11117506 0 0 0 0 -211862982.05195427 -30249554.650840759 0 -30249554.650840759 -7409153.2172393799 0 0 0 0 -76422100.582062721 -69325931.20771122 0 -69325931.20771122 -21485653.160438061 0 0 0 0 -278474557.83484399 135125686.60999727 0 135125686.60999727 -143318654.93329239 0 0 0 0 -135013249.39849877 -34288822.266087532 0 -34288822.266087532 -57992266.527332306 0 0 0 0 -80950351.079376221 -26291478.621841431 0 -26291478.621841431 94612295.451877594 0 0 0 0 -165971652.25885892 13377716.331430435 0 13377716.331430435 76105505.003526688 0 0 0 0 -61388521.238820314 -13397642.533140659 0 -13397642.533140659 43912517.573999405 0 0 0 0 -69844910.352061033 -49241751.162259579 0 -49241751.162259579 36330527.328338623 0 0 0 0 -75696880.266118288 -13738111.40489769 0 -13738111.40489769 81739497.30644989 0 0 0 0 -72795884.964839458 26993961.287837982 0 26993961.287837982 121555570.43230438 0 0 0 0 68106248.223600864 95190883.050211906 0 95190883.050211906 103303070.95754051 0 0 0 0 -53922331.226419151 66227275.102524519 0 66227275.102524519 187588718.9214344 0 0 0 0 4616929.8442721367 81595537.590187073 0 81595537.590187073 134933266.04593086 0 0 0 0 16251350.715342999 70739043.919341087 0 70739043.919341087 75619730.868228912 0 0 0 0 -40617379.436852932 61291297.046052933 0 61291297.046052933 100383578.33661079 0 0 0 0 75137320.607434928 93595068.794303715 0 93595068.794303715 27760035.842529297 0 0 0 0 -6890007.4866094589 60579777.168195724 0 60579777.168195724 54200857.75884521 0 0 0 0 154762916.72053719 98197808.928039551 0 98197808.928039551 -11005269.444519043 0 0 0 0 69228028.536587715 165840963.07083511 0 165840963.07083511 124259239.72874808 0 0 0 0 -15401453.260750484 33969292.561209343 0 33969292.561209343 -33637457.893134989 0 0 0 0 188249479.7625885 14421791.562103271 0 14421791.562103271 -168309780.04129601 0 0 0 0 5362855.8304214478 106811753.57842255 0 106811753.57842255 1154349.44896698 0 0 0 0 7882521.4792938232 93079686.585632324 0 93079686.585632324 -50003112.316482544 0 0 0 0 140637620.05825853 200150966.25419855 0 200150966.25419855 19305415.665840149 0 0 0 0 -9250004.0877685547 64151472.171497345 0 64151472.171497345 8860161.5482330322 0 0 0 0 -33349104.284881592 -89570185.350715637 0 -89570185.350715637 -132776092.34379768 0 0 0 0 -12857023.894515991 18815458.654178619 0 18815458.654178619 -50124836.62361908 0 0 0 0 69388260.575111389 57451705.717422485 0 57451705.717422485 -32142387.40096283 0 0 0 0 -11759944.508780003 77761939.731630325 0 77761939.731630325 -6184273.9198608398 0 0 0 0 -94008999.882252693 172426.90163993835 0 172426.90163993835 27748375.300834656 0 0 0 0 -37408197.815114498 36057111.838810921 0 36057111.838810921 34359433.741859436 0 0 0 0 -137299373.9367528 13763012.46471405 0 13763012.46471405 66469295.153915405 0 0 0 0 -99915128.747179985 51731202.723690033 0 51731202.723690033 69448613.997680664 0 0 0 0 -154230040.56934226 50277161.811059952 0 50277161.811059952 67741105.142810822 0 0 0 0 -541987.97136414051 16120719.220839903 0 16120719.220839903 18828261.299442265 0 0 0 0 117314180.29691005 16703866.1304878 0 16703866.1304878 -8338280.7156524658 0 0 0 0 787058.48962262273 594216.91960132122 0 594216.91960132122 57178.931282892823 0 0 0 0 127546836.38325119 135287223.22605705 0 135287223.22605705 107218378.72085571 0 0 0 0 -59211174.147136688 163305328.72332191 0 163305328.72332191 39680120.045408726 0 0 0 0 -71570264.884184361 -15014813.817813873 0 -15014813.817813873 55984934.160681248 0 0 0 0 -71781877.14564085 -6286012.3751239777 0 -6286012.3751239777 13102266.55490461 0 0 0 0 -83225086.658262253 13582748.340499878 0 13582748.340499878 70220643.078552544 0 0 0 0 -57730578.60372591 21948903.191493034 0 21948903.191493034 49285958.687770844 0 0 0 0 -101762723.27448225 49097418.84469223 0 49097418.84469223 14600080.791564941 0 0 0 0 131295617.25682211 -22658624.464105129 0 -22658624.464105129 -40999729.86095047 0 0 0 0 2348682.8551332941 13484488.167658821 0 13484488.167658821 17464410.375978947 0 0 0 0 -77928990.966284871 -5491293.7787969112 0 -5491293.7787969112 18824399.397640228 0 0 0 0 8181035.5626144409 60439331.785682678 0 60439331.785682678 3880202.7609272003 0 0 0 0 1547469.1760931462 1134062.8287754841 0 1134062.8287754841 147490.42353462428 0 0 0 0 31101280.659506321 16116567.928564072 0 16116567.928564072 -15007094.272518158 0 0 0 0 128936908.35657501 -40484320.244224548 0 -40484320.244224548 -56113392.613380432 0 0 0 0 35926870.390100598 65819882.299431324 0 65819882.299431324 -82291641.341804504 0 0 0 0 -2266282.6949710846 -56147793.776018143 0 -56147793.776018143 9168627.8799324036 0 0 0 0 63932447.443725586 -6456764.8125724792 0 -6456764.8125724792 -98017903.501828194 0 0 0 0 123575366.75635147 170125521.07046127 0 170125521.07046127 128625581.09886169 0 0 0 0 279118489.97223663 126626402.57319069 0 126626402.57319069 39073679.355667114 0 0 0 0 133713928.98839378 -38117470.069910049 0 -38117470.069910049 -18751328.44589901 0 0 0 0 147170095.72733116 -31854159.949373245 0 -31854159.949373245 -74297748.142997742 0 0 0 0 128035522.73719883 20577049.167193413 0 20577049.167193413 -39657264.902084351 0 0 0 0 91764757.612731934 -2978894.0768451691 0 -2978894.0768451691 -1805117.2007536888 0 0 0 0 -82512088.775018692 23642486.031238556 0 23642486.031238556 -32508685.629078388 0 0 0 0 166092899.68419266 -40120458.501857758 0 -40120458.501857758 -72322103.895324707 0 0 0 0 189054332.20131493 -99427375.249771118 0 -99427375.249771118 -13013522.110565186 0 0 0 0 605959661.91666031 111267450.29647827 0 111267450.29647827 3551330.4163792133 0 0 0 0 52656775.915973663 -25410922.754553795 0 -25410922.754553795 -16825826.420028687 0 0 0 0 62849638.132315159 -29209208.770349979 0 -29209208.770349979 -110193727.88698578 0 0 0 0 -87765963.555257797 121769859.77529335 0 121769859.77529335 59673884.154098511 0 0 0 0 -63056219.943442345 16725124.411966801 0 16725124.411966801 -12901494.798233032 0 0 0 0 85436915.230646133 131796730.73163605 0 131796730.73163605 36113462.261825562 0 0 0 0 77633938.775209427 14664938.573541641 0 14664938.573541641 -68168749.92325592 0 0 0 0 141932859.28372478 -1808386.5859861374 0 -1808386.5859861374 -62884821.264450073 0 0 0 0 143684864.89119339 -3014805.1448135376 0 -3014805.1448135376 -70436328.574774504 0 0 0 0 170953355.54080009 233815062.62048149 0 233815062.62048149 121508231.80818176 0 0 0 0 417051946.45339584 37471425.882637024 0 37471425.882637024 -58937637.831604481 0 0 0 0 -51506449.470809937 117923363.83992767 0 117923363.83992767 155861090.84798527 0 0 0 0 -14296258.237201691 49778710.847278595 0 49778710.847278595 19773601.237686157 0 0 0 0 3089860.8232727051 110213302.55173492 0 110213302.55173492 53925811.333845139 0 0 0 0 -7081598.6565904617 127042316.76049042 0 127042316.76049042 69674268.203971863 0 0 0 0 -10625339.200351715 117163224.24549103 0 117163224.24549103 46073193.805793762 0 0 0 0 -22688834.951210022 58336455.215946198 0 58336455.215946198 61327722.794172764 0 0 0 0 -10861575.488664627 64176417.379489899 0 64176417.379489899 15851581.206100464 0 0 0 0 -25293059.880001068 28189154.761989594 0 28189154.761989594 -7062089.6880645752 0 0 0 0 -24084665.463594437 32057328.822128296 0 32057328.822128296 -22459741.821731567 0 0 0 0 -30291611.339466095 23451421.751815796 0 23451421.751815796 -13756837.369762421 0 0 0 0 -19127178.973021507 48783586.011359215 0 48783586.011359215 20836551.21005249 0 0 0 0 -1663670.6736500692 4678753.8449744582 0 4678753.8449744582 -467867.64829924703 0 0 0 0 498628593.96003532 229760837.67328644 0 229760837.67328644 64760560.499519348 0 0 0 0 -113104437.42835236 41342315.029672623 0 41342315.029672623 73581245.508529663 0 0 0 0 -891180.8566785492 1497163.8710606694 0 1497163.8710606694 -635104.122484494 0 0 0 0 -27365913.28567791 29784801.902344704 0 29784801.902344704 -36715776.693328857 0 0 0 0 406290465.51817322 -209588389.71140671 0 -209588389.71140671 -210729964.51194 0 0 0 0 211314943.36360931 229928387.6446619 0 229928387.6446619 498514242.87167358 0 0 0 0 1046163.421962738 10549205.980308533 0 10549205.980308533 -9902091.9588813782 0 0 0 0 2549991.4293481223 9819905.4714225382 0 9819905.4714225382 -12425165.155411407 0 0 0 0 -23087105.603046417 27902546.771560669 0 27902546.771560669 -23544597.690029144 0 0 0 0 -11369368.230176702 12530201.879097946 0 12530201.879097946 -103142.96429778636 0 0 0 0 -28923926.569911957 27181170.122982025 0 27181170.122982025 -23383061.762107849 0 0 0 0 -32709159.206207275 48439908.62569046 0 48439908.62569046 -37194434.116527379 0 0 0 0 -9589380.3414991386 8298992.4266825095 0 8298992.4266825095 1495700.1607906558 0 0 0 0 -37389678.617202759 43107971.224941254 0 43107971.224941254 -24311078.567527771 0 0 0 0 4216193.6749740057 3088337.6715563536 0 3088337.6715563536 1097235.4397445843 0 0 0 0 -154639126.22271872 220691114.43053102 0 220691114.43053102 -132839705.97232819 0 0 0 0 -99879074.951901436 157697802.57675076 0 157697802.57675076 -192403188.22673035 0 0 0 0 14545830.802812576 -161156653.26783752 0 -161156653.26783752 21060461.173736572 0 0 0 0 -79697224.977466583 169651386.4579258 0 169651386.4579258 196605234.64606857 0 0 0 0 573937909.13780594 170780814.8365097 0 170780814.8365097 -221407278.69126892 0 0 0 0 2214917.9091315493 1281014.6731004938 0 1281014.6731004938 228799.36654609814 0 0 0 0 -113589149.8193264 60287415.986896992 0 60287415.986896992 35531880.296203613 0 0 0 0 -150048508.45508575 97915738.185642242 0 97915738.185642242 5298480.1532974243 0 0 0 0 -4657839.4563713074 129534215.01714134 0 129534215.01714134 14840115.943202972 0 0 0 0 -159185091.52102852 114097381.70030785 0 114097381.70030785 104359135.05751991 0 0 0 0 -3296029.814858377 190673031.17511848 0 190673031.17511848 -489358.547996521 0 0 0 0 213493203.4364357 364420838.24682236 0 364420838.24682236 136953798.00393963 0 0 0 0 208183968.66218567 136786673.63660049 0 136786673.63660049 -42664926.031543732 0 0 0 0 30899206.007528305 90655110.380222797 0 90655110.380222797 6879343.9620513916 0 0 0 0 40711486.132537842 105978791.24346352 0 105978791.24346352 -48141921.999557495 0 0 0 0 -91205174.649730682 61642438.042263985 0 61642438.042263985 30732000.341178894 0 0 0 0 -63204181.612438202 128933430.21932793 0 128933430.21932793 20100649.426544189 0 0 0 0 5636972.6959171295 10386648.091590881 0 10386648.091590881 -3079445.3921985626 0 0 0 0 -2289517.4559863992 19632417.676095951 0 19632417.676095951 -7772279.9240701348 0 0 0 0 3250386.4301376343 13938184.157920837 0 13938184.157920837 -1941938.5374526978 0 0 0 0 -2406290.5976150036 14048162.80506897 0 14048162.80506897 -1881323.9257659912 0 0 0 0 -1680020.8377723694 8686712.4326353073 0 8686712.4326353073 -3351254.6776580811 0 0 0 0 102828.3144572163 16700571.129276559 0 16700571.129276559 -15712956.59555234 0 0 0 0 38694906.979593277 6659671.0536308289 0 6659671.0536308289 -59841802.665649414 0 0 0 0 663677356.18421173 158332260.3719883 0 158332260.3719883 -345037200.22256851 0 0 0 0 153548935.74172211 -12525616.312328339 0 -12525616.312328339 -216986511.82924843 0 0 0 0 86003596.078647614 63180695.119354248 0 63180695.119354248 -11448709.94235611 0 0 0 0 -9908038.0303692818 48842406.616241455 0 48842406.616241455 -9979367.3920940161 0 0 0 0 869956.87459182739 26628581.094558716 0 26628581.094558716 -9541634.1801925898 0 0 0 0 -12096846.544493496 25762239.585832596 0 25762239.585832596 769897.05570220947 0 0 0 0 -47771451.436859131 40567184.758575439 0 40567184.758575439 -6373567.9708137512 0 0 0 0 -21101232.737030029 38731514.170974731 0 38731514.170974731 -12208593.103668213 0 0 0 0 -3072975.9091428844 16421827.541478254 0 16421827.541478254 -1794247.1436399445 0 0 0 0 1887882.7902202606 18675268.020744324 0 18675268.020744324 -6356609.0869808197 0 0 0 0 6476628.1273920536 36703608.302791595 0 36703608.302791595 -24906855.925735474 0 0 0 0 10504576.735859871 12319789.687713623 0 12319789.687713623 -5771178.4485969543 0 0 0 0 747678.3915681839 10073684.932167053 0 10073684.932167053 -3282075.5729446411 0 0 0 0 -4237566.4144445825 12506909.432782728 0 12506909.432782728 2074784.5285258219 0 0 0 0 6825323.7955347775 9020213.8081562407 0 9020213.8081562407 -11084252.410184897 0 0 0 0 4641942.3575401306 15096598.748250961 0 15096598.748250961 -14468680.277877808 0 0 0 0 -20646579.167136036 15861442.03694725 0 15861442.03694725 2186517.2822341919 0 0 0 0 36616249.038312912 -33427467.182060242 0 -33427467.182060242 8241082.8215560913 0 0 0 0 37903118.339316845 10686104.948455811 0 10686104.948455811 -27823089.361667633 0 0 0 0 -22067022.49474144 -23158392.388900757 0 -23158392.388900757 -12760958.146812439 0 0 0 0 49929832.198851347 1103394.3854370117 0 1103394.3854370117 -39328202.615104675 0 0 0 0 -14154775.830583096 1604649.7849235535 0 1604649.7849235535 29655421.644615173 0 0 0 0 34849720.025013447 -4490569.5675735474 0 -4490569.5675735474 -99560850.876167297 0 0 0 0 -461329.73358576884 1716935.9416871229 0 1716935.9416871229 638033.38419374824 0 0 0 0 87888869.677365541 87641940.56853199 0 87641940.56853199 -1760556.599029541 0 0 0 0 34387317.263418198 77476827.526596069 0 77476827.526596069 3076112.7694549561 0 0 0 0 78725624.982298851 60637360.223087311 0 60637360.223087311 -31130921.133178711 0 0 0 0 27210769.154803276 45224296.173946381 0 45224296.173946381 -30952371.073226929 0 0 0 0 -15546956.184319496 7220200.2370529175 0 7220200.2370529175 -60366478.445365906 0 0 0 0 30839109.479989626 26176981.505265236 0 26176981.505265236 -11719517.335720737 0 0 0 0 17367352.659040809 40227957.87443161 0 40227957.87443161 -34076285.233350754 0 0 0 0 15091385.197889328 60586424.658111572 0 60586424.658111572 -66533288.399223328 0 0 0 0 31728134.664223671 63004326.236286163 0 63004326.236286163 -39293210.932113647 0 0 0 0 16569726.388506584 24865579.164512321 0 24865579.164512321 -10829403.753362879 0 0 0 0 49196016.611982346 19137688.15489769 0 19137688.15489769 -41336892.402572632 0 0 0 0 13534186.977714539 52916120.153577805 0 52916120.153577805 -24133089.973873138 0 0 0 0 54489216.065544128 55418902.699794769 0 55418902.699794769 -12061302.369010925 0 0 0 0 -6519113.3366872836 35309110.690329939 0 35309110.690329939 -26645357.421642724 0 0 0 0 41089968.345608234 43487494.626142979 0 43487494.626142979 -22421778.451309204 0 0 0 0 35130219.880556822 62731615.004456043 0 62731615.004456043 -23599538.086891174 0 0 0 0 -30422264.248152971 100409890.67355156 0 100409890.67355156 38048654.776054382 0 0 0 0 -125121998.90629196 5378260.0782928467 0 5378260.0782928467 -1215551.3279800415 0 0 0 0 -3888051.6535622515 28743495.449783489 0 28743495.449783489 14558129.596320517 0 0 0 0 -29098738.949477196 95546146.025948524 0 95546146.025948524 55922140.942114115 0 0 0 0 -88894856.829623461 44665150.761814713 0 44665150.761814713 -8640198.3086166382 0 0 0 0 -87321896.624851584 9982301.8511143923 0 9982301.8511143923 -17002491.035308838 0 0 0 0 -43677090.31842804 22754288.659042358 0 22754288.659042358 -16154017.774055481 0 0 0 0 -35005611.927093506 24149220.926933289 0 24149220.926933289 -17091777.820030212 0 0 0 0 -17825971.50876236 44438361.503320694 0 44438361.503320694 -18185603.549819946 0 0 0 0 -34986657.541809082 35078154.648429871 0 35078154.648429871 -8959317.7632255554 0 0 0 0 -73455063.506313086 51677963.647846222 0 51677963.647846222 -20134514.158454895 0 0 0 0 -45888471.468494415 34178770.103942871 0 34178770.103942871 -20614281.259811401 0 0 0 0 -69860543.232826233 22459646.159568787 0 22459646.159568787 -12367737.270050049 0 0 0 0 -47051019.737350464 31702529.558273315 0 31702529.558273315 -20391275.93384552 0 0 0 0 -63023851.075687408 40852623.708217621 0 40852623.708217621 -18026783.090301514 0 0 0 0 6819489.4084291458 15157926.484802246 0 15157926.484802246 -4630969.9558334351 0 0 0 0 -25307232.591758728 33483268.918930054 0 33483268.918930054 -19489562.492958069 0 0 0 0 -976229.88479955494 25312212.620754104 0 25312212.620754104 -3901375.3201179132 0 0 0 0 -40699897.168270111 40293719.506416321 0 40293719.506416321 -21909882.257368088 0 0 0 0 -22792275.580115318 37228143.702499926 0 37228143.702499926 -21362721.51247406 0 0 0 0 -28856026.162815094 27247235.950515747 0 27247235.950515747 -23329878.690047264 0 0 0 0 -29340455.840789795 32346258.016815186 0 32346258.016815186 -25924718.936717987 0 0 0 0 7663801.3242092133 12357986.736366272 0 12357986.736366272 4645212.1790161133 0 0 0 0 -5547078.8408660889 18995064.832672119 0 18995064.832672119 -19223508.190002441 0 0 0 0 7413793.6908551864 13239872.527899433 0 13239872.527899433 -13235968.467238501 0 0 0 0 -52067730.221439362 47678660.003742218 0 47678660.003742218 -35417857.110687256 0 0 0 0 -4460437.7998747434 28989948.143528871 0 28989948.143528871 5959414.8848039731 0 0 0 0 -3212624.0348795801 2997416.2064715512 0 2997416.2064715512 627407.99058155343 0 0 0 0 -46458908.672515869 24769302.413513184 0 24769302.413513184 -44749784.034576416 0 0 0 0 1679760.329999493 26041808.840232108 0 26041808.840232108 -12739131.057258248 0 0 0 0 -760911.54591321945 9982701.5772094727 0 9982701.5772094727 -1388477.7403564453 0 0 0 0 -3474201.9602991613 15759268.692181252 0 15759268.692181252 -10739527.677504957 0 0 0 0 -231989384.11766529 -111508390.64183855 0 -111508390.64183855 14433954.18927002 0 0 0 0 228283102.88474846 8019699.2981014252 0 8019699.2981014252 -64005447.293403625 0 0 0 0 -78431749.127162933 27200687.092433929 0 27200687.092433929 -23243881.387802124 0 0 0 0 -205097919.43153763 73750733.622062683 0 73750733.622062683 -20520621.091492653 0 0 0 0 -156254.89544340596 1030898.3950575516 0 1030898.3950575516 -502345.66677505523 0 0 0 0 -26392197.796211243 198802312.70439816 0 198802312.70439816 -25132261.522373199 0 0 0 0 188390922.76801777 105030580.827003 0 105030580.827003 -25148534.889381409 0 0 0 0 -230220870.7797699 15324122.671705246 0 15324122.671705246 -9122022.4131851196 0 0 0 0 -204707181.5649271 248280177.40616083 0 248280177.40616083 -127964576.26979256 0 0 0 0 14324.123530968092 1548421.8632939178 0 1548421.8632939178 -1857389.6806121618 0 0 0 0 226052663.76301575 26043415.590717316 0 26043415.590717316 -76492231.07077837 0 0 0 0 35933687.032447338 54908860.826066017 0 54908860.826066017 71926200.090324402 0 0 0 0 185433488.55522728 162170738.57151413 0 162170738.57151413 89691684.162046432 0 0 0 0 260973131.91318035 315317852.13644505 0 315317852.13644505 -28561571.165641785 0 0 0 0 589115211.74493408 466385192.68155766 0 466385192.68155766 39518438.113003731 0 0 0 0 641325230.88507462 205842192.70520592 0 205842192.70520592 -133555640.80280876 0 0 0 0 313632454.03355598 235824002.92530441 0 235824002.92530441 90935333.994082451 0 0 0 0 222100530.70538139 218423170.20778847 0 218423170.20778847 -72314781.077522278 0 0 0 0 -52745267.585647583 64234024.925577164 0 64234024.925577164 13182143.789670944 0 0 0 0 1863169.192587845 1434467.9523197897 0 1434467.9523197897 616352.40342420712 0 0 0 0 399530760.4617157 95556591.97185111 0 95556591.97185111 -297396480.40830612 0 0 0 0 300414373.76319647 426591646.78860474 0 426591646.78860474 267334066.37852859 0 0 0 0 465250811.60593033 422842288.85068989 0 422842288.85068989 4191752.4006409645 0 0 0 0 170156168.03346825 142755558.19069862 0 142755558.19069862 263856663.76742935 0 0 0 0 453333553.4958992 332346060.96474838 0 332346060.96474838 241294676.57456732 0 0 0 0 359981464.72853947 461720965.71317482 0 461720965.71317482 208635045.69397545 0 0 0 0 -52827925.272352219 371371784.96265602 0 371371784.96265602 426697398.77140331 0 0 0 0 410967270.62563133 489202566.86022949 0 489202566.86022949 223413934.80743408 0 0 0 0 198580831.78119278 233206990.47962952 0 233206990.47962952 359011645.30479771 0 0 0 0 209020159.20811939 272127383.53413868 0 272127383.53413868 196217042.63694382 0 0 0 0 -19553790.592979431 123031270.14546204 0 123031270.14546204 220864645.92922139 0 0 0 0 -27210769.414264679 205937415.53692627 0 205937415.53692627 -191606666.3345108 0 0 0 0 -4503786.3549518585 23260159.225623131 0 23260159.225623131 -16379026.181808472 0 0 0 0 -59602697.627080917 212142073.85478783 0 212142073.85478783 -224358504.11941147 0 0 0 0 4048241.1601486914 3185582.9617035799 0 3185582.9617035799 1305272.4984582663 0 0 0 0 -124594643.93968487 164782332.82231426 0 164782332.82231426 -5272779.0821876526 0 0 0 0 -88442517.093683243 48031592.00769043 0 48031592.00769043 -36422981.185571671 0 0 0 0 11137801.107448578 128088903.3527317 0 128088903.3527317 26480146.783241272 0 0 0 0 8740.8727571293712 3976381.2336009517 0 3976381.2336009517 1942391.7822489291 0 0 0 0 -270383538.86714745 27421413.525669098 0 27421413.525669098 54765608.890159607 0 0 0 0 -75735489.440551758 50272038.857582092 0 50272038.857582092 21748090.560657501 0 0 0 0 -91394454.234174728 43992716.837043762 0 43992716.837043762 34773783.846153259 0 0 0 0 -3389027.028250644 17242971.310004812 0 17242971.310004812 10504386.662483923 0 0 0 0 20482588.614473343 75512620.004297256 0 75512620.004297256 45492708.05915451 0 0 0 0 7131725.9507592581 4477650.8449179716 0 4477650.8449179716 -11324644.713947281 0 0 0 0 139885351.37099361 39840311.697395802 0 39840311.697395802 -37833194.689460754 0 0 0 0 173084491.97873926 123592614.35100842 0 123592614.35100842 10102607.221672058 0 0 0 0 98752143.044765472 93609762.461399078 0 93609762.461399078 23973911.43837738 0 0 0 0 106952806.27298164 64421443.596532822 0 64421443.596532822 -11558380.08190155 0 0 0 0 110682586.45623016 98268687.372844696 0 98268687.372844696 -15907363.303050995 0 0 0 0 59626176.148136139 56436631.766662598 0 56436631.766662598 36698124.76171875 0 0 0 0 -4532823.9918270111 51286262.5899086 0 51286262.5899086 -31167942.81414032 0 0 0 0 37287395.47449398 97996805.297374725 0 97996805.297374725 -9157675.5084152222 0 0 0 0 70537474.692573547 41620550.544641495 0 41620550.544641495 -14542560.06248641 0 0 0 0 -11098686.989534378 87857082.010034561 0 87857082.010034561 20201343.090320587 0 0 0 0 116839266.90921974 101935256.60894585 0 101935256.60894585 14608691.428985596 0 0 0 0 35473785.143310308 33628029.802426338 0 33628029.802426338 14990033.463550568 0 0 0 0 73161554.3028965 51606826.687017441 0 51606826.687017441 23307478.145017624 0 0 0 0 130413864.7115345 78715094.836904526 0 78715094.836904526 -81502529.10959053 0 0 0 0 109346392.09056664 149978375.67192459 0 149978375.67192459 99692464.717880249 0 0 0 0 324456834.42786264 529908764.43494654 0 529908764.43494654 251619160.64662552 0 0 0 0 936143.75668700831 4065385.5847726464 0 4065385.5847726464 3057193.8100439087 0 0 0 0 -468909133.87771606 79861482.757486343 0 79861482.757486343 219673979.15924454 0 0 0 0 2084315479.5136671 306389945.18104482 0 306389945.18104482 36838037.381980896 0 0 0 0 -101113515.21017838 317037164.20558929 0 317037164.20558929 367721600.89309597 0 0 0 0 -90758515.859717369 143968037.72521114 0 143968037.72521114 -36150564.270446777 0 0 0 0 -17121970.190975189 63226607.394305229 0 63226607.394305229 -50591881.754249573 0 0 0 0 -267543580.18239975 73701583.792276382 0 73701583.792276382 17917760.124769211 0 0 0 0 1496999.3321618084 11256023.750908609 0 11256023.750908609 10250526.08968918 0 0 0 0 1827005593.2541556 -316067928.5400238 0 -316067928.5400238 -292817485.40558624 0 0 0 0 354904856.33429718 -298202503.96404648 0 -298202503.96404648 419207600.09266663 0 0 0 0 603393828.17822266 6995708.1236171722 0 6995708.1236171722 310257455.92279816 0 0 0 0 991842090.39415359 300070911.0373497 0 300070911.0373497 53168135.502120972 0 0 0 0 265784433.30168152 63594357.188873291 0 63594357.188873291 48625572.910415649 0 0 0 0 366911477.92218399 666109496.7948494 0 666109496.7948494 -444368252.87683487 0 0 0 0 319763949.34239483 83443876.158717155 0 83443876.158717155 -662809651.83521271 0 0 0 0 -180061241.31159782 217416493.91863632 0 217416493.91863632 9048548.6310744286 0 0 0 0 470338036.78263474 431606091.97673798 0 431606091.97673798 168556571.09586716 0 0 0 0 43310576.628570557 119070387.65723801 0 119070387.65723801 16505098.393807173 0 0 0 0 -75534411.117485046 169264740.95962906 0 169264740.95962906 185535870.11112213 0 0 0 0 -339971038.93352509 -60176792.943302155 0 -60176792.943302155 273644582.38534927 0 0 0 0 -72640534.149115562 128330631.81191111 0 128330631.81191111 504177225.7781601 0 0 0 0 477413382.31466103 439781975.05184746 0 439781975.05184746 576276032.68463326 0 0 0 0 219497026.63784027 -48958507.68926239 0 -48958507.68926239 250793847.58463669 0 0 0 0 217228891.74359703 -37676127.963070869 0 -37676127.963070869 325903397.56705856 0 0 0 0 -85410204.75214386 -107814011.80103874 0 -107814011.80103874 202700332.39085388 0 0 0 0 -31523366.537052155 137559803.16301346 0 137559803.16301346 216329623.48426819 0 0 0 0 31215645.632778049 10757035.842704311 0 10757035.842704311 -7145169.8196197264 0 0 0 0 184743342.87131882 -6394530.0522575378 0 -6394530.0522575378 -50875949.366775513 0 0 0 0 251716720.56528473 142622551.57269287 0 142622551.57269287 -168738595.95918465 0 0 0 0 -2289326.452041626 49497320.709182739 0 49497320.709182739 -34692956.133010864 0 0 0 0 336586457.94936371 83874375.175018311 0 83874375.175018311 -162797548.06248379 0 0 0 0 381097568.59252548 -29388519.455192566 0 -29388519.455192566 -488826976.86372375 0 0 0 0 149341757.85917854 -762132479.05583191 0 -762132479.05583191 921583868.03523254 0 0 0 0 619674981.7507019 -1556676661.2417526 0 -1556676661.2417526 -1091725550.8587217 0 0 0 0 323269263.9691925 579117345.49263 0 579117345.49263 -149764733.86447144 0 0 0 0 594618800.30263519 529440961.6933136 0 529440961.6933136 -867239909.38028431 0 0 0 0 704165972.26022339 250515204.90161514 0 250515204.90161514 -246322208.85295105 0 0 0 0 396405677.38056946 240296069.9862442 0 240296069.9862442 -222280188.85321808 0 0 0 0 427508219.77806091 331566210.11666107 0 331566210.11666107 -78305335.274078369 0 0 0 0 324138165.99355316 239239148.37625122 0 239239148.37625122 -54739246.54258728 0 0 0 0 428056161.94237328 259073053.56719998 0 259073053.56719998 37124764.138519287 0 0 0 0 402998121.58706665 375420986.7230835 0 375420986.7230835 -147198284.65420532 0 0 0 0 481017154.87189484 393608034.24209213 0 393608034.24209213 207702243.13623047 0 0 0 0 458025424.87406921 286414589.5398407 0 286414589.5398407 59870705.863746643 0 0 0 0 549936019.54164314 241100132.58505821 0 241100132.58505821 82154725.257156372 0 0 0 0 325315811.85087585 256928046.89500427 0 256928046.89500427 107927766.78242493 0 0 0 0 183217937.16793442 277520257.80680847 0 277520257.80680847 140841025.44155502 0 0 0 0 366082689.60762501 269367260.35845184 0 269367260.35845184 -52235400.408599854 0 0 0 0 109540944.0426836 138992225.47249985 0 138992225.47249985 -35177748.906402588 0 0 0 0 74716180.506278992 64133088.408058167 0 64133088.408058167 -35839524.983802795 0 0 0 0 171649489.36414337 196754597.10747528 0 196754597.10747528 -25032008.802398682 0 0 0 0 19410506.835912704 135501656.76423645 0 135501656.76423645 -1090038.3342895508 0 0 0 0 -73004079.630409241 49296948.42578125 0 49296948.42578125 -48741743.217765808 0 0 0 0 -31848846.225585938 175738317.89672089 0 175738317.89672089 89115533.050430298 0 0 0 0 -82482978.108575821 129521015.05422211 0 129521015.05422211 24062087.890350342 0 0 0 0 46573760.688812256 44608340.584915161 0 44608340.584915161 39986423.371845245 0 0 0 0 44507173.281352997 70303321.982513428 0 70303321.982513428 233976244.97363281 0 0 0 0 -94006980.408806324 100605165.62256742 0 100605165.62256742 128536187.72462463 0 0 0 0 -86176743.347103119 221111521.59256744 0 221111521.59256744 -72960182.589035034 0 0 0 0 26656204.944747925 41659884.210544586 0 41659884.210544586 45279100.703754425 0 0 0 0 -40442124.01825428 -44123476.698932648 0 -44123476.698932648 204205506.87905884 0 0 0 0 -3545288.471131634 -2755454.9696371257 0 -2755454.9696371257 1057167.954475834 0 0 0 0 10727972.614456177 181305193.09181213 0 181305193.09181213 515401471.37609315 0 0 0 0 547973924.86609268 400232866.07510757 0 400232866.07510757 -1009362735.4662247 0 0 0 0 603507274.16313553 217552330.95495605 0 217552330.95495605 84897735.216270447 0 0 0 0 154718714.38211441 295047336.07243347 0 295047336.07243347 565190139.89821625 0 0 0 0 2622.7579027563334 -1322092.0940330401 0 -1322092.0940330401 608057.61838682182 0 0 0 0 393417739.88524246 361979668.78689194 0 361979668.78689194 88344454.15322113 0 0 0 0 315472305.76387978 71264490.715003967 0 71264490.715003967 -527460840.90987396 0 0 0 0 542282693.72960663 229530531.74398804 0 229530531.74398804 64872261.55465126 0 0 0 0 670233192.70446777 54209413.805381775 0 54209413.805381775 115190290.34262085 0 0 0 0 573473964.50510788 211450347.99812317 0 211450347.99812317 67895546.529785156 0 0 0 0 -155165324.55754519 71293135.573896885 0 71293135.573896885 41798504.506164551 0 0 0 0 1446263879.3748279 162511414.39510059 0 162511414.39510059 -264948774.561203 0 0 0 0 26213.206233681645 18706236.21880272 0 18706236.21880272 21798831.768830739 0 0 0 0 843104896.72625732 676010675.19873047 0 676010675.19873047 -363294275.10488129 0 0 0 0 -65652851.82408905 60176651.968679428 0 60176651.968679428 8711386.962852478 0 0 0 0 -77472665.658771515 81689141.569843292 0 81689141.569843292 -5714616.150642395 0 0 0 0 -25368086.119132996 86517879.69291687 0 86517879.69291687 5683676.0096511841 0 0 0 0 -86387631.847503662 22142027.84264183 0 22142027.84264183 27787152.901527405 0 0 0 0 -15884300.779350281 56960949.972198486 0 56960949.972198486 17594554.605419159 0 0 0 0 -16139247.639123917 45588651.239517212 0 45588651.239517212 70047526.263626099 0 0 0 0 -27869676.641504288 75914481.964982986 0 75914481.964982986 59018581.889160156 0 0 0 0 223834542.83339691 161660119.85771179 0 161660119.85771179 277286299.0364728 0 0 0 0 3940323.715880163 24157324.449155428 0 24157324.449155428 -26807226.61436234 0 0 0 0 -31866583.870519638 75106929.072086334 0 75106929.072086334 79881663.356788635 0 0 0 0 600371778.7840538 168522806.03581238 0 168522806.03581238 78085955.252700806 0 0 0 0 -3981757.3807887938 28514008.796892699 0 28514008.796892699 37050638.807274073 0 0 0 0 488021354.30183411 195345784.80995178 0 195345784.80995178 120272438.38002014 0 0 0 0 469274702.72454834 245412494.26574707 0 245412494.26574707 68143413.685043335 0 0 0 0 440544944.25222015 252489897.31695557 0 252489897.31695557 117992611.23864746 0 0 0 0 501555345.84680939 170705731.73118973 0 170705731.73118973 194266113.3558197 0 0 0 0 187963802.20996475 656464907.41586304 0 656464907.41586304 -436609269.74125671 0 0 0 0 1401804.8734531114 4572180.382840272 0 4572180.382840272 -853832.66840526462 0 0 0 0 -168064057.12171936 -446082219.90653992 0 -446082219.90653992 -1256172958.9205322 0 0 0 0 1444282582.4256973 250661046.87121582 0 250661046.87121582 -2046854523.9004517 0 0 0 0 333459305.60829163 495796970.20237732 0 495796970.20237732 -33598072.344696045 0 0 0 0 -4688477.2335917614 6735455.8739870936 0 6735455.8739870936 5453155.4638981521 0 0 0 0 399367711.32147217 381278498.53885269 0 381278498.53885269 165193447.4617157 0 0 0 0 2539592400.2501221 1518690640.6358795 0 1518690640.6358795 -1496327091.9284592 0 0 0 0 1395295.7862538826 -394503.778489599 0 -394503.778489599 583733.00520017743 0 0 0 0 -295153679.26958084 187381825.83756256 0 187381825.83756256 13816148.784973145 0 0 0 0 212586541.20301819 910092096.83982849 0 910092096.83982849 -191916737.81266403 0 0 0 0 -319638462.87238121 48769763.07783699 0 48769763.07783699 -7017893.5252990723 0 0 0 0 200051563.83195496 416661655.33686829 0 416661655.33686829 258522926.97937965 0 0 0 0 -68580405.082229614 96697942.103912354 0 96697942.103912354 -2546236.5154800415 0 0 0 0 -121135230.538517 300737369.70825195 0 300737369.70825195 49576467.117965698 0 0 0 0 -162798116.11835098 126483863.33847809 0 126483863.33847809 -78274632.851821899 0 0 0 0 -166091704.61933899 161377523.42971802 0 161377523.42971802 -44375825.770828247 0 0 0 0 -137953791.15634823 72197719.463119507 0 72197719.463119507 -23185234.323883057 0 0 0 0 -294456330.46052551 129958567.71405029 0 129958567.71405029 -43932901.834480286 0 0 0 0 -269931735.63108826 -17975210.249725342 0 -17975210.249725342 -29857962.317329884 0 0 0 0 -129202164.01521873 2075588.5550384521 0 2075588.5550384521 -29493356.28213501 0 0 0 0 -205565194.59272385 68883821.10773468 0 68883821.10773468 31126494.117782593 0 0 0 0 -42471096.947914124 57801263.319892883 0 57801263.319892883 17538657.364562988 0 0 0 0 -138132476.72833061 -28201886.387321472 0 -28201886.387321472 78718721.397651672 0 0 0 0 31670949.203987122 62938816.73249054 0 62938816.73249054 139963850.23107147 0 0 0 0 -126743920.93307495 134982940.59174728 0 134982940.59174728 107503290.41690063 0 0 0 0 143661977.18664169 300381459.13949585 0 300381459.13949585 41368761.469379425 0 0 0 0 62627491.63435173 87684655.674512863 0 87684655.674512863 17953984.311470032 0 0 0 0 36907594.327553749 123813191.83521843 0 123813191.83521843 36693755.625358582 0 0 0 0 4185005.5407169908 27148852.972236425 0 27148852.972236425 -29110025.917089894 0 0 0 0 -29134381.031360626 108269720.60017395 0 108269720.60017395 -40801.287340164185 0 0 0 0 35122758.55288887 94637561.372834206 0 94637561.372834206 -12299332.335121155 0 0 0 0 37012446.448810577 85246630.804092407 0 85246630.804092407 30454075.456451416 0 0 0 0 -21677419.206043243 77722494.92509079 0 77722494.92509079 26305332.168491364 0 0 0 0 49812869.480258942 87823082.080198288 0 87823082.080198288 -16164390.374437332 0 0 0 0 81659000.305862427 36012642.686312675 0 36012642.686312675 -37799534.137710571 0 0 0 0 56861104.776968956 56532498.887721062 0 56532498.887721062 23781905.410720825 0 0 0 0 2403009.7128868103 221274454.88220215 0 221274454.88220215 212267441.63210106 0 0 0 0 -56236397.20557785 77525115.900848389 0 77525115.900848389 142926091.77414703 0 0 0 0 18715058.514413834 66617396.553218842 0 66617396.553218842 4427460.3203582764 0 0 0 0 -2863376.7706138343 24599066.130335055 0 24599066.130335055 27897713.889328718 0 0 0 0 1148330.1385811567 28854581.313934058 0 28854581.313934058 -24048451.157210834 0 0 0 0 -34785211.157871246 37976534.124668121 0 37976534.124668121 35769197.421795845 0 0 0 0 -1342600.1249970645 24479884.652010299 0 24479884.652010299 24115278.689300716 0 0 0 0 -53982437.831886292 71203547.866809845 0 71203547.866809845 32720935.211325645 0 0 0 0 -62686304.058891296 33384488.046447754 0 33384488.046447754 35018615.038581848 0 0 0 0 -39849457.268681526 52413670.873806953 0 52413670.873806953 29970323.815261841 0 0 0 0 -31809729.420616388 29393024.895280361 0 29393024.895280361 64632020.671508789 0 0 0 0 -28689483.495831013 49621172.395612717 0 49621172.395612717 30326181.955322266 0 0 0 0 966219.02138106152 30721456.981068321 0 30721456.981068321 22009387.094364852 0 0 0 0 -14516736.533636093 21819379.48333168 0 21819379.48333168 14496191.878829956 0 0 0 0 11638956.422813416 4474679.2062988281 0 4474679.2062988281 36353699.969657898 0 0 0 0 2567832.8292884827 -2361788.7962875366 0 -2361788.7962875366 58899156.007675171 0 0 0 0 -21120594.55390358 14510301.237926483 0 14510301.237926483 47300212.112686157 0 0 0 0 4136.6883645225316 6222840.7385088392 0 6222840.7385088392 12524211.752187476 0 0 0 0 -170461314.14891434 573550.36162185669 0 573550.36162185669 55536097.731323242 0 0 0 0 18628030.59487915 -5466830.8347969055 0 -5466830.8347969055 41882290.376342773 0 0 0 0 163918548.43069553 277119963.99019623 0 277119963.99019623 60332862.163986206 0 0 0 0 425947427.41664505 -267610982.73324585 0 -267610982.73324585 98674755.248840332 0 0 0 0 -170817767.07978058 -99734.839324951172 0 -99734.839324951172 324953104.88376617 0 0 0 0 -517072.10705891624 3316910.1362963989 0 3316910.1362963989 5607077.1829731464 0 0 0 0 -164656631.75236511 55633160.894180298 0 55633160.894180298 66154806.643463135 0 0 0 0 795423.14085594937 2431594.2930722684 0 2431594.2930722684 3409168.7847462967 0 0 0 0 62505037.167579651 63276209.394065857 0 63276209.394065857 47242662.925292969 0 0 0 0 56699582.38224411 66047264.294204712 0 66047264.294204712 65870877.902481079 0 0 0 0 -4742377.955263719 14196032.930466928 0 14196032.930466928 7958317.6181522757 0 0 0 0 16600108.692699432 34323218.246559143 0 34323218.246559143 15170304.368946075 0 0 0 0 36928977.268565178 3196945.7888066769 0 3196945.7888066769 -122393906.55882263 0 0 0 0 -2214439.2664318085 45052974.829193115 0 45052974.829193115 38771985.99331665 0 0 0 0 9586281.241317749 45717305.963745117 0 45717305.963745117 38793279.600452423 0 0 0 0 42001294.459116459 44726571.976938725 0 44726571.976938725 17743643.423248291 0 0 0 0 -109391392.58941269 6068969.4716796875 0 6068969.4716796875 67173514.83121109 0 0 0 0 -122011348.14583969 24151985.292243958 0 24151985.292243958 50327355.104492188 0 0 0 0 111056490.85081482 242974072.22186279 0 242974072.22186279 -234394082.06230164 0 0 0 0 -887342.32289476693 4234612.9671713226 0 4234612.9671713226 1115344.2877302021 0 0 0 0 167202896.17202854 907813635.53067398 0 907813635.53067398 -487919987.27357483 0 0 0 0 -345791852.61057281 352827304.26139832 0 352827304.26139832 -108407841.49109268 0 0 0 0 -412209279.00161695 36634454.842000008 0 36634454.842000008 306505272.7875824 0 0 0 0 -311537435.89346886 324229197.99324036 0 324229197.99324036 -89436308.623046875 0 0 0 0 -229897284.07492256 559194485.53978729 0 559194485.53978729 -243151382.50608826 0 0 0 0 -8046080.297586441 -23828569.721996307 0 -23828569.721996307 134334820.89623833 0 0 0 0 -2567674.2261336073 594300.93369835615 0 594300.93369835615 2466636.2533247918 0 0 0 0 -4069760.9562397003 92868916.307411194 0 92868916.307411194 173832207.91677856 0 0 0 0 -1583142.4283642769 450096242.46370697 0 450096242.46370697 -338481885.83914948 0 0 0 0 92706605.490800858 232588756.13874054 0 232588756.13874054 315941.48767852783 0 0 0 0 -339262274.86149406 82729055.907348633 0 82729055.907348633 85264440.913116455 0 0 0 0 49738845.002197266 164635120.87459564 0 164635120.87459564 277715665.45545197 0 0 0 0 73506584.031520844 231411957.23835754 0 231411957.23835754 -223911351.45545197 0 0 0 0 153620.58664473519 1928752.4972954094 0 1928752.4972954094 901833.1609910354 0 0 0 0 -50220175.703231812 104503903.95254326 0 104503903.95254326 -195895230.31469727 0 0 0 0 -12845185.652843475 118315372.75248718 0 118315372.75248718 -112522222.29006958 0 0 0 0 -16726315.544944763 52528654.605934143 0 52528654.605934143 -116358311.75892639 0 0 0 0 -66560788.797603607 85783020.207878113 0 85783020.207878113 -88112152.21497345 0 0 0 0 1236650.4575596079 4431818.5999963507 0 4431818.5999963507 1677099.4533479661 0 0 0 0 21117878.809139252 68357221.44814682 0 68357221.44814682 154551.49788665771 0 0 0 0 57759928.66104126 36987417.607357025 0 36987417.607357025 19138160.052726746 0 0 0 0 1399972.2973858137 -3054505.7914411798 0 -3054505.7914411798 1010198.61068286 0 0 0 0 -28066824.262003899 20788794.918437004 0 20788794.918437004 -3073444.7635192871 0 0 0 0 2544172.9644617215 5583386.6459847614 0 5583386.6459847614 3106483.7513877451 0 0 0 0 14550136.314144135 10132992.621085167 0 10132992.621085167 2911345.6770172119 0 0 0 0 -193549400.19248581 78987575.143112183 0 78987575.143112183 -16997839.375602722 0 0 0 0 1613133.0951627977 -509917.33008973673 0 -509917.33008973673 -271239.9777520299 0 0 0 0 -89064990.049695969 78489428.041852951 0 78489428.041852951 -48414385.379974365 0 0 0 0 75735144.865116119 133936718.11273193 0 133936718.11273193 -109885628.18455124 0 0 0 0 64384843.884689331 57924143.231628418 0 57924143.231628418 -116537129.86141086 0 0 0 0 -136090788.25870132 243658349.59925842 0 243658349.59925842 -116822437.64302063 0 0 0 0 -325460082.05860901 239463702.3184433 0 239463702.3184433 -97344475.708339691 0 0 0 0 -513838555.01014519 65923173.795547485 0 65923173.795547485 -32021.333938598633 0 0 0 0 126581.46370713785 1697625.4014637163 0 1697625.4014637163 3250737.1360325068 0 0 0 0 717946927.34261322 450138658.60790253 0 450138658.60790253 -395050714.43647766 0 0 0 0 -174584955.13643265 152726881.75923538 0 152726881.75923538 -123717863.90356445 0 0 0 0 -162243209.70736563 147388155.74546802 0 147388155.74546802 -25750696.773284912 0 0 0 0 63303114.250105858 10723370.527064323 0 10723370.527064323 -11706026.973709106 0 0 0 0 399830.08589249756 -417641.80234631896 0 -417641.80234631896 -49569.131819844246 0 0 0 0 -306037633.18346024 169501175.03022766 0 169501175.03022766 -89449170.630958557 0 0 0 0 -263844984.91065598 161772372.60540009 0 161772372.60540009 -124374486.40155029 0 0 0 0 -101574609.28305817 127523343.59293365 0 127523343.59293365 -91681591.738098145 0 0 0 0 -45068580.176826477 -24721062.570991516 0 -24721062.570991516 12185083.867580414 0 0 0 0 8387750.2363510132 8378529.4423065186 0 8378529.4423065186 -6186283.0084838867 0 0 0 0 -378000087.80954552 54661543.644069672 0 54661543.644069672 781897116.45426941 0 0 0 0 630710784.61489105 1505439968.6282501 0 1505439968.6282501 974874821.27989197 0 0 0 0 1449068795.9663849 -678077102.96696472 0 -678077102.96696472 917589508.96183109 0 0 0 0 4100255.9519433379 -438815.06660408527 0 -438815.06660408527 -365593.0587644726 0 0 0 0 4461504.1862582937 6436170.3638303131 0 6436170.3638303131 2778700.3633323088 0 0 0 0 -1839789.7705078125 -1485076.1804122925 0 -1485076.1804122925 6914293.2756958008 0 0 0 0 -4215195.9068145752 15610647.564453125 0 15610647.564453125 3636143.5101165771 0 0 0 0 557483.93091201782 11730439.325935364 0 11730439.325935364 -8285920.0847969055 0 0 0 0 3547600.888212204 16094618.247390747 0 16094618.247390747 -24107601.457138062 0 0 0 0 12321338.956985474 24905875.1496315 0 24905875.1496315 -18014926.778152466 0 0 0 0 -6637973.6042022705 31594353.309959412 0 31594353.309959412 -278195.32488749584 0 0 0 0 37788083.539447784 -32598349.791103363 0 -32598349.791103363 -178839099.49736786 0 0 0 0 12588703.10592556 25066129.060396671 0 25066129.060396671 -34782623.883117676 0 0 0 0 5441045.526562281 -243088.79172241502 0 -243088.79172241502 -3472575.7663660347 0 0 0 0 14101173.963329315 5248277.3167457581 0 5248277.3167457581 -31436054.141441345 0 0 0 0 8303076.4688453674 5630188.9215927124 0 5630188.9215927124 -5652310.5603942871 0 0 0 0 121859615.25041962 -182453215.30224609 0 -182453215.30224609 126569840.18200684 0 0 0 0 448976629.40356827 177712835.51242447 0 177712835.51242447 -100506836.27231598 0 0 0 0 463138133.27859497 259344313.81396484 0 259344313.81396484 -15268861.730316162 0 0 0 0 280528471.50439453 105038992.00512695 0 105038992.00512695 51249730.099601746 0 0 0 0 2364128.0525124893 -693739.38090836816 0 -693739.38090836816 -1634290.2096625566 0 0 0 0 317939932.43276787 168954267.13262177 0 168954267.13262177 41190866.936828613 0 0 0 0 406272493.28221893 268496099.81742096 0 268496099.81742096 144069112.48727226 0 0 0 0 544703862.61450195 329007869.78340149 0 329007869.78340149 52659137.508529186 0 0 0 0 475526304.40116501 430499958.37472153 0 430499958.37472153 224851628.30802917 0 0 0 0 326999972.34579086 219065405.86927795 0 219065405.86927795 15280609.428085327 0 0 0 0 500424432.53723526 673315927.022892 0 673315927.022892 897226814.71937561 0 0 0 0 645904815.63384247 -155434585.02101898 0 -155434585.02101898 15062813.63230896 0 0 0 0 1735417.2910842076 2765546.513259314 0 2765546.513259314 1484857.1766647026 0 0 0 0 1150464290.1878052 323321974.55431366 0 323321974.55431366 -75112998.306747437 0 0 0 0 900630854.9025383 826102550.55376053 0 826102550.55376053 318668049.83972168 0 0 0 0 650854036.25093842 791728908.41859055 0 791728908.41859055 372557459.12404633 0 0 0 0 11357696.550144903 2176430.2634205595 0 2176430.2634205595 -2424507.4963299818 0 0 0 0 623753628.08594131 947784984.77912712 0 947784984.77912712 689094868.43387604 0 0 0 0 225718427.14028549 -70897271.047782898 0 -70897271.047782898 167048375.84915924 0 0 0 0 217799334.50212479 41753166.128982544 0 41753166.128982544 -162617676.39854431 0 0 0 0 -98739918.300966263 17529429.444786072 0 17529429.444786072 21783531.302825928 0 0 0 0 -65364731.315179825 46793142.419174194 0 46793142.419174194 31597928.880970001 0 0 0 0 -77635396.299296379 8813264.5026779175 0 8813264.5026779175 792715.89771652222 0 0 0 0 -49318181.612265587 43741236.489009857 0 43741236.489009857 23784932.870559692 0 0 0 0 -47625117.544538736 43271087.574015617 0 43271087.574015617 618978.02491760254 0 0 0 0 -117918191.18382931 32879739.065078735 0 32879739.065078735 1090053.4262373447 0 0 0 0 -23579120.87309742 64862350.188388824 0 64862350.188388824 -38051399.731269836 0 0 0 0 -98769151.147311687 24769309.252691269 0 24769309.252691269 -4052531.6002655029 0 0 0 0 -115369471.9616766 -4375727.3798370361 0 -4375727.3798370361 -24113822.497325897 0 0 0 0 -7620295.8467101073 13705726.384132704 0 13705726.384132704 -929442.8264144212 0 0 0 0 87135523.190018415 42666324.631761551 0 42666324.631761551 -19599846.46421814 0 0 0 0 143430475.45372581 68057479.282142639 0 68057479.282142639 141844569.46200562 0 0 0 0 171408289.18315411 -55784387.064365387 0 -55784387.064365387 45088691.576200485 0 0 0 0 29113638.51426363 50376239.677581787 0 50376239.677581787 10532893.833221436 0 0 0 0 12093582.161797136 13689261.088866007 0 13689261.088866007 -12827309.303323463 0 0 0 0 58190950.543715239 28418802.457948685 0 28418802.457948685 -17548755.129943848 0 0 0 0 59688162.216195583 -3017956.8244457245 0 -3017956.8244457245 -37219785.320785522 0 0 0 0 16046181.693181237 -1149128.1624893323 0 -1149128.1624893323 -19685674.711123675 0 0 0 0 61002233.485710144 27964393.500080109 0 27964393.500080109 -41009882.809997559 0 0 0 0 73284931.112775803 1610125.4071617126 0 1610125.4071617126 9694976.2626037598 0 0 0 0 56671280.558601379 60352015.931427002 0 60352015.931427002 77783944.957588196 0 0 0 0 60012907.025035143 16100883.970981121 0 16100883.970981121 -10582572.243942261 0 0 0 0 -1285470.7793216673 3028444.2304184642 0 3028444.2304184642 3118280.4416323006 0 0 0 0 -125923496.99468708 1016192.4637451172 0 1016192.4637451172 15219194.495895386 0 0 0 0 142170971.46085835 96077545.793731689 0 96077545.793731689 55647804.468856812 0 0 0 0 489149739.20395088 85152032.037727356 0 85152032.037727356 -103869762.3067131 0 0 0 0 6706.0849117932376 562386.63661103323 0 562386.63661103323 -14774.458817124367 0 0 0 0 -1692099.1390320989 6210387.6893355306 0 6210387.6893355306 3109647.4232390821 0 0 0 0 3571237.0445902348 -7367588.6128959656 0 -7367588.6128959656 -10118552.212921143 0 0 0 0 -67958676.028245449 26516498.245157242 0 26516498.245157242 20897347.376144409 0 0 0 0 212496348.68231773 86891449.534317017 0 86891449.534317017 -11498127.904251099 0 0 0 0 206637.4192347452 2768598.8334854422 0 2768598.8334854422 676846.89810952544 0 0 0 0 35413984.138900757 146565250.88766479 0 146565250.88766479 50195446.541648865 0 0 0 0 164706892.46217728 98884703.892024994 0 98884703.892024994 -8900325.9049530029 0 0 0 0 29514721.9576644 6477867.8524026871 0 6477867.8524026871 42501836.76550293 0 0 0 0 -6616041.5135956891 17095909.565352656 0 17095909.565352656 -4842809.9090682715 0 0 0 0 185389047.96702671 43820653.371910095 0 43820653.371910095 -52958513.428436279 0 0 0 0 106725995.97178793 27467113.171562195 0 27467113.171562195 -23531083.676986694 0 0 0 0 130979091.37425852 -13308927.031015396 0 -13308927.031015396 27111139.586547852 0 0 0 0 56131524.833115816 58436615.311948776 0 58436615.311948776 63576478.196029663 0 0 0 0 65311072.155335903 75106001.471042633 0 75106001.471042633 51096839.703659058 0 0 0 0 20794953.422007561 95442745.197231293 0 95442745.197231293 9033312.862701416 0 0 0 0 56326206.514047623 57615666.686950684 0 57615666.686950684 36849274.373046875 0 0 0 0 65706249.848871231 77645887.625358582 0 77645887.625358582 -503784.44123840332 0 0 0 0 6009756.3860318661 30189327.951112747 0 30189327.951112747 918468.90167236328 0 0 0 0 -1516655.5079753262 10968028.54650954 0 10968028.54650954 3148489.8281486183 0 0 0 0 46053758.588199615 -4093705.0077972412 0 -4093705.0077972412 -32655500.807159424 0 0 0 0 66577683.249855042 53383288.493423462 0 53383288.493423462 21941363.873718262 0 0 0 0 39386634.39509201 -43811913.483642578 0 -43811913.483642578 3991353.0156097412 0 0 0 0 -646195.74543994293 727859.99179755151 0 727859.99179755151 -538622.74296788871 0 0 0 0 -47977971.428779125 59666931.92077446 0 59666931.92077446 -9113661.7947921753 0 0 0 0 -33594318.522795677 35713318.485580444 0 35713318.485580444 -1238911.9515447617 0 0 0 0 -29607758.215459347 32088219.434171677 0 32088219.434171677 39156.140060424805 0 0 0 0 -27633779.791876316 36007431.129020691 0 36007431.129020691 -21243617.691772461 0 0 0 0 -52866110.543779373 54011255.868722916 0 54011255.868722916 34584713.429115295 0 0 0 0 -65848380.274347305 29270443.041034698 0 29270443.041034698 5422978.1082420349 0 0 0 0 -90173365.795984268 23830821.728092194 0 23830821.728092194 27950399.085342407 0 0 0 0 -37270335.282986641 87596264.039039612 0 87596264.039039612 62708984.99646759 0 0 0 0 -26025668.772342205 62979149.857707977 0 62979149.857707977 53119925.646575928 0 0 0 0 -48793281.370925426 32301782.140232086 0 32301782.140232086 42170670.842437744 0 0 0 0 -19040129.010297298 64929545.738113403 0 64929545.738113403 -69900592.760025024 0 0 0 0 25732555.050244331 20808575.668697357 0 20808575.668697357 -83106153.397333145 0 0 0 0 -6146337.6453715572 22357659.918895893 0 22357659.918895893 -7144996.7542635351 0 0 0 0 -24821118.561412811 71076822.319818497 0 71076822.319818497 82594032.826934814 0 0 0 0 3748638.1369265821 3156528.2101911604 0 3156528.2101911604 -3639848.2660468668 0 0 0 0 27045812.2170825 13531184.484508514 0 13531184.484508514 -61079592.765724182 0 0 0 0 14316969.545916319 34792072.686468124 0 34792072.686468124 22764525.284790039 0 0 0 0 4762277.6532212608 20222978.021314975 0 20222978.021314975 -18801674.976663381 0 0 0 0 46877526.492786407 79902673.111749649 0 79902673.111749649 -16693914.891919136 0 0 0 0 29038094.159797668 6832807.9681549072 0 6832807.9681549072 16720353.351463318 0 0 0 0 -11701905.521236807 9975355.3414464891 0 9975355.3414464891 8031363.605606474 0 0 0 0 15095623.764091492 37684047.14680481 0 37684047.14680481 10547534.91268158 0 0 0 0 -1475433.0663986206 49633794.834007263 0 49633794.834007263 3460092.1660003662 0 0 0 0 53468909.944059372 94676418.229957581 0 94676418.229957581 27087114.823493958 0 0 0 0 66519935.401120186 32361341.869850159 0 32361341.869850159 39335135.063751221 0 0 0 0 -9391107.4367084503 33384718.794029236 0 33384718.794029236 105096794.68741608 0 0 0 0 90877863.403547287 85242831.133499146 0 85242831.133499146 81847707.16046524 0 0 0 0 -34461983.036193848 22303064.467903137 0 22303064.467903137 123787795.08361816 0 0 0 0 -832483.45787372184 693074.62409689464 0 693074.62409689464 -59225.830379143357 0 0 0 0 -20600719.67606163 57646094.566942215 0 57646094.566942215 28678464.436244965 0 0 0 0 -18715422.229242325 91256415.662134171 0 91256415.662134171 7424894.3499689102 0 0 0 0 37931286.907514572 53494020.30629921 0 53494020.30629921 24626562.871967316 0 0 0 0 -12125436.793074608 23316029.93179512 0 23316029.93179512 50700090.98733902 0 0 0 0 30307086.86916393 73271498.625408411 0 73271498.625408411 19941672.896232605 0 0 0 0 -660288.19082763419 1894305.0607132614 0 1894305.0607132614 3614536.3360874057 0 0 0 0 842432.94982528687 60421317.58731842 0 60421317.58731842 16010101.975090027 0 0 0 0 -6513034.860307917 24368774.975489706 0 24368774.975489706 -2724521.6152214855 0 0 0 0 -3715154.6317653656 79647547.481424332 0 79647547.481424332 23486403.639728785 0 0 0 0 42578203.220611572 50495243.302566528 0 50495243.302566528 47663439.251708984 0 0 0 0 1279063.6661682129 5588510.2849731445 0 5588510.2849731445 4638743.5348205566 0 0 0 0 -5228564.0746814236 9093389.9594578706 0 9093389.9594578706 19127272.775784716 0 0 0 0 11272988.033784769 7764504.3166318238 0 7764504.3166318238 501834.57114220411 0 0 0 0 17620945.462631226 6305479.0836181641 0 6305479.0836181641 20349788.612670898 0 0 0 0 -2986145.9434367269 20336918.534916833 0 20336918.534916833 -11299473.810340211 0 0 0 0 5552519.1942455415 20196769.496341594 0 20196769.496341594 10182974.819912829 0 0 0 0 -401510059.87668228 47622134.08789444 0 47622134.08789444 6525093.875213623 0 0 0 0 -6638726.1717024744 13487999.359250188 0 13487999.359250188 7413470.7900776342 0 0 0 0 41682732.036450386 309121126.04994583 0 309121126.04994583 -8129196.465698719 0 0 0 0 308561953.08461189 -131579481.71076965 0 -131579481.71076965 -66897776.629074097 0 0 0 0 -34087637.338488579 -31052196.713500977 0 -31052196.713500977 157433717.85496044 0 0 0 0 -126480640.93641758 57137815.699451447 0 57137815.699451447 143599391.14372253 0 0 0 0 -9433494.4636249542 76229539.891983032 0 76229539.891983032 -42589358.386287689 0 0 0 0 45131494.812471755 -93007369.801775485 0 -93007369.801775485 -35822328.621009827 0 0 0 0 2135665.7513723467 1198681.9128458649 0 1198681.9128458649 -1220692.9503467381 0 0 0 0 3481785.3933620453 49130276.187290192 0 49130276.187290192 1201997.4806976318 0 0 0 0 3357837.397898702 25327718.404773198 0 25327718.404773198 13950999.199646398 0 0 0 0 4470472.5718078613 43949290.375617981 0 43949290.375617981 12581314.742095947 0 0 0 0 -5888545.0239524841 31402317.97946167 0 31402317.97946167 3709222.694896698 0 0 0 0 2969479.8023433685 44667214.156776428 0 44667214.156776428 23557428.552276611 0 0 0 0 6510978.0668354034 40950126.247810364 0 40950126.247810364 23835785.022831917 0 0 0 0 5917833.1603736877 53360948.393821716 0 53360948.393821716 -27276674.410873413 0 0 0 0 4993573.7349262238 35630246.49193573 0 35630246.49193573 23256387.772483826 0 0 0 0 -2892655.6752910614 57670337.315279007 0 57670337.315279007 31444059.435089111 0 0 0 0 25918132.502292633 68259482.919929504 0 68259482.919929504 18308636.725410461 0 0 0 0 -4513746.3145141602 29644106.638038635 0 29644106.638038635 51692654.434381485 0 0 0 0 -16433708.226165771 79354131.153686523 0 79354131.153686523 69763529.092025757 0 0 0 0 -8084063.934923172 89436437.189445496 0 89436437.189445496 32048480.915470123 0 0 0 0 -57047556.639727592 126728276.47603607 0 126728276.47603607 15368955.220921516 0 0 0 0 6151416.8572487831 32237215.889076233 0 32237215.889076233 -3218104.014541626 0 0 0 0 -714751.71508292016 3021103.4673641175 0 3021103.4673641175 3296608.8307842165 0 0 0 0 9289136.8936243057 14256349.574962616 0 14256349.574962616 7674242.5637969971 0 0 0 0 9671404.1270647049 13387215.415050507 0 13387215.415050507 -20202886.719261169 0 0 0 0 -1043096.7184011834 11944327.632000245 0 11944327.632000245 3731960.0491627306 0 0 0 0 3229063.8286895752 20148044.535427094 0 20148044.535427094 -14946095.569580078 0 0 0 0 6592535.9516915949 3934139.9854061827 0 3934139.9854061827 -4134889.904909499 0 0 0 0 27988841.00812149 3181225.6917724609 0 3181225.6917724609 -14420459.571983337 0 0 0 0 -20067702.460906714 17669370.2770648 0 17669370.2770648 15901429.847763062 0 0 0 0 894544.25491293706 15191775.986560367 0 15191775.986560367 11811761.056598529 0 0 0 0 -10863927.436454773 10125707.043449402 0 10125707.043449402 20089017.905185699 0 0 0 0 -373964.39300918579 12560529.572488785 0 12560529.572488785 -4543838.7462997437 0 0 0 0 1756179.2916274071 7535125.5915527344 0 7535125.5915527344 -3252210.5872421265 0 0 0 0 1142178.5188165586 4920014.9061221778 0 4920014.9061221778 -1483288.7185816914 0 0 0 0 8471005.6415510979 13973657.316276897 0 13973657.316276897 1688294.4501142502 0 0 0 0 682976.90305519104 33176935.292976379 0 33176935.292976379 25366428.116073608 0 0 0 0 -13571631.152511597 41796912.797344208 0 41796912.797344208 35206687.615844727 0 0 0 0 3666937.2378805075 19551158.597433493 0 19551158.597433493 13589850.602075934 0 0 0 0 -27800402.789428711 44939489.376121521 0 44939489.376121521 10139414.614898682 0 0 0 0 -27187209.816333771 31081348.600280762 0 31081348.600280762 27934654.123054504 0 0 0 0 -21341806.19965744 19987787.902633667 0 19987787.902633667 21268954.679992676 0 0 0 0 -20120245.836235106 15727523.09391892 0 15727523.09391892 31253954.967330933 0 0 0 0 -19768167.369628906 5460978.1525726318 0 5460978.1525726318 21835624.544448853 0 0 0 0 -16632336.091590881 -2472180.2003936768 0 -2472180.2003936768 45065957.064843178 0 0 0 0 -22654752.593152046 19571125.015573502 0 19571125.015573502 42512073.704666138 0 0 0 0 -2796402.2496032715 -21229266.233596802 0 -21229266.233596802 56522923.473434448 0 0 0 0 -19120892.885055542 18697224.499382019 0 18697224.499382019 37567697.703418732 0 0 0 0 -14031034.6489048 36016946.779922485 0 36016946.779922485 88063660.452926636 0 0 0 0 -6586455.2314109802 4863261.7493591309 0 4863261.7493591309 4714958.8490638733 0 0 0 0 -6609493.865737915 -5296419.6802406311 0 -5296419.6802406311 8971867.4910583496 0 0 0 0 -10311229.912052155 1917314.3100662231 0 1917314.3100662231 11648948.142295837 0 0 0 0 -18912886.141704559 5691715.4591331482 0 5691715.4591331482 16731868.671142578 0 0 0 0 -21997216.559516907 9499737.1729278564 0 9499737.1729278564 17386590.376342773 0 0 0 0 -15232050.656806946 5506962.7409057617 0 5506962.7409057617 16249745.134689331 0 0 0 0 -16724773.924900055 9862273.0513935089 0 9862273.0513935089 9789081.1288452148 0 0 0 0 -11038254.502426147 4706835.8245697021 0 4706835.8245697021 9370222.427734375 0 0 0 0 -13903463.58265686 7994655.7908172607 0 7994655.7908172607 5597661.4413757324 0 0 0 0 -11008464.472919464 5681326.4838638306 0 5681326.4838638306 6349129.5958480835 0 0 0 0 -7658846.4784836769 5706159.3048048019 0 5706159.3048048019 5740481.6501312256 0 0 0 0 -9832729.9210128784 -528906.81453323364 0 -528906.81453323364 -3207540.3904418945 0 0 0 0 -403728474.33916473 762481916.49549866 0 762481916.49549866 -1413592938.6818848 0 0 0 0 -2719878.6467172466 7082008.7178076953 0 7082008.7178076953 1864404.6262716418 0 0 0 0 6442164.5097547229 6265243.1780701466 0 6265243.1780701466 4754590.3468487859 0 0 0 0 -431563678.42672634 277042442.12867069 0 277042442.12867069 218764526.89768219 0 0 0 0 -6590601.1659707539 893478.12371757627 0 893478.12371757627 4502635.1476014704 0 0 0 0 2433199.6474304199 7492714.9277420044 0 7492714.9277420044 3215250.3369998932 0 0 0 0 1024936.4566704184 5528653.0692594126 0 5528653.0692594126 1515644.0302888267 0 0 0 0 6083817.7874774933 11336605.658035278 0 11336605.658035278 4528868.7785720825 0 0 0 0 -2232324.750582695 8529812.2473220825 0 8529812.2473220825 8823961.8441925049 0 0 0 0 408681.51859335788 217117.16941266507 0 217117.16941266507 -604792.512411654 0 0 0 0 3194153.4937472641 7267448.4515416715 0 7267448.4515416715 7833405.8235464543 0 0 0 0 1922597.3769750595 4779188.6972427368 0 4779188.6972427368 -105709.55948638916 0 0 0 0 -18784289.099545479 -679457.2816028595 0 -679457.2816028595 15555046.508666992 0 0 0 0 342130.47886454314 1562646.7573699281 0 1562646.7573699281 220590.78024466522 0 0 0 0 2998668.7693405151 8687453.0047607422 0 8687453.0047607422 5431736.2338409424 0 0 0 0 1070304.7937049866 6252377.5566501617 0 6252377.5566501617 -1810.3393707275391 0 0 0 0 3393672.546899505 7341651.1202156171 0 7341651.1202156171 140388.84500948153 0 0 0 0 1043479.1500244141 6120628.7378845215 0 6120628.7378845215 -21816.921009063721 0 0 0 0 4387525.7127542496 9073368.7025604248 0 9073368.7025604248 4467607.1332092285 0 0 0 0 4492554.6802901737 7609598.3263456002 0 7609598.3263456002 3887796.7760877758 0 0 0 0 1051300.1773986816 6104427.2684898376 0 6104427.2684898376 6542.6806793212891 0 0 0 0 664080.28324936517 6289769.6746131182 0 6289769.6746131182 -387730.28018631041 0 0 0 0 5069108.2846298218 8482078.9241676331 0 8482078.9241676331 1744625.5447006226 0 0 0 0 2989662.0705868602 8393717.8071165085 0 8393717.8071165085 3182976.4168243408 0 0 0 0 -1937302.8165969849 7547565.5955047607 0 7547565.5955047607 506386.06659698486 0 0 0 0 2956563.9807243347 6381869.0207672119 0 6381869.0207672119 501377.36552429199 0 0 0 0 766675.54907481559 1759230.6668744646 0 1759230.6668744646 2734423.5712055415 0 0 0 0 -104193171.34768677 319650125.81388855 0 319650125.81388855 717996.57680284802 0 0 0 0 2634432.9281387329 7744705.6143341064 0 7744705.6143341064 1905327.7707748413 0 0 0 0 9377745.1237331629 -15514045.507234097 0 -15514045.507234097 22128284.034065247 0 0 0 0 6820940.997710228 10166306.153347015 0 10166306.153347015 2719638.0605010986 0 0 0 0 2924977.4707317483 3730253.0752888247 0 3730253.0752888247 -768208.52221047878 0 0 0 0 12591255.43875885 16510102.562561035 0 16510102.562561035 31407.606254577637 0 0 0 0 5753335.6564720515 5672036.6438204423 0 5672036.6438204423 -1483404.4904146343 0 0 0 0 -459227.7746464964 5591905.2653092816 0 5591905.2653092816 -3438892.452249527 0 0 0 0 5440356.95408535 6969213.6247138977 0 6969213.6247138977 -132424.76163482666 0 0 0 0 951299.18201791774 6887819.7549415603 0 6887819.7549415603 -6122745.7465291023 0 0 0 0 3019901.3081645966 3720860.1764221191 0 3720860.1764221191 -5554537.839050293 0 0 0 0 -721565120.8357439 244384317.19055939 0 244384317.19055939 602532948.14801025 0 0 0 0 2151502.323945784 13461875.021555342 0 13461875.021555342 -9018036.7119983919 0 0 0 0 7257895.2589054704 5817984.7639579698 0 5817984.7639579698 -3033929.9243040979 0 0 0 0 -101887.38938522339 2130456.618850708 0 2130456.618850708 -5353413.2813110352 0 0 0 0 7674485.3166723251 10673114.672290802 0 10673114.672290802 -2067720.0304031372 0 0 0 0 3751191.3907089233 7685793.4140777588 0 7685793.4140777588 475922.99536895752 0 0 0 0 3082176.7626308873 7820912.8410391808 0 7820912.8410391808 -1544105.4276148677 0 0 0 0 5677860.0505963564 8435872.2344989777 0 8435872.2344989777 694249.66459655762 0 0 0 0 -509205.69122505188 10712282.027580261 0 10712282.027580261 -7691896.0884504318 0 0 0 0 25532714.546837807 94421118.630630493 0 94421118.630630493 -15543738.437437057 0 0 0 0 101439997.51561928 -123595699.96268463 0 -123595699.96268463 43537772.156448364 0 0 0 0 1398656.4341533547 12822844.820784643 0 12822844.820784643 -1377544.2313989401 0 0 0 0 4239672.7664806303 786119.13245984539 0 786119.13245984539 -4039186.2401895225 0 0 0 0 -192665476.26131886 41197167.505452394 0 41197167.505452394 206271656.39422607 0 0 0 0 -18087105.874056816 -242394010.62828827 0 -242394010.62828827 -92712280.596405029 0 0 0 0 220247839.86963892 91401395.109550476 0 91401395.109550476 -438551240.45483398 0 0 0 0 382555472.61132336 -9789810.4481811523 0 -9789810.4481811523 -411971631.58457184 0 0 0 0 -199706150.22866058 149352936.74060822 0 149352936.74060822 33162770.839683533 0 0 0 0 -384384.10760109941 954106.40635126457 0 954106.40635126457 910908.33728757501 0 0 0 0 -110504900.62253857 149889312.92304611 0 149889312.92304611 1851506.5245475769 0 0 0 0 -319571452.91962433 9610140.8477573395 0 9610140.8477573395 47831917.55909729 0 0 0 0 -103505295.74446169 35069937.748633623 0 35069937.748633623 15676537.383590698 0 0 0 0 -31861350.20536232 38059329.096061707 0 38059329.096061707 10741320.761528015 0 0 0 0 29940775.515154839 -31272607.298015594 0 -31272607.298015594 15372701.292976379 0 0 0 0 17714980.600200176 -2955137.5354309082 0 -2955137.5354309082 -20367316.355606079 0 0 0 0 54427621.812057018 35371913.961608887 0 35371913.961608887 -37753636.493835449 0 0 0 0 51530778.442858219 3329721.1377863884 0 3329721.1377863884 -49062746.225524902 0 0 0 0 11191840.41656673 -24942065.322107315 0 -24942065.322107315 -10967703.553970337 0 0 0 0 384099260.92856741 182087490.93843269 0 182087490.93843269 -124846036.24162292 0 0 0 0 84465493.45080471 61645153.285549164 0 61645153.285549164 -57791383.200752258 0 0 0 0 20101039.187012348 -2464004.7224584222 0 -2464004.7224584222 -16375619.543700971 0 0 0 0 49818247.632804871 13589562.571044922 0 13589562.571044922 21228164.038467407 0 0 0 0 -8032221.0696070688 12945947.566523938 0 12945947.566523938 2285668.2754300684 0 0 0 0 249884816.69127846 210710572.46740723 0 210710572.46740723 -29538495.517425537 0 0 0 0 10219816.423447926 13933185.478698947 0 13933185.478698947 -18065698.943155989 0 0 0 0 17793565.883519888 5545683.5093154907 0 5545683.5093154907 -48680914.835281372 0 0 0 0 40603797.287622392 39740428.323791504 0 39740428.323791504 -17247104.200317383 0 0 0 0 2228506.1345081814 -573069.16864638776 0 -573069.16864638776 -2852623.031167388 0 0 0 0 -34966206.059519768 -58939236.100408554 0 -58939236.100408554 318351.67346191406 0 0 0 0 9771462.9455627855 16477254.195043147 0 16477254.195043147 -19423738.663210437 0 0 0 0 355733963.14716148 282147218.01904297 0 282147218.01904297 65895489.113538742 0 0 0 0 16333830.590216875 28095448.785079956 0 28095448.785079956 -28935668.833984375 0 0 0 0 8297500.6247656345 20317107.073104858 0 20317107.073104858 -35092047.405441284 0 0 0 0 11464897.304025292 -12063315.281607628 0 -12063315.281607628 -47562654.145233154 0 0 0 0 5620471.3661785498 7444468.5786561966 0 7444468.5786561966 -13163349.05809021 0 0 0 0 1889929.2735210657 -1468753.0511665344 0 -1468753.0511665344 -4840048.8124237061 0 0 0 0 21094548.861297369 50298399.069906235 0 50298399.069906235 56570355.501739502 0 0 0 0 3359533.8262815475 6872533.0244598389 0 6872533.0244598389 -4614510.7068185806 0 0 0 0 5171705.8523271233 5727718.9674203917 0 5727718.9674203917 -6077643.8248289526 0 0 0 0 5793078.926358223 3636080.3289642334 0 3636080.3289642334 -13741532.388530731 0 0 0 0 28208955.456941605 32269627.787704468 0 32269627.787704468 21130922.366012573 0 0 0 0 6207464.5948873172 2908978.3243538737 0 2908978.3243538737 -7326951.5883812159 0 0 0 0 2273772.4626750946 7164112.1509552002 0 7164112.1509552002 -8650427.1402893066 0 0 0 0 6900539.4326877594 5081386.0409088135 0 5081386.0409088135 -7974420.8254051208 0 0 0 0 5235770.3733911514 388888.60431671143 0 388888.60431671143 -5339915.1366117001 0 0 0 0 18221734.615427971 37522994.458114624 0 37522994.458114624 32090106.723754883 0 0 0 0 -70196.037502917461 132031.45955866575 0 132031.45955866575 -191968.42492963374 0 0 0 0 20300899.273561627 30563239.400584221 0 30563239.400584221 25784860.513214111 0 0 0 0 82966250.07189244 59362268.701637268 0 59362268.701637268 15309955.184036255 0 0 0 0 50756784.186243296 36985557.890350342 0 36985557.890350342 37773.19164276123 0 0 0 0 27696916.986509562 29853572.259025574 0 29853572.259025574 25796330.755096436 0 0 0 0 85471159.69675976 77491824.554138184 0 77491824.554138184 39424096.473808289 0 0 0 0 174450748.88666344 86325808.725917816 0 86325808.725917816 10044968.966186523 0 0 0 0 133814874.1063242 63510429.598403931 0 63510429.598403931 11165.462799072266 0 0 0 0 112251889.35151958 94177805.0442276 0 94177805.0442276 53648942.939498901 0 0 0 0 143810653.48570061 101514972.36505127 0 101514972.36505127 54938586.558013916 0 0 0 0 59627469.667105913 60809002.38633728 0 60809002.38633728 57968743.683521271 0 0 0 0 48162663.723222733 65094399.635574341 0 65094399.635574341 78758446.472579956 0 0 0 0 72980194.741070271 103892935.115242 0 103892935.115242 118790753.60890198 0 0 0 0 3308761.6286114147 5890254.9481625184 0 5890254.9481625184 -5265702.5640833676 0 0 0 0 110043193.4148936 81379971.265459538 0 81379971.265459538 38559048.392333984 0 0 0 0 26601940.734117508 -26822438.033378601 0 -26822438.033378601 -27498696.782188416 0 0 0 0 159929181.47617316 55132021.288817406 0 55132021.288817406 -9634845.9671936035 0 0 0 0 146707592.94947147 64294599.575820923 0 64294599.575820923 -65419.347438549019 0 0 0 0 272062429.78443241 121624630.43068695 0 121624630.43068695 7689712.1920375824 0 0 0 0 149045365.26759434 65522425.025352478 0 65522425.025352478 -5994396.0765228271 0 0 0 0 -47695411.208180428 -78556256.9478302 0 -78556256.9478302 -32590634.285014272 0 0 0 0 235799953.48784304 138947407.43679047 0 138947407.43679047 -37207894.255432129 0 0 0 0 167328310.61152124 30939145.973747253 0 30939145.973747253 34023358.841705322 0 0 0 0 407553288.98810101 140685286.84973907 0 140685286.84973907 -36015203.551727295 0 0 0 0 336592274.47722387 341396979.65293217 0 341396979.65293217 282637854.8616333 0 0 0 0 2546765.8343295082 1000049.7170057371 0 1000049.7170057371 -2186089.1338769048 0 0 0 0 232854321.94130516 153465771.06815338 0 153465771.06815338 151223441.50392151 0 0 0 0 232723895.38512087 11427527.511260986 0 11427527.511260986 -101344936.79881287 0 0 0 0 316567346.67377806 163834054.97396469 0 163834054.97396469 6491755.8515777588 0 0 0 0 255361426.86175537 33378219.883476257 0 33378219.883476257 -51919466.186988831 0 0 0 0 -43392184.372383118 119352286.93344498 0 119352286.93344498 55646962.14745301 0 0 0 0 80457211.263217926 204022060.84609222 0 204022060.84609222 55219395.815738738 0 0 0 0 -1910837.0936178882 495118.15480927378 0 495118.15480927378 2489565.8958122134 0 0 0 0 24029135.228852272 -7224709.0462379456 0 -7224709.0462379456 -76767470.375106812 0 0 0 0 5892799.0008291667 726570.80431519449 0 726570.80431519449 -4811609.1222973391 0 0 0 0 -7097344.3196315765 -15844441.115180969 0 -15844441.115180969 -61678429.508127928 0 0 0 0 119160096.52089214 149469567.15401459 0 149469567.15401459 151774045.30362701 0 0 0 0 6818487.9234698107 2488733.2559572607 0 2488733.2559572607 -6015872.4300639108 0 0 0 0 163328150.17114878 129818168.43320465 0 129818168.43320465 87032458.415260315 0 0 0 0 162673194.68030167 124876582.08973694 0 124876582.08973694 109481963.60385895 0 0 0 0 17059318.827055454 -36511940.88217926 0 -36511940.88217926 -114661236.19598389 0 0 0 0 28151185.268433571 13658925.0105896 0 13658925.0105896 -92882391.114685059 0 0 0 0 11285531.476327896 -90418300.462944031 0 -90418300.462944031 -144132816.64929199 0 0 0 0 27654364.558404922 -13203633.120903015 0 -13203633.120903015 -39144302.313270569 0 0 0 0 13251203.704913139 16326753.612709045 0 16326753.612709045 -24829200.781524658 0 0 0 0 13496891.439054489 25026421.506385803 0 25026421.506385803 -10150456.47700119 0 0 0 0 21588669.335853577 9157187.9351272583 0 9157187.9351272583 -40332603.852586746 0 0 0 0 1248312.1088609695 3928033.7909011841 0 3928033.7909011841 -39145889.316390991 0 0 0 0 23326051.360354424 11286288.895065308 0 11286288.895065308 -60864908.216698647 0 0 0 0 81894250.50069046 40720761.567008972 0 40720761.567008972 -34327028.879325867 0 0 0 0 34184325.682909012 115915929.26756287 0 115915929.26756287 -2997727.9708786011 0 0 0 0 26920520.485929966 -3433045.832862854 0 -3433045.832862854 -46448623.584747314 0 0 0 0 2836056.7078742981 22034158.589752197 0 22034158.589752197 24044622.952835083 0 0 0 0 49534865.712654114 53760536.224021912 0 53760536.224021912 53489286.691253662 0 0 0 0 4432291.6642036438 -31627308.147602081 0 -31627308.147602081 -10886526.021789551 0 0 0 0 4283315.3178259302 7387871.4808283299 0 7387871.4808283299 3846787.5667420328 0 0 0 0 16249132.640660696 6276042.4102428481 0 6276042.4102428481 -30165910.137808703 0 0 0 0 40468036.756061554 14587873.784515381 0 14587873.784515381 -31663130.618347168 0 0 0 0 88546642.938072205 60527208.962051392 0 60527208.962051392 25583127.182670593 0 0 0 0 -8464124.6126279831 26597040.66481781 0 26597040.66481781 59175464.252639771 0 0 0 0 322038.41310134158 5003935.125184305 0 5003935.125184305 3887794.0060519129 0 0 0 0 73720575.82901454 -1080071.1218366623 0 -1080071.1218366623 -51413134.537918091 0 0 0 0 53855675.203392029 73072325.98059845 0 73072325.98059845 48032681.954851151 0 0 0 0 13187126.966714993 7318119.0210058093 0 7318119.0210058093 -29227224.966485992 0 0 0 0 108785073.8496418 7213658.5136451721 0 7213658.5136451721 -84854241.403060913 0 0 0 0 -53158931.38368988 15511790.360427856 0 15511790.360427856 -24774688.825302124 0 0 0 0 61933525.059537888 46948354.342636108 0 46948354.342636108 -86833563.93926239 0 0 0 0 101169004.78004646 1443585.0851287842 0 1443585.0851287842 -61708043.470245361 0 0 0 0 206536551.21594334 62984704.955116272 0 62984704.955116272 -65423228.034805298 0 0 0 0 158694997.73885155 38914997.543685913 0 38914997.543685913 -63784705.558064461 0 0 0 0 181005510.35059738 -3892024.4327697754 0 -3892024.4327697754 -68683455.455978394 0 0 0 0 193310282.95849991 49559278.693115234 0 49559278.693115234 -75766704.661972046 0 0 0 0 175789714.89915657 24846916.475944519 0 24846916.475944519 -81773680.962768555 0 0 0 0 106031391.55753565 14965911.602975845 0 14965911.602975845 -63347481.164367676 0 0 0 0 122316737.64488983 134192225.2281189 0 134192225.2281189 -41754445.131310463 0 0 0 0 273865072.6817311 166021807.95463228 0 166021807.95463228 -44017106.797393799 0 0 0 0 174429873.06274033 119564898.4526062 0 119564898.4526062 -58942972.689361572 0 0 0 0 61021791.322093487 134865562.12575436 0 134865562.12575436 4818852.2100524902 0 0 0 0 66796997.189813614 111765084.97055817 0 111765084.97055817 -23427662.800842285 0 0 0 0 53145446.653193474 75336880.821327209 0 75336880.821327209 -17385962.031478882 0 0 0 0 113755170.1222477 97451685.036819458 0 97451685.036819458 -42301201.432235718 0 0 0 0 100579943.98091507 88705759.865348816 0 88705759.865348816 -39834149.853637695 0 0 0 0 133365127.66314697 25161135.582382202 0 25161135.582382202 -64659556.222702026 0 0 0 0 131315595.08586884 52843018.994216919 0 52843018.994216919 -60032387.325798035 0 0 0 0 100112484.18627548 52389110.424041748 0 52389110.424041748 -33697381.15184021 0 0 0 0 112837884.11441374 55202337.766561508 0 55202337.766561508 -37543978.984649658 0 0 0 0 111244463.45850086 40717902.818653107 0 40717902.818653107 -27234721.74710083 0 0 0 0 132665690.90272331 82556973.595367432 0 82556973.595367432 13661786.731307983 0 0 0 0 79174889.900713325 35390307.561520576 0 35390307.561520576 -25841955.762145996 0 0 0 0 467453.13990997896 -584204.09791179746 0 -584204.09791179746 -2410180.2522734404 0 0 0 0 16006803.568502922 11460813.549517117 0 11460813.549517117 -26209433.35822767 0 0 0 0 87043383.680448532 177648089.22024155 0 177648089.22024155 -109617730.07966614 0 0 0 0 104838873.5848484 24821719.916015625 0 24821719.916015625 -40428593.957641602 0 0 0 0 87219590.973697662 49861101.362564087 0 49861101.362564087 -13663979.978263855 0 0 0 0 77556254.475177765 62849432.166938782 0 62849432.166938782 -22407977.680740356 0 0 0 0 89296547.788006783 57142039.469360352 0 57142039.469360352 -21525252.697685242 0 0 0 0 78888429.61367178 65922362.242862701 0 65922362.242862701 -16495407.026687622 0 0 0 0 48117935.236726761 71062040.371292114 0 71062040.371292114 -14555857.745067596 0 0 0 0 37479151.859352112 63776172.421615601 0 63776172.421615601 -3687282.1634368896 0 0 0 0 45427515.189857483 43225810.946155548 0 43225810.946155548 -19197686.117553711 0 0 0 0 30962087.465345383 60171586.790420532 0 60171586.790420532 -3885310.4324102402 0 0 0 0 118729732.84163404 -17598363.923584461 0 -17598363.923584461 -15651673.809494019 0 0 0 0 16422488.286418393 17144822.388460714 0 17144822.388460714 -24750692.126009524 0 0 0 0 54846850.743581772 54708243.750137329 0 54708243.750137329 -16452930.743518829 0 0 0 0 23486359.290184021 -65579625.67162323 0 -65579625.67162323 23094143.587249756 0 0 0 0 116428738.52171707 -37580422.759361267 0 -37580422.759361267 -55924148.291854858 0 0 0 0 74445464.130358696 49591362.27199173 0 49591362.27199173 -15117005.973510742 0 0 0 0 95081897.341255188 -21643164.190475464 0 -21643164.190475464 10729074.172874451 0 0 0 0 75694691.291116714 -40179708.799354553 0 -40179708.799354553 -37805733.879150391 0 0 0 0 74871696.417900085 -36241000.144088745 0 -36241000.144088745 2175510.3334503174 0 0 0 0 4131181.5352363586 11609932.362014771 0 11609932.362014771 -47862334.976318359 0 0 0 0 28993706.765087128 45401006.608581543 0 45401006.608581543 -120351433.49424696 0 0 0 0 96166483.10667038 -40083237.955223083 0 -40083237.955223083 -24316702.676582336 0 0 0 0 -16605599.15832901 38881615.468276978 0 38881615.468276978 -28070286.33215332 0 0 0 0 -79766568.220050812 95836612.46472168 0 95836612.46472168 -76034931.282676697 0 0 0 0 -72387162.434257507 7252458.7951507568 0 7252458.7951507568 1239354.2538108826 0 0 0 0 -10392282.006189346 102372155.23936462 0 102372155.23936462 -150639030.15583801 0 0 0 0 -8169006.9087677002 95404384.165863037 0 95404384.165863037 -92443534.607093811 0 0 0 0 -7516287.9177131653 79018104.637733459 0 79018104.637733459 -101614570.45214844 0 0 0 0 25346303.862066269 102979257.27261353 0 102979257.27261353 -123054986.34841156 0 0 0 0 98813503.077098846 162129094.04004669 0 162129094.04004669 -25472890.065628052 0 0 0 0 18168193.114551544 121321420.24081421 0 121321420.24081421 191901989.15457153 0 0 0 0 96916075.850311279 -45185715.712722778 0 -45185715.712722778 64386189.22114563 0 0 0 0 21959092.282149553 149122634.48950672 0 149122634.48950672 -26797222.526367188 0 0 0 0 34914873.144683838 122931282.54112244 0 122931282.54112244 -110691621.6658783 0 0 0 0 18432846.774650574 17134483.659576416 0 17134483.659576416 47563242.422096252 0 0 0 0 -5989166.5851011276 89107514.345211029 0 89107514.345211029 -36676059.930114746 0 0 0 0 -4670464.9704780579 6356572.8585205078 0 6356572.8585205078 -26953281.136428833 0 0 0 0 13630398.377338409 50402635.56149292 0 50402635.56149292 -80183113.137329102 0 0 0 0 48533777.154624939 -21299091.080314636 0 -21299091.080314636 -17684147.89163208 0 0 0 0 42373501.072761536 -4457822.2978858948 0 -4457822.2978858948 -59570797.958221436 0 0 0 0 174121906.75176239 -20619700.818344116 0 -20619700.818344116 -36545045.28175354 0 0 0 0 83804098.224021912 15099850.448387146 0 15099850.448387146 -28409272.414031982 0 0 0 0 63462504.848228455 -2670322.8465175629 0 -2670322.8465175629 -32783194.85244751 0 0 0 0 103856647.59423637 39326911.852062225 0 39326911.852062225 -28815416.154800415 0 0 0 0 -45351215.399837494 -10480318.532455444 0 -10480318.532455444 -8414292.8583068848 0 0 0 0 1575905.7915018648 2092584.5109625012 0 2092584.5109625012 786604.22548247874 0 0 0 0 51848242.778448105 27248121.942619324 0 27248121.942619324 60182042.414471626 0 0 0 0 -38670420.460063934 -54755323.480522156 0 -54755323.480522156 -82314169.388900757 0 0 0 0 1336781.2667121887 11447031.770103455 0 11447031.770103455 -164257141.09063911 0 0 0 0 -19585023.96995163 34973810.355903625 0 34973810.355903625 3060256.9431228638 0 0 0 0 -35007112.768283844 -24816852.252586365 0 -24816852.252586365 19408742.460868835 0 0 0 0 -2237991.9645262957 3775984.4458133578 0 3775984.4458133578 1427569.6393345594 0 0 0 0 11490474.570922852 49342047.184921265 0 49342047.184921265 -30699070.867406845 0 0 0 0 -51398141.350347519 -15777701.599975586 0 -15777701.599975586 -9871363.0566329956 0 0 0 0 -5669450.4695552215 2365217.5642176867 0 2365217.5642176867 2921651.4566296339 0 0 0 0 -79699835.335863113 32414015.770862579 0 32414015.770862579 24272225.133895874 0 0 0 0 -10452193.742481232 70102079.576156616 0 70102079.576156616 10068345.254207611 0 0 0 0 -17951712.479855947 13383671.123100773 0 13383671.123100773 15452015.870310068 0 0 0 0 10405153.674944317 29253054.52483131 0 29253054.52483131 27110194.989774734 0 0 0 0 18367045.68800354 53535615.977973938 0 53535615.977973938 15024013.505378723 0 0 0 0 -6026058.9470386505 63164839.43208313 0 63164839.43208313 12562837.123512268 0 0 0 0 -10066064.103111267 80650720.773483276 0 80650720.773483276 3314528.4392623901 0 0 0 0 27320612.128069878 76041411.59815979 0 76041411.59815979 2615308.6737213135 0 0 0 0 -7702398.1397590637 64217654.679889679 0 64217654.679889679 5665206.460067749 0 0 0 0 -76774260.262206078 75787364.741413116 0 75787364.741413116 21206176.71118927 0 0 0 0 -9939591.6190261841 95633176.489952087 0 95633176.489952087 -923204.94065856934 0 0 0 0 46698683.176603794 100609691.54332352 0 100609691.54332352 -11129807.679031372 0 0 0 0 -52752468.638435364 67655544.080955505 0 67655544.080955505 2600279.0564460754 0 0 0 0 -16424186.230128765 110851239.11888504 0 110851239.11888504 -7874915.2693634033 0 0 0 0 -5964559.3591413498 100091566.19684601 0 100091566.19684601 7813133.6222076416 0 0 0 0 -133600675.70022202 70146275.550933838 0 70146275.550933838 10947964.409477234 0 0 0 0 -222712878.79128456 60919970.026994705 0 60919970.026994705 121902387.14168549 0 0 0 0 7645890.3228967208 20975092.311690584 0 20975092.311690584 28934270.187341332 0 0 0 0 -81620426.823972702 87379711.490545273 0 87379711.490545273 5659094.179473877 0 0 0 0 15719032.891893387 -113397200.14017344 0 -113397200.14017344 192139897.49778748 0 0 0 0 -1139696.1258492954 875292.05231108889 0 875292.05231108889 545193.47847144306 0 0 0 0 -11743144.551830292 121613492.98001862 0 121613492.98001862 274852743.76499176 0 0 0 0 -44812936.524459839 13388996.176597595 0 13388996.176597595 -640306.17567443848 0 0 0 0 28499383.523597717 170652315.24586487 0 170652315.24586487 -24034796.298915863 0 0 0 0 43211197.673165798 74426286.027306557 0 74426286.027306557 -39762063.917129517 0 0 0 0 -4878509.1459178925 19972004.606592178 0 19972004.606592178 -54209467.902305603 0 0 0 0 -129901788.52283478 145460994.14035797 0 145460994.14035797 9745395.7503128052 0 0 0 0 -1771975.2362003475 1368980.3246718198 0 1368980.3246718198 2072738.242365852 0 0 0 0 -158594834.49522972 115006481.90447617 0 115006481.90447617 -27755331.080551147 0 0 0 0 -183584479.24659729 76840344.451843262 0 76840344.451843262 15447850.947937012 0 0 0 0 7074092.7487331368 17531738.778029762 0 17531738.778029762 25438528.606043845 0 0 0 0 -112458667.81732178 109806108.1469593 0 109806108.1469593 -75484730.850006104 0 0 0 0 -104875089.21591091 88427049.494737625 0 88427049.494737625 -44438743.343933105 0 0 0 0 -122624416.04106903 103813450.46083069 0 103813450.46083069 -63315406.500457764 0 0 0 0 -231240328.66801453 156967315.92712402 0 156967315.92712402 -72532887.690185547 0 0 0 0 -94396898.232076645 106203064.07020187 0 106203064.07020187 -164466806.25390625 0 0 0 0 -102118277.20074654 100545563.38790131 0 100545563.38790131 -98323503.006134033 0 0 0 0 -154845035.32367706 104333580.25361633 0 104333580.25361633 -110632896.3629303 0 0 0 0 -54481476.859212875 61865671.613229752 0 61865671.613229752 -101318600.80209351 0 0 0 0 -86170807.260190964 84528935.512504578 0 84528935.512504578 -86620523.871063232 0 0 0 0 -83298751.156356812 86087382.609069824 0 86087382.609069824 -93978209.84349823 0 0 0 0 -60488623.124069214 85592660.224205017 0 85592660.224205017 -123815548.38400269 0 0 0 0 -99774511.668781281 84804854.609924316 0 84804854.609924316 -89022720.763946533 0 0 0 0 -76868610.778299332 105975783.22509766 0 105975783.22509766 -119467333.58267212 0 0 0 0 21607559.915674571 17066329.6181175 0 17066329.6181175 8554711.2368251979 0 0 0 0 -78275242.767497063 123466927.26701546 0 123466927.26701546 -125935265.91532898 0 0 0 0 -94032078.387489319 96820337.236587524 0 96820337.236587524 -99734464.144180298 0 0 0 0 -78462172.149093628 134794079.40182495 0 134794079.40182495 -108557849.65936279 0 0 0 0 2377547.5629329681 94773198.722244263 0 94773198.722244263 -188884060.87207794 0 0 0 0 -49797784.098176003 146164532.94866371 0 146164532.94866371 -146540568.68695068 0 0 0 0 -248970679.63037395 292112134.06072426 0 292112134.06072426 -239502128.91235352 0 0 0 0 -275814347.30686951 301367567.14318848 0 301367567.14318848 -233675727.43419075 0 0 0 0 1906715.7591163255 1404896.4488314521 0 1404896.4488314521 -1385519.8490970433 0 0 0 0 -87444240.441652298 157836181.88041306 0 157836181.88041306 -242860698.69616699 0 0 0 0 -61520802.50592041 39437551.794418335 0 39437551.794418335 -21196718.694702148 0 0 0 0 -38872553.061712265 113316639.01495361 0 113316639.01495361 31508416.568374634 0 0 0 0 -71921779.341594696 82149810.066200256 0 82149810.066200256 -44993855.343078613 0 0 0 0 -69169475.202535629 92344163.189090729 0 92344163.189090729 -34321260.596191406 0 0 0 0 -53004254.555738449 47962947.068313599 0 47962947.068313599 -36132124.349235773 0 0 0 0 -67234115.928066254 67029086.758575439 0 67029086.758575439 -71633393.315460205 0 0 0 0 -62873651.756516457 69928742.138278961 0 69928742.138278961 -84939524.030197144 0 0 0 0 -64940562.054872513 59955382.657653809 0 59955382.657653809 -74442934.529418945 0 0 0 0 -38072866.226028442 50844646.511276245 0 50844646.511276245 -83336614.868946791 0 0 0 0 -39117904.162459373 41406681.876663208 0 41406681.876663208 -82759006.594566345 0 0 0 0 -59058373.742613494 103640371.10207951 0 103640371.10207951 -30622860.202880859 0 0 0 0 -3430294.8279021326 816962.4077424258 0 816962.4077424258 4307354.5637234002 0 0 0 0 -37548125.886791229 59016534.215286255 0 59016534.215286255 -80570303.907520294 0 0 0 0 -67772512.168731689 15470796.665554047 0 15470796.665554047 -17333117.967972755 0 0 0 0 -2246673.8564322181 354455.67642196268 0 354455.67642196268 2543426.4829725027 0 0 0 0 -50388697.955823421 53018003.578226089 0 53018003.578226089 5532110.7423858643 0 0 0 0 -3527261.7270960808 51633974.469613075 0 51633974.469613075 27393.709976196289 0 0 0 0 -57789329.154169083 126881257.9477253 0 126881257.9477253 -34583520.242218018 0 0 0 0 -31580586.315448761 106474704.0406723 0 106474704.0406723 -61632840.031555176 0 0 0 0 -61936972.933716774 110656968.00821304 0 110656968.00821304 -48203451.418991089 0 0 0 0 -70593347.771858215 96389622.577465057 0 96389622.577465057 -63822161.015106201 0 0 0 0 -59641445.979629517 111113552.81555176 0 111113552.81555176 -94495362.845031738 0 0 0 0 -53571585.112543106 112431280.53504181 0 112431280.53504181 -103162996.34106445 0 0 0 0 -29560412.200519562 88142099.155181885 0 88142099.155181885 -78160382.427383423 0 0 0 0 -48674776.750766754 38877956.912506104 0 38877956.912506104 -40527837.833183289 0 0 0 0 -65488024.967880249 67870526.114700317 0 67870526.114700317 -87772324.828759193 0 0 0 0 -49836438.640117645 77283620.42848587 0 77283620.42848587 -43341264.421203613 0 0 0 0 30166806.476795673 108887318.51650047 0 108887318.51650047 -34343605.279510498 0 0 0 0 13389941.088806152 26899496.102165222 0 26899496.102165222 -45062329.084712982 0 0 0 0 50805479.067321777 57761971.549835205 0 57761971.549835205 61345.412895202637 0 0 0 0 -45433467.597026825 113854008.60477448 0 113854008.60477448 23256494.529834747 0 0 0 0 -47269945.531036377 101504723.9204216 0 101504723.9204216 -23766214.728637695 0 0 0 0 -65350219.846029282 102119837.08073425 0 102119837.08073425 13811.090034484863 0 0 0 0 -38322528.931676865 104933067.36917496 0 104933067.36917496 -118542333.20656586 0 0 0 0 -34775702.570552826 90162786.969516754 0 90162786.969516754 -57291686.499271393 0 0 0 0 15104440.421154037 14523777.043295603 0 14523777.043295603 8398428.5311686844 0 0 0 0 -57255426.956354141 82592978.673969269 0 82592978.673969269 -49501542.103931427 0 0 0 0 -53064222.220619202 66015675.958713531 0 66015675.958713531 -118965.85350333124 0 0 0 0 7156166.6717495173 930394.18085600436 0 930394.18085600436 -3165405.5582517684 0 0 0 0 102123151.84590912 -33019483.662773132 0 -33019483.662773132 -115831102.96896362 0 0 0 0 7616759.6768823341 4769047.1295483932 0 4769047.1295483932 -2797852.2019824982 0 0 0 0 4188020.8438110352 93163848.338417053 0 93163848.338417053 190794.99730682373 0 0 0 0 26857115.910778046 37853438.609874725 0 37853438.609874725 -67666238.200531006 0 0 0 0 67759347.849861145 144941171.90562439 0 144941171.90562439 -100450430.71595764 0 0 0 0 746025.07400146499 1203578.37552334 0 1203578.37552334 298138.61698570848 0 0 0 0 4763187.2641983032 -8399711.6466674805 0 -8399711.6466674805 -158781096.01810074 0 0 0 0 161011941.40804863 1989099.5564136505 0 1989099.5564136505 -37672258.858139038 0 0 0 0 5362730.1309738066 7035798.1045643762 0 7035798.1045643762 -8778367.3693163544 0 0 0 0 26523872.156357765 -5752615.2374954224 0 -5752615.2374954224 23282563.499656677 0 0 0 0 9280403.759693712 12016045.151007436 0 12016045.151007436 3064467.9020174518 0 0 0 0 12652068.932094574 14112176.709575653 0 14112176.709575653 -7524949.5170783997 0 0 0 0 19832513.624362946 19692510.077953339 0 19692510.077953339 -15656096.960021973 0 0 0 0 22733491.209032059 2021244.2614212036 0 2021244.2614212036 -16811216.065864563 0 0 0 0 3810361.4871960785 6885586.0210638493 0 6885586.0210638493 -9523859.7156628966 0 0 0 0 19244363.438503265 -167254.04703140259 0 -167254.04703140259 -12846521.231888294 0 0 0 0 15657962.070964813 3980774.6171684265 0 3980774.6171684265 -16616833.292503357 0 0 0 0 -22007636.44587326 22042420.896221161 0 22042420.896221161 -43055349.88067627 0 0 0 0 15924637.296278954 1474293.444527626 0 1474293.444527626 -40987541.186027527 0 0 0 0 2572094.4732700735 808299.962979706 0 808299.962979706 -2276263.3320856243 0 0 0 0 128992461.76187897 88913581.177742004 0 88913581.177742004 -68905326.222259521 0 0 0 0 -27972090.990740776 124739859.97286844 0 124739859.97286844 -74749362.253707886 0 0 0 0 178332400.20695496 -64077754.276912689 0 -64077754.276912689 -39651399.106460571 0 0 0 0 53719993.746570587 85726417.982284546 0 85726417.982284546 -96561597.494052887 0 0 0 0 -25765995.387439728 12445165.039087296 0 12445165.039087296 27075907.348526001 0 0 0 0 5696995.4609107971 28342099.50528717 0 28342099.50528717 -31150274.645576477 0 0 0 0 60233319.011833191 10503281.390510559 0 10503281.390510559 -70700549.790771484 0 0 0 0 10491944.463994853 3630795.1324436311 0 3630795.1324436311 -9206157.0797964782 0 0 0 0 175633386.71741486 -191869427.29592896 0 -191869427.29592896 221304127.6098671 0 0 0 0 174328091.98706055 101076976.50588989 0 101076976.50588989 -183661264.59403992 0 0 0 0 -143480512.40047264 168135568.73487759 0 168135568.73487759 -18177045.334030151 0 0 0 0 -3113581.9639365524 2667430.1201658845 0 2667430.1201658845 -264111.0231663594 0 0 0 0 -295296094.07967377 409603365.85949326 0 409603365.85949326 -423033795.17330933 0 0 0 0 -229931943.88009262 59428446.748886108 0 59428446.748886108 502358237.40773773 0 0 0 0 -516634650.43223572 564910044.60078049 0 564910044.60078049 1171208.9019775391 0 0 0 0 -191208698.08320045 719206335.81241226 0 719206335.81241226 -254602743.67034912 0 0 0 0 -512004175.23297119 369371854.07618713 0 369371854.07618713 176028721.83322144 0 0 0 0 -139737350.88041592 188732081.94368744 0 188732081.94368744 80700924.571655273 0 0 0 0 -132590508.92089081 355800023.17886353 0 355800023.17886353 -70783138.305259705 0 0 0 0 -111456712.48366547 242240976.68536377 0 242240976.68536377 -202403952.32739258 0 0 0 0 414717020.99386311 -140170551.8419981 0 -140170551.8419981 -21534068.410301208 0 0 0 0 682539987.27591705 358816780.56036377 0 358816780.56036377 -238206030.62602234 0 0 0 0 1033378753.8068161 512691337.12540436 0 512691337.12540436 -444764987.30935669 0 0 0 0 1218081701.6725764 -643070201.99958944 0 -643070201.99958944 170972406.39040375 0 0 0 0 2007939.5088670626 2521308.53452117 0 2521308.53452117 -1783982.3451291248 0 0 0 0 -19078458.561080933 36485300.917922974 0 36485300.917922974 -160173.50339839028 0 0 0 0 -16792931.588233948 34960286.503303528 0 34960286.503303528 -65313304.791183472 0 0 0 0 274518844.27860641 -84397544.574836731 0 -84397544.574836731 26571952.278739929 0 0 0 0 284334942.25573349 -16636827.546443939 0 -16636827.546443939 -131606672.65271759 0 0 0 0 282868039.83791351 67164198.005996704 0 67164198.005996704 -122895310.64720964 0 0 0 0 240303309.6115799 66344350.646934509 0 66344350.646934509 -41248770.258331299 0 0 0 0 76401200.056388855 90702916.154232025 0 90702916.154232025 79881005.075363159 0 0 0 0 119452672.6586647 131254640.79257965 0 131254640.79257965 -25511645.609502792 0 0 0 0 2172359.7612501532 527540.08449853957 0 527540.08449853957 -1552254.2474581301 0 0 0 0 -113909474.73226929 346658353.77777481 0 346658353.77777481 1044426241.901947 0 0 0 0 91570414.649963379 245415091.70848846 0 245415091.70848846 129514717.20940018 0 0 0 0 302900056.03394794 272106468.88033533 0 272106468.88033533 -791203917.35043335 0 0 0 0 310532019.14345551 408619397.09549713 0 408619397.09549713 -190913580.37554932 0 0 0 0 341201791.11529922 99800162.600528717 0 99800162.600528717 -341679628.53356934 0 0 0 0 196049538.31651306 226838084.11991882 0 226838084.11991882 -240855431.53433228 0 0 0 0 6243195.5768241882 198135419.97740173 0 198135419.97740173 -240149033.14898682 0 0 0 0 -288282123.87748957 428742108.60616827 0 428742108.60616827 -397929662.08001709 0 0 0 0 -208377911.8714447 -13191760.831535339 0 -13191760.831535339 -372361360.67173767 0 0 0 0 73097341.545539856 797546970.43956757 0 797546970.43956757 -93465782.891426086 0 0 0 0 72374404.387542725 340798664.34811401 0 340798664.34811401 424205296.69538879 0 0 0 0 -2627475.3260249048 2163173.5068597347 0 2163173.5068597347 -628559.50335848331 0 0 0 0 -105174483.0680685 167853600.36707258 0 167853600.36707258 449096105.90374756 0 0 0 0 -44568414.464935303 -2564619.9734725952 0 -2564619.9734725952 2093078.2544403076 0 0 0 0 80988241.594127655 16384160.651878357 0 16384160.651878357 -191383725.08476257 0 0 0 0 76405979.556022644 62603225.12877655 0 62603225.12877655 -555161231.17805481 0 0 0 0 53541966.966651917 95053177.829162598 0 95053177.829162598 -327480191.36816406 0 0 0 0 11365398.068183899 243081826.12799072 0 243081826.12799072 -351225332.78123474 0 0 0 0 -36905012.922466278 269746612.3204689 0 269746612.3204689 -255599391.41651917 0 0 0 0 163825001.90907025 230121064.96682572 0 230121064.96682572 183432817.4672699 0 0 0 0 169314305.14713287 175808526.64286804 0 175808526.64286804 795263.33757019043 0 0 0 0 224108944.95549059 376039764.99953079 0 376039764.99953079 280159171.17463684 0 0 0 0 201324339.32636547 263270562.75816536 0 263270562.75816536 197618576.59483337 0 0 0 0 212237214.55856323 325043056.88045883 0 325043056.88045883 9381866.0831069946 0 0 0 0 75137672.16034317 418829415.66210175 0 418829415.66210175 216101959.09951019 0 0 0 0 15363038.44588089 141063220.81221771 0 141063220.81221771 90937295.833183289 0 0 0 0 -17470468.194831848 214463050.39283752 0 214463050.39283752 -23087855.763801575 0 0 0 0 -182597891.43785858 107749106.93329239 0 107749106.93329239 5896902.3450088501 0 0 0 0 53777497.803059578 305533377.81925774 0 305533377.81925774 -343236114.91763306 0 0 0 0 -154519724.1254425 159610016.94651413 0 159610016.94651413 20212816.236351013 0 0 0 0 -163962184.75843048 128353301.62562561 0 128353301.62562561 -82469228.939025879 0 0 0 0 5080371.5762540326 2586380.7832826823 0 2586380.7832826823 -4146398.141046986 0 0 0 0 1125972.1449542213 5278783.2118491381 0 5278783.2118491381 -5165054.9172594994 0 0 0 0 -206431466.92604446 82047821.34197998 0 82047821.34197998 -18037858.319549561 0 0 0 0 -190045895.4707489 110315655.56181908 0 110315655.56181908 28462282.895637512 0 0 0 0 -627793336.74580002 57803775.368953705 0 57803775.368953705 50560780.159881592 0 0 0 0 45352.720301672816 2044234.3161545917 0 2044234.3161545917 -1567046.9142598212 0 0 0 0 -9329569.3108673096 -18858879.805179596 0 -18858879.805179596 -32727102.709236145 0 0 0 0 -22406979.805839539 -178372835.49814606 0 -178372835.49814606 202945904.41979218 0 0 0 0 36816054.762485504 -92194300.578508377 0 -92194300.578508377 -206826519.82771349 0 0 0 0 -101739383.1618824 68122866.922334671 0 68122866.922334671 5283670.0825119019 0 0 0 0 -238280099.75328064 308169562.76646423 0 308169562.76646423 -118541921.49668884 0 0 0 0 61152139.610033989 46631456.007096291 0 46631456.007096291 92017774.019271851 0 0 0 0 49048770.617099762 108961893.97601318 0 108961893.97601318 -97235245.083999634 0 0 0 0 93489833.026115417 96930952.626565933 0 96930952.626565933 -19677403.047271729 0 0 0 0 -77456473.126876831 55897322.697738647 0 55897322.697738647 149741054.77867889 0 0 0 0 101327344.08290482 98517193.489818573 0 98517193.489818573 158981978.88792992 0 0 0 0 95376837.147470474 116648717.1091671 0 116648717.1091671 118849438.48169708 0 0 0 0 126789409.60408115 -48157029.506608963 0 -48157029.506608963 19541245.273529053 0 0 0 0 1683899.7127052471 490820.26342314854 0 490820.26342314854 -1220284.7792878002 0 0 0 0 38927558.375579834 116897223.97799683 0 116897223.97799683 209629295.13244629 0 0 0 0 17012703.729797363 91999922.028408051 0 91999922.028408051 378038044.58056641 0 0 0 0 229595966.12445831 148251926.71417618 0 148251926.71417618 132973949.9672699 0 0 0 0 158529869.72068596 -9482883.5041322708 0 -9482883.5041322708 -26756642.596473694 0 0 0 0 187422361.0957489 179476786.31214905 0 179476786.31214905 34714152.313804626 0 0 0 0 93829855.712882996 94048452.5496521 0 94048452.5496521 -114442572.56781006 0 0 0 0 93376460.004760742 -26842245.678787231 0 -26842245.678787231 -50272203.290047646 0 0 0 0 17862661.839279175 -24267007.477127075 0 -24267007.477127075 16963406.202198029 0 0 0 0 12352849.715564728 -9286752.3391189575 0 -9286752.3391189575 -18393903.414086342 0 0 0 0 4640692.5965246186 1581454.7390770391 0 1581454.7390770391 -4463499.1652890295 0 0 0 0 15229036.003238678 -2982230.9649887085 0 -2982230.9649887085 -4583354.125415802 0 0 0 0 34936725.200775146 9685211.3350448608 0 9685211.3350448608 -16789823.13999939 0 0 0 0 6225122.8020544052 6966801.2079520226 0 6966801.2079520226 -11691682.520065308 0 0 0 0 121668222.831604 137302307.92353821 0 137302307.92353821 -13767743.247621536 0 0 0 0 -4893225.5771312714 26705436.996191978 0 26705436.996191978 43044909.651763916 0 0 0 0 89547262.309516907 204303369.46118927 0 204303369.46118927 88513984.560783386 0 0 0 0 92665435.299583435 164670054.72201538 0 164670054.72201538 -149257737.12411499 0 0 0 0 93179423.158889771 48766810.464471817 0 48766810.464471817 -59763981.955738068 0 0 0 0 55262971.482944489 109772740.35910797 0 109772740.35910797 77856537.971675873 0 0 0 0 111602178.41104126 153171680.10373974 0 153171680.10373974 25178406.196044922 0 0 0 0 176220860.73261261 214286840.69805908 0 214286840.69805908 73249412.723052979 0 0 0 0 48110425.684188843 107474611.30101395 0 107474611.30101395 33584909.867435455 0 0 0 0 8499637.0204811096 149418063.23700333 0 149418063.23700333 58018807.514221191 0 0 0 0 8085278.3600463867 -50729588.979980469 0 -50729588.979980469 435281.19518661499 0 0 0 0 255887703.16189766 61217615.86580658 0 61217615.86580658 12427137.55279541 0 0 0 0 -43303153.046237946 17675058.645618439 0 17675058.645618439 88132684.868202209 0 0 0 0 -7865483.892193459 6824059.6359000951 0 6824059.6359000951 1437933.5036920765 0 0 0 0 -161454267.77156067 179289630.60467911 0 179289630.60467911 -312561661.18141174 0 0 0 0 -156985.27088026702 1210623.9579499066 0 1210623.9579499066 -1696240.6704192907 0 0 0 0 17354419.78225708 -66275075.699893951 0 -66275075.699893951 -448447858.19990349 0 0 0 0 -5105238.3447914124 275928080.65350723 0 275928080.65350723 54941276.737060547 0 0 0 0 57946527.283443451 32295291.13073349 0 32295291.13073349 -494184996.88072777 0 0 0 0 10308047.588121414 32130164.18118 0 32130164.18118 -327609364.50221252 0 0 0 0 37544852.513753891 150853668.99251747 0 150853668.99251747 272682830.53489685 0 0 0 0 -6385899.8174571022 5250913.7311448082 0 5250913.7311448082 303447.80060084909 0 0 0 0 -82743012.554826736 -9085284.7818603516 0 -9085284.7818603516 -229376370.67311859 0 0 0 0 64528643.347503662 40099400.61372757 0 40099400.61372757 -477172851.89355159 0 0 0 0 -14234025.489451885 82928808.106690407 0 82928808.106690407 -41424033.15058136 0 0 0 0 41122845.116027832 80984118.325511932 0 80984118.325511932 -211072644.40870953 0 0 0 0 -728000.69171334803 2342368.2362567298 0 2342368.2362567298 -677228.04540586472 0 0 0 0 -40876662.224960804 -22501720.869910002 0 -22501720.869910002 36049939.125137329 0 0 0 0 -60160560.012138367 2366967.7315216064 0 2366967.7315216064 -34498.751991271973 0 0 0 0 -164903231.60634613 -49992402.349777222 0 -49992402.349777222 3122620.0260467529 0 0 0 0 -49321.13832488656 226648.09209646657 0 226648.09209646657 -98572.883656293154 0 0 0 0 173027762.02952957 114259667.37868309 0 114259667.37868309 55761130.757423401 0 0 0 0 165760725.52153397 165166138.25422668 0 165166138.25422668 120003089.54332733 0 0 0 0 210974774.34128761 141373710.34646606 0 141373710.34646606 85483922.800682068 0 0 0 0 -524973.50734061003 3135214.151057072 0 3135214.151057072 -3655757.4623383358 0 0 0 0 111512554.44800186 64349697.565607071 0 64349697.565607071 100860863.99163818 0 0 0 0 26917082.834774017 147471205.63225365 0 147471205.63225365 92259207.688804626 0 0 0 0 -4165262.8336105347 122163660.79932404 0 122163660.79932404 148376262.17719269 0 0 0 0 27794095.863883972 -130383685.87620163 0 -130383685.87620163 -211848208.31652832 0 0 0 0 -167546648.5366931 16085500.513886452 0 16085500.513886452 -165222015.07743073 0 0 0 0 84864942.925926208 170577738.14350319 0 170577738.14350319 -271081779.51499939 0 0 0 0 -18224326.796203613 222703865.38708496 0 222703865.38708496 -161275868.8589859 0 0 0 0 -127051255.79899979 113944840.18048477 0 113944840.18048477 93847026.349754333 0 0 0 0 -121592754.99256611 8293357.1267051697 0 8293357.1267051697 657996926.32404709 0 0 0 0 -1903223.1133862361 118406.55779727548 0 118406.55779727548 -7258.0214603124186 0 0 0 0 -240719278.38812637 329737043.69754028 0 329737043.69754028 -282498300.01138687 0 0 0 0 169538789.670578 103912845.83250046 0 103912845.83250046 -943587869.57447815 0 0 0 0 -165459979.72135925 -41017865.668384552 0 -41017865.668384552 -341580947.18156052 0 0 0 0 -4726638.7366522029 2624345.2865940332 0 2624345.2865940332 30713.686003918294 0 0 0 0 -304848125.11843491 204700418.61644173 0 204700418.61644173 653778852.48464203 0 0 0 0 101584717.02685547 54680760.141166687 0 54680760.141166687 -625860120.65911341 0 0 0 0 -1323194.4946172237 887921.12919693813 0 887921.12919693813 -395978.71527691931 0 0 0 0 -89364182.519676208 -60992857.599272728 0 -60992857.599272728 109099310.57572937 0 0 0 0 -105421641.79159927 181516952.38828278 0 181516952.38828278 -166753259.31681061 0 0 0 0 -56315544.495239258 114812805.03084183 0 114812805.03084183 -84593904.963592529 0 0 0 0 -135564910.07574844 161533460.96230316 0 161533460.96230316 -123034472.35107803 0 0 0 0 141092438.89841843 122224047.4500885 0 122224047.4500885 -295593402.67622566 0 0 0 0 -199455086.35792923 -140738618.8366642 0 -140738618.8366642 170374223.06752777 0 0 0 0 -466470.62053085864 -16206.586810670793 0 -16206.586810670793 -392590.56341646239 0 0 0 0 -64804249.820695877 283521389.27564621 0 283521389.27564621 -466944892.70272064 0 0 0 0 -245281888.10614014 205077096.35046768 0 205077096.35046768 -34857389.813694 0 0 0 0 8733279.4104728699 33309997.788108826 0 33309997.788108826 -91726812.576807022 0 0 0 0 24925281.150672913 -15689096.983224869 0 -15689096.983224869 -217610986.51413727 0 0 0 0 -830818.32301330566 -34904548.144855022 0 -34904548.144855022 89056857.364982605 0 0 0 0 -3060620.5393753052 89288969.489318848 0 89288969.489318848 85204952.245941162 0 0 0 0 -46298873.25397253 72324804.162151814 0 72324804.162151814 99879393.742179871 0 0 0 0 -134385842.37245941 33277821.450735092 0 33277821.450735092 82702451.637359619 0 0 0 0 -961336.71787558496 49529.974444523454 0 49529.974444523454 94233.704276312143 0 0 0 0 48709797.34910965 61331591.415802002 0 61331591.415802002 -22738472.166784286 0 0 0 0 -29038399.798545837 -31971347.533912659 0 -31971347.533912659 45959854.505664825 0 0 0 0 33193855.813961029 114808054.68822098 0 114808054.68822098 -170771462.62486267 0 0 0 0 -703881.83507500589 64326.768020063639 0 64326.768020063639 42453.273573052138 0 0 0 0 -84251291.155239105 228380742.51964569 0 228380742.51964569 -263705282.58977127 0 0 0 0 -348195922.0065155 249359352.56036377 0 249359352.56036377 -84661097.421393752 0 0 0 0 -335926104.95491028 382676016.92923737 0 382676016.92923737 -108770303.99512482 0 0 0 0 -209897068.07762146 136793045.09705734 0 136793045.09705734 222142809.83266068 0 0 0 0 -244584930.03626251 -19392583.528282166 0 -19392583.528282166 -62375918.548149109 0 0 0 0 -181896206.30047226 46188208.104152679 0 46188208.104152679 -2533639.8955860138 0 0 0 0 -68753142.940921783 79245702.938335419 0 79245702.938335419 -43243711.292022705 0 0 0 0 -19652294.657592297 78142550.2478652 0 78142550.2478652 -17304860.203857422 0 0 0 0 -7612012.0243167877 28768918.331565857 0 28768918.331565857 26040258.332437515 0 0 0 0 11833428.686950684 -2181449.1617636681 0 -2181449.1617636681 -27325938.994018555 0 0 0 0 73981962.534244537 27465913.063302994 0 27465913.063302994 -34885459.032119751 0 0 0 0 60178.643955230713 44219519.2787323 0 44219519.2787323 -9966681.2403411865 0 0 0 0 29050517.804704666 37408418.175491333 0 37408418.175491333 -8374351.8290100098 0 0 0 0 26283157.709100723 31959736.776569366 0 31959736.776569366 32479790.541164398 0 0 0 0 17929655.544956207 33170976.083106995 0 33170976.083106995 14137233.503789902 0 0 0 0 42200490.553779602 22484267.793035507 0 22484267.793035507 -12116481.709609985 0 0 0 0 -6756937.1252608299 10134463.168604851 0 10134463.168604851 -12984834.87223053 0 0 0 0 125905579.79943275 79411396.576402664 0 79411396.576402664 -97123082.313545227 0 0 0 0 99317853.910045624 93145797.668548584 0 93145797.668548584 -35472042.255084991 0 0 0 0 85974976.616725922 16186158.782012939 0 16186158.782012939 -60416645.918657303 0 0 0 0 43805180.868530273 39800299.900215149 0 39800299.900215149 -62548708.320583344 0 0 0 0 61577338.201525688 112016125.90512371 0 112016125.90512371 -4493060.3611450195 0 0 0 0 108097749.81330109 49375206.227371216 0 49375206.227371216 69583217.780039787 0 0 0 0 97388397.735298157 93639179.209609985 0 93639179.209609985 106348934.22779465 0 0 0 0 109933297.39412689 149031743.88672638 0 149031743.88672638 232437049.97029877 0 0 0 0 104115877.1576004 57314642.322860718 0 57314642.322860718 17495138.76984787 0 0 0 0 214085131.01193237 125046586.75007629 0 125046586.75007629 40112022.333732605 0 0 0 0 -2403261.3599389233 2184516.4506682456 0 2184516.4506682456 -239070.42259293795 0 0 0 0 54261457.136024475 50357736.102851868 0 50357736.102851868 -14938881.101680756 0 0 0 0 107113493.95035076 165889201.03799152 0 165889201.03799152 134506735.33154297 0 0 0 0 104209959.24708557 116620128.23442841 0 116620128.23442841 161042624.90784454 0 0 0 0 148404316.86602783 82023300.03861618 0 82023300.03861618 -30488957.166397095 0 0 0 0 10791295.180526733 -27455373.793102264 0 -27455373.793102264 -31312993.613231659 0 0 0 0 -389359234.31854248 167683722.64354706 0 167683722.64354706 -46545039.199241638 0 0 0 0 -210682118.08835602 -70900973.374866486 0 -70900973.374866486 60803860.750961304 0 0 0 0 -925159.95996960625 881856.70348477364 0 881856.70348477364 -268580.41248674691 0 0 0 0 137728089.45256805 162449784.09049225 0 162449784.09049225 -213959436.64656067 0 0 0 0 -75006230.691390991 352537213.03949738 0 352537213.03949738 -236381590.25067616 0 0 0 0 30813279.630783081 169700076.14271545 0 169700076.14271545 -108124269.09432983 0 0 0 0 -415235480.86308098 193072593.7821846 0 193072593.7821846 -17589783.870864868 0 0 0 0 100411802.37487793 70760716.802352905 0 70760716.802352905 -33129675.372587204 0 0 0 0 136611692.89941436 39133501.905288577 0 39133501.905288577 -7757913.6438903809 0 0 0 0 129493455.34574509 148430187.19701385 0 148430187.19701385 -186450485.54592133 0 0 0 0 53106204.691287041 176924265.54807568 0 176924265.54807568 -118126877.36871338 0 0 0 0 28976115.786331177 103790398.45682192 0 103790398.45682192 -85347955.83846283 0 0 0 0 -83426927.636032104 180112388.5831871 0 180112388.5831871 -46767722.665596008 0 0 0 0 -73115810.311912537 159850173.72934723 0 159850173.72934723 -21018096.309200287 0 0 0 0 -41363351.52684021 141634361.3217926 0 141634361.3217926 -32639114.1673069 0 0 0 0 -53466957.463806152 93929378.216609955 0 93929378.216609955 -44361357.628650665 0 0 0 0 24676480.443374634 96579217.803155899 0 96579217.803155899 -72707459.881755829 0 0 0 0 30367685.280312061 45975538.124567747 0 45975538.124567747 -42897964.428627014 0 0 0 0 12802064.530473709 28307144.445041656 0 28307144.445041656 -60510907.269451141 0 0 0 0 1588965.9115028381 87326797.555469513 0 87326797.555469513 -45898106.381186247 0 0 0 0 15927485.621650696 62393715.028823853 0 62393715.028823853 -15916837.5207901 0 0 0 0 13058470.340831757 58021783.29999733 0 58021783.29999733 8090735.6782073975 0 0 0 0 -21418375.460636139 64523926.441447258 0 64523926.441447258 36199609.42641449 0 0 0 0 -6198541.0191040039 7036528.8177223206 0 7036528.8177223206 -59028444.708240509 0 0 0 0 -1856832.9779167175 40094083.970592499 0 40094083.970592499 -487333.88215637207 0 0 0 0 435895.86171150208 -3992572.2456035614 0 -3992572.2456035614 -106098655.42589188 0 0 0 0 -46785485.56583786 38250396.97517395 0 38250396.97517395 -71393279.643657684 0 0 0 0 13906855.002174377 68603810.300801277 0 68603810.300801277 -204576234.32111359 0 0 0 0 -242184.90653900057 824516.65899310634 0 824516.65899310634 63613.575780827552 0 0 0 0 57897648.993587017 85261996.810765266 0 85261996.810765266 -181730035.75112152 0 0 0 0 54105.829862140119 299607.13153486326 0 299607.13153486326 -2252.7613169439137 0 0 0 0 34680162.561359406 103176881.49898529 0 103176881.49898529 -128731651.04168701 0 0 0 0 -9928089.4380874634 57077055.417079926 0 57077055.417079926 -165926807.86884308 0 0 0 0 -44503920.637443542 78327768.731002808 0 78327768.731002808 -76484018.017932892 0 0 0 0 -48207991.434207916 62429549.548042297 0 62429549.548042297 -102550934.56420898 0 0 0 0 1770897.4698295593 -25244958.370857239 0 -25244958.370857239 -92240351.190551758 0 0 0 0 234799538.98799133 73948871.2706604 0 73948871.2706604 -159302394.3266449 0 0 0 0 -1788065.27954036 1023611.4849699326 0 1023611.4849699326 278505.37302041054 0 0 0 0 108238360.36194611 14026656.116767883 0 14026656.116767883 -157158576.72583675 0 0 0 0 7688563.0650303662 197693525.13610965 0 197693525.13610965 9272352.6759109497 0 0 0 0 363382462.98739815 144791876.59524536 0 144791876.59524536 -44490903.526988983 0 0 0 0 -940800.81017496809 517831.37293412909 0 517831.37293412909 686683.33343195915 0 0 0 0 22798745.684020996 85335438.300727844 0 85335438.300727844 54374184.62676239 0 0 0 0 75691841.47555542 71675268.439081192 0 71675268.439081192 11440487.05015564 0 0 0 0 -4320766.4861389026 4104371.7888671532 0 4104371.7888671532 2897940.5232915431 0 0 0 0 198064303.05568314 122215207.6528244 0 122215207.6528244 7491169.1144447327 0 0 0 0 77809476.795486569 102857414.99341726 0 102857414.99341726 89014953.699264526 0 0 0 0 -136991742.69043732 25824405.18189621 0 25824405.18189621 188796314.65626144 0 0 0 0 -112985680.47872162 30187953.663482666 0 30187953.663482666 -150909943.19165039 0 0 0 0 150189180.59340787 179550798.34235644 0 179550798.34235644 61671943.422576904 0 0 0 0 52551650.236228943 35415209.787982941 0 35415209.787982941 -6384595.8158245087 0 0 0 0 -195802159.66087723 45646548.76890564 0 45646548.76890564 21942504.57358551 0 0 0 0 -402991239.15085602 -70548579.78042984 0 -70548579.78042984 149400660.31597137 0 0 0 0 -48711121.594230264 140773650.56904256 0 140773650.56904256 97410737.495445251 0 0 0 0 -11206374.167872667 63792007.981729507 0 63792007.981729507 228444140.79122734 0 0 0 0 203811923.62992811 504700799.34728432 0 504700799.34728432 291982500.43769598 0 0 0 0 112972385.4971211 398892227.88309669 0 398892227.88309669 260626509.37795258 0 0 0 0 -21895111.048651192 35461872.8123696 0 35461872.8123696 -39428613.417418242 0 0 0 0 352091641.14137149 126017859.03527284 0 126017859.03527284 -202673239.78536224 0 0 0 0 -239112360.76358032 216197774.23917389 0 216197774.23917389 344153106.31818771 0 0 0 0 69850532.475748241 276856108.51223451 0 276856108.51223451 289735847.04024124 0 0 0 0 334321768.4467392 351494465.46582413 0 351494465.46582413 12230871.175354004 0 0 0 0 150713640.15030289 157398305.41501999 0 157398305.41501999 88377494.534736633 0 0 0 0 -20208933.955090959 34974802.681785479 0 34974802.681785479 -37964508.474295847 0 0 0 0 204355423.15615082 75767207.958126068 0 75767207.958126068 -194575114.77230072 0 0 0 0 86467909.639610291 89494953.043457031 0 89494953.043457031 -69938888.238155365 0 0 0 0 69090125.074630737 163110011.44038582 0 163110011.44038582 -369574929.33306885 0 0 0 0 38230342.973075867 -30379171.913764954 0 -30379171.913764954 -54568483.12638092 0 0 0 0 22763862.571380615 -667120.99519348145 0 -667120.99519348145 -71181355.70501709 0 0 0 0 50305332.138721466 -44709386.455511093 0 -44709386.455511093 -111250618.8802948 0 0 0 0 145930280.23936844 33110252.24905014 0 33110252.24905014 -71719940.857917786 0 0 0 0 114009810.00736237 35383900.038385391 0 35383900.038385391 -26731458.50491333 0 0 0 0 -190898944.40814972 47509103.014350891 0 47509103.014350891 -78191161.474334717 0 0 0 0 -89495514.513565063 782328697.02664948 0 782328697.02664948 -548734488.98103142 0 0 0 0 426579307.88536835 310783547.16739655 0 310783547.16739655 -415687239.00785828 0 0 0 0 345444839.18426514 45129795.917701721 0 45129795.917701721 -283843334.43305969 0 0 0 0 -820175310.48735046 84037777.796447754 0 84037777.796447754 -383040005.72982788 0 0 0 0 -1779789.5626643077 930803.18321433291 0 930803.18321433291 450558.47880718857 0 0 0 0 85833463.694755554 122309883.38699722 0 122309883.38699722 -611742029.33541107 0 0 0 0 -46135818.594062805 -162342180.43860626 0 -162342180.43860626 -445148741.56741905 0 0 0 0 -988349200.95595932 320234373.20636368 0 320234373.20636368 22575960.963119507 0 0 0 0 2284550.32645813 1424647.1181614846 0 1424647.1181614846 -2470176.4147417098 0 0 0 0 -54744539.799045563 -128992585.60440445 0 -128992585.60440445 -147228626.56179428 0 0 0 0 -69143533.001365662 74679155.986408234 0 74679155.986408234 -34232167.614706635 0 0 0 0 -9121157.1729354858 188091679.99313354 0 188091679.99313354 -200621640.14450455 0 0 0 0 -421859353.94831848 171631528.13143158 0 171631528.13143158 -36866065.826117754 0 0 0 0 -93242951.286407471 499327527.05319595 0 499327527.05319595 -386391460.21588135 0 0 0 0 114173765.11933899 197015235.65945435 0 197015235.65945435 -235177123.95722198 0 0 0 0 -34320346.243942261 86698371.974372864 0 86698371.974372864 -45482345.553642273 0 0 0 0 -31779362.85370636 87917825.000339508 0 87917825.000339508 -45942147.713386536 0 0 0 0 -141317394.1417923 135230314.06191635 0 135230314.06191635 -50606858.141326904 0 0 0 0 -56942715.926407814 102247151.29133415 0 102247151.29133415 -50417987.881546021 0 0 0 0 -26058290.830993652 19764976.440479279 0 19764976.440479279 -8093977.8081703186 0 0 0 0 -79985309.4766922 67633463.151685715 0 67633463.151685715 -23987049.890441895 0 0 0 0 7150771.6072942689 4737310.8832724988 0 4737310.8832724988 -6316109.6600357443 0 0 0 0 16851886.280382007 18751130.549012408 0 18751130.549012408 -1266797.5518171787 0 0 0 0 23214000.641162872 22779306.871772766 0 22779306.871772766 -2588618.4728012085 0 0 0 0 39558925.157320023 32393422.408941269 0 32393422.408941269 -9276497.822681427 0 0 0 0 8090575.6461610794 35637169.007833481 0 35637169.007833481 7759119.0281066895 0 0 0 0 7230731.7575912476 32399149.783508301 0 32399149.783508301 -1046953.0193634033 0 0 0 0 16905568.58573658 18352719.036869794 0 18352719.036869794 -490282.03756484389 0 0 0 0 11847753.501014709 27563115.627830505 0 27563115.627830505 -18225351.462176323 0 0 0 0 48010710.083602905 53516862.742195129 0 53516862.742195129 -61633177.193893433 0 0 0 0 21664225.084106445 55213077.342460632 0 55213077.342460632 -30154485.763565063 0 0 0 0 -31170363.788246155 103524536.83001709 0 103524536.83001709 -66696941.415679932 0 0 0 0 -6555961.3145294189 86497105.484565735 0 86497105.484565735 -66880767.525100708 0 0 0 0 -22837323.713287354 65923530.253997803 0 65923530.253997803 -13734842.535125732 0 0 0 0 70482721.465450287 -18146180.206447601 0 -18146180.206447601 -63015701.867155552 0 0 0 0 109206229.67006874 19419291.577701569 0 19419291.577701569 -42823708.762924194 0 0 0 0 55876096.890302658 -16019061.253259659 0 -16019061.253259659 -19770064.101528168 0 0 0 0 4474855.7747512273 232737.51597611979 0 232737.51597611979 -4475053.9701789767 0 0 0 0 20594875.360564571 677323.484193746 0 677323.484193746 -20368852.035122223 0 0 0 0 51423521.43724823 -3187348.4647598267 0 -3187348.4647598267 -27645332.092554092 0 0 0 0 62736002.936098099 6237005.3752784729 0 6237005.3752784729 -29514557.202964783 0 0 0 0 51407198.253356934 19996801.182483673 0 19996801.182483673 -42209294.806639671 0 0 0 0 43355419.803153992 27409761.877075195 0 27409761.877075195 -29613867.460462004 0 0 0 0 49243620.704708099 32946456.191936493 0 32946456.191936493 -50588190.72961998 0 0 0 0 23021128.579714287 3681373.6121297851 0 3681373.6121297851 -24871129.649757102 0 0 0 0 68699912.150252342 37611545.944858551 0 37611545.944858551 -691279.97161865234 0 0 0 0 70981857.745297909 40356925.111499786 0 40356925.111499786 -6986132.6648788452 0 0 0 0 -7395975.5181789398 46176255.379440308 0 46176255.379440308 35980955.118087769 0 0 0 0 161695286.22290039 -110373924.82971191 0 -110373924.82971191 -14995254.538757324 0 0 0 0 161490026.36233521 88942052.336708069 0 88942052.336708069 97646604.393928528 0 0 0 0 934870.93441509083 1492093.2681409717 0 1492093.2681409717 -85958.803062066436 0 0 0 0 -21825752.771728516 85202133.83946228 0 85202133.83946228 110897445.51948547 0 0 0 0 27150920.261947632 83290948.581161499 0 83290948.581161499 59651715.792907715 0 0 0 0 21024371.814082623 115361928.56309795 0 115361928.56309795 90533487.769042969 0 0 0 0 -57517516.111804962 53264017.136459351 0 53264017.136459351 90929688.527656555 0 0 0 0 212816488.32824516 66567558.019889832 0 66567558.019889832 -28943200.966873169 0 0 0 0 526112.85451345146 254823.95931395143 0 254823.95931395143 -2202227.7201520205 0 0 0 0 125765907.92410851 98423544.319320679 0 98423544.319320679 118406079.14363098 0 0 0 0 -1051310.1567576714 21869236.732316971 0 21869236.732316971 -8746218.7909709215 0 0 0 0 2424338.2103655338 48745281.680226326 0 48745281.680226326 9509973.7757873535 0 0 0 0 41551940.824373007 53071388.372190952 0 53071388.372190952 -34318881.768310547 0 0 0 0 3341592.9530830383 23183966.43611908 0 23183966.43611908 6569202.7791748047 0 0 0 0 1613905.6114082336 9457903.9172744751 0 9457903.9172744751 1173481.8903121948 0 0 0 0 8776464.1744329557 11099633.769784331 0 11099633.769784331 1653742.8314548209 0 0 0 0 5525269.9834289551 5254879.4699554443 0 5254879.4699554443 -791145.72146606445 0 0 0 0 7971412.4425793365 11452816.426306225 0 11452816.426306225 3199097.4983569533 0 0 0 0 26252230.994758606 17316225.891540527 0 17316225.891540527 21632372.947723389 0 0 0 0 3931774.0558840968 15797190.613410385 0 15797190.613410385 3812855.4544235766 0 0 0 0 1149714.479988087 1772547.7712407932 0 1772547.7712407932 1464433.5713113099 0 0 0 0 6222309.7779693604 41167537.354873657 0 41167537.354873657 2507147.7645874023 0 0 0 0 -2588700.803894043 15010674.390499115 0 15010674.390499115 -3965788.4903717041 0 0 0 0 2979070.1642150879 21927133.130683899 0 21927133.130683899 13956192.673118591 0 0 0 0 -5032232.9640045166 9096535.3674621582 0 9096535.3674621582 9488751.4960479736 0 0 0 0 -725570.98828125 42731054.853111267 0 42731054.853111267 33393017.108352661 0 0 0 0 6810720.5377140045 22698111.738105774 0 22698111.738105774 10438072.415237427 0 0 0 0 38566489.188415527 5432094.4418945312 0 5432094.4418945312 10622857.703979492 0 0 0 0 820382.66754595563 2881838.9346821904 0 2881838.9346821904 -1821880.1068743761 0 0 0 0 3961956.7142366692 6396792.9787245393 0 6396792.9787245393 -1568677.6952187121 0 0 0 0 -9966686.9317245483 32109280.081115723 0 32109280.081115723 58819092.384025574 0 0 0 0 54035698.535135269 -36854653.666191101 0 -36854653.666191101 30143936.139923096 0 0 0 0 -59918991.490481377 18128985.080154896 0 18128985.080154896 66615922.439178467 0 0 0 0 -28575663.265609741 6028238.291229248 0 6028238.291229248 33798986.248657227 0 0 0 0 -263916255.42837906 176792576.98643494 0 176792576.98643494 -6955027.2781982422 0 0 0 0 17690265.557350159 -3519615.1133117676 0 -3519615.1133117676 -2911396.1833190918 0 0 0 0 -358939.87587697804 1035516.9050607979 0 1035516.9050607979 -178501.12015806139 0 0 0 0 12999312.567627206 19847644.465922803 0 19847644.465922803 -1182164.5967409899 0 0 0 0 2399798.2198888287 4338788.5002628639 0 4338788.5002628639 -3542780.7361542657 0 0 0 0 55124.911813735962 2950273.1247062683 0 2950273.1247062683 1005418.9538421631 0 0 0 0 8273487.4186732899 12737521.038244307 0 12737521.038244307 2580933.4100074172 0 0 0 0 6031381.3597455937 14142866.039829321 0 14142866.039829321 6390788.4857912809 0 0 0 0 5166430.772233963 11010489.787506104 0 11010489.787506104 -483342.27801513672 0 0 0 0 513882.68434143066 19816902.523956299 0 19816902.523956299 17027105.311599731 0 0 0 0 2531248.883682251 9527041.4888305664 0 9527041.4888305664 1519725.526260376 0 0 0 0 363548.16576510295 6921970.9022431001 0 6921970.9022431001 -2656909.0483042151 0 0 0 0 2865505.2213587761 9444542.0376977921 0 9444542.0376977921 -3924505.1461486816 0 0 0 0 -2045963.8558654785 11045752.235656738 0 11045752.235656738 -9658009.122833252 0 0 0 0 -1608511.9528236389 6611304.2510147095 0 6611304.2510147095 -4476661.9583435059 0 0 0 0 264484.82078552246 13080399.046920776 0 13080399.046920776 -9502642.7126865387 0 0 0 0 1474460.8689177036 11355861.420960903 0 11355861.420960903 -2094333.7695922852 0 0 0 0 13225441.56282964 26014309.617188737 0 26014309.617188737 3828509.3792205602 0 0 0 0 -350593.3137707524 10449097.222566575 0 10449097.222566575 8710827.6080958638 0 0 0 0 10775.100622121245 72535.373741753399 0 72535.373741753399 -140574.19062401354 0 0 0 0 24665193.356620789 190728322.76810837 0 190728322.76810837 64798952.406764984 0 0 0 0 1398478.9612101708 11614521.081963774 0 11614521.081963774 6401385.5900725722 0 0 0 0 -1218588.1132469177 7553472.0383682251 0 7553472.0383682251 -4167668.2040176392 0 0 0 0 281129834.74687195 34397126.161338806 0 34397126.161338806 -376556525.6318512 0 0 0 0 -683205004.73948669 -194670730.73799133 0 -194670730.73799133 -102555860.23591614 0 0 0 0 395851.99548564851 736734.18289372325 0 736734.18289372325 139896.51876556128 0 0 0 0 23897426.527206421 28229282.203720093 0 28229282.203720093 -12399393.485412598 0 0 0 0 12677112.103014342 9550463.1266390979 0 9550463.1266390979 361215.90902376175 0 0 0 0 3663810.7127928026 3851522.8635970708 0 3851522.8635970708 -4692850.7929541767 0 0 0 0 -23339728.599517822 100309249.55934525 0 100309249.55934525 -14594939.529907227 0 0 0 0 -7721616.9306793213 196728704.75457001 0 196728704.75457001 39679396.797340393 0 0 0 0 -17289888.107475281 146681552.76818085 0 146681552.76818085 -50300624.237823486 0 0 0 0 148724265.97564697 289464801.09339905 0 289464801.09339905 -60984621.529296875 0 0 0 0 -3368530.7362136841 20120759.774734497 0 20120759.774734497 -7041996.1985359192 0 0 0 0 -5940744.089325428 3241438.4956388474 0 3241438.4956388474 -32634508.625541687 0 0 0 0 9182882.9466552734 17930309.378326416 0 17930309.378326416 -17476492.271850586 0 0 0 0 -887063.61844798923 15540168.39868585 0 15540168.39868585 3255284.5255566724 0 0 0 0 14877057.146310367 17259644.157562941 0 17259644.157562941 -13859078.502091333 0 0 0 0 3005523.1856307983 14376378.840660095 0 14376378.840660095 -9335864.7565612793 0 0 0 0 -556063.70016098022 20614420.393766403 0 20614420.393766403 -8359156.6162567139 0 0 0 0 4756555.0029194206 21658009.779343635 0 21658009.779343635 9310590.903551884 0 0 0 0 -8101271.3923527449 9458804.5006246343 0 9458804.5006246343 4211161.0678073559 0 0 0 0 -1282924.3948015869 10667760.436507167 0 10667760.436507167 -1804372.1024910957 0 0 0 0 -25196573.412307739 54652362.713302612 0 54652362.713302612 -125350692.97777557 0 0 0 0 -926605.19805908203 -3124658.6288261414 0 -3124658.6288261414 -63637571.087310791 0 0 0 0 -18072689.927160263 12658455.877763748 0 12658455.877763748 14502248.706813812 0 0 0 0 36764354.29447937 -114754877.24045563 0 -114754877.24045563 -188921685.349617 0 0 0 0 65223407.481182098 -136735413.74971771 0 -136735413.74971771 -404726400.33270264 0 0 0 0 127403439.84610748 67377266.862731934 0 67377266.862731934 -557498172.72357941 0 0 0 0 108579439.55422211 97492758.678665161 0 97492758.678665161 -265457330.59957695 0 0 0 0 4584601.9781684875 209386057.87012863 0 209386057.87012863 -111945569.01669312 0 0 0 0 16690813.81565094 331333603.54673004 0 331333603.54673004 -316630878.42286301 0 0 0 0 31058362.605583191 112214452.66702271 0 112214452.66702271 -78126497.35307312 0 0 0 0 45336240.050605774 117073008.7904129 0 117073008.7904129 -200074953.58822632 0 0 0 0 -18186721.374732971 136127341.64257812 0 136127341.64257812 -88166006.727928162 0 0 0 0 -5012076.7522125244 171087888.34358978 0 171087888.34358978 -80312232.642093658 0 0 0 0 -2639388.2533226013 185157408.03316498 0 185157408.03316498 -43190861.410339355 0 0 0 0 -15597667.614959717 147947673.36450195 0 147947673.36450195 -44641087.937042236 0 0 0 0 -5360966.6226959229 196111172.37637711 0 196111172.37637711 -33599288.304046631 0 0 0 0 -3793373.3411026001 122723702.23633575 0 122723702.23633575 72335384.158687592 0 0 0 0 -16024429.981268883 216707789.51870275 0 216707789.51870275 -14335534.421432495 0 0 0 0 -30171111.484584808 75118895.718479156 0 75118895.718479156 164260628.07871628 0 0 0 0 -25516728.703926086 53268001.237110138 0 53268001.237110138 66221525.361953735 0 0 0 0 -19598425.460777283 160681558.88311768 0 160681558.88311768 3680871.7814025879 0 0 0 0 -27028548.866148949 66415504.429521561 0 66415504.429521561 -38929501.920753479 0 0 0 0 -28850394.865707397 88278497.951892853 0 88278497.951892853 -84335694.799072266 0 0 0 0 -18979474.265678406 148573004.47048569 0 148573004.47048569 -39092264.843399048 0 0 0 0 -51082856.288764954 76845572.372646332 0 76845572.372646332 -59823972.74842453 0 0 0 0 -59369919.219575882 98225865.28121376 0 98225865.28121376 -90902066.246795654 0 0 0 0 -33795626.664474487 86709759.413391113 0 86709759.413391113 -86576196.276988983 0 0 0 0 -34499146.883560181 112992092.05306244 0 112992092.05306244 -112481098.53488159 0 0 0 0 -63503716.088691711 130830383.62094879 0 130830383.62094879 -102336076.78116226 0 0 0 0 -66175418.536534309 138733546.13101387 0 138733546.13101387 -71760241.193878174 0 0 0 0 -53609216.536251068 111929325.36671066 0 111929325.36671066 -67744056.761817932 0 0 0 0 -74988369.197136164 119125574.56076455 0 119125574.56076455 -103440939.62106323 0 0 0 0 -109693201.72585297 119268970.9719162 0 119268970.9719162 -68695572.147468567 0 0 0 0 -75377366.836601257 134951843.88308716 0 134951843.88308716 -71275905.800796509 0 0 0 0 -19844716.20980072 112492844.43359375 0 112492844.43359375 -76525088.873626709 0 0 0 0 4619432.4485206604 122925463.23021698 0 122925463.23021698 -109076822.79568481 0 0 0 0 46430563.649490356 43554854.495037079 0 43554854.495037079 -56187600.596481323 0 0 0 0 83261311.37008667 4318912.8854446411 0 4318912.8854446411 -17864554.874368668 0 0 0 0 -331153681.80740356 170923076.43960571 0 170923076.43960571 -113707529.3049469 0 0 0 0 -209872135.8899765 216275382.06438446 0 216275382.06438446 -164311190.84725189 0 0 0 0 3303171.6807982381 2574673.1678820401 0 2574673.1678820401 -2476504.0444400907 0 0 0 0 -198124838.1634407 -79575731.963783264 0 -79575731.963783264 -205743912.14572144 0 0 0 0 24602114.241394043 110392980.26527405 0 110392980.26527405 -125908180.306427 0 0 0 0 18505533.309669495 138427986.17393494 0 138427986.17393494 -168979141.12798309 0 0 0 0 28921031.543525696 198721013.68876648 0 198721013.68876648 -54030426.839326382 0 0 0 0 -652161.70775413513 166950846.12805748 0 166950846.12805748 -87486408.720962524 0 0 0 0 -28714723.516517639 129256903.28676224 0 129256903.28676224 -75752536.251785278 0 0 0 0 -18313632.233970642 116090337.29681396 0 116090337.29681396 -87045470.994335175 0 0 0 0 -59278975.364097595 68668754.1602211 0 68668754.1602211 -131774905.62915039 0 0 0 0 539272.52416229248 338545999.02453232 0 338545999.02453232 119074848.75497437 0 0 0 0 209402097.02394867 215138660.60591507 0 215138660.60591507 -142679791.61972809 0 0 0 0 1366163.5625704117 2507596.0738487765 0 2507596.0738487765 -1282037.6651829481 0 0 0 0 133622237.06707001 238260747.23287201 0 238260747.23287201 -42190789.564910889 0 0 0 0 32053519.77961731 11707273.652830124 0 11707273.652830124 54243984.202568054 0 0 0 0 147736544.92937469 60864934.434274673 0 60864934.434274673 -36952451.036800385 0 0 0 0 457385680.97116852 144550266.81053925 0 144550266.81053925 -15990156.985555649 0 0 0 0 419758157.23907375 141875520.07053804 0 141875520.07053804 24615430.024780273 0 0 0 0 150922667.21652985 83017145.205150604 0 83017145.205150604 -33406413.982098579 0 0 0 0 5415102.7170837894 5897511.9009736925 0 5897511.9009736925 -4453228.6283246428 0 0 0 0 -1405847.3745632172 23015560.475948811 0 23015560.475948811 13577310.868492126 0 0 0 0 353291221.74754333 36247939.161685944 0 36247939.161685944 196490746.3256073 0 0 0 0 12015432.326452449 13175752.608961895 0 13175752.608961895 -8360790.0396007895 0 0 0 0 -105811264.85023499 -33313183.771884918 0 -33313183.771884918 52649731.088546753 0 0 0 0 -53972789.916519165 -49532148.379493713 0 -49532148.379493713 6489145.4903793335 0 0 0 0 1010990299.5252609 281543644.67770958 0 281543644.67770958 -123011409.96377563 0 0 0 0 830510342.88172913 867345237.49730301 0 867345237.49730301 341224249.60093021 0 0 0 0 720933032.21772766 498416748.15631866 0 498416748.15631866 86746808.210922241 0 0 0 0 258308098.60740185 568957020.86149597 0 568957020.86149597 249530511.78999329 0 0 0 0 698050092.51678848 681294471.30246735 0 681294471.30246735 665474659.2834816 0 0 0 0 922446.85635759635 1445953926.8760853 0 1445953926.8760853 947234365.70724487 0 0 0 0 705064873.07697105 780125770.96557689 0 780125770.96557689 1201344497.7777405 0 0 0 0 1617055597.5526924 1692589765.7894154 0 1692589765.7894154 -1366538.9708442688 0 0 0 0 1792345156.4880219 1270969285.0110931 0 1270969285.0110931 40701864.592542648 0 0 0 0 3181518113.2980423 1196171434.7288284 0 1196171434.7288284 8780754.2614555359 0 0 0 0 -81531369.006984711 11385152.974459648 0 11385152.974459648 36014834.200500488 0 0 0 0 7186474.7801206037 3477340.5704205409 0 3477340.5704205409 4422450.0781572759 0 0 0 0 1718066676.457428 1143514527.2410851 0 1143514527.2410851 414073063.29047394 0 0 0 0 5995980.2369994614 8113418.9049113467 0 8113418.9049113467 13030502.046037927 0 0 0 0 -17085901.822307587 26031929.625771523 0 26031929.625771523 37045374.390060425 0 0 0 0 19520654.831611633 12274081.831375122 0 12274081.831375122 15013301.308421403 0 0 0 0 1537724711.6536865 1410411181.8840218 0 1410411181.8840218 358555242.23929596 0 0 0 0 1559464790.0726624 1184562917.2435989 0 1184562917.2435989 1141750227.3206482 0 0 0 0 3688224.2266098708 3715194.2276434749 0 3715194.2276434749 742454.16618317494 0 0 0 0 1492633518.1409245 -330374937.40583396 0 -330374937.40583396 -175526860.15124512 0 0 0 0 1646529450.2589111 1036492368.113945 0 1036492368.113945 328016345.26400757 0 0 0 0 22319058.898620605 67943707.333175659 0 67943707.333175659 -51461202.785354614 0 0 0 0 22035403.825453922 22475871.866590165 0 22475871.866590165 6347677.0340432115 0 0 0 0 -167224214.98040771 -160647427.56898117 0 -160647427.56898117 -209629712.46125793 0 0 0 0 1250373175.2627258 96351685.166763306 0 96351685.166763306 -318923866.06593323 0 0 0 0 24680561.077240661 17754747.803559937 0 17754747.803559937 -4058186.7053938345 0 0 0 0 -135992963.94602966 594287883.26723862 0 594287883.26723862 171964224.80212402 0 0 0 0 -306628386.84603882 104847531.61850929 0 104847531.61850929 183397179.83352661 0 0 0 0 -736347305.24432373 -336789440.59719086 0 -336789440.59719086 -269865444.49995422 0 0 0 0 555106.35372635722 1430803.2304522991 0 1430803.2304522991 1792040.0097190738 0 0 0 0 -123407281.32229614 -218284737.71551895 0 -218284737.71551895 18470670.335008621 0 0 0 0 20370336.170837402 20383789.660984039 0 20383789.660984039 23324400.763793945 0 0 0 0 8878427.0233823508 8055935.5065683573 0 8055935.5065683573 6413941.1846346408 0 0 0 0 16329356.430541992 17438184.303874969 0 17438184.303874969 29451029.220628157 0 0 0 0 21234478.553413391 50499311.159248352 0 50499311.159248352 24244077.358978271 0 0 0 0 13522997.918640137 32882057.524345398 0 32882057.524345398 -3934902.6432342529 0 0 0 0 18280944.173622131 18385614.082878113 0 18385614.082878113 38165957.186174393 0 0 0 0 2872192.049446106 19654792.116230011 0 19654792.116230011 23322840.146911621 0 0 0 0 8999188.1265604645 4008830.0428388566 0 4008830.0428388566 -32271.619662687182 0 0 0 0 59726535.48474884 70497946.728300095 0 70497946.728300095 15891938.927497864 0 0 0 0 73634094.750156403 47592196.621582031 0 47592196.621582031 45902.523818969727 0 0 0 0 38891901.797439575 21933003.35943222 0 21933003.35943222 21594336.615257263 0 0 0 0 4474401.5052757263 59260183.109880447 0 59260183.109880447 -40132.876342773438 0 0 0 0 -2534203.2578659058 78259641.115814209 0 78259641.115814209 5060605.841835022 0 0 0 0 19137132.346855164 80918366.359745026 0 80918366.359745026 -97916.551742553711 0 0 0 0 -58517390.025520325 13647466.384540558 0 13647466.384540558 20537085.840423584 0 0 0 0 8549343.7239298671 2330630.2667872012 0 2330630.2667872012 -1972984.4918030798 0 0 0 0 11653074.994056702 30778269.594261169 0 30778269.594261169 24612744.671203613 0 0 0 0 22095702.818061829 68246637.253753662 0 68246637.253753662 -2052579.3807144165 0 0 0 0 16157390.165035248 31222605.820054054 0 31222605.820054054 19628777.517784119 0 0 0 0 20348486.040222168 42299003.746206284 0 42299003.746206284 11924306.085098267 0 0 0 0 15046280.472290039 23475210.149028778 0 23475210.149028778 23322541.263908386 0 0 0 0 20773191.849060059 27383873.834152222 0 27383873.834152222 17942896.503780365 0 0 0 0 -7968565.5246582031 167294060.94919586 0 167294060.94919586 -15796266.18637009 0 0 0 0 23943486.905706927 21332906.048888639 0 21332906.048888639 -2350498.19921717 0 0 0 0 188855699.876297 41865460.611315727 0 41865460.611315727 10732512.55569458 0 0 0 0 152239919.66115761 -58674672.951920509 0 -58674672.951920509 128295826.88101959 0 0 0 0 22368270.807463333 21351807.014454998 0 21351807.014454998 -1514242.6932280688 0 0 0 0 -1095893789.2277832 169975248.47064209 0 169975248.47064209 154040345.84706879 0 0 0 0 106238399.27095032 5311111.4375419617 0 5311111.4375419617 71208668.107597351 0 0 0 0 29749644.548160553 28169337.046279907 0 28169337.046279907 3150414.0791854858 0 0 0 0 -184794093.35479856 -273259383.98405057 0 -273259383.98405057 -18977129.76448822 0 0 0 0 562928.73044764996 1903460.0377010107 0 1903460.0377010107 -2051709.8091242462 0 0 0 0 59050519.805648804 63035754.250629425 0 63035754.250629425 -24714540.36832428 0 0 0 0 2353711.9915768728 2270191.9522248581 0 2270191.9522248581 2517575.4005503058 0 0 0 0 -63899232.670555115 132633857.47594833 0 132633857.47594833 -7402769.3115692139 0 0 0 0 144402637.56902695 234126717.89102936 0 234126717.89102936 37146926.463806152 0 0 0 0 -17598038.718078613 -25412843.13180542 0 -25412843.13180542 34360971.766952515 0 0 0 0 -20082308.94732666 -31101385.610427856 0 -31101385.610427856 107876819.89611816 0 0 0 0 -204608991.4378643 -98194135.048545361 0 -98194135.048545361 37757688.018981934 0 0 0 0 -3988591.7720850706 8938495.4297892302 0 8938495.4297892302 -189200.21538698673 0 0 0 0 -216353603.65364075 25127191.487411499 0 25127191.487411499 61251854.758529663 0 0 0 0 -46767872.581054688 66128533.196083069 0 66128533.196083069 26623501.920837402 0 0 0 0 82749427.057081223 120275647.08099174 0 120275647.08099174 -20542216.615936279 0 0 0 0 -203623404.85334015 109262114.44155884 0 109262114.44155884 80660958.974914551 0 0 0 0 -1651149.4764264822 2163987.5320699811 0 2163987.5320699811 2801438.4004522264 0 0 0 0 965500461.93994904 136809157.69006538 0 136809157.69006538 -219065328.29497528 0 0 0 0 313296477.44255066 -44857939.83498764 0 -44857939.83498764 34464738.653091431 0 0 0 0 192710825.59468079 208512925.95232391 0 208512925.95232391 112556508.84911156 0 0 0 0 148351093.44237518 61174484.365600586 0 61174484.365600586 48453232.029858112 0 0 0 0 -10916208.636550903 46671704.136669159 0 46671704.136669159 28681971.516354084 0 0 0 0 234853010.2606163 37652235.807892799 0 37652235.807892799 -15773239.10634613 0 0 0 0 -4128130.4117914513 9617626.0776318237 0 9617626.0776318237 6303530.8239202499 0 0 0 0 -7911760.7891903073 21075047.680248119 0 21075047.680248119 -13325750.086181864 0 0 0 0 216345929.28098297 96350384.715185165 0 96350384.715185165 -5432938.2800188065 0 0 0 0 177673544.64728546 25328061.895223618 0 25328061.895223618 -27116740.965461731 0 0 0 0 -20851897.60332489 80077671.237565041 0 80077671.237565041 36638391.351593018 0 0 0 0 -43732658.741485596 16825514.587041855 0 16825514.587041855 -15524569.10660553 0 0 0 0 -129497447.97888565 71788010.009174347 0 71788010.009174347 50135563.904464722 0 0 0 0 -10621283.452905394 13196759.263395943 0 13196759.263395943 24199403.672997698 0 0 0 0 1764270.0898170471 -44691897.789363861 0 -44691897.789363861 28218095.046386719 0 0 0 0 28547342.859039307 70182970.71011734 0 70182970.71011734 5494329.6250762939 0 0 0 0 -6824074.1338373944 19384508.8535157 0 19384508.8535157 15091533.289197028 0 0 0 0 260270851.78662109 59221557.729637146 0 59221557.729637146 42749892.983016968 0 0 0 0 84419676.796211243 159787951.02820969 0 159787951.02820969 141364055.85987854 0 0 0 0 -67535130.973068237 42092726.219238281 0 42092726.219238281 54430694.276771545 0 0 0 0 342378603.12955475 -148337997.25886154 0 -148337997.25886154 -3527014.8970184326 0 0 0 0 -65208501.174072266 17998098.533180237 0 17998098.533180237 196229090.10899353 0 0 0 0 -65838298.432403564 41765458.243873596 0 41765458.243873596 100565589.52979279 0 0 0 0 -78276053.075164795 72163716.95135498 0 72163716.95135498 18461678.103981018 0 0 0 0 -106088731.74562073 -38689705.791542053 0 -38689705.791542053 -16427429.49005127 0 0 0 0 2379133.0033569336 62079940.107849121 0 62079940.107849121 59429984.498718262 0 0 0 0 51701574.792495728 35256305.667808533 0 35256305.667808533 -32387287.243963242 0 0 0 0 8399219.4033084214 5745001.3985428959 0 5745001.3985428959 2347644.5450135842 0 0 0 0 129803474.65140915 124253660.30868912 0 124253660.30868912 143078983.82723999 0 0 0 0 87915735.485702515 38127491.105682373 0 38127491.105682373 27546715.205154419 0 0 0 0 51617973.719299316 38387936.358711243 0 38387936.358711243 -33100982.950330734 0 0 0 0 33030883.740707397 98150048.810272217 0 98150048.810272217 25642887.627441406 0 0 0 0 -33352222.017944336 -475770.58362579346 0 -475770.58362579346 -5386046.7286071777 0 0 0 0 126131824.26800537 108903314.52182007 0 108903314.52182007 9462261.4645080566 0 0 0 0 161702684.83604431 78873860.315574646 0 78873860.315574646 8983647.275970459 0 0 0 0 253408149.38607788 113331104.80740356 0 113331104.80740356 13733987.4970541 0 0 0 0 263419440.97211456 132228370.99685669 0 132228370.99685669 39232532.772949219 0 0 0 0 204577596.74365234 132788998.61547852 0 132788998.61547852 47816143.412567139 0 0 0 0 273270959.63822937 111897777.07978821 0 111897777.07978821 64735828.426696777 0 0 0 0 297872706.99223328 112126530.91264343 0 112126530.91264343 58776059.583930969 0 0 0 0 278526667.62451172 137071335.45526123 0 137071335.45526123 103516143.65116882 0 0 0 0 247364381.60667419 121897294.58480835 0 121897294.58480835 45766426.68529892 0 0 0 0 247162786.15296936 107418961.37026978 0 107418961.37026978 75801543.788238525 0 0 0 0 290481713.71905518 226987074.96134949 0 226987074.96134949 158958635.23460484 0 0 0 0 303378985.01333618 76258480.16293335 0 76258480.16293335 -152422284.1873827 0 0 0 0 47842119.020858765 -65799223.78912735 0 -65799223.78912735 -173115696.29559326 0 0 0 0 1080421.4975304827 1410845.1596909165 0 1410845.1596909165 2201034.4677748829 0 0 0 0 376687322.5534668 173135812.63832092 0 173135812.63832092 45878169.633377075 0 0 0 0 397408328.63459778 42728496.392814636 0 42728496.392814636 -96683055.49269104 0 0 0 0 48856632.993591309 36588001.168247223 0 36588001.168247223 -24372739.250854492 0 0 0 0 46826669.274060607 38883998.023619354 0 38883998.023619354 -26938135.545654297 0 0 0 0 -134259765.7698288 19856886.734718323 0 19856886.734718323 142858521.59423494 0 0 0 0 53545722.202487946 35358024.275531769 0 35358024.275531769 -28536344.542022705 0 0 0 0 -4357345.833082512 3197523.2170633655 0 3197523.2170633655 -1879348.8401925564 0 0 0 0 -101909090.75294304 -75491214.4109869 0 -75491214.4109869 81462436.990371704 0 0 0 0 -222858222.92885208 63805475.620475769 0 63805475.620475769 17221928.826854706 0 0 0 0 -123612591.2999649 -81057811.005702972 0 -81057811.005702972 -36336277.524841309 0 0 0 0 -94131184.358602524 17535444.145057678 0 17535444.145057678 -3476232.4523239136 0 0 0 0 -112781898.78833008 48810538.702136993 0 48810538.702136993 -24424024.684432983 0 0 0 0 -85212298.808876038 6325503.7535171509 0 6325503.7535171509 8064652.7497329712 0 0 0 0 -81770094.15473938 229170.08509063721 0 229170.08509063721 -1959235.4899139404 0 0 0 0 -6116930.2706049914 32562248.700928275 0 32562248.700928275 -345042.85411845148 0 0 0 0 -18036722.521199163 7081877.4357030615 0 7081877.4357030615 -2822073.6684330255 0 0 0 0 -103833734.39553833 23332530.040039062 0 23332530.040039062 -8731225.1220703125 0 0 0 0 -84882102.02796936 47206961.010383606 0 47206961.010383606 16920835.231178284 0 0 0 0 53939505.653598785 36477373.132911682 0 36477373.132911682 -25401846.275299072 0 0 0 0 48243348.04208374 26165261.427963257 0 26165261.427963257 39075861.328125 0 0 0 0 3117466.3556615114 2052148.4459993765 0 2052148.4459993765 -1384936.587217547 0 0 0 0 -8311226.499420166 -23393315.421661377 0 -23393315.421661377 -38571127.585983276 0 0 0 0 11653399.111602783 3180841.1622314453 0 3180841.1622314453 -31063120.256835938 0 0 0 0 -50183722.501403809 -15234472.960784912 0 -15234472.960784912 -20018240.282348633 0 0 0 0 17464119.762420654 -1302378.1144943237 0 -1302378.1144943237 -29666381.04473877 0 0 0 0 11667393.990478516 -33443474.404632568 0 -33443474.404632568 -60038638.795532227 0 0 0 0 20279790.762418747 31076795.940259933 0 31076795.940259933 4837678.6155700684 0 0 0 0 -69771705.661499023 -52931202.227539062 0 -52931202.227539062 -39836004.073394775 0 0 0 0 -2363288.1567925885 17446264.730420969 0 17446264.730420969 3234532.666472286 0 0 0 0 -125819264.76461792 -28535199.430511475 0 -28535199.430511475 -10073749.10369873 0 0 0 0 6529220.0098991394 8652979.5970344543 0 8652979.5970344543 -1428641.0128173828 0 0 0 0 -1789427.7799849808 28967923.453693949 0 28967923.453693949 7215722.8054295778 0 0 0 0 -51299747.397605896 -21635303.145332336 0 -21635303.145332336 -19422960.076843262 0 0 0 0 24332751.028217055 13074149.504643999 0 13074149.504643999 -4118984.6348909512 0 0 0 0 -24654339.13934657 17153366.541288048 0 17153366.541288048 15956303.760221332 0 0 0 0 -8806399.8147723749 16841144.075724602 0 16841144.075724602 -2074814.7813270092 0 0 0 0 -57565753.065441132 46510706.165512085 0 46510706.165512085 64938816.977554321 0 0 0 0 -8265871.7339706421 -9626297.0157775879 0 -9626297.0157775879 -38338518.906921387 0 0 0 0 56434110.707427979 14400309.473632812 0 14400309.473632812 -33740179.735900879 0 0 0 0 85503781.735710144 67961275.790092468 0 67961275.790092468 -8443550.5610046387 0 0 0 0 -34045867.371704102 10711186.051879883 0 10711186.051879883 -24174746.887329102 0 0 0 0 -62585624.214233398 7895844.5425415039 0 7895844.5425415039 -12486152.113838196 0 0 0 0 -8779834.7191259861 15650394.828575619 0 15650394.828575619 -4804.5000260919333 0 0 0 0 38479755.004852295 53117572.737243652 0 53117572.737243652 57710213.577301025 0 0 0 0 -79617441.982597351 -22460285.389015198 0 -22460285.389015198 -12692729.261154175 0 0 0 0 -71802458.236057281 -5213195.8281917572 0 -5213195.8281917572 1012048.0390625 0 0 0 0 -76218121.641616821 8786527.6381988525 0 8786527.6381988525 -12490179.002388 0 0 0 0 -50366105.960586548 -11959633.743164062 0 -11959633.743164062 -39444197.926605225 0 0 0 0 -1578444.4409519583 77371.73927064985 0 77371.73927064985 1006991.043135792 0 0 0 0 -74869707.607513428 -22773169.161819458 0 -22773169.161819458 -44203802.435241699 0 0 0 0 10524017.336883545 99587737.411006451 0 99587737.411006451 89915439.635360718 0 0 0 0 14921177.751556396 59514039.946868896 0 59514039.946868896 17157399.327545166 0 0 0 0 34145878.224777222 51735874.644699097 0 51735874.644699097 58408155.312728882 0 0 0 0 2056682.1834858432 15584729.358716801 0 15584729.358716801 -12902901.194501162 0 0 0 0 -48117831.904174805 20444098.911605835 0 20444098.911605835 62321831.181987762 0 0 0 0 -36700019.24887085 89940732.622093201 0 89940732.622093201 27579894.209152222 0 0 0 0 71351580.132598877 67963501.815216064 0 67963501.815216064 38652632.690948486 0 0 0 0 -9695219.8572780117 9099258.5650898665 0 9099258.5650898665 14301596.102249339 0 0 0 0 -101227201.72776031 76887079.361423492 0 76887079.361423492 61295063.831115723 0 0 0 0 73965672.377197266 63762428.177108765 0 63762428.177108765 53371067.291381836 0 0 0 0 -121510055.73622131 34613755.433170319 0 34613755.433170319 84201233.237060547 0 0 0 0 -7914393.091332607 7797959.3722922709 0 7797959.3722922709 7181558.3751029521 0 0 0 0 -50259768.331459045 31246963.969977379 0 31246963.969977379 -53570464.384674072 0 0 0 0 110227100.26855469 32265804.222808838 0 32265804.222808838 151187811.06300354 0 0 0 0 333175614.26425171 -21811690.151977539 0 -21811690.151977539 145800884.06626129 0 0 0 0 326997280.15509033 46385625.392478943 0 46385625.392478943 82252664.528152466 0 0 0 0 193814531.12612915 6855995.8988952637 0 6855995.8988952637 155625129.92298889 0 0 0 0 218153204.54638672 71074699.294502258 0 71074699.294502258 75514649.221191406 0 0 0 0 210084319.09259033 81714150.77355957 0 81714150.77355957 74582420.462203979 0 0 0 0 278333385.02563477 89991250.372879028 0 89991250.372879028 48667508.643753052 0 0 0 0 76804252.866127014 77482761.90927124 0 77482761.90927124 116484547.55065918 0 0 0 0 139687616.81109619 76768306.281173706 0 76768306.281173706 75756470.996051788 0 0 0 0 140570650.20347595 71283257.61114502 0 71283257.61114502 44217810.294372559 0 0 0 0 85982265.333740234 56453415.496536255 0 56453415.496536255 44595954.403246164 0 0 0 0 140644653.22094727 88207787.838485718 0 88207787.838485718 3690079.9068908691 0 0 0 0 213661142.63420105 87944696.150863647 0 87944696.150863647 30793308.934265137 0 0 0 0 206460034.96822357 96711576.544719696 0 96711576.544719696 60396572.904907227 0 0 0 0 137082672.19894409 93912274.506500244 0 93912274.506500244 34584496.745574951 0 0 0 0 198090543.83042526 83945955.218921661 0 83945955.218921661 2878967.7222290039 0 0 0 0 117962691.81750488 102527629.05963135 0 102527629.05963135 9291200.9007415771 0 0 0 0 218289014.49982452 128043811.99435806 0 128043811.99435806 464893.55902099609 0 0 0 0 224876170.30291748 100567337.26663208 0 100567337.26663208 -1013403.279296875 0 0 0 0 173565229.98635864 123945193.45228577 0 123945193.45228577 13170359.663125992 0 0 0 0 157839248.04729462 79096975.316123962 0 79096975.316123962 -15411918.535400391 0 0 0 0 60232402.46585083 64128368.745498657 0 64128368.745498657 11373780.33083725 0 0 0 0 91270321.77243042 48907838.199401855 0 48907838.199401855 -1928245.5548400879 0 0 0 0 110607027.93636227 6151999.9422159195 0 6151999.9422159195 23944377.44871521 0 0 0 0 -8182229.4348729104 17133693.650475912 0 17133693.650475912 17068333.396476567 0 0 0 0 308560001.52548218 137939483.69303894 0 137939483.69303894 -2437136.996673584 0 0 0 0 277780791.88557434 145960429.56288147 0 145960429.56288147 26841629.944549561 0 0 0 0 288250787.59199524 123472705.93379211 0 123472705.93379211 -13008030.741149902 0 0 0 0 244525920.26365662 143774464.01022339 0 143774464.01022339 12725209.050308228 0 0 0 0 273459376.67530823 113184395.1340332 0 113184395.1340332 622132.59750366211 0 0 0 0 287011080.97045517 89755252.003921509 0 89755252.003921509 40055623.542236328 0 0 0 0 235549129.23503113 113735916.34854126 0 113735916.34854126 9293783.9342956543 0 0 0 0 7277497.9875952527 9559415.6774325445 0 9559415.6774325445 9985089.5735792369 0 0 0 0 59326090.557373047 60702018.053546906 0 60702018.053546906 25922269.853833318 0 0 0 0 -8161022.1761859469 16040035.036113963 0 16040035.036113963 18674111.189093128 0 0 0 0 339627854.38336182 103135249.97253418 0 103135249.97253418 81565521.533508301 0 0 0 0 304155203.16297531 129181347.64302254 0 129181347.64302254 67844962.146392822 0 0 0 0 252485943.20220947 122644775.47467041 0 122644775.47467041 77640006.077377319 0 0 0 0 46571644.151546478 26286855.240081787 0 26286855.240081787 15856961.040222168 0 0 0 0 -186571707.3928875 804704761.95732617 0 804704761.95732617 -77080165.808563232 0 0 0 0 332983493.68151855 99499572.562538147 0 99499572.562538147 115005333.83938599 0 0 0 0 26005038.596733451 20032215.165796958 0 20032215.165796958 -1295299.5559717857 0 0 0 0 26958667.528717041 24471632.653701782 0 24471632.653701782 16360968.558897972 0 0 0 0 -76777087.114292145 64122356.42899704 0 64122356.42899704 241668314.58512878 0 0 0 0 -1580324.9886049144 2930863.7612910941 0 2930863.7612910941 1977650.595161289 0 0 0 0 1052223812.5915985 31969097.729682922 0 31969097.729682922 -822867018.63113403 0 0 0 0 459121554.82859802 -15169160.778144836 0 -15169160.778144836 107911465.21200562 0 0 0 0 401539821.46724701 287974496.59929276 0 287974496.59929276 -45370327.374572754 0 0 0 0 -115852.48079495132 1139898.2892764732 0 1139898.2892764732 406331.81065150246 0 0 0 0 692140057.64167786 792530788.75961304 0 792530788.75961304 -2341010768.3421617 0 0 0 0 276670589.87172699 -112612135.11241913 0 -112612135.11241913 952583057.60093689 0 0 0 0 9330639.9544830248 9636469.3169132993 0 9636469.3169132993 347093.15415838361 0 0 0 0 93599062.186531067 59133726.778812408 0 59133726.778812408 3892242.7346343994 0 0 0 0 122491154.96479797 370787076.62682343 0 370787076.62682343 199449782.18231583 0 0 0 0 -936733.35224914551 211181566.96684265 0 211181566.96684265 370698300.2922287 0 0 0 0 38434671.671257019 82880077.426841736 0 82880077.426841736 20226672.186889648 0 0 0 0 52095267.853492737 42101392.19720459 0 42101392.19720459 8432060.2815093994 0 0 0 0 8074240.6340444684 10440392.575031251 0 10440392.575031251 3343985.6060032845 0 0 0 0 6097645.1400146484 27252945.690189362 0 27252945.690189362 39825022.949890137 0 0 0 0 106360919.04257965 61291977.0572052 0 61291977.0572052 -2527388.2777481079 0 0 0 0 -57780581.258045197 29706909.819219589 0 29706909.819219589 73510053.574462891 0 0 0 0 3078006.4120838046 1926119.690273717 0 1926119.690273717 453200.57383775711 0 0 0 0 3643647.8016559444 1461140.9427006915 0 1461140.9427006915 -750472.28066699207 0 0 0 0 211170930.98636818 115071274.21760082 0 115071274.21760082 -56667847.702835083 0 0 0 0 193687608.95692444 58398844.55758667 0 58398844.55758667 -55433743.778259277 0 0 0 0 128310061.61470032 48153779.435211182 0 48153779.435211182 -45732043.163574219 0 0 0 0 73606279.259475708 97288205.277793884 0 97288205.277793884 183642.6173248291 0 0 0 0 151642459.9286232 127439035.78844738 0 127439035.78844738 -23316700.258010864 0 0 0 0 -111814223.05410767 186848344.50079346 0 186848344.50079346 -36490697.099456787 0 0 0 0 40484683.02570343 67454609.912712097 0 67454609.912712097 -6871816.6894493103 0 0 0 0 44973998.197113037 74343954.68227005 0 74343954.68227005 -16293677.323547363 0 0 0 0 -106850053.60753822 424016799.56348419 0 424016799.56348419 63150055.153625488 0 0 0 0 -86000603.094097137 390582722.33642578 0 390582722.33642578 -266566172.83770752 0 0 0 0 336906343.8102417 229589666.71025848 0 229589666.71025848 -554082.31583042745 0 0 0 0 4525107.510269165 -82567199.057639122 0 -82567199.057639122 -233204549.16314697 0 0 0 0 -832582.37897362374 -1316822.851637207 0 -1316822.851637207 2528337.7459245324 0 0 0 0 -289573186.66881371 129140085.99432373 0 129140085.99432373 319790607.99156189 0 0 0 0 516859602.84490967 242682228.03601456 0 242682228.03601456 -170930058.83727264 0 0 0 0 -124781221.84335709 -40360899.803653717 0 -40360899.803653717 -42657425.494239807 0 0 0 0 -174998439.57646942 15774090.166496277 0 15774090.166496277 125805458.1239109 0 0 0 0 -171222107.93410492 -42049727.994229555 0 -42049727.994229555 -256141887.76254272 0 0 0 0 -202978726.34932327 -42504427.854595184 0 -42504427.854595184 14793213.827972412 0 0 0 0 -82276313.551643372 -13837007.944892883 0 -13837007.944892883 8416094.0838775635 0 0 0 0 99466155.708271027 318298547.56846237 0 318298547.56846237 80229681.357925415 0 0 0 0 -26413823.595413208 132604920.10918427 0 132604920.10918427 132381038.63000298 0 0 0 0 -3725438.900190847 -512040.26404498518 0 -512040.26404498518 8009801.6524512023 0 0 0 0 37719666.195065498 81027194.87844944 0 81027194.87844944 158686787.32218933 0 0 0 0 -174672654.92088938 -37999037.411468029 0 -37999037.411468029 49683378.99407959 0 0 0 0 -27265219.532432556 -27729774.274971008 0 -27729774.274971008 -23153427.111019135 0 0 0 0 -96572130.694847107 39573294.033363342 0 39573294.033363342 71141437.170837402 0 0 0 0 -69829618.723075867 2886221.3698654175 0 2886221.3698654175 86611347.180145264 0 0 0 0 3497970.0881348923 1216805.2781898007 0 1216805.2781898007 -2219737.4510138035 0 0 0 0 -6811849.2182605192 11974007.388579309 0 11974007.388579309 -7948878.4321677536 0 0 0 0 106296695.8812561 190355114.01515198 0 190355114.01515198 135081635.28075409 0 0 0 0 126739722.46022797 126698003.82284546 0 126698003.82284546 49560763.659713745 0 0 0 0 127174078.61342621 3695012.9563560486 0 3695012.9563560486 -33878464.988815308 0 0 0 0 -28517332.752761841 89382673.1720047 0 89382673.1720047 139965788.57473755 0 0 0 0 -20279321.423049927 130279956.50392914 0 130279956.50392914 221394868.97525024 0 0 0 0 41634596.218101501 87399937.856414795 0 87399937.856414795 229692670.8196106 0 0 0 0 179148822.87854767 51264476.675193787 0 51264476.675193787 193567204.70370483 0 0 0 0 57522619.599441528 160663812.89472961 0 160663812.89472961 117485188.90115356 0 0 0 0 -618204.48663330078 71688165.609413147 0 71688165.609413147 92639694.60534668 0 0 0 0 -1887312.9207991734 1345401.7435895577 0 1345401.7435895577 480573.87485563755 0 0 0 0 58117987.67250824 -27937585.421257019 0 -27937585.421257019 -107763546.77042389 0 0 0 0 -45614924.374370575 -297302359.83914185 0 -297302359.83914185 -195460833.80540466 0 0 0 0 -52605004.938339233 108242913.92474365 0 108242913.92474365 11068887.165077209 0 0 0 0 14156298.792976379 -12765102.212799072 0 -12765102.212799072 55502382.503570557 0 0 0 0 -34651072.142024994 87922076.372364044 0 87922076.372364044 -144010555.58236694 0 0 0 0 -93571991.285057068 179489943.81173706 0 179489943.81173706 -107678102.96897888 0 0 0 0 -188208435.42635345 116060078.10120392 0 116060078.10120392 50197584.644851685 0 0 0 0 242025086.74518156 337152320.1821394 0 337152320.1821394 47838091.652679443 0 0 0 0 -1697124.7812118828 6566204.1064200699 0 6566204.1064200699 -8384129.8361679316 0 0 0 0 281933902.52737427 70982404.515312195 0 70982404.515312195 75856389.507980347 0 0 0 0 64289253.520571232 304523715.39238787 0 304523715.39238787 118276799.56837463 0 0 0 0 -109903298.11940956 49543948.047609329 0 49543948.047609329 125461929.10481262 0 0 0 0 214237569.5915451 124825401.8132019 0 124825401.8132019 59413938.260253906 0 0 0 0 -65854564.560058594 174624387.22812653 0 174624387.22812653 67131362.227409363 0 0 0 0 87052693.880541801 168598862.27442837 0 168598862.27442837 -30546503.269638062 0 0 0 0 -69914107.732383728 51885123.971321106 0 51885123.971321106 -28947802.801971436 0 0 0 0 -34492684.910354614 8575721.0164260864 0 8575721.0164260864 -1125961.1629333496 0 0 0 0 -155851109.55677032 442759788.84108734 0 442759788.84108734 -479093112.15572929 0 0 0 0 -177912727.62226868 -11171247.261619568 0 -11171247.261619568 -61485162.808174133 0 0 0 0 -570630378.87242889 146760627.68434906 0 146760627.68434906 -108898043.77174377 0 0 0 0 -224650470.34959412 262449869.11746979 0 262449869.11746979 -56107296.112270355 0 0 0 0 133771070.88005066 108934991.62490082 0 108934991.62490082 -3858460.3637237549 0 0 0 0 305254396.09038162 270136520.85260391 0 270136520.85260391 -800614713.57926941 0 0 0 0 123221225.99712372 181230247.92498779 0 181230247.92498779 -417263214.61235046 0 0 0 0 274103483.7589922 15423688.340641022 0 15423688.340641022 -500962467.02558899 0 0 0 0 459834478.8663559 47883853.741004944 0 47883853.741004944 -508215737.64012527 0 0 0 0 -66093593.359851837 66008069.207271576 0 66008069.207271576 243615334.0606842 0 0 0 0 -2347997.6637215167 4007379.1100667119 0 4007379.1100667119 -584738.03015065286 0 0 0 0 -274321802.72828674 302614732.4719162 0 302614732.4719162 445096.76452236983 0 0 0 0 -15795855.584663391 -6179373.6579971313 0 -6179373.6579971313 -898996.56673431396 0 0 0 0 -1018192291.6761322 160200741.85015869 0 160200741.85015869 182622626.36908722 0 0 0 0 9213873.8549156189 34651408.295974731 0 34651408.295974731 58663299.824768066 0 0 0 0 -5552910.657832019 5973991.1889987513 0 5973991.1889987513 -683966.871864466 0 0 0 0 50849200.7172966 60222248.077421188 0 60222248.077421188 215915.697265625 0 0 0 0 378170.49927276745 1878541.4664346427 0 1878541.4664346427 -3934105.513798058 0 0 0 0 304895874.34002495 -136113599.93581104 0 -136113599.93581104 -527801748.99645996 0 0 0 0 -891737.66645639017 884909.20649220422 0 884909.20649220422 -579572.82854543626 0 0 0 0 -1257889970.9006042 185845573.96044922 0 185845573.96044922 214025422.43681335 0 0 0 0 -561169740.97312164 1086807072.2673798 0 1086807072.2673798 -990913154.52577209 0 0 0 0 -12257577.24861145 -185311485.1444397 0 -185311485.1444397 -44158164.092346191 0 0 0 0 -896374131.14680672 358709321.52914047 0 358709321.52914047 15791643.758575439 0 0 0 0 268023685.90851974 66448208.564353943 0 66448208.564353943 -284658884.58370972 0 0 0 0 466729501.99723446 -124894234.82655799 0 -124894234.82655799 -556007378.83329773 0 0 0 0 413420552.86855316 675565532.3370285 0 675565532.3370285 -577145617.59178162 0 0 0 0 -418370195.50263977 763994447.51053238 0 763994447.51053238 -256718255.8515625 0 0 0 0 608119830.99323273 -75391467.23625946 0 -75391467.23625946 -245238601.3644104 0 0 0 0 8203578.0274124146 292485691.23818207 0 292485691.23818207 -297418428.74772835 0 0 0 0 23300414.975910187 302035932.7754631 0 302035932.7754631 -312069625.06915283 0 0 0 0 -77234614.957473755 360328742.76347351 0 360328742.76347351 -309104394.03168774 0 0 0 0 -320714341.59231758 99409643.810405731 0 99409643.810405731 -86802942.919555664 0 0 0 0 -54565237.927589417 13131628.432273865 0 13131628.432273865 -97895893.27773571 0 0 0 0 -160184020.5256424 25355766.177196503 0 25355766.177196503 334004590.10223389 0 0 0 0 -190302488.56916046 315923708.25391388 0 315923708.25391388 155366412.1359787 0 0 0 0 125922116.82952118 -266810946.50753784 0 -266810946.50753784 1969389.98777771 0 0 0 0 -2927943.3578386046 3338746.416144643 0 3338746.416144643 782586.9735173136 0 0 0 0 -70055592.684036255 31123771.768924713 0 31123771.768924713 -28740259.238212585 0 0 0 0 226437473.6829834 166450103.93923569 0 166450103.93923569 -590912153.11474609 0 0 0 0 -152057966.25119591 -323385705.66572762 0 -323385705.66572762 242307093.1761322 0 0 0 0 -91011046.17016983 97908175.745323181 0 97908175.745323181 -109121647.29766846 0 0 0 0 -15754383.030704498 90974383.609348297 0 90974383.609348297 44206463.772712708 0 0 0 0 -6199967.833731886 6034310.7934368551 0 6034310.7934368551 -2399779.9930574894 0 0 0 0 -9915861.3822942972 -11094561.565567017 0 -11094561.565567017 896362.47311401367 0 0 0 0 273685250.27677917 286778017.74597168 0 286778017.74597168 195744156.92030334 0 0 0 0 253636750.90190125 195414421.64780807 0 195414421.64780807 179313669.82874107 0 0 0 0 -6674219.0723677594 7529911.5219720714 0 7529911.5219720714 6598093.9653524309 0 0 0 0 -8394877.3473340869 9172388.0103787109 0 9172388.0103787109 -3706725.0059340298 0 0 0 0 -26022599.404083252 17345693.068256378 0 17345693.068256378 45165280.15599823 0 0 0 0 143221034.15574741 91547096.08186245 0 91547096.08186245 -9380636.4375 0 0 0 0 -28690847.667907715 102753901.69529724 0 102753901.69529724 136724043.21604919 0 0 0 0 -107642765.18981171 47606894.543830872 0 47606894.543830872 -106231960.69095802 0 0 0 0 -42350708.169372559 -24133337.133560181 0 -24133337.133560181 -29437181.454544067 0 0 0 0 -2373931.9838814735 6286635.4676313326 0 6286635.4676313326 -1815737.3248970658 0 0 0 0 -109406818.65621185 -91433544.689971924 0 -91433544.689971924 -66823297.745132446 0 0 0 0 -19854804.939159393 44930410.897022247 0 44930410.897022247 20219070.733001709 0 0 0 0 26138959.882003784 23252635.585769653 0 23252635.585769653 28137938.183990479 0 0 0 0 -184186359.57322121 -36723208.790473938 0 -36723208.790473938 -239515.71798706055 0 0 0 0 -14459107.11267224 4697092.6211111397 0 4697092.6211111397 10794664.984477028 0 0 0 0 -74990640.247901917 -46175575.612930298 0 -46175575.612930298 -38782851.927658081 0 0 0 0 -53473030.895462036 -22812471.370178223 0 -22812471.370178223 -77039098.700927734 0 0 0 0 -81224980.754927158 -605362.79955148697 0 -605362.79955148697 27477084.926345825 0 0 0 0 -80295463.723861694 -21698713.556987762 0 -21698713.556987762 15242702.21206665 0 0 0 0 25256049.828380585 8517048.0701789856 0 8517048.0701789856 27516562.873382568 0 0 0 0 -51775985.636611938 68011265.25176239 0 68011265.25176239 17755652.511249542 0 0 0 0 -74164816.13041687 -23135265.353775024 0 -23135265.353775024 -18017859.648704529 0 0 0 0 -19296976.059642792 51584223.464633942 0 51584223.464633942 273704400.41316223 0 0 0 0 -12361747.998167399 7504321.3991966844 0 7504321.3991966844 2752790.7764586806 0 0 0 0 18891711.915061951 20135357.023311615 0 20135357.023311615 -1624159.6352119446 0 0 0 0 1391815.0108757019 67662203.230709076 0 67662203.230709076 52055740.940303802 0 0 0 0 -87432292.243588448 -1870113.0581007004 0 -1870113.0581007004 48997099.68788147 0 0 0 0 -38163577.352546692 -28027986.313053131 0 -28027986.313053131 23472450.505622864 0 0 0 0 -81803062.088087738 -1533033.145242095 0 -1533033.145242095 15858737.278656006 0 0 0 0 130239180.47782326 256360301.37075233 0 256360301.37075233 229817077.75858307 0 0 0 0 -59096371.09021759 63123598.656639099 0 63123598.656639099 13398019.661388397 0 0 0 0 -9301391.2024414428 4666482.6991570666 0 4666482.6991570666 2385298.013292335 0 0 0 0 165036597.11536407 218590373.03088093 0 218590373.03088093 136257832.38161469 0 0 0 0 236504529.75815582 297445272.08365631 0 297445272.08365631 222575217.835495 0 0 0 0 317414794.22591019 180838786.05454636 0 180838786.05454636 34137414.849657059 0 0 0 0 179129254.73547649 151131564.6110487 0 151131564.6110487 267636909.42601776 0 0 0 0 199525444.00003815 102797497.71467209 0 102797497.71467209 94774564.761581421 0 0 0 0 78354454.162994385 173629359.63724899 0 173629359.63724899 54462386.350120544 0 0 0 0 267360060.31295395 214689419.99056244 0 214689419.99056244 168560722.34560204 0 0 0 0 196310502.08275414 264033382.49801826 0 264033382.49801826 220503593.33062744 0 0 0 0 458974778.99251175 381653986.05528641 0 381653986.05528641 272181525.15830231 0 0 0 0 -2438653.7627137508 3927836.5819116198 0 3927836.5819116198 1860558.0446882844 0 0 0 0 135153838.10821915 66140737.964427948 0 66140737.964427948 -137861736.62768555 0 0 0 0 233503526.01821518 116731194.3117981 0 116731194.3117981 -180115813.59416199 0 0 0 0 194402797.12532425 122403256.6967659 0 122403256.6967659 19687813.252612114 0 0 0 0 119962546.78366852 168911569.40226746 0 168911569.40226746 139177503.19317389 0 0 0 0 230750124.41408348 181655758.15777779 0 181655758.15777779 3389317.1408615112 0 0 0 0 87470292.753898621 161009383.65702438 0 161009383.65702438 285872314.00971985 0 0 0 0 192543733.59791565 46024755.461532593 0 46024755.461532593 123334331.63117981 0 0 0 0 138761745.00115967 172263657.26835251 0 172263657.26835251 101648343.5355835 0 0 0 0 141236797.63919067 85669486.737373352 0 85669486.737373352 83645861.618583679 0 0 0 0 171267353.37374878 154589029.83670425 0 154589029.83670425 -27946239.788238525 0 0 0 0 140268912.65618044 174976270.30226186 0 174976270.30226186 -17303911.758743286 0 0 0 0 95657036.066883087 74591650.561985016 0 74591650.561985016 -97584365.041500092 0 0 0 0 45517950.278081894 226464026.78481865 0 226464026.78481865 -92460770.433746338 0 0 0 0 174858730.84858704 139098349.7671051 0 139098349.7671051 -45859649.900230408 0 0 0 0 182187483.65372467 81246318.30557251 0 81246318.30557251 -109754527.68074036 0 0 0 0 141547817.32441711 80803748.643127441 0 80803748.643127441 -108411068.25110817 0 0 0 0 158068599.44033337 101449878.94100571 0 101449878.94100571 -162587608.70639801 0 0 0 0 76000506.833770752 49404348.432296753 0 49404348.432296753 -159061153.81242371 0 0 0 0 2369143.5293062679 1795435.807709381 0 1795435.807709381 -649851.77540025115 0 0 0 0 178345360.8442339 60800424.682467431 0 60800424.682467431 -27116039.195785522 0 0 0 0 -81255988.408058167 143262202.91711044 0 143262202.91711044 -99035438.535043716 0 0 0 0 55473900.978317261 46029527.653678894 0 46029527.653678894 -48099500.346054077 0 0 0 0 7045903.9704589844 8855024.1109733582 0 8855024.1109733582 -35713559.612054825 0 0 0 0 208562750.45693588 -60701234.622200012 0 -60701234.622200012 -109477124.54502964 0 0 0 0 47640030.988208771 -58985718.155147552 0 -58985718.155147552 -107976169.88836956 0 0 0 0 216650246.56441307 50729339.35068512 0 50729339.35068512 -163469708.86009979 0 0 0 0 218464129.82385826 60865084.425406218 0 60865084.425406218 -234897671.77100372 0 0 0 0 309120207.16882133 13757287.167665482 0 13757287.167665482 -211790134.74485779 0 0 0 0 174495228.53957748 168832369.29739761 0 168832369.29739761 -18575494.316890717 0 0 0 0 181000571.25886536 -53169408.950157166 0 -53169408.950157166 48965156.090230942 0 0 0 0 413592561.00166702 109278393.17764664 0 109278393.17764664 -8090368.2355041504 0 0 0 0 270542746.15333748 266887602.10899353 0 266887602.10899353 222680329.58818817 0 0 0 0 1405174.902543962 20812.687512852252 0 20812.687512852252 1381042.201987125 0 0 0 0 119852237.81524658 123831791.82057571 0 123831791.82057571 155973094.4280014 0 0 0 0 161168762.63611984 143769968.74714661 0 143769968.74714661 71269436.144432068 0 0 0 0 154794248.73326111 33104058.363067627 0 33104058.363067627 80136083.125379562 0 0 0 0 140284784.94216919 138103964.96148682 0 138103964.96148682 18460037.83215332 0 0 0 0 83312443.73002243 150431091.42390823 0 150431091.42390823 84132539.497695923 0 0 0 0 157284951.80758667 123756332.96006012 0 123756332.96006012 23234358.656066895 0 0 0 0 -258554.01376768947 364246.62968298048 0 364246.62968298048 354890.17130298913 0 0 0 0 169615919.71554375 75409381.877506256 0 75409381.877506256 151132770.89324951 0 0 0 0 93613808.871520996 50482145.657852173 0 50482145.657852173 -172622805.41320801 0 0 0 0 -292021.09748724103 -131052.18801512569 0 -131052.18801512569 82070.37745068036 0 0 0 0 38262634.230121613 -10210654.901611328 0 -10210654.901611328 -76269087.638496399 0 0 0 0 68250275.35531044 35434360.933206558 0 35434360.933206558 -7335516.3340377808 0 0 0 0 -175178.40010803193 417399.34564875811 0 417399.34564875811 400806.66900601983 0 0 0 0 137161944.11797237 48790068.575079918 0 48790068.575079918 -7723378.3612747192 0 0 0 0 119144493.58863831 -8359342.6756286621 0 -8359342.6756286621 5092966.8825359344 0 0 0 0 151480915.10652924 97873824.82321167 0 97873824.82321167 11366133.120285034 0 0 0 0 97290402.992666245 38392588.758371353 0 38392588.758371353 12065945.282936096 0 0 0 0 60668769.305763245 9189176.9110412598 0 9189176.9110412598 6019301.3910942078 0 0 0 0 43122093.799367905 28228609.342710495 0 28228609.342710495 4591222.4156570435 0 0 0 0 141105549.84022522 57424489.582328796 0 57424489.582328796 140354059.7167511 0 0 0 0 194052405.15245056 115869936.69800758 0 115869936.69800758 40567560.315704346 0 0 0 0 66074517.962814331 169740562.44723511 0 169740562.44723511 136743216.38195801 0 0 0 0 73028357.507499695 96835298.817298889 0 96835298.817298889 44091207.40813446 0 0 0 0 153754519.27262878 85894233.440696716 0 85894233.440696716 28755182.542111397 0 0 0 0 134227029.23323631 107138100.78091812 0 107138100.78091812 92650820.784759521 0 0 0 0 103266986.0520401 64257558.420608521 0 64257558.420608521 52579327.542724609 0 0 0 0 137751157.11882019 99319754.039077759 0 99319754.039077759 58212059.664260864 0 0 0 0 104517645.01303864 92691768.946071625 0 92691768.946071625 97992243.248283386 0 0 0 0 135813018.90330505 106328510.95155334 0 106328510.95155334 46812314.845108032 0 0 0 0 142619701.43700409 117398448.1227951 0 117398448.1227951 62706188.408657074 0 0 0 0 150383152.21473694 113923514.72497177 0 113923514.72497177 44597455.416992188 0 0 0 0 152296458.72543335 96801130.021087646 0 96801130.021087646 41447052.546279907 0 0 0 0 164485618.31741333 34848490.471679688 0 34848490.471679688 -9655015.5388183594 0 0 0 0 194648594.84352875 120798407.15733337 0 120798407.15733337 47011925.427093506 0 0 0 0 186314887.44470215 104434844.23738861 0 104434844.23738861 17795101.993942261 0 0 0 0 166925441.86013794 132767671.21822357 0 132767671.21822357 65153053.662216187 0 0 0 0 187657375.18225479 167151510.14854431 0 167151510.14854431 151051777.62240601 0 0 0 0 -66346301.170053005 -29751214.22257489 0 -29751214.22257489 74715032.753311157 0 0 0 0 404663248.72271729 95671932.659950256 0 95671932.659950256 21838463.037597656 0 0 0 0 -879950.98684359714 13549.39298465848 0 13549.39298465848 335064.9936696589 0 0 0 0 376976394.33241272 158165660.49049377 0 158165660.49049377 49301329.020263672 0 0 0 0 -12538601.793432415 44971.772461468354 0 44971.772461468354 2732017.0100843906 0 0 0 0 385331496.6293335 64164145.035064697 0 64164145.035064697 -99989033.258422852 0 0 0 0 -418497.7850443013 11916.500140991062 0 11916.500140991062 244618.27054601908 0 0 0 0 5149418.9580506394 1082793.1835985184 0 1082793.1835985184 1078001.8192113042 0 0 0 0 1149886.4832284451 1271536.2337592244 0 1271536.2337592244 815754.04135131836 0 0 0 0 127175627.95107651 98480417.82000351 0 98480417.82000351 67608651.08860302 0 0 0 0 97391503.825698853 64873144.59103775 0 64873144.59103775 50819071.315856934 0 0 0 0 22422834.732015185 8795282.8800590187 0 8795282.8800590187 2078521.5178902596 0 0 0 0 127865711.67679977 93950853.066677094 0 93950853.066677094 66799631.318634033 0 0 0 0 146489182.93954468 94161214.17980957 0 94161214.17980957 40266074.201820374 0 0 0 0 140802905.78002167 122111337.88676453 0 122111337.88676453 43351310.308422089 0 0 0 0 142778789.49915218 108650405.80646229 0 108650405.80646229 48579626.855804443 0 0 0 0 140836649.00273132 117086964.51933289 0 117086964.51933289 67999081.163238525 0 0 0 0 121401508.46910858 101146529.57420731 0 101146529.57420731 72970423.875892639 0 0 0 0 120772278.80579376 108302753.92758942 0 108302753.92758942 96114185.051654816 0 0 0 0 147812878.4218235 138472525.64946556 0 138472525.64946556 75361549.250671387 0 0 0 0 83436453.2080715 24771544.439191997 0 24771544.439191997 -5198010.258102417 0 0 0 0 8498705.9054418765 4083319.2775694765 0 4083319.2775694765 -1670562.7493136078 0 0 0 0 7259406.0070699751 1391041.3327987418 0 1391041.3327987418 1561585.2127269059 0 0 0 0 23130048.967443734 17735410.454833001 0 17735410.454833001 -30828735.025856018 0 0 0 0 15738294.742252618 32057614.578434892 0 32057614.578434892 5441420.248459518 0 0 0 0 45401882.174552917 14812777.428138733 0 14812777.428138733 -2045654.0763063431 0 0 0 0 57757736.979068756 35781616.164058685 0 35781616.164058685 -2830786.6216423512 0 0 0 0 56541289.041564941 49651021.958747864 0 49651021.958747864 -12284611.463968277 0 0 0 0 57895783.693492889 -6108621.8515110016 0 -6108621.8515110016 17202467.231285095 0 0 0 0 -2201928.9938049316 63727637.00201416 0 63727637.00201416 49009757.347732544 0 0 0 0 218816189.40213776 88853005.63061142 0 88853005.63061142 -28736372.649848938 0 0 0 0 -1639974.870300293 23127546.540912628 0 23127546.540912628 14448887.267799377 0 0 0 0 -4217447.9237060547 20114104.672874451 0 20114104.672874451 24434371.666248322 0 0 0 0 44598091.599199295 138743142.50178337 0 138743142.50178337 32071188.640380859 0 0 0 0 -2770514.7477302551 58798099.366909027 0 58798099.366909027 9015711.4293670654 0 0 0 0 26329167.447357178 25793427.850250244 0 25793427.850250244 1261759.4280700684 0 0 0 0 30967713.073539734 17089713.987854004 0 17089713.987854004 12385428.134765625 0 0 0 0 49389558.316246033 1198376.7909240723 0 1198376.7909240723 642871.92384338379 0 0 0 0 30631132.832572937 15496277.111763 0 15496277.111763 13934247.474510193 0 0 0 0 2181864.441336032 255311.98551726341 0 255311.98551726341 -379710.95875948668 0 0 0 0 -1767920.6893310547 23158429.669624329 0 23158429.669624329 15354109.346618652 0 0 0 0 1398066.9165825658 14886924.921229698 0 14886924.921229698 5338744.3776230961 0 0 0 0 7440144.292471692 18288617.938955233 0 18288617.938955233 5434474.5430063605 0 0 0 0 10007799.346248627 4923823.4301567078 0 4923823.4301567078 -2224642.6906204224 0 0 0 0 -10555022.021412238 14526594.825447218 0 14526594.825447218 9606081.8902469724 0 0 0 0 -24544680.588340759 25777478.106018066 0 25777478.106018066 -4548840.8801269531 0 0 0 0 -17453172.616645813 -4236221.6814451218 0 -4236221.6814451218 -15780106.407928467 0 0 0 0 -1964155.7394561768 33336800.083129883 0 33336800.083129883 -2342937.1631355286 0 0 0 0 -30560717.518878937 -1335058.3530683517 0 -1335058.3530683517 5295462.6058120728 0 0 0 0 -7810735.0589904785 94292548.435119629 0 94292548.435119629 185384234.14717102 0 0 0 0 -10304888.603874207 -4422107.7279081345 0 -4422107.7279081345 40743768.542892456 0 0 0 0 -27550711.161308289 34026938.97615242 0 34026938.97615242 94797226.044677734 0 0 0 0 1091573.884185791 39156855.497215271 0 39156855.497215271 24640262.10043335 0 0 0 0 -21604044.142478943 21070259.605422974 0 21070259.605422974 -2420845.4120330811 0 0 0 0 -12279249.135653246 20916582.252177887 0 20916582.252177887 14014576.823858313 0 0 0 0 10158403.059314907 7443661.2946775705 0 7443661.2946775705 -3280691.734310627 0 0 0 0 -80443472.593536377 23431660.819011688 0 23431660.819011688 18980791.176015854 0 0 0 0 -4250278.8526916504 153764303.16017914 0 153764303.16017914 -44762760.98538208 0 0 0 0 -178280574.09632874 141361599.00011826 0 141361599.00011826 33500867.278678894 0 0 0 0 -32590460.514778137 -65170567.126773834 0 -65170567.126773834 97131465.760425568 0 0 0 0 62275781.26651001 -62851201.903709412 0 -62851201.903709412 84142230.42137146 0 0 0 0 -204406375.91412354 22888437.869159698 0 22888437.869159698 187517092.37808228 0 0 0 0 -3869374.5077590942 271700000.28644943 0 271700000.28644943 52342745.062492371 0 0 0 0 43672016.345115662 142794591.75317383 0 142794591.75317383 34764879.846076965 0 0 0 0 15288557.778793335 110885029.75627899 0 110885029.75627899 63313077.692489624 0 0 0 0 51766740.757575989 112884431.55635738 0 112884431.55635738 51421602.326950073 0 0 0 0 -9664162.0541000366 8681425.3798446655 0 8681425.3798446655 -27741035.918258667 0 0 0 0 46262528.956581116 117948180.9757843 0 117948180.9757843 -105408573.24204254 0 0 0 0 273618847.32112122 323331070.77045059 0 323331070.77045059 53432089.317893982 0 0 0 0 -21122594.256593704 192232578.54817486 0 192232578.54817486 73078745.413887024 0 0 0 0 159227355.91456604 204824971.31054688 0 204824971.31054688 49133542.237504959 0 0 0 0 144493031.61552429 50007272.022117615 0 50007272.022117615 -12794912.143529892 0 0 0 0 136402326.13447952 -161511093.59088326 0 -161511093.59088326 150826549.94216919 0 0 0 0 472322504.70410156 34808798.016822815 0 34808798.016822815 -21973889.140295029 0 0 0 0 1294486105.9577637 -141158589.4029274 0 -141158589.4029274 -265386739.02215576 0 0 0 0 293745087.50369263 328296518.60822678 0 328296518.60822678 433729586.32099915 0 0 0 0 160087686.6690979 48066398.549411774 0 48066398.549411774 -148551006.96331406 0 0 0 0 -150651669.39044189 219220583.11108398 0 219220583.11108398 248207042.55487823 0 0 0 0 790683.81186744571 2238014.6221580543 0 2238014.6221580543 1138688.7726825848 0 0 0 0 -280259894.92251205 336915090.95936394 0 336915090.95936394 149543562.04164124 0 0 0 0 -76115763.600753784 329110505.78785706 0 329110505.78785706 61079367.610015869 0 0 0 0 -344217930.87626648 304447485.93880081 0 304447485.93880081 321799111.52124786 0 0 0 0 361719126.59378815 158952417.37969589 0 158952417.37969589 93790539.86879158 0 0 0 0 -638676379.90519714 143660493.37928009 0 143660493.37928009 370541012.54144287 0 0 0 0 3212596.1294176225 3264029.0704223961 0 3264029.0704223961 -878455.97220776975 0 0 0 0 -262260233.3205719 115653084.74380875 0 115653084.74380875 196920374.7480011 0 0 0 0 519769733.40840912 197575054.54615021 0 197575054.54615021 -403714827.07842255 0 0 0 0 398321143.84989929 -239857463.08196259 0 -239857463.08196259 166488112.19532776 0 0 0 0 121805471.47570038 121752460.34481812 0 121752460.34481812 -26035748.564651489 0 0 0 0 152137685.86241913 -81491646.292030334 0 -81491646.292030334 -55334697.672470093 0 0 0 0 10937042.903713379 9099418.1387931108 0 9099418.1387931108 -3229316.3369627744 0 0 0 0 -105027317.89413452 38036495.980892181 0 38036495.980892181 66772286.034065247 0 0 0 0 333663670.69287872 -19574519.131885529 0 -19574519.131885529 -36390110.571525574 0 0 0 0 642583896.02930069 -143650778.15466118 0 -143650778.15466118 -59123808.261184692 0 0 0 0 937529.3076023981 6675971.5894513056 0 6675971.5894513056 6782135.3781910688 0 0 0 0 -151862882.9838028 -310573253.8584938 0 -310573253.8584938 -1323382644.4277649 0 0 0 0 282450901.21401978 -71761219.525054932 0 -71761219.525054932 98036688.251243591 0 0 0 0 309429449.99147034 23589578.945762634 0 23589578.945762634 31344634.65983963 0 0 0 0 280200332.31395721 -19048394.928596497 0 -19048394.928596497 -30717274.132553101 0 0 0 0 293941961.75686646 16293849.315475464 0 16293849.315475464 -36024564.291315079 0 0 0 0 306222995.2434864 -33334226.04362011 0 -33334226.04362011 -39481585.938591003 0 0 0 0 142347635.32579803 -35445921.26965332 0 -35445921.26965332 9372333.7389373779 0 0 0 0 334353889.16827393 -8417897.0479240417 0 -8417897.0479240417 -39334924.277381897 0 0 0 0 283442049.2182579 -80959968.745044708 0 -80959968.745044708 -2770579.4122314453 0 0 0 0 -3019525.6254517362 7395044.2923738286 0 7395044.2923738286 459730.9083520174 0 0 0 0 -43188316.128601074 2762364.4999256134 0 2762364.4999256134 -21646939.004066467 0 0 0 0 117278293.12456799 61753038.05038929 0 61753038.05038929 -17123775.044570923 0 0 0 0 117114021.57316208 -8998663.972618103 0 -8998663.972618103 -26491016.30569458 0 0 0 0 195528587.51878357 65713065.920516968 0 65713065.920516968 -8783882.9438171387 0 0 0 0 14625660.377182238 33044186.95920068 0 33044186.95920068 3785230.0791034997 0 0 0 0 15811086.14950943 41185540.397621155 0 41185540.397621155 18863208.062072754 0 0 0 0 52077814.676181793 36665694.129695892 0 36665694.129695892 16114311.784408569 0 0 0 0 53569606.944412231 28933564.109699249 0 28933564.109699249 22358924.740432739 0 0 0 0 61321350.661201477 9258713.7327156067 0 9258713.7327156067 19791303.228408337 0 0 0 0 144088405.29586029 -104425788.06415176 0 -104425788.06415176 99910910.971801758 0 0 0 0 -4659598.6113624573 59136425.160362244 0 59136425.160362244 10355286.554176331 0 0 0 0 8572057.2584770806 30158791.192588679 0 30158791.192588679 -2003090.2260006517 0 0 0 0 -371662923.09645081 562504257.7874527 0 562504257.7874527 -603086695.23941803 0 0 0 0 -407214956.64949036 -59537852.603088379 0 -59537852.603088379 413775449.81010437 0 0 0 0 56891529.992742538 133733347.85818863 0 133733347.85818863 96728162.897853851 0 0 0 0 39193489.944213867 199839427.26102066 0 199839427.26102066 -143983857.09964371 0 0 0 0 80038657.244178772 296914899.87525177 0 296914899.87525177 -143379883.05434227 0 0 0 0 -284185414.10936069 401748368.45097017 0 401748368.45097017 -113667338.12973022 0 0 0 0 169881854.30417252 202480521.20488739 0 202480521.20488739 -89279440.951442719 0 0 0 0 -4143001.9605055451 1602237.328769587 0 1602237.328769587 1468911.7289937139 0 0 0 0 -196338340.88350677 -184768341.71278381 0 -184768341.71278381 -44886325.3228302 0 0 0 0 -214082463.8069458 -143935042.87998962 0 -143935042.87998962 44805903.610805511 0 0 0 0 9509619.2015242577 77287887.612495422 0 77287887.612495422 -209200366.41111755 0 0 0 0 -287310823.97174835 -167505910.65299988 0 -167505910.65299988 92755838.28163147 0 0 0 0 -81289.146936016157 30006200.203765079 0 30006200.203765079 -2660473.1530581415 0 0 0 0 -269889838.22592163 -36176355.894058228 0 -36176355.894058228 136750756.28239632 0 0 0 0 -32372280.491616249 55927566.556141376 0 55927566.556141376 57992544.770271301 0 0 0 0 33012848.108261108 70455436.831787109 0 70455436.831787109 -26262606.755074739 0 0 0 0 36577588.456485748 85576543.251076698 0 85576543.251076698 4912978.2421875 0 0 0 0 285595982.10663605 210014484.95822906 0 210014484.95822906 66347600.659290314 0 0 0 0 288702216.34181976 85340933.794494629 0 85340933.794494629 -91164117.138946533 0 0 0 0 484294137.71383667 50474342.309379578 0 50474342.309379578 -85842681.420227051 0 0 0 0 -4598964.2713012695 123485001.24012756 0 123485001.24012756 170575546.58403015 0 0 0 0 476192983.48622131 -139742225.8934021 0 -139742225.8934021 -35648134.902845383 0 0 0 0 -20702962.693878174 37321625.868282318 0 37321625.868282318 115691988.31278992 0 0 0 0 1310225.2738736197 2838153.6731441487 0 2838153.6731441487 -1578577.7753931135 0 0 0 0 -7888258.3348236084 -18183383.10269928 0 -18183383.10269928 -9256953.482208252 0 0 0 0 18141418.058815002 74648514.393859863 0 74648514.393859863 31199770.918716431 0 0 0 0 -98152581.51663208 1759267.5715751648 0 1759267.5715751648 13702263.622213364 0 0 0 0 436854446.29761076 173030289.5804832 0 173030289.5804832 -6869115.2523651123 0 0 0 0 -5986130.3921630532 27879767.857339315 0 27879767.857339315 15593214.378517136 0 0 0 0 -33619138.988922119 -44529564.189731598 0 -44529564.189731598 161282211.13006592 0 0 0 0 157386799.18452454 -171279144.35974121 0 -171279144.35974121 218701107.76802063 0 0 0 0 284330432.80067444 95681161.7760849 0 95681161.7760849 -115524319.10136414 0 0 0 0 -14531564.846031502 6606091.1602655351 0 6606091.1602655351 24943512.530123994 0 0 0 0 -46089243.284133911 51676995.448123932 0 51676995.448123932 -12156928.720222712 0 0 0 0 -94788991.539028168 52372824.745990753 0 52372824.745990753 53716583.52872467 0 0 0 0 -50165486.950531006 15978209.753036499 0 15978209.753036499 31496042.632591248 0 0 0 0 66175313.72832489 81991168.209041595 0 81991168.209041595 38739424.413749695 0 0 0 0 71273368.455709457 150102707.2841326 0 150102707.2841326 63355116.888290405 0 0 0 0 -5318230.1762634218 14465083.310912356 0 14465083.310912356 -15242562.903775513 0 0 0 0 81685598.765975952 50589801.381544113 0 50589801.381544113 28784622.540157318 0 0 0 0 9966983.5119800568 117871064.47054291 0 117871064.47054291 89202303.364284515 0 0 0 0 -90728169.614097595 53715295.891145706 0 53715295.891145706 56538925.505226135 0 0 0 0 -34015030.760650635 32770602.22674942 0 32770602.22674942 37482671.023693562 0 0 0 0 -117622019.79273987 23009613.492591858 0 23009613.492591858 -5542944.2236862183 0 0 0 0 -115974524.59623718 8753536.7044754028 0 8753536.7044754028 31656076.392230988 0 0 0 0 -59654364.771381378 138824556.442276 0 138824556.442276 -8476438.8460845947 0 0 0 0 -28667927.277053833 63607150.281229019 0 63607150.281229019 -40191453.584706306 0 0 0 0 -251610844.96450233 -34259134.259046555 0 -34259134.259046555 -22155394.292366028 0 0 0 0 -139418951.62216377 167045531.17161846 0 167045531.17161846 -128842882.76947021 0 0 0 0 204843489.20676422 89072837.510131836 0 89072837.510131836 -137695880.46218872 0 0 0 0 7450202.743637085 17198513.361488342 0 17198513.361488342 166722653.86412048 0 0 0 0 29958458.90568161 119264244.23594666 0 119264244.23594666 4264069.8233032227 0 0 0 0 -147865499.73701477 -968939.73752212524 0 -968939.73752212524 34218531.290714264 0 0 0 0 81929.015907719731 12334318.627994142 0 12334318.627994142 -4139584.6788879558 0 0 0 0 -5138910.3016679063 20143909.232759956 0 20143909.232759956 31393365.442958593 0 0 0 0 66525444.419914246 113720404.78562546 0 113720404.78562546 37246020.357948303 0 0 0 0 351416117.19642258 -15975126.099466324 0 -15975126.099466324 -39287981.319374084 0 0 0 0 -855854.66874492541 12433973.492550362 0 12433973.492550362 18323873.563088596 0 0 0 0 -91917069.012527466 -38209388.729412079 0 -38209388.729412079 136076436.85811996 0 0 0 0 -123339394.38332367 28007068.707691193 0 28007068.707691193 213756752.49623108 0 0 0 0 -158527481.66828918 170669166.50665665 0 170669166.50665665 438791281.47203064 0 0 0 0 -352014826.35749817 823940548.43383408 0 823940548.43383408 17405620.621147156 0 0 0 0 260557506.58531952 446625103.6613369 0 446625103.6613369 -693298354.34918785 0 0 0 0 -166038261.12914085 233864545.37846088 0 233864545.37846088 -76167705.876724243 0 0 0 0 200149988.21671867 59688784.072506905 0 59688784.072506905 -307326604.61601257 0 0 0 0 1992810.4165570326 661595.0501557216 0 661595.0501557216 -4167297.727781333 0 0 0 0 325597210.35503387 239214357.85044861 0 239214357.85044861 -381399325.62451768 0 0 0 0 89908561.606155396 261604410.48508072 0 261604410.48508072 -379117017.97039032 0 0 0 0 473937108.73281097 64068192.794708252 0 64068192.794708252 -479536933.953125 0 0 0 0 -35141470.532836914 -70232805.796943665 0 -70232805.796943665 -65757333.752214432 0 0 0 0 -212010288.77213287 -29646659.78471756 0 -29646659.78471756 101624873.12631226 0 0 0 0 33875852.552845001 32017709.963851929 0 32017709.963851929 9321986.7735977173 0 0 0 0 -4652968.5212574005 3865046.3364032656 0 3865046.3364032656 -885968.11825289391 0 0 0 0 -222036902.0231781 -158492633.88767242 0 -158492633.88767242 -98527854.730205536 0 0 0 0 -633197905.70751953 -65699559.816410065 0 -65699559.816410065 254937441.08415222 0 0 0 0 -393238255.91082764 -167049089.57808304 0 -167049089.57808304 -2255368.7745666504 0 0 0 0 -351262028.96247864 65412768.09608078 0 65412768.09608078 134894097.51412964 0 0 0 0 -189544876.32989502 118856905.88768005 0 118856905.88768005 133149657.23123932 0 0 0 0 -194189158.67263865 -4969067.2685997486 0 -4969067.2685997486 79389451.124595642 0 0 0 0 -199309862.38602829 134282785.8830862 0 134282785.8830862 111540711.85329437 0 0 0 0 -79715629.665623188 12140107.665165544 0 12140107.665165544 44977585.96269989 0 0 0 0 -77163554.103660583 49749172.047203064 0 49749172.047203064 89575823.540435791 0 0 0 0 -49430948.83732605 65458795.512054443 0 65458795.512054443 72028665.225452423 0 0 0 0 -18960894.256271362 45455366.739025116 0 45455366.739025116 62083496.632526398 0 0 0 0 -84453361.30859375 119168056.19038963 0 119168056.19038963 92722872.592437744 0 0 0 0 -54146344.787467957 63742699.803325653 0 63742699.803325653 75939568.628131866 0 0 0 0 -17309873.790519714 176936582.10886049 0 176936582.10886049 121535962.26806641 0 0 0 0 9289628.6363525391 38466722.015562057 0 38466722.015562057 22562142.565080643 0 0 0 0 -274839.59260869026 26266066.074280739 0 26266066.074280739 15513092.47366333 0 0 0 0 -21055861.601081848 35851287.417259216 0 35851287.417259216 34908075.411270142 0 0 0 0 39832.831008911133 30755877.198097229 0 30755877.198097229 28610871.993164062 0 0 0 0 -7910897.6832351685 23980295.488779068 0 23980295.488779068 38766807.342815399 0 0 0 0 -4372250.5520095825 29323563.158756256 0 29323563.158756256 28149333.040374756 0 0 0 0 -18528131.808029175 685479.73630905151 0 685479.73630905151 6894443.3933410645 0 0 0 0 -11172281.984054565 17363167.981269836 0 17363167.981269836 26302212.463680267 0 0 0 0 182494915.84339905 -111956145.52743053 0 -111956145.52743053 60481250.896110535 0 0 0 0 -12596279.7003773 7756071.4021563977 0 7756071.4021563977 323296.24133203179 0 0 0 0 -6605223.1906585693 43068170.007230759 0 43068170.007230759 48653088.957862854 0 0 0 0 -7629227.5808868408 224208468.86048508 0 224208468.86048508 -131610162.31309509 0 0 0 0 -723073901.82958984 -51984184.710342407 0 -51984184.710342407 459154199.86382294 0 0 0 0 -515337045.48320007 31253210.315004349 0 31253210.315004349 24088288.725036621 0 0 0 0 -335644352.76350784 300177674.75780678 0 300177674.75780678 -106832798.12101746 0 0 0 0 -58551533.127380371 126760936.41353416 0 126760936.41353416 -117754322.70411682 0 0 0 0 -92537023.601150513 100276770.40148544 0 100276770.40148544 -88117856.60590744 0 0 0 0 299086206.56851196 286913567.61366272 0 286913567.61366272 -43091812.694641113 0 0 0 0 494538.33454623818 1119920.3222226948 0 1119920.3222226948 -326310.78421121836 0 0 0 0 28182022.332687378 -12084414.444278717 0 -12084414.444278717 -80092496.452030182 0 0 0 0 121683023.38654327 1003304927.8320236 0 1003304927.8320236 214661164.5180397 0 0 0 0 366233253.17478943 -5853304.0993919373 0 -5853304.0993919373 -307736350.2063694 0 0 0 0 -20021687.714523315 37116821.381732941 0 37116821.381732941 72328433.889175415 0 0 0 0 -160580.21419250965 1211671.6334464103 0 1211671.6334464103 1642595.9186853953 0 0 0 0 32408770.020225525 -79575652.874236107 0 -79575652.874236107 -18173463.866767883 0 0 0 0 51103355.245727539 59039018.635948181 0 59039018.635948181 42457808.887588501 0 0 0 0 -61124260.066665649 2406864.3555107117 0 2406864.3555107117 202433723.71232796 0 0 0 0 -42517589.993740082 19905056.6106987 0 19905056.6106987 124768766.29506683 0 0 0 0 36670793.276046753 -789052.18418884277 0 -789052.18418884277 129784545.18670654 0 0 0 0 -15342336.579908654 12195362.842571139 0 12195362.842571139 3046113.8777696677 0 0 0 0 -9177982.0939712524 18190986.630214691 0 18190986.630214691 12430851.051898956 0 0 0 0 -901799.54498865828 2419954.1132601127 0 2419954.1132601127 633137.56890316308 0 0 0 0 5422183.9307250977 37387982.248031616 0 37387982.248031616 33707639.66368866 0 0 0 0 -5714042.5116282571 16189314.276696227 0 16189314.276696227 7890594.8397781104 0 0 0 0 24156289.893245697 8401196.0061254501 0 8401196.0061254501 -1129749.4760513306 0 0 0 0 30865516.203063965 15801499.043060303 0 15801499.043060303 6942205.9741141796 0 0 0 0 -4756891.7174301147 24073485.513713837 0 24073485.513713837 4910407.1866226196 0 0 0 0 -29820239.946661949 15111171.587036848 0 15111171.587036848 19201346.244277954 0 0 0 0 -4984175.0970458984 26230264.075016022 0 26230264.075016022 -10802697.871482849 0 0 0 0 -16238567.779975891 17990247.142929077 0 17990247.142929077 -9378160.7660903931 0 0 0 0 -12825078.068664551 23534599.362129211 0 23534599.362129211 -390912.64916992188 0 0 0 0 2578414.9591556191 1008976.392772954 0 1008976.392772954 -2490307.4347325787 0 0 0 0 36976416.06842041 9366379.4102802277 0 9366379.4102802277 -6008214.6926727295 0 0 0 0 -23510830.071151733 33771776.053668976 0 33771776.053668976 533127.73775291443 0 0 0 0 30037908.033996582 8013040.9621620178 0 8013040.9621620178 -5024735.7936096191 0 0 0 0 6344736.755671367 8462421.7795099914 0 8462421.7795099914 -1755922.2781996466 0 0 0 0 -15933748.853118896 21222218.326774597 0 21222218.326774597 30870518.630394936 0 0 0 0 1249995.2067260742 38020.134506225586 0 38020.134506225586 -7171151.6118507385 0 0 0 0 -36197400.55355835 22411766.588699341 0 22411766.588699341 54883441.342948914 0 0 0 0 -41742506.104217529 2341408.1516571045 0 2341408.1516571045 27953410.044879913 0 0 0 0 -3046348.1468658447 16160461.39093399 0 16160461.39093399 31485785.48928833 0 0 0 0 777572.3688378334 3958115.198493965 0 3958115.198493965 5519863.5764564872 0 0 0 0 -4755500.2149353027 16998468.737514496 0 16998468.737514496 -17633862.170963287 0 0 0 0 9799251.226474762 -1762369.1453723907 0 -1762369.1453723907 10574598.619529724 0 0 0 0 -2792.693977355957 21947074.527994156 0 21947074.527994156 -18883507.433982849 0 0 0 0 -22042032.263748169 28238326.383758545 0 28238326.383758545 -11053683.852478027 0 0 0 0 -6290244.9700927734 21828338.155574799 0 21828338.155574799 -21319114.787963867 0 0 0 0 5133755.4109286219 1992526.5982848629 0 1992526.5982848629 -4945071.2361122295 0 0 0 0 -5227702.5772266388 13447472.856845379 0 13447472.856845379 -29780794.215332031 0 0 0 0 -2243942.3303459287 537508.53253698349 0 537508.53253698349 11073913.284019284 0 0 0 0 -3487.8439178466797 4439727.8231277466 0 4439727.8231277466 2831844.6101341248 0 0 0 0 -401453.71365737915 21860490.899355888 0 21860490.899355888 837877992.72904205 0 0 0 0 2759725.1708578765 1292083.2675548457 0 1292083.2675548457 -1886307.3887936398 0 0 0 0 -522767427.00350189 -152290038.08208084 0 -152290038.08208084 847746531.74562287 0 0 0 0 -185624.30708153546 -1652918.4981264919 0 -1652918.4981264919 6605036.2981653623 0 0 0 0 -13431310.776779175 -15034043.186767578 0 -15034043.186767578 8833459.0303344727 0 0 0 0 -54858776.593902588 7014425.4267196655 0 7014425.4267196655 51240186.099552155 0 0 0 0 -49426627.589294434 -7022221.9752883911 0 -7022221.9752883911 35802280.045307159 0 0 0 0 53958.105089187622 288743568.83437538 0 288743568.83437538 -125204198.94116306 0 0 0 0 -128670247.93809509 187660904.73330402 0 187660904.73330402 169921527.25582314 0 0 0 0 -1717330.102677837 3182119.8316414878 0 3182119.8316414878 -3426726.7871480882 0 0 0 0 53121339.052131653 -97231252.593357086 0 -97231252.593357086 -199155697.18203926 0 0 0 0 33346743.820005417 193637105.81176853 0 193637105.81176853 -75209340.000236511 0 0 0 0 210288022.43959808 76505118.22101593 0 76505118.22101593 -27308290.312206268 0 0 0 0 -4161031.6086431593 9212401.8773476779 0 9212401.8773476779 -10353502.463528425 0 0 0 0 147015384.06433868 154537916.08943558 0 154537916.08943558 -33845509.044486523 0 0 0 0 116743372.21266365 305725652.50975132 0 305725652.50975132 206377364.55257416 0 0 0 0 300228971.21282291 105134537.35826176 0 105134537.35826176 -297711923.44784546 0 0 0 0 303630676.50452423 282593369.18155289 0 282593369.18155289 78189568.8154459 0 0 0 0 -60378094.315185547 120631887.97457123 0 120631887.97457123 227868527.20520115 0 0 0 0 67034016.253799438 61844903.922996521 0 61844903.922996521 -114017915.67734528 0 0 0 0 82848585.01417923 209490451.98074245 0 209490451.98074245 61908854.471092224 0 0 0 0 223593288.64783764 280825067.65480089 0 280825067.65480089 -19373019.376350403 0 0 0 0 142712497.7333374 168157134.39220619 0 168157134.39220619 32533266.175163269 0 0 0 0 105378470.8583374 57458012.356432915 0 57458012.356432915 -107283056.85852051 0 0 0 0 2037705.2356035672 3346606.3209840134 0 3346606.3209840134 1187001.7877621613 0 0 0 0 -283505369.33081055 98590008.43396759 0 98590008.43396759 31884812.846115112 0 0 0 0 -228724148.32693481 323645367.18438148 0 323645367.18438148 -292520109.39783859 0 0 0 0 46811757.998199463 -20107902.396270752 0 -20107902.396270752 -68567197.566581726 0 0 0 0 -138919795.4906311 -18532801.277759552 0 -18532801.277759552 57916215.575901031 0 0 0 0 6775736.5951385498 88547570.708271027 0 88547570.708271027 9797156.3748703003 0 0 0 0 -13012066.114868164 42137489.831501007 0 42137489.831501007 -97657985.609483719 0 0 0 0 -69843571.058670044 129074690.01499939 0 129074690.01499939 -118370107.86556244 0 0 0 0 -101639471.76699829 129952607.07928467 0 129952607.07928467 -95427386.642318726 0 0 0 0 -65995553.500701904 169113268.96533394 0 169113268.96533394 -149759966.30469513 0 0 0 0 -150729258.28613281 221076177.14949036 0 221076177.14949036 -156498294.19418335 0 0 0 0 -174112986.79244995 183287423.35271454 0 183287423.35271454 -134838451.73677444 0 0 0 0 -207064171.30340576 225033725.68621826 0 225033725.68621826 -124057788.91506958 0 0 0 0 -305962.27950286865 221951495.38840866 0 221951495.38840866 -517389136.07947731 0 0 0 0 -162882599.65452576 288782664.93782806 0 288782664.93782806 -224834593.74618053 0 0 0 0 -24486864.659553528 387100989.22949028 0 387100989.22949028 -1038559316.968235 0 0 0 0 -125816270.73360443 295683600.37722111 0 295683600.37722111 -328521549.35105896 0 0 0 0 -92938237.120529175 436462206.98321342 0 436462206.98321342 -1067756403.2289124 0 0 0 0 -688458110.99308014 687787454.55394173 0 687787454.55394173 -590679470.40296364 0 0 0 0 -188744533.65548706 604901552.74256134 0 604901552.74256134 -1068021529.105896 0 0 0 0 -550603585.83860779 442037947.97179031 0 442037947.97179031 10205784.666519642 0 0 0 0 -191112472.41531372 78758750.605863571 0 78758750.605863571 79080887.256309509 0 0 0 0 -653853678.102005 -868850891.39408827 0 -868850891.39408827 -1052429400.047924 0 0 0 0 1746470.0772535987 2962592.6669994891 0 2962592.6669994891 -7166459.3431705646 0 0 0 0 -383122239.43909454 -686507252.82164574 0 -686507252.82164574 -548191809.40553284 0 0 0 0 -102196509.51712036 -341942559.00046921 0 -341942559.00046921 -397727979.451437 0 0 0 0 -314887853.89819336 -168708077.15764904 0 -168708077.15764904 61038915.141942978 0 0 0 0 -438501401.5099411 -442536434.95625377 0 -442536434.95625377 -232048135.34803772 0 0 0 0 143044046.7952652 -692648584.79157972 0 -692648584.79157972 -1382065774.3759956 0 0 0 0 14998208.560791016 -463736918.67994308 0 -463736918.67994308 -656302519.9487896 0 0 0 0 -128571134.8404541 -376101536.07525635 0 -376101536.07525635 -387695091.92581177 0 0 0 0 352878252.40234375 -226413168.34026814 0 -226413168.34026814 -873532266.66195488 0 0 0 0 360349595.26177979 -314739208.44496059 0 -314739208.44496059 -857288300.93173504 0 0 0 0 173081344.08073425 -133577787.57848072 0 -133577787.57848072 -385176298.38298988 0 0 0 0 35534012.556213379 -154479808.55457973 0 -154479808.55457973 -267687291.00497055 0 0 0 0 77670478.451782227 -266101911.11441422 0 -266101911.11441422 -569249089.73658609 0 0 0 0 7777690.5741195679 -136801192.09474945 0 -136801192.09474945 -278800093.45481491 0 0 0 0 43456155.689025879 -26185839.931460381 0 -26185839.931460381 -143484299.5027523 0 0 0 0 76985396.442382812 13968875.94032383 0 13968875.94032383 -175430450.59270573 0 0 0 0 59296611.126464844 -93877125.280044556 0 -93877125.280044556 -393046187.90001655 0 0 0 0 228476756.63275909 57117318.746774197 0 57117318.746774197 -54698479.687324524 0 0 0 0 134431080.18786621 -108291535.6135788 0 -108291535.6135788 64395371.799039841 0 0 0 0 6386611.2600792423 9658627.5318195671 0 9658627.5318195671 -18414597.01766859 0 0 0 0 263211616.51428223 19255781.95942831 0 19255781.95942831 -175897799.35424232 0 0 0 0 38387360.704925537 102054456.89148235 0 102054456.89148235 -73355527.505038738 0 0 0 0 125085289.27274323 101059314.59248686 0 101059314.59248686 -26962759.058027744 0 0 0 0 11924719.874133337 22996847.119631872 0 22996847.119631872 -24058191.806644507 0 0 0 0 62256811.863288879 -9115138.1648597717 0 -9115138.1648597717 37081991.870376587 0 0 0 0 74867169.438568115 -31272284.416222572 0 -31272284.416222572 -3007102.7685451508 0 0 0 0 52573468.468902588 81361329.631473541 0 81361329.631473541 22050670.165021896 0 0 0 0 58683882.002157211 20918367.625571489 0 20918367.625571489 -176865887.29967117 0 0 0 0 86085286.942955017 -31002258.098683834 0 -31002258.098683834 -153916679.41913414 0 0 0 0 74588367.346237183 82791011.530335426 0 82791011.530335426 -66535175.239103794 0 0 0 0 24087765.77314207 31039836.712678343 0 31039836.712678343 -7921264.1269789748 0 0 0 0 33546051.414237976 41165523.925596237 0 41165523.925596237 48834902.427043915 0 0 0 0 30888768.467578888 72618531.271131992 0 72618531.271131992 44720125.038971901 0 0 0 0 102639818.57579803 26187853.373604774 0 26187853.373604774 -10904014.281799316 0 0 0 0 19938775.604496032 5904113.0212689489 0 5904113.0212689489 1542459.4979750291 0 0 0 0 5566663.5909369458 13322319.281428665 0 13322319.281428665 8358974.5865946114 0 0 0 0 36323345.535461426 58118169.392673492 0 58118169.392673492 -12542584.686115265 0 0 0 0 15568217.400175676 25460957.018267773 0 25460957.018267773 -2668013.798349157 0 0 0 0 1379558.2812652588 11641896.260627747 0 11641896.260627747 11726757.235015869 0 0 0 0 7113261.9548873212 21567609.021282926 0 21567609.021282926 8866635.6662381142 0 0 0 0 15436418.075917304 16328474.065755168 0 16328474.065755168 -2409660.5027503502 0 0 0 0 6328267.344909668 11541452.013366699 0 11541452.013366699 3825891.8411865234 0 0 0 0 16459814.828248218 17796529.431508414 0 17796529.431508414 -169632.97344198893 0 0 0 0 6432797.6499328613 9918010.2198228836 0 9918010.2198228836 3155357.5505371094 0 0 0 0 -12848909.842880249 21108816.22800827 0 21108816.22800827 27288211.081223726 0 0 0 0 -259321.95521652699 6864951.3503041789 0 6864951.3503041789 11160337.28694234 0 0 0 0 19248047.278320312 26249467.55557251 0 26249467.55557251 1407835.9569898844 0 0 0 0 12925669.905975342 15111014.498025894 0 15111014.498025894 21807119.266960144 0 0 0 0 6980490.7697279751 8428270.5307510197 0 8428270.5307510197 3290786.5359458029 0 0 0 0 3618808.9327520728 4216838.9470771179 0 4216838.9470771179 4406047.8001939282 0 0 0 0 51422410.476867676 -10252239.11693573 0 -10252239.11693573 49834021.432451248 0 0 0 0 15452582.095397949 39587348.430046082 0 39587348.430046082 23370038.555337191 0 0 0 0 27267024.189460754 15784236.183954716 0 15784236.183954716 10442824.815010071 0 0 0 0 39666124.61832428 3544387.5732078552 0 3544387.5732078552 -54863068.814743042 0 0 0 0 682757.55230712891 -34394839.754309654 0 -34394839.754309654 40167927.725997925 0 0 0 0 -131447.43167114258 62903604.063598633 0 62903604.063598633 -21282474.104473114 0 0 0 0 -66296515.662918091 175205510.94169235 0 175205510.94169235 -197484488.8951664 0 0 0 0 -67372617.72479248 50344740.03248024 0 50344740.03248024 52717211.515163422 0 0 0 0 212057.62041065097 1144832.0444284603 0 1144832.0444284603 2193812.163027741 0 0 0 0 -25774317.812820435 126200911.770401 0 126200911.770401 -149605834.37755704 0 0 0 0 -37474.128066301346 722661.30727897212 0 722661.30727897212 8973044.1490438208 0 0 0 0 -19397100.267425537 41329316.813991547 0 41329316.813991547 -33003469.155136108 0 0 0 0 -3599089.9705123901 13070689.257784843 0 13070689.257784843 15652122.823261261 0 0 0 0 -8923770.1659545898 20290609.957868576 0 20290609.957868576 69872731.858375549 0 0 0 0 6865.1575393676758 31010640.176294327 0 31010640.176294327 34264925.219985962 0 0 0 0 -20449459.49332428 16600064.859260559 0 16600064.859260559 28885004.991638184 0 0 0 0 -8207195.1680488586 17353795.584150314 0 17353795.584150314 27679078.634628296 0 0 0 0 -8676651.8073883057 24802014.089832306 0 24802014.089832306 32389229.353569031 0 0 0 0 -9782485.417889595 17292928.838606358 0 17292928.838606358 16285664.357498169 0 0 0 0 141351.98403167725 28600895.242582321 0 28600895.242582321 19813950.830387115 0 0 0 0 -1952939.4068069458 25771474.513875008 0 25771474.513875008 16539285.78868103 0 0 0 0 -3057280.5271492004 26837498.600707054 0 26837498.600707054 19378524.818855286 0 0 0 0 3518.6023025512695 31238417.179851532 0 31238417.179851532 20092513.813899994 0 0 0 0 261179.25645446777 25685698.139467239 0 25685698.139467239 27192649.190433502 0 0 0 0 1546034.8572998047 29702923.042779922 0 29702923.042779922 14939491.049209595 0 0 0 0 -197915.09480285645 27103599.180634499 0 27103599.180634499 15622913.189155579 0 0 0 0 1566808.4678039551 29397447.20464325 0 29397447.20464325 18200327.381572723 0 0 0 0 3716077.325881958 40583860.867940903 0 40583860.867940903 1870963.9964342117 0 0 0 0 17962011.654579163 24545935.178999901 0 24545935.178999901 11583388.973510742 0 0 0 0 -10579.011756440541 32374007.050640155 0 32374007.050640155 13013161.56596756 0 0 0 0 -2752867.5774612427 24266497.850664139 0 24266497.850664139 -512201.51904892921 0 0 0 0 -1897494.150302887 18919046.335002899 0 18919046.335002899 13565125.155097961 0 0 0 0 30662880.677524567 46193000.052000046 0 46193000.052000046 14776199.512199402 0 0 0 0 -4118254.5997835342 16698810.58454442 0 16698810.58454442 13378520.202231221 0 0 0 0 -36545153.775150299 14090884.278324127 0 14090884.278324127 22019860.142784119 0 0 0 0 20810942.832191467 25843573.682262421 0 25843573.682262421 6533227.1650484204 0 0 0 0 3977085.806678772 10630770.527608871 0 10630770.527608871 -1744841.4618988037 0 0 0 0 21459769.569892883 51879851.218425751 0 51879851.218425751 20293566.647525787 0 0 0 0 35526190.638051033 38445777.966821671 0 38445777.966821671 32975242.312149048 0 0 0 0 81068880.554702759 103818122.98707199 0 103818122.98707199 90775648.183086395 0 0 0 0 -73392056.054656982 -21992327.700490952 0 -21992327.700490952 53998570.05430603 0 0 0 0 -1548495.8823165894 26665165.413005829 0 26665165.413005829 18310213.186107635 0 0 0 0 -2929356.0654871576 17494706.799233004 0 17494706.799233004 18764159.426775746 0 0 0 0 135059086.35952377 -52448500.179345131 0 -52448500.179345131 -9151941.8220062256 0 0 0 0 29716612.834121704 24867781.481437683 0 24867781.481437683 36070878.200530529 0 0 0 0 3193241.6624931544 10029580.263074733 0 10029580.263074733 3645640.7037936449 0 0 0 0 -12565198.829666138 123204760.59662247 0 123204760.59662247 90641958.426986694 0 0 0 0 105555731.02974701 45163958.755067825 0 45163958.755067825 -13276507.092145383 0 0 0 0 -1881722.4622776695 20877610.699234404 0 20877610.699234404 23916447.563226156 0 0 0 0 6481819.2107878327 8674798.84120702 0 8674798.84120702 13781554.884298578 0 0 0 0 28809809.542350292 30017489.518268585 0 30017489.518268585 72772863.328842163 0 0 0 0 36378824.602485657 73664760.440307617 0 73664760.440307617 120431890.4605217 0 0 0 0 2166084.7733273953 2650719.5883332789 0 2650719.5883332789 3917737.7845407128 0 0 0 0 6704443.3382263184 27653638.4504776 0 27653638.4504776 67345857.603325367 0 0 0 0 43631024.043266296 62438735.96471405 0 62438735.96471405 72465000.612640858 0 0 0 0 31514806.760000229 25828179.508185863 0 25828179.508185863 60768371.036300659 0 0 0 0 16474587.426925659 41971945.65978241 0 41971945.65978241 48315105.95255661 0 0 0 0 14538400.232574463 81832617.804327011 0 81832617.804327011 99368184.523296356 0 0 0 0 42159868.804899216 85179642.819477081 0 85179642.819477081 101341890.60767365 0 0 0 0 30962783.848820686 70569383.202563286 0 70569383.202563286 100427352.5116272 0 0 0 0 52124371.793907166 47662913.559398651 0 47662913.559398651 43646715.298965454 0 0 0 0 19618754.195983887 47588984.640842438 0 47588984.640842438 44003361.307596207 0 0 0 0 56957331.740699768 88662968.880599141 0 88662968.880599141 53014676.172271729 0 0 0 0 12203991.69254303 75385382.887283325 0 75385382.887283325 50732428.094098091 0 0 0 0 7314101.2263679504 58881993.668078423 0 58881993.668078423 51570110.029319763 0 0 0 0 1566407.5945129395 65840675.227708817 0 65840675.227708817 43530663.753200531 0 0 0 0 1841386.3352336884 42522770.924731255 0 42522770.924731255 26307901.763122559 0 0 0 0 36589708.041332245 60879615.853374481 0 60879615.853374481 31649616.338493347 0 0 0 0 12651076.716598511 113527477.42173386 0 113527477.42173386 75611077.175930023 0 0 0 0 -27723822.981651306 103567139.97742081 0 103567139.97742081 78743856.227371216 0 0 0 0 33109987.095062256 141807663.15521622 0 141807663.15521622 90754549.920069695 0 0 0 0 -11023327.100753784 83751696.648395538 0 83751696.648395538 66163066.971448898 0 0 0 0 1642050.1114549041 89325829.468360946 0 89325829.468360946 66169520.047279358 0 0 0 0 18814736.278846741 93155151.401195526 0 93155151.401195526 57397049.753831387 0 0 0 0 -2664264.8221359253 95785178.996173859 0 95785178.996173859 57116517.647644043 0 0 0 0 35334615.403488159 130085431.35572815 0 130085431.35572815 62081499.548381805 0 0 0 0 24612665.12405777 101639135.69560242 0 101639135.69560242 78582656.914794922 0 0 0 0 21024996.384086609 91497762.410327911 0 91497762.410327911 6166777.5149269104 0 0 0 0 41587248.526374817 95164033.104751587 0 95164033.104751587 -6131840.3824768066 0 0 0 0 20833726.599555969 43410228.525234222 0 43410228.525234222 -15815155.381607056 0 0 0 0 14253304.610801697 76050465.84793663 0 76050465.84793663 33238394.774536133 0 0 0 0 17447109.377616882 28278124.659337997 0 28278124.659337997 20155415.509552002 0 0 0 0 21635541.498771667 56702942.957500458 0 56702942.957500458 49328071.330730438 0 0 0 0 24328241.338368416 52426586.496432781 0 52426586.496432781 -1792502.8131484985 0 0 0 0 21088245.406082153 25439357.32831955 0 25439357.32831955 2169580.6955947876 0 0 0 0 81234984.662769318 -43268582.565762281 0 -43268582.565762281 16026681.604579926 0 0 0 0 -88802713.391952515 -111741166.35510731 0 -111741166.35510731 -94385448.57998085 0 0 0 0 14554601.379455566 -3937058.8037557602 0 -3937058.8037557602 12235395.211783409 0 0 0 0 -212090746.32940674 68847607.369420052 0 68847607.369420052 32154832.896167576 0 0 0 0 78904420.161209106 -21305183.732462883 0 -21305183.732462883 24949743.657709122 0 0 0 0 -53435187.303520203 99655504.603775203 0 99655504.603775203 -140897822.35924435 0 0 0 0 -105140538.15190125 15848947.30425787 0 15848947.30425787 309997353.50235415 0 0 0 0 21212524.310717687 30330420.642658949 0 30330420.642658949 -449898.50045519229 0 0 0 0 26614815.665496826 31647643.075637817 0 31647643.075637817 9026947.6379623413 0 0 0 0 22113575.130578145 30792362.526717212 0 30792362.526717212 -2928183.9485455751 0 0 0 0 2497760.9390258789 202866068.40434217 0 202866068.40434217 15272596.388942719 0 0 0 0 41969325.626579285 30208395.402927399 0 30208395.402927399 14177587.603755951 0 0 0 0 -61591855.063720703 56153896.376053333 0 56153896.376053333 244874138.77061018 0 0 0 0 76869189.781860352 111759845.17656088 0 111759845.17656088 -47502479.453918457 0 0 0 0 11123421.779067993 87424714.489898682 0 87424714.489898682 -47121657.277646303 0 0 0 0 81564121.950576782 162732267.08891106 0 162732267.08891106 -288559578.72151089 0 0 0 0 -36148802.263763428 108095827.48698139 0 108095827.48698139 -19859283.015298367 0 0 0 0 16573191.300552368 180064156.40460634 0 180064156.40460634 -253402426.33509445 0 0 0 0 -109677995.21385193 232810563.18844652 0 232810563.18844652 -250909541.61886692 0 0 0 0 123518432.25592995 227220769.13767344 0 227220769.13767344 -656308134.17074776 0 0 0 0 118477560.9137392 186503505.53777581 0 186503505.53777581 -548638635.75798607 0 0 0 0 -40572700.096435547 352340690.57581997 0 352340690.57581997 -625014897.7430563 0 0 0 0 118657564.77241516 62701267.209410667 0 62701267.209410667 -327313767.35380149 0 0 0 0 120778826.42945862 32177870.64963913 0 32177870.64963913 -474888594.66107941 0 0 0 0 298037427.06144714 106489517.64861679 0 106489517.64861679 -660917967.66626108 0 0 0 0 181590480.18431091 -132897768.5304637 0 -132897768.5304637 -603035251.56702042 0 0 0 0 480548200.85482025 -185370742.41417837 0 -185370742.41417837 -1057407740.5869122 0 0 0 0 350363144.63671875 -59455179.405979156 0 -59455179.405979156 -716171852.25546646 0 0 0 0 332487696.45597839 11706464.6952281 0 11706464.6952281 -957727748.07256126 0 0 0 0 586355208.11573792 -57580833.669875145 0 -57580833.669875145 -949632270.41341388 0 0 0 0 344891892.78747559 131820259.04713535 0 131820259.04713535 -996564814.26979685 0 0 0 0 225543701.84217834 287760974.36164665 0 287760974.36164665 -1071282777.9829121 0 0 0 0 471822914.74368286 128948878.32031345 0 128948878.32031345 -1129839349.5664158 0 0 0 0 338151466.85981941 217686696.68749785 0 217686696.68749785 -1547843152.1677341 0 0 0 0 -948272537.30155945 327414822.83772993 0 327414822.83772993 -145653927.45300865 0 0 0 0 197087975.1539917 495548039.47969627 0 495548039.47969627 -1963634018.6756964 0 0 0 0 -446855575.25265503 968036500.36456776 0 968036500.36456776 -1443924541.1115355 0 0 0 0 -298093199.00848389 653386863.54499388 0 653386863.54499388 -813973268.26731682 0 0 0 0 -113066737.41587067 -128608980.15625954 0 -128608980.15625954 13257037.929121971 0 0 0 0 -108678215.98403931 1442085978.6410065 0 1442085978.6410065 644152753.54593873 0 0 0 0 -127975282.34014893 -38216187.984666348 0 -38216187.984666348 -260132296.61281586 0 0 0 0 -71674877.392990112 48102907.193017244 0 48102907.193017244 -128980221.44527245 0 0 0 0 -482430502.80116272 78649977.479932785 0 78649977.479932785 -112686296.52237225 0 0 0 0 -205682812.00515747 394688412.26983356 0 394688412.26983356 -499034341.52271175 0 0 0 0 -30358648.988948822 313363938.13150418 0 313363938.13150418 -597373109.05414963 0 0 0 0 121997595.40673065 88752345.149034977 0 88752345.149034977 17246371.152852058 0 0 0 0 66877213.274978638 50236568.811346054 0 50236568.811346054 -3090210.7003498077 0 0 0 0 56326029.274780273 -68082186.684036255 0 -68082186.684036255 -150433204.48151302 0 0 0 0 220265680.70819092 36864061.237532616 0 36864061.237532616 -96489087.020780325 0 0 0 0 153095486.5109787 249812224.79874516 0 249812224.79874516 256755286.71203995 0 0 0 0 -5697573.1644823998 7404043.1648627389 0 7404043.1648627389 -1044191.9048406937 0 0 0 0 373559701.04934692 140889543.42531347 0 140889543.42531347 -162560503.054335 0 0 0 0 45039988.397140503 66265423.758664131 0 66265423.758664131 25746676.66119051 0 0 0 0 -8130922.3511519432 12030534.171362303 0 12030534.171362303 -217885.12516125641 0 0 0 0 50844394.059705734 56353827.804012299 0 56353827.804012299 25081646.103812218 0 0 0 0 -110394711.60318756 135613276.21016121 0 135613276.21016121 -97519748.800195053 0 0 0 0 449902019.97879028 418005371.68723726 0 418005371.68723726 346450552.43834066 0 0 0 0 546759395.42113495 356881196.35003835 0 356881196.35003835 268769379.34350049 0 0 0 0 554857167.00189209 399791390.83672971 0 399791390.83672971 243571453.51668465 0 0 0 0 110638.93190412223 3516707.778504774 0 3516707.778504774 1152817.7142893868 0 0 0 0 121991789.17169189 -75314712.05188036 0 -75314712.05188036 -326190718.27645671 0 0 0 0 2139725.3113740683 875437.1313314382 0 875437.1313314382 -1713356.5159694282 0 0 0 0 292268599.48622513 246479587.76854029 0 246479587.76854029 -659828905.61517334 0 0 0 0 -177159930.48476028 87684569.760937214 0 87684569.760937214 127350924.80862141 0 0 0 0 13653478.682197159 15555440.520492382 0 15555440.520492382 -6792676.7149791233 0 0 0 0 482032738.80256653 945503058.42581582 0 945503058.42581582 951190475.52249527 0 0 0 0 286139034.56799316 694711209.62326765 0 694711209.62326765 1042140262.5531006 0 0 0 0 21130334.162963867 48683661.429169655 0 48683661.429169655 26068524.671250343 0 0 0 0 9619834.57056427 40056166.888023853 0 40056166.888023853 27340669.562866211 0 0 0 0 31847413.900123596 31626549.255402088 0 31626549.255402088 1055522.1201095581 0 0 0 0 61348385.514129639 55970666.468794823 0 55970666.468794823 15370129.255009174 0 0 0 0 25011462.40568598 33769152.888165019 0 33769152.888165019 -8466626.6351635437 0 0 0 0 66152491.327697754 37387593.993264675 0 37387593.993264675 -2404113.4962024689 0 0 0 0 49366173.846992493 49421402.073185921 0 49421402.073185921 24780747.526550293 0 0 0 0 -267931215.97687531 -138761766.38178825 0 -138761766.38178825 -89939521.383647919 0 0 0 0 461708588.88996506 357005858.11320555 0 357005858.11320555 54110496.020942688 0 0 0 0 1129920749.2221985 807898592.1887989 0 807898592.1887989 120544393.92091942 0 0 0 0 368646602.83691406 55759423.142679214 0 55759423.142679214 -121683698.27233315 0 0 0 0 159168451.72834778 -550973007.88260651 0 -550973007.88260651 -331498161.35782623 0 0 0 0 1518925911.3090057 -43825435.270124435 0 -43825435.270124435 -1038650208.5117121 0 0 0 0 24206066.719070435 91460671.684384823 0 91460671.684384823 -19025420.118898392 0 0 0 0 327030691.4258194 9494098.5996975899 0 9494098.5996975899 -336523803.52331734 0 0 0 0 297742899.11774063 98876568.557348251 0 98876568.557348251 -134870465.04553795 0 0 0 0 13081279.347529434 1454804.3241714574 0 1454804.3241714574 -16863396.73030889 0 0 0 0 30240734.186698914 106143232.70530021 0 106143232.70530021 -364975277.9788723 0 0 0 0 43991262.974529266 45568008.941823959 0 45568008.941823959 -128078452.22437954 0 0 0 0 31424614.956782036 30341641.356105544 0 30341641.356105544 -10364821.43494077 0 0 0 0 15603261.430099413 32855842.253455445 0 32855842.253455445 14411833.325379569 0 0 0 0 12935744.469161987 35124066.498739243 0 35124066.498739243 -29432076.186237991 0 0 0 0 22316911.937782004 41284736.33813636 0 41284736.33813636 2260481.3087466373 0 0 0 0 -6813898.2427520752 49298255.385734558 0 49298255.385734558 -15733909.228854418 0 0 0 0 55936123.934768677 35317617.446850777 0 35317617.446850777 48167768.759888172 0 0 0 0 57384860.333997577 43171458.271514133 0 43171458.271514133 -29707212.383501187 0 0 0 0 85770043.85030365 33704042.053643227 0 33704042.053643227 15081236.095305443 0 0 0 0 69962040.326522827 50652888.336506844 0 50652888.336506844 -3084841.6616473198 0 0 0 0 74321982.243057251 -70102553.914929867 0 -70102553.914929867 -77135149.555385113 0 0 0 0 81595587.537136078 -5083727.0741502643 0 -5083727.0741502643 15479487.069639206 0 0 0 0 21565106.611141875 31680395.156007014 0 31680395.156007014 910994.79370925715 0 0 0 0 9694684.6850585938 35218867.207988739 0 35218867.207988739 4125165.0877811909 0 0 0 0 15888313.696350098 -40111460.27230835 0 -40111460.27230835 150334263.08302891 0 0 0 0 4499847.0446395874 23824464.617523193 0 23824464.617523193 -10928576.744308472 0 0 0 0 16716972.195022583 53310181.542003632 0 53310181.542003632 -29348406.940729141 0 0 0 0 -189394.15328216553 67527037.02961731 0 67527037.02961731 -38774092.507987976 0 0 0 0 13833826.087539673 54913713.334917068 0 54913713.334917068 -42610323.99445343 0 0 0 0 -11217137.303993225 55333574.545574188 0 55333574.545574188 -35919498.907978058 0 0 0 0 15127988.922271729 41726278.603347778 0 41726278.603347778 -77974637.941192627 0 0 0 0 -16425189.723510742 74769222.403240204 0 74769222.403240204 -53096598.254249573 0 0 0 0 2189270.0110714436 502078.38538967818 0 502078.38538967818 -298221.03935243934 0 0 0 0 33311056.33782196 99984177.658916473 0 99984177.658916473 -14678836.56476593 0 0 0 0 19175673.087169394 25918649.724890329 0 25918649.724890329 1178528.3161175549 0 0 0 0 -34610328.663604736 28156104.948833466 0 28156104.948833466 -39523152.183631897 0 0 0 0 -94161840.520462036 41334375.083084106 0 41334375.083084106 -4039077.5731201172 0 0 0 0 29905228.32434082 87410276.22385025 0 87410276.22385025 -96230308.98840332 0 0 0 0 24131427.288330078 83242462.127502441 0 83242462.127502441 -1188891.7280578613 0 0 0 0 76843382.555526733 125179770.56285858 0 125179770.56285858 -26767597.458831787 0 0 0 0 -23940426.979377747 42502055.949478149 0 42502055.949478149 74970716.664703369 0 0 0 0 58574930.36674881 48269275.771899223 0 48269275.771899223 -3882795.4476699829 0 0 0 0 -6435491.9708058834 1041055.4511548989 0 1041055.4511548989 4915332.898474738 0 0 0 0 83072897.25169754 -3708241.6142120361 0 -3708241.6142120361 26479313.058040619 0 0 0 0 -8563610.4824040905 20871052.649317674 0 20871052.649317674 9744282.9232094064 0 0 0 0 -33583943.245386124 -15088734.473604679 0 -15088734.473604679 23834937.112838745 0 0 0 0 52418344.60055542 36186788.701019287 0 36186788.701019287 -50226224.210014343 0 0 0 0 53309472.2687397 95337165.666941643 0 95337165.666941643 -18292240.458267212 0 0 0 0 40040262.280910492 144900468.80445385 0 144900468.80445385 24862672.07006073 0 0 0 0 91666313.267524719 111278588.14765549 0 111278588.14765549 36075963.888122559 0 0 0 0 91838125.637359619 111945317.06033707 0 111945317.06033707 32981183.956388474 0 0 0 0 45801903.437543869 69786532.268951416 0 69786532.268951416 23713953.513267517 0 0 0 0 -33887385.140396118 87325841.37991333 0 87325841.37991333 122630375.85317993 0 0 0 0 -38453786.354766846 155513187.95585632 0 155513187.95585632 89126997.742576599 0 0 0 0 5449855.491179619 2123655.1479341686 0 2123655.1479341686 944832.28752790391 0 0 0 0 -37043738.194664001 140916739.59922028 0 140916739.59922028 193436009.46965027 0 0 0 0 -12515675.537220728 19998872.907318205 0 19998872.907318205 12721229.84819442 0 0 0 0 -34148442.073482513 86277304.675233841 0 86277304.675233841 170776456.12496948 0 0 0 0 120117908.00100708 -52177764.893661499 0 -52177764.893661499 443735460.10620117 0 0 0 0 -49987169.372959137 43222522.124443054 0 43222522.124443054 91759428.927223206 0 0 0 0 382734895.36031151 103859222.2180748 0 103859222.2180748 -210758681.29936218 0 0 0 0 80716630.694648027 -44084987.267846942 0 -44084987.267846942 79767227.446136475 0 0 0 0 24252193.937627792 38866420.64066124 0 38866420.64066124 14868413.635978699 0 0 0 0 11690784.390949249 17939469.240888596 0 17939469.240888596 -19336293.36252594 0 0 0 0 33924854.827900887 42902137.097272873 0 42902137.097272873 -3737138.8023910522 0 0 0 0 33207689.592506409 45612568.952278137 0 45612568.952278137 -13747717.055966377 0 0 0 0 30514770.004047394 46934148.458379745 0 46934148.458379745 -5193053.7547912598 0 0 0 0 20725130.59841175 11477525.157599676 0 11477525.157599676 1935179.2851763815 0 0 0 0 125454396.03097343 23277822.581443787 0 23277822.581443787 -40221792.477165222 0 0 0 0 26410777.979413986 56565431.048743248 0 56565431.048743248 85328075.873596191 0 0 0 0 -30235523.544342041 66581484.055030823 0 66581484.055030823 -39040405.726303101 0 0 0 0 24993812.344108626 24055509.11199557 0 24055509.11199557 -6774216.7478254735 0 0 0 0 -24354391.345588684 72655016.447160721 0 72655016.447160721 -35629856.567207336 0 0 0 0 23182409.023651123 68327135.643008232 0 68327135.643008232 -64639574.87109375 0 0 0 0 1848191.6145947129 3104011.1442525759 0 3104011.1442525759 -1790671.1665984765 0 0 0 0 21291808.292097092 70992098.051929474 0 70992098.051929474 64939765.090454102 0 0 0 0 30263048.498390198 45720242.369251251 0 45720242.369251251 -1828750.8420181274 0 0 0 0 16722840.274481148 13347119.509616975 0 13347119.509616975 12911725.566292696 0 0 0 0 51494433.409378052 29096490.119447708 0 29096490.119447708 -56169596.198987961 0 0 0 0 40723105.329385757 48191528.36961937 0 48191528.36961937 -6598534.9807167053 0 0 0 0 2200754.0043487549 104557624.76441383 0 104557624.76441383 166633760.48196793 0 0 0 0 71337583.649181366 13858784.251663208 0 13858784.251663208 24184986.869316101 0 0 0 0 7940113.1204289719 4601254.4501484111 0 4601254.4501484111 6552778.1347604804 0 0 0 0 2415309.1149024963 10165380.613752365 0 10165380.613752365 -10731672.684509277 0 0 0 0 65573934.17130661 18358110.850391388 0 18358110.850391388 -11706991.220096588 0 0 0 0 69266082.162914276 14312883.539331436 0 14312883.539331436 -9311457.781791687 0 0 0 0 -37190.422750331461 155901.70259419829 0 155901.70259419829 204185.01017643511 0 0 0 0 92041376.561759949 52803546.504489899 0 52803546.504489899 35799451.560697556 0 0 0 0 104889423.21763992 103821665.43638802 0 103821665.43638802 30989620.279827118 0 0 0 0 74161045.294298172 26955272.523727417 0 26955272.523727417 -11453449.442092896 0 0 0 0 140973756.17613983 40619637.768753052 0 40619637.768753052 -12379662.363227844 0 0 0 0 49362861.477878571 24337243.51940918 0 24337243.51940918 6072407.8601894379 0 0 0 0 67503375.125893593 8216619.3888373375 0 8216619.3888373375 -3108146.8605041504 0 0 0 0 78462922.303588867 18268713.147373199 0 18268713.147373199 6050102.324669838 0 0 0 0 79049506.06586647 -3310213.9705753326 0 -3310213.9705753326 -36014777.460014343 0 0 0 0 56947230.592639923 14027768.5730896 0 14027768.5730896 -3821853.4310035706 0 0 0 0 34555093.388408661 88551807.143287659 0 88551807.143287659 4872098.5382270813 0 0 0 0 225794587.73955154 24008967.358341217 0 24008967.358341217 -58339865.21916008 0 0 0 0 204411788.60817528 158447515.99677992 0 158447515.99677992 33278643.73425293 0 0 0 0 251398801.85210609 -119689120.86239576 0 -119689120.86239576 -105667649.92075348 0 0 0 0 307974953.82334518 136946379.54558182 0 136946379.54558182 111452075.95300293 0 0 0 0 2501648.7140219137 1352681.5895083919 0 1352681.5895083919 1893773.8564462066 0 0 0 0 86381170.123153687 -51268709.574331284 0 -51268709.574331284 -97931294.383750916 0 0 0 0 81603004.092178345 266235428.9069519 0 266235428.9069519 412015621.61088562 0 0 0 0 4621001.9462890625 74620195.705886841 0 74620195.705886841 294572947.17416 0 0 0 0 94529643.657577515 141214792.75454712 0 141214792.75454712 28711324.930603027 0 0 0 0 -13499091.142219543 40053259.129985809 0 40053259.129985809 -14866752.686944962 0 0 0 0 -14133408.687930107 -188279870.4211998 0 -188279870.4211998 23642555.281211853 0 0 0 0 5876520.1548071802 9097625.5073880479 0 9097625.5073880479 15440743.532842204 0 0 0 0 -89233958.362258911 19512762.415393829 0 19512762.415393829 44549731.240386963 0 0 0 0 5189871.6912043579 10246676.994703583 0 10246676.994703583 10708358.153773382 0 0 0 0 30675107.524085999 -43870484.058013916 0 -43870484.058013916 32155210.239131927 0 0 0 0 33189836.96056129 34504157.942426123 0 34504157.942426123 -14401922.675269872 0 0 0 0 35028883.813735962 60857319.3130849 0 60857319.3130849 55079828.337426901 0 0 0 0 28253673.367015839 24992999.020114899 0 24992999.020114899 50340655.671115875 0 0 0 0 -12668672.649345398 36274514.231807709 0 36274514.231807709 -326186860.88308716 0 0 0 0 11951185.680493318 25254575.135392725 0 25254575.135392725 44462873.821607456 0 0 0 0 60121259.844802856 80304069.662507296 0 80304069.662507296 -1894160.3944911957 0 0 0 0 24815965.118549347 79020849.955386639 0 79020849.955386639 61809521.985769272 0 0 0 0 15111161.318868637 65360259.349788785 0 65360259.349788785 54796035.015444756 0 0 0 0 11315816.718994141 76261238.562900543 0 76261238.562900543 91991707.072911978 0 0 0 0 22911326.110931396 89990996.906170845 0 89990996.906170845 43880550.463825226 0 0 0 0 21968742.616966248 93839907.799290776 0 93839907.799290776 48753465.186283112 0 0 0 0 14054955.569404602 108962789.19264507 0 108962789.19264507 88545479.551892281 0 0 0 0 22413906.772872925 129701465.31942654 0 129701465.31942654 44527119.848877907 0 0 0 0 36320075.406740949 48399885.932476707 0 48399885.932476707 15961541.666783864 0 0 0 0 47774915.734870911 87775267.028791904 0 87775267.028791904 -32009316.359299898 0 0 0 0 35357307.961853027 98590882.189082146 0 98590882.189082146 28563469.713322639 0 0 0 0 101387129.48276711 105199424.19099617 0 105199424.19099617 -121843273.70610428 0 0 0 0 26724127.519821167 93895536.629517555 0 93895536.629517555 43426437.913119495 0 0 0 0 27025785.125411987 97669255.10381794 0 97669255.10381794 46916708.012392998 0 0 0 0 549072.27333766222 2100174.28130766 0 2100174.28130766 5194850.2594118342 0 0 0 0 49986727.872421265 147293309.92531109 0 147293309.92531109 -15334885.194427967 0 0 0 0 12408336.218078613 160260390.57632089 0 160260390.57632089 77581479.664270401 0 0 0 0 38118163.864326112 45453626.839274213 0 45453626.839274213 9524567.9259549901 0 0 0 0 85821279.101837158 41460865.187691212 0 41460865.187691212 -174825715.82105047 0 0 0 0 117322089.10834503 81085012.924696922 0 81085012.924696922 -210717872.79180384 0 0 0 0 55796007.666965485 64837810.18711853 0 64837810.18711853 -22772773.579189301 0 0 0 0 -54168807.529136658 167797361.10989809 0 167797361.10989809 476805792.73305511 0 0 0 0 80972672.164199829 337567000.9815197 0 337567000.9815197 108061799.69220066 0 0 0 0 148752395.95294189 275557440.94736099 0 275557440.94736099 119497664.52598405 0 0 0 0 136060438.15512085 204172682.84805775 0 204172682.84805775 441825722.90380096 0 0 0 0 13234856.746963501 110989708.82157421 0 110989708.82157421 119394382.73690414 0 0 0 0 30267264.210418701 99015006.117411613 0 99015006.117411613 114025419.43095207 0 0 0 0 14895689.056703359 7983390.608919315 0 7983390.608919315 182016.81625200482 0 0 0 0 -1360102.6956939697 100323949.51285553 0 100323949.51285553 163249133.89083862 0 0 0 0 -18785689.935901642 24365900.475147724 0 24365900.475147724 182026867.25302887 0 0 0 0 141580254.18404388 -192551064.74634123 0 -192551064.74634123 421090164.46911764 0 0 0 0 5665587.5289150178 2598630.7238449249 0 2598630.7238449249 164705.51641242113 0 0 0 0 868136101.77539825 77607823.472006083 0 77607823.472006083 -621229422.91337895 0 0 0 0 -134079878.50161743 179472418.55717278 0 179472418.55717278 1164776988.0197768 0 0 0 0 352868895.12258911 -85674130.814619064 0 -85674130.814619064 -48970733.111268222 0 0 0 0 -209683687.43460846 -72376774.317242354 0 -72376774.317242354 130560352.55438277 0 0 0 0 -100079507.73102474 243166297.8912712 0 243166297.8912712 -387285870.14263833 0 0 0 0 -37522248.029182434 4456892.9639433622 0 4456892.9639433622 -115410085.75012362 0 0 0 0 22072298.737989157 12825521.108512638 0 12825521.108512638 -1322054.5991713051 0 0 0 0 35457262.584518433 99804368.084266633 0 99804368.084266633 -344575401.23470044 0 0 0 0 18656659.11964035 46289625.615564823 0 46289625.615564823 30259289.934194565 0 0 0 0 15077879.793380737 78744360.88530302 0 78744360.88530302 65139927.199678421 0 0 0 0 6114425.2133865356 23183665.106953144 0 23183665.106953144 67904460.255204201 0 0 0 0 5902367.4012298584 21380948.880615711 0 21380948.880615711 157217856.76853752 0 0 0 0 18392784.596153259 78278205.915768266 0 78278205.915768266 -35491697.064556479 0 0 0 0 66524937.583007812 39592411.576494694 0 39592411.576494694 -9040936.8980238438 0 0 0 0 2499534.8320007324 41639707.401056647 0 41639707.401056647 -23127973.636464 0 0 0 0 65653240.90083313 132167338.1247797 0 132167338.1247797 56014553.470946789 0 0 0 0 14736624.881036758 142370674.35928828 0 142370674.35928828 1574439.6006231308 0 0 0 0 -76989068.4637146 101752124.00622118 0 101752124.00622118 -130234319.64109278 0 0 0 0 69659260.868331909 63229439.650061131 0 63229439.650061131 -137840335.24211454 0 0 0 0 -66474071.598632812 -67326537.564831913 0 -67326537.564831913 -91258720.927216291 0 0 0 0 -29023414.664970398 12751255.775235295 0 12751255.775235295 -109520750.08142209 0 0 0 0 -32594387.72744751 -132395652.59630108 0 -132395652.59630108 33014648.195277095 0 0 0 0 136325575.32711792 -132959507.09029984 0 -132959507.09029984 -183249988.12176466 0 0 0 0 30204096.980392456 16790152.854282379 0 16790152.854282379 -331802017.72654867 0 0 0 0 23894608.626916409 -57358534.946040191 0 -57358534.946040191 -95058723.110301495 0 0 0 0 -46095041.062759399 86371053.825161934 0 86371053.825161934 -42313739.608643055 0 0 0 0 -158724188.4203949 98751480.231203079 0 98751480.231203079 -191894235.10549426 0 0 0 0 32154078.298086166 -11785687.733308837 0 -11785687.733308837 -106042732.31500053 0 0 0 0 39084630.365615845 -6547000.0325984955 0 -6547000.0325984955 -193491874.63383484 0 0 0 0 36088792.034141541 43581742.697164297 0 43581742.697164297 -22798082.333120823 0 0 0 0 98755991.230361938 68740902.684429169 0 68740902.684429169 -61158544.743709564 0 0 0 0 22775022.60433197 182138137.69659281 0 182138137.69659281 175546294.48373318 0 0 0 0 57598816.407333374 166547428.59149075 0 166547428.59149075 -168250597.92595387 0 0 0 0 118987174.80566406 353390777.51713133 0 353390777.51713133 48916347.461204052 0 0 0 0 -389097377.01411819 321560545.54534936 0 321560545.54534936 -106807617.72179508 0 0 0 0 -315188592.19268799 389058403.41156769 0 389058403.41156769 -162185215.32830501 0 0 0 0 -45845203.515335083 88403746.826058388 0 88403746.826058388 -286743279.69095516 0 0 0 0 -169002612.84515381 152739277.67707682 0 152739277.67707682 179589916.87155819 0 0 0 0 2969851.5710364729 1631572.6717572361 0 1631572.6717572361 -9782960.5301626697 0 0 0 0 -252082588.77194977 528909996.917629 0 528909996.917629 -304928024.56873608 0 0 0 0 64853592.638513565 132256236.355286 0 132256236.355286 -665765821.63128948 0 0 0 0 -285448549.5667572 568140992.76857853 0 568140992.76857853 18901411.70971489 0 0 0 0 32678572.78742981 317468130.8975296 0 317468130.8975296 -1045558996.4170284 0 0 0 0 -122427787.33267212 141595406.38716412 0 141595406.38716412 1130503727.3503265 0 0 0 0 -1064336.3376413137 837085.35385910235 0 837085.35385910235 -463883.13463556394 0 0 0 0 -43397638.742996216 353381157.17591763 0 353381157.17591763 -2262154583.7781706 0 0 0 0 -30861344.649745941 298525179.00801229 0 298525179.00801229 543044366.54579926 0 0 0 0 436282.3836555779 3356151.2050695457 0 3356151.2050695457 -2059682.0584498642 0 0 0 0 -5834225.901545912 2336529.9636076866 0 2336529.9636076866 977503.46152020013 0 0 0 0 -673524.83738708496 57430.642623901367 0 57430.642623901367 4639475.623516798 0 0 0 0 75344731.670166016 55940799.007199049 0 55940799.007199049 217693845.45171928 0 0 0 0 72564711.280344009 151922847.62834471 0 151922847.62834471 129461142.76065874 0 0 0 0 68169392.989151001 171596393.16317511 0 171596393.16317511 202403251.55974388 0 0 0 0 -10211637.376603246 7495108.1630456829 0 7495108.1630456829 -1985695.1465572002 0 0 0 0 75350748.034337997 163758334.49795675 0 163758334.49795675 129306061.26764011 0 0 0 0 52348019.684524536 75589304.356931686 0 75589304.356931686 135383529.94310188 0 0 0 0 88972502.002394676 160185899.59932646 0 160185899.59932646 207888225.95167446 0 0 0 0 -3222943.8475189209 6990316.574742794 0 6990316.574742794 3004262.7853217125 0 0 0 0 -5792908.560049057 7121809.0946012735 0 7121809.0946012735 4548555.7876634598 0 0 0 0 1592674.9983819425 5684036.4263600521 0 5684036.4263600521 -1166368.5361947212 0 0 0 0 -42687826.97868824 259070956.21502852 0 259070956.21502852 -744127795.07847023 0 0 0 0 -36858763.338813782 182816806.31305456 0 182816806.31305456 -598052477.42444611 0 0 0 0 -82112857.79236412 164695127.86454046 0 164695127.86454046 -613740984.75845432 0 0 0 0 -67944006.240585327 169623867.61190605 0 169623867.61190605 -612028059.35636806 0 0 0 0 -61179369.617240906 274400586.16407108 0 274400586.16407108 -710687257.91598034 0 0 0 0 -57487889.011493683 236557275.44864368 0 236557275.44864368 -448312252.83594131 0 0 0 0 131644227.30992889 281305167.96262693 0 281305167.96262693 -600126473.08866501 0 0 0 0 142168745.63108826 184463914.95633698 0 184463914.95633698 -440370831.24224043 0 0 0 0 -246767137.42031097 286731925.74333286 0 286731925.74333286 -207488206.88332462 0 0 0 0 -246440211.1131897 279260931.32664537 0 279260931.32664537 -75733701.716412544 0 0 0 0 60837774.400782585 174680941.94960117 0 174680941.94960117 -54705836.558818817 0 0 0 0 -489640941.75969696 132529738.94977951 0 132529738.94977951 -37847839.261796951 0 0 0 0 -511852811.22686386 323978877.28591698 0 323978877.28591698 7230592.2842063904 0 0 0 0 -541054713.86753845 482382897.61369181 0 482382897.61369181 -311222460.59144545 0 0 0 0 -514061591.0670929 415298249.32359648 0 415298249.32359648 -223535211.21867156 0 0 0 0 -542198979.95413888 123833585.70969401 0 123833585.70969401 -760614970.99113941 0 0 0 0 1124413.3523052633 684092.36430500448 0 684092.36430500448 -4407703.6863514911 0 0 0 0 -1255063344.1816521 1164974805.0956249 0 1164974805.0956249 -689006630.73174953 0 0 0 0 193484247.69294739 -229395613.71050334 0 -229395613.71050334 -245496923.06066799 0 0 0 0 -528416769.09500122 441923617.29005718 0 441923617.29005718 -94557049.244550705 0 0 0 0 -59682351.572624207 278122347.62551737 0 278122347.62551737 -644855177.78214264 0 0 0 0 -319458358.58043671 835460115.64109421 0 835460115.64109421 -509634389.2732811 0 0 0 0 -1798752047.9190865 1011107348.6781833 0 1011107348.6781833 -342554534.59459484 0 0 0 0 -852577311.11322021 690714017.49206018 0 690714017.49206018 -663643077.97481942 0 0 0 0 2032135795.3176422 149262948.40152332 0 149262948.40152332 -810239613.41223407 0 0 0 0 559016.9996355027 4301833.7078222409 0 4301833.7078222409 -5620445.0308424076 0 0 0 0 1300760.7707335514 10331881.277859479 0 10331881.277859479 -10707388.028105626 0 0 0 0 -83676844.727851868 193243797.34235668 0 193243797.34235668 -517985602.00412655 0 0 0 0 -1115067322.4447517 421562941.72672653 0 421562941.72672653 93997375.601212502 0 0 0 0 -564480952.38977194 54660056.63700664 0 54660056.63700664 128029005.09832573 0 0 0 0 9107529.8342285156 862570490.07621562 0 862570490.07621562 53371009.414959222 0 0 0 0 1602900119.5216639 258392327.00014406 0 258392327.00014406 -693653901.77916002 0 0 0 0 -11390325.38494873 886487323.69499016 0 886487323.69499016 26769375.775184631 0 0 0 0 788063.57022397616 13124701.936329424 0 13124701.936329424 -5480599.5416302606 0 0 0 0 245260523.0814743 55992394.788252831 0 55992394.788252831 3809137.0087814331 0 0 0 0 78912496.808189392 34022429.969377995 0 34022429.969377995 -113479156.32435036 0 0 0 0 -13928635.5131073 -34813591.157989502 0 -34813591.157989502 -88645498.046877861 0 0 0 0 -252213322.05705261 -38312633.493492126 0 -38312633.493492126 -19646393.220124245 0 0 0 0 3457009.6167684346 3072725.2362401122 0 3072725.2362401122 -2828750.0510096313 0 0 0 0 -1163159546.4043999 737744817.78213525 0 737744817.78213525 -456048749.76856756 0 0 0 0 -30956294.543167114 791853568.32008171 0 791853568.32008171 1481029117.4357738 0 0 0 0 -178666286.30203247 1088891181.4119892 0 1088891181.4119892 21697585.382014453 0 0 0 0 201606758.10126495 1152751927.0126114 0 1152751927.0126114 23317886.614766758 0 0 0 0 -948346573.22090912 -357849683.04383183 0 -357849683.04383183 -934292864.80158043 0 0 0 0 165838497.78628159 1503307995.2521386 0 1503307995.2521386 -1596855283.3087559 0 0 0 0 257231907.14021301 238986868.51563489 0 238986868.51563489 -728436666.62510645 0 0 0 0 254678705.66336823 312992240.72405481 0 312992240.72405481 182415938.98203337 0 0 0 0 798187325.70185089 -387517492.57494819 0 -387517492.57494819 -165220603.31760132 0 0 0 0 -704692506.76615906 187127582.52358127 0 187127582.52358127 -120164586.72793996 0 0 0 0 2849316.7391662598 76331931.939407945 0 76331931.939407945 -229617957.37922025 0 0 0 0 -149285203.07982254 200362759.86228329 0 200362759.86228329 -229884085.40859365 0 0 0 0 -322158066.41693115 252733877.95742095 0 252733877.95742095 -212296138.72989285 0 0 0 0 1651784.1882858276 340552173.54802203 0 340552173.54802203 -361646583.40336275 0 0 0 0 28010683.699455261 329110007.23941529 0 329110007.23941529 -363061445.21693331 0 0 0 0 501980855.77071381 378245487.28028339 0 378245487.28028339 -561146032.17506588 0 0 0 0 325758934.18307495 476143128.24530351 0 476143128.24530351 -580911441.27714038 0 0 0 0 256699404.80184937 143010616.2964415 0 143010616.2964415 -346162341.03737259 0 0 0 0 146865464.40757751 221883903.16177374 0 221883903.16177374 -325008403.25177193 0 0 0 0 322067714.79374695 689800056.4266187 0 689800056.4266187 -979947192.74918079 0 0 0 0 -974721207.80315399 1338645542.4806554 0 1338645542.4806554 -877233943.1779809 0 0 0 0 -711714425.59148407 780583808.04430223 0 780583808.04430223 -627702541.05637252 0 0 0 0 -97751866.139099121 -12514678.755900681 0 -12514678.755900681 -583065788.23579907 0 0 0 0 -575852737.91136169 636514486.66203463 0 636514486.66203463 -384139881.39741421 0 0 0 0 2705049.3783689067 1821735.8305900618 0 1821735.8305900618 -7900743.1031176001 0 0 0 0 -264392391.48728943 564143022.93652701 0 564143022.93652701 -274101035.71479249 0 0 0 0 78955435.798942566 283939549.12928081 0 283939549.12928081 -46499303.475481868 0 0 0 0 894679.95564088225 871876.37678345293 0 871876.37678345293 -2535308.0106548406 0 0 0 0 -1079909103.3178692 1206595940.8335428 0 1206595940.8335428 -391483333.32957518 0 0 0 0 935103682.55124664 -118697975.78103244 0 -118697975.78103244 -300722494.53896654 0 0 0 0 -132889324.97089577 238027171.38224742 0 238027171.38224742 -599900681.39967179 0 0 0 0 -541963121.9225769 213615688.19925082 0 213615688.19925082 -385891256.313586 0 0 0 0 267186148.4023819 124805736.09180731 0 124805736.09180731 -505906434.51719403 0 0 0 0 62821788.353820801 68997959.583450645 0 68997959.583450645 -59974307.829887867 0 0 0 0 171982946.32069397 -79933127.457923055 0 -79933127.457923055 -151596282.07131958 0 0 0 0 299534050.27664948 367878310.07553637 0 367878310.07553637 505589910.71744132 0 0 0 0 250019448.59165955 4581926.1051431894 0 4581926.1051431894 -72903058.52265954 0 0 0 0 155150633.70788568 975594584.10200572 0 975594584.10200572 -699651129.33502662 0 0 0 0 -49207988.21914196 56643489.35612864 0 56643489.35612864 4020365.5852486491 0 0 0 0 128848199.52575684 145139787.51013696 0 145139787.51013696 -805957612.40564573 0 0 0 0 466324217.29525757 535251477.63645488 0 535251477.63645488 -511150250.69166642 0 0 0 0 36399502.106651306 165057446.69347042 0 165057446.69347042 -509393602.10287631 0 0 0 0 -97585033.063278198 195495952.96589196 0 195495952.96589196 -650940548.76660824 0 0 0 0 -139437211.50209808 30447243.616613477 0 30447243.616613477 -1105221994.970156 0 0 0 0 -192414900.44165039 385373548.10582781 0 385373548.10582781 -400982362.54414892 0 0 0 0 117645416.0786438 422770933.99866605 0 422770933.99866605 -819322479.64323783 0 0 0 0 -143902182.39685059 464016137.10608941 0 464016137.10608941 -411467279.10381746 0 0 0 0 169214578.25782394 566138597.49467278 0 566138597.49467278 -390515238.52769899 0 0 0 0 172165037.26755524 278195957.80175292 0 278195957.80175292 -437786723.9859246 0 0 0 0 423263967.59367371 -158974220.09408367 0 -158974220.09408367 36361456.394467473 0 0 0 0 -555495781.24772644 385311057.15117073 0 385311057.15117073 -145413169.83755255 0 0 0 0 -235334404.92411804 218393212.37055159 0 218393212.37055159 -236979702.21498424 0 0 0 0 -347279912.45278168 710317157.98121476 0 710317157.98121476 -969497030.1180172 0 0 0 0 129993274.88312531 383134261.57146585 0 383134261.57146585 -2448335585.0908408 0 0 0 0 -593070599.89138031 1137888129.2581153 0 1137888129.2581153 -1042862647.1518197 0 0 0 0 -2179792.9402637929 2567290.227673782 0 2567290.227673782 -644307.57276981417 0 0 0 0 -486265661.98997307 583938232.40580833 0 583938232.40580833 680209114.79262829 0 0 0 0 -1206437.9163467139 3692269.0163589939 0 3692269.0163589939 -4966579.3182478892 0 0 0 0 -58477150.017751694 1556027671.9939041 0 1556027671.9939041 -446723778.29549456 0 0 0 0 358573229.51970291 -374387118.31717598 0 -374387118.31717598 -978241279.45216751 0 0 0 0 342038684.33227539 -269861985.49595165 0 -269861985.49595165 -1635398845.0497212 0 0 0 0 329932240.71914673 -27423717.259464264 0 -27423717.259464264 -72852232.506694674 0 0 0 0 607428719.82157898 13025437.090386391 0 13025437.090386391 -1041947944.8290892 0 0 0 0 -2255615.6302023679 7408281.1363786757 0 7408281.1363786757 -9839629.9122574367 0 0 0 0 807396683.54866028 801827793.08093691 0 801827793.08093691 -56012651.080808595 0 0 0 0 746159089.88867569 484435215.75438726 0 484435215.75438726 -127409471.19930077 0 0 0 0 185352714.25386047 283223899.79198027 0 283223899.79198027 -89348367.383373618 0 0 0 0 376943856.84699249 26115998.212138802 0 26115998.212138802 -633255006.21138525 0 0 0 0 306815712.13534546 593792569.46431196 0 593792569.46431196 -1174565658.4068823 0 0 0 0 -78590153.61693573 333220207.34383142 0 333220207.34383142 -580295946.87974596 0 0 0 0 298436142.41306114 15028624.720611691 0 15028624.720611691 -359940692.22146988 0 0 0 0 -252101950.74253845 176457151.79749537 0 176457151.79749537 -78761330.960034609 0 0 0 0 -331326160.90589905 260535832.42493808 0 260535832.42493808 -218548692.52764058 0 0 0 0 -209124086.34300232 240216712.03688312 0 240216712.03688312 -217198107.10429329 0 0 0 0 -66780196.61680603 273087627.04933882 0 273087627.04933882 -320192172.15637922 0 0 0 0 -211379965.20244598 399542348.3823663 0 399542348.3823663 -420387446.53848314 0 0 0 0 -381446552.8436203 608177044.59722805 0 608177044.59722805 -544318357.07287145 0 0 0 0 -297726535.70756531 478820134.52292752 0 478820134.52292752 -358000103.15615261 0 0 0 0 -94720264.854454041 687310603.58868027 0 687310603.58868027 -786569894.80496526 0 0 0 0 111492096.2588501 600092073.55187237 0 600092073.55187237 -842823749.59570444 0 0 0 0 -1156486130.4216461 890775045.05873978 0 890775045.05873978 -471260067.29978728 0 0 0 0 -224103830.02135849 1067335674.4718528 0 1067335674.4718528 -1474238609.0654149 0 0 0 0 146587649.50271606 -140380700.43238688 0 -140380700.43238688 -1535261656.8499572 0 0 0 0 -25066804.378601074 167207321.01179445 0 167207321.01179445 -167907367.91385984 0 0 0 0 6849371.3881399482 8434886.0830497704 0 8434886.0830497704 -8194826.2574821506 0 0 0 0 -1706297.953685686 6230735.5688255206 0 6230735.5688255206 -5451070.7242348567 0 0 0 0 -47817584.261222839 296461406.01361179 0 296461406.01361179 166510715.81463146 0 0 0 0 3556594.3731248975 5904894.4219268598 0 5904894.4219268598 -3670174.9191363668 0 0 0 0 146008447.24899292 143301265.93358731 0 143301265.93358731 -618522612.55101633 0 0 0 0 139807284.55450821 721718300.43680274 0 721718300.43680274 -807228760.65679932 0 0 0 0 104152804.71273041 664096541.69969416 0 664096541.69969416 -563935986.40535915 0 0 0 0 291426027.59953308 421981327.48650849 0 421981327.48650849 -611264912.54259515 0 0 0 0 239006296.80896759 755072301.43203402 0 755072301.43203402 -806982401.48957157 0 0 0 0 156310725.13825989 1005330743.6161269 0 1005330743.6161269 -1561290327.2223997 0 0 0 0 -377952501.66022491 391385728.15478349 0 391385728.15478349 -597971333.95338893 0 0 0 0 -310342074.94055176 1047817280.0448394 0 1047817280.0448394 -796703046.84878707 0 0 0 0 83709523.829330444 721549582.12263012 0 721549582.12263012 -372860870.55049849 0 0 0 0 -3598914.1923294067 557339733.864694 0 557339733.864694 -310994794.69421816 0 0 0 0 71939095.544830322 128446999.56581253 0 128446999.56581253 197432575.79284191 0 0 0 0 -46713971.644943237 707081468.73622513 0 707081468.73622513 -130025830.6388607 0 0 0 0 41358581.707431793 280296948.95453298 0 280296948.95453298 85625130.494336128 0 0 0 0 110001660.63650513 588561373.23931956 0 588561373.23931956 391572522.0668323 0 0 0 0 175615207.37860107 68216310.189458251 0 68216310.189458251 705272928.8490777 0 0 0 0 -118190792.06315613 351424880.27361512 0 351424880.27361512 779449331.33772087 0 0 0 0 1567872.8706557751 3813675.0324140275 0 3813675.0324140275 -1190579.2719481855 0 0 0 0 338109379.5005188 219935346.61924458 0 219935346.61924458 617747670.71331882 0 0 0 0 346993501.7631073 687413150.76981652 0 687413150.76981652 886985780.50968313 0 0 0 0 -163060281.60499573 332341446.93067956 0 332341446.93067956 1740537968.0043223 0 0 0 0 418742.52475686371 1074610.9383386152 0 1074610.9383386152 -63198.019317140745 0 0 0 0 387588959.39605713 132744356.06921652 0 132744356.06921652 -555160286.48823822 0 0 0 0 56604876.700076103 158319889.10890409 0 158319889.10890409 628880266.74981213 0 0 0 0 298111164.5721283 462139969.99229753 0 462139969.99229753 5960722.8539922237 0 0 0 0 -109717.5853805542 402496424.54971921 0 402496424.54971921 521580015.23001885 0 0 0 0 -26077324.50617218 175136821.63706112 0 175136821.63706112 -149954647.38874531 0 0 0 0 381713.39264678955 569119977.00984168 0 569119977.00984168 -596580282.25017643 0 0 0 0 -59403480.6118927 316268104.27086973 0 316268104.27086973 -869138773.06091595 0 0 0 0 -376911.64772796631 543393261.3932004 0 543393261.3932004 -1007862410.2716568 0 0 0 0 -100303423.59430695 462604446.95405483 0 462604446.95405483 -1064323141.190094 0 0 0 0 63147855.786180496 544219897.17385912 0 544219897.17385912 -1181239688.7747726 0 0 0 0 -328385693.79345131 874030526.66485143 0 874030526.66485143 -901532521.01789284 0 0 0 0 -325022294.31849289 960224149.91251349 0 960224149.91251349 697851953.14616871 0 0 0 0 420867923.59193993 71711878.33597964 0 71711878.33597964 -1964655417.9762144 0 0 0 0 -1231683.6088721901 3648814.0759588555 0 3648814.0759588555 -4827574.5265958775 0 0 0 0 -312136331.89099884 784977923.35047913 0 784977923.35047913 -1133172040.1492639 0 0 0 0 -957515336.49057007 541818670.83892202 0 541818670.83892202 -326048615.05566311 0 0 0 0 825200855.12554395 200513722.43713644 0 200513722.43713644 -856817347.71885109 0 0 0 0 99920147.758230209 193326613.79640365 0 193326613.79640365 -1247052376.3369923 0 0 0 0 268164530.80249023 -137788709.76791096 0 -137788709.76791096 -605943913.61581612 0 0 0 0 151103031.16168976 143451975.88050747 0 143451975.88050747 -2554298069.3291225 0 0 0 0 -27299942.503311157 649849889.34475565 0 649849889.34475565 -2098868525.778307 0 0 0 0 -706790647.4564209 -203550621.7753768 0 -203550621.7753768 -1614609453.0429404 0 0 0 0 241491.05958557129 264739239.43134069 0 264739239.43134069 -1581859746.2452497 0 0 0 0 -52465677.194717407 577057152.94793892 0 577057152.94793892 -1208230122.6261072 0 0 0 0 -334472967.06280899 285978339.40203381 0 285978339.40203381 -1094597548.6547556 0 0 0 0 17867222.956604004 51502364.06477356 0 51502364.06477356 99308564.369630933 0 0 0 0 19262722.542221069 43477145.86955452 0 43477145.86955452 86098421.377840042 0 0 0 0 -17908152.10798645 50701459.064414024 0 50701459.064414024 85927094.805587351 0 0 0 0 49434192.825027466 39952695.469713211 0 39952695.469713211 73496053.451314926 0 0 0 0 49848294.442256927 45890838.380738258 0 45890838.380738258 115157758.75745392 0 0 0 0 72157127.730155945 15365637.273117065 0 15365637.273117065 102752145.91779709 0 0 0 0 45387190.23948288 28561914.037397385 0 28561914.037397385 102726419.18281174 0 0 0 0 40872181.010406494 24651587.060985565 0 24651587.060985565 102493806.81479073 0 0 0 0 18216109.471227944 21161511.503792331 0 21161511.503792331 102779179.18593597 0 0 0 0 61846966.957305908 25090869.273254395 0 25090869.273254395 102300808.4701004 0 0 0 0 134414882.45809937 38462641.281475067 0 38462641.281475067 -102193005.36089134 0 0 0 0 38394333.894065261 39378448.381424561 0 39378448.381424561 -10544608.243541075 0 0 0 0 39467493.180175781 26585868.287220001 0 26585868.287220001 103698396.81074238 0 0 0 0 102129100.51149368 40022835.893283844 0 40022835.893283844 -68594556.05714798 0 0 0 0 144575357.25181961 -24154368.524684906 0 -24154368.524684906 -40253961.664047241 0 0 0 0 187076111.9021225 21989982.051467896 0 21989982.051467896 -97052384.205814362 0 0 0 0 246572726.08287811 43251492.93870163 0 43251492.93870163 -99559958.925557613 0 0 0 0 225810389.81448174 68362055.419700623 0 68362055.419700623 -43839251.560829163 0 0 0 0 237200583.82986069 74853726.617607117 0 74853726.617607117 -66576426.571472168 0 0 0 0 -55455282.971437931 40891314.62218821 0 40891314.62218821 3492082.796831131 0 0 0 0 158058948.39186859 175714274.20272827 0 175714274.20272827 10130108.741043091 0 0 0 0 80228644.879436493 38274870.300231934 0 38274870.300231934 -73006648.456279755 0 0 0 0 -31558065.959316254 126506922.15377808 0 126506922.15377808 -1218475.5109386444 0 0 0 0 47644338.406822205 48384124.317058563 0 48384124.317058563 99224490.696290672 0 0 0 0 32009730.867225647 24383042.446481705 0 24383042.446481705 104221755.85271454 0 0 0 0 32887251.924806293 40406671.755319797 0 40406671.755319797 -18426310.256815881 0 0 0 0 1324163.5798072815 59018136.568584919 0 59018136.568584919 124702655.93430996 0 0 0 0 -9580170.6444431096 40465209.694140613 0 40465209.694140613 718285.21121203154 0 0 0 0 45837601.206918716 109289440.27960968 0 109289440.27960968 -23563476.261789322 0 0 0 0 7734649.6837387085 63489549.626605988 0 63489549.626605988 -5133254.4398727417 0 0 0 0 7726644.7948725298 41443317.503184602 0 41443317.503184602 -15730557.80110866 0 0 0 0 6097507.3185797855 27918222.156841308 0 27918222.156841308 7551971.8087848295 0 0 0 0 6035135.9312889576 153775557.14723724 0 153775557.14723724 159572563.09065247 0 0 0 0 -3192020.3428993225 40011045.093517303 0 40011045.093517303 90712645.007102966 0 0 0 0 -10609432.179374695 51687894.940271378 0 51687894.940271378 120915562.26481628 0 0 0 0 10590792.452598572 58987332.872104645 0 58987332.872104645 56398853.516056061 0 0 0 0 -70637448.688007355 35734194.480620384 0 35734194.480620384 51855861.21055603 0 0 0 0 -177278468.95393467 169004999.4204886 0 169004999.4204886 57973602.316677094 0 0 0 0 92532676.196712494 96682761.482218742 0 96682761.482218742 60724935.125082016 0 0 0 0 104171942.44702911 164072804.8031168 0 164072804.8031168 -226971369.39101028 0 0 0 0 -9490354.2426147461 112644907.34284878 0 112644907.34284878 -190907350.00721407 0 0 0 0 -95419532.637044907 -48612678.956115723 0 -48612678.956115723 -118859061.99751854 0 0 0 0 -21988522.036560059 80958580.915933609 0 80958580.915933609 -48494964.452551842 0 0 0 0 31999888.230258942 51797671.262531281 0 51797671.262531281 -91290681.499838829 0 0 0 0 18106693.855356216 9012523.2740101814 0 9012523.2740101814 47942640.826124191 0 0 0 0 67591853.947235107 42092510.865315437 0 42092510.865315437 7634067.1879024506 0 0 0 0 13939377.889217377 35766732.334426641 0 35766732.334426641 10241746.521038055 0 0 0 0 60844165.965618134 30902212.36233902 0 30902212.36233902 -29163693.927639008 0 0 0 0 55236275.44203186 26564896.123203278 0 26564896.123203278 15773176.869818211 0 0 0 0 224019075.86843491 188498657.63345242 0 188498657.63345242 101625800.76409364 0 0 0 0 47297480.428005219 23948107.57356596 0 23948107.57356596 66510765.300810575 0 0 0 0 71159199.027935028 12758900.212430477 0 12758900.212430477 26527877.341079712 0 0 0 0 14974458.361897383 10118982.347038206 0 10118982.347038206 6457408.402018901 0 0 0 0 77400915.435440063 12349736.788726807 0 12349736.788726807 10046550.48716259 0 0 0 0 52797117.426473618 19899149.136155128 0 19899149.136155128 33817024.807580948 0 0 0 0 34399232.253274255 43368112.021121614 0 43368112.021121614 21055670.420579944 0 0 0 0 -86382952.359802246 374241550.64608097 0 374241550.64608097 240978509.32103395 0 0 0 0 175924082.79701996 -61885374.778542519 0 -61885374.778542519 -106704351.73074341 0 0 0 0 261281127.61972523 -106429884.04800606 0 -106429884.04800606 -160129631.06884575 0 0 0 0 13019378.038247041 4259705.3701228239 0 4259705.3701228239 -6112888.7023965623 0 0 0 0 -56823228.049657822 75202326.777037859 0 75202326.777037859 -24365904.8045578 0 0 0 0 -77056346.488296509 90940463.947103977 0 90940463.947103977 -14016807.476239204 0 0 0 0 -107607167.40537643 35410575.285486221 0 35410575.285486221 22772189.722425461 0 0 0 0 -33217655.585172653 63643202.683004379 0 63643202.683004379 -3887813.3572921753 0 0 0 0 7187778.3804244995 -29543706.196079254 0 -29543706.196079254 37805061.065321922 0 0 0 0 17350801.167739868 110374493.02791119 0 110374493.02791119 34522278.753446579 0 0 0 0 36076651.339821331 44766045.175473273 0 44766045.175473273 15855677.245724592 0 0 0 0 49544069.740629196 83210580.667585373 0 83210580.667585373 13231355.295385361 0 0 0 0 -36528424.935170293 97543243.681397766 0 97543243.681397766 48680995.804815292 0 0 0 0 213631990.36536598 -125346169.87052345 0 -125346169.87052345 127265040.72899532 0 0 0 0 844590.44365704432 28571401.409610186 0 28571401.409610186 6341246.2801014511 0 0 0 0 -29045930.789531708 114764117.1337328 0 114764117.1337328 67759960.615402222 0 0 0 0 66785268.09736824 57328527.174364567 0 57328527.174364567 -6723940.7900161743 0 0 0 0 80864431.396476746 43102073.074343681 0 43102073.074343681 -35475934.670139313 0 0 0 0 580005782.15670395 -67971196.514168739 0 -67971196.514168739 -223531340.71956587 0 0 0 0 484121334.91331482 568236652.62822533 0 568236652.62822533 -878802176.06941509 0 0 0 0 65089753.447563171 26703522.42386055 0 26703522.42386055 16835008.353494644 0 0 0 0 67261426.846710205 54539327.716163635 0 54539327.716163635 55665882.979265213 0 0 0 0 80141254.104711533 28250739.180805683 0 28250739.180805683 99230546.954212189 0 0 0 0 2423072.0366011113 6700803.6419830369 0 6700803.6419830369 8416952.4849953316 0 0 0 0 71373274.225250244 8551757.7868609428 0 8551757.7868609428 67399509.967945099 0 0 0 0 116938324.93069458 32874269.189044952 0 32874269.189044952 35958138.406177998 0 0 0 0 38522702.438669853 17463398.172727637 0 17463398.172727637 -7663983.7470700834 0 0 0 0 47901136.804161072 48200999.436979294 0 48200999.436979294 41990387.96607399 0 0 0 0 107137019.79152679 34272645.070231438 0 34272645.070231438 -17737944.127529144 0 0 0 0 28308957.419233073 28793473.491876476 0 28793473.491876476 1977883.4933554633 0 0 0 0 15415549.891389847 21118407.735085487 0 21118407.735085487 -10679180.309558868 0 0 0 0 26351513.620997973 35198393.596329406 0 35198393.596329406 -6836492.8796670958 0 0 0 0 19098308.095092773 7386137.3100395203 0 7386137.3100395203 -9209363.3791446686 0 0 0 0 14498865.875764847 17630647.793645382 0 17630647.793645382 -18965108.574911892 0 0 0 0 18652517.816066742 25089946.446356297 0 25089946.446356297 -18861547.318674088 0 0 0 0 21659556.889900208 19691606.86149025 0 19691606.86149025 -28164210.450051308 0 0 0 0 12295003.540588982 9822197.564011788 0 9822197.564011788 -6632172.1755666342 0 0 0 0 30416247.375706896 57844553.247897364 0 57844553.247897364 11736854.06852755 0 0 0 0 18214456.272325516 26780473.001003742 0 26780473.001003742 -12468698.132511139 0 0 0 0 -80235966.14543438 -16065546.575870514 0 -16065546.575870514 -79207710.853298187 0 0 0 0 32115307.611670844 17935969.0633871 0 17935969.0633871 -25866752.36464005 0 0 0 0 30120756.448089018 12112966.712905616 0 12112966.712905616 -12021643.138243278 0 0 0 0 59776621.206840515 31265537.719094276 0 31265537.719094276 -3780488.867401123 0 0 0 0 10992898.185928345 9068038.9156188965 0 9068038.9156188965 -10139504.365337372 0 0 0 0 31972733.52753292 31271090.678298317 0 31271090.678298317 -4746779.3144954024 0 0 0 0 23536706.059617996 60121719.193172455 0 60121719.193172455 -71812096.127552032 0 0 0 0 14680260.698382378 51429942.510446548 0 51429942.510446548 -21211719.939987183 0 0 0 0 43391367.713545322 82149298.341266632 0 82149298.341266632 -94333461.817810059 0 0 0 0 13486560.676792145 45091999.727180481 0 45091999.727180481 -40550744.640390396 0 0 0 0 20134570.685399938 12418073.543416649 0 12418073.543416649 -19409725.228358742 0 0 0 0 14503979.700569153 -17082064.963882446 0 -17082064.963882446 -99187771.732759237 0 0 0 0 42848449.20420862 53520949.779569864 0 53520949.779569864 -32598892.908065796 0 0 0 0 32605538.560706068 20958021.56910979 0 20958021.56910979 -14513854.568242889 0 0 0 0 4113613.4805261306 29639494.796012595 0 29639494.796012595 -5859195.7281199992 0 0 0 0 160092553.1163044 -33818643.174968719 0 -33818643.174968719 -70109675.665638924 0 0 0 0 5854441.033260365 4739248.5490940595 0 4739248.5490940595 -6465179.634949211 0 0 0 0 94762240.319582462 -438258.64391231537 0 -438258.64391231537 -48531170.507675171 0 0 0 0 25581087.954177618 43567034.056088448 0 43567034.056088448 -60651098.744258881 0 0 0 0 -9986968.8652429581 5903164.9767227173 0 5903164.9767227173 23187269.319828033 0 0 0 0 158611347.85321522 -52790188.091188431 0 -52790188.091188431 -34545046.027229309 0 0 0 0 158861765.3939724 74450562.964962006 0 74450562.964962006 -41670155.088054657 0 0 0 0 151559890.07063675 173167310.00652313 0 173167310.00652313 -15782620.154174805 0 0 0 0 5056867.4822444916 289251158.9992857 0 289251158.9992857 48870007.837051392 0 0 0 0 -136330744.46981454 81428920.681806386 0 81428920.681806386 -34523420.202102661 0 0 0 0 80689983.169980049 48294353.273536682 0 48294353.273536682 -83870906.137527466 0 0 0 0 125258300.69896793 37115132.62727356 0 37115132.62727356 -82469728.761657715 0 0 0 0 -66415694.771781921 115299774.34397507 0 115299774.34397507 132579422.33090925 0 0 0 0 6469825.8755493164 317069350.46390915 0 317069350.46390915 3666526.3419408798 0 0 0 0 63089717.22964859 319388621.18433762 0 319388621.18433762 -367707415.52057838 0 0 0 0 -58206154.429334641 209027526.04260635 0 209027526.04260635 -6157862.0534973145 0 0 0 0 55678357.890457153 95893173.123722076 0 95893173.123722076 -13471310.007455826 0 0 0 0 103930930.17985153 70396771.961637497 0 70396771.961637497 -2127723.244594574 0 0 0 0 86831818.484275818 128591565.50866985 0 128591565.50866985 -85948219.066054344 0 0 0 0 235357835.00912476 66619077.071952343 0 66619077.071952343 -60150463.80273819 0 0 0 0 7970678.1747131348 57889566.205980301 0 57889566.205980301 96392484.194826841 0 0 0 0 23422125.440505981 118702647.57839298 0 118702647.57839298 89857767.394964218 0 0 0 0 -3849414.5076884516 20788979.301361579 0 20788979.301361579 254450.91731030494 0 0 0 0 -54780640.18825531 148000687.50814629 0 148000687.50814629 191805147.67837906 0 0 0 0 -75046407.775909424 46442924.730442047 0 46442924.730442047 275201327.97881889 0 0 0 0 -82388613.868429899 107382054.77091289 0 107382054.77091289 168521570.43406296 0 0 0 0 -305539924.41211796 292007707.53982162 0 292007707.53982162 -248224248.56393814 0 0 0 0 -19169076.410691589 912145.8390626777 0 912145.8390626777 3268137.0702712955 0 0 0 0 -192761017.84433365 198671334.89433289 0 198671334.89433289 -201961018.29562378 0 0 0 0 30143855.283036232 -64367368.326681137 0 -64367368.326681137 -537038593.89348602 0 0 0 0 -2402735.4587709904 11678013.788576126 0 11678013.788576126 -19214053.388370514 0 0 0 0 123414046.44854832 113603046.4513979 0 113603046.4513979 -267826927.44068146 0 0 0 0 -1863313.9711445998 1346610.5573565625 0 1346610.5573565625 942457.88270717114 0 0 0 0 -1252116.3397426861 5619148.5439139493 0 5619148.5439139493 -2478431.3286963478 0 0 0 0 -76618458.163140893 101107188.78434944 0 101107188.78434944 269080347.28344178 0 0 0 0 -179947161.22062635 364894760.74990463 0 364894760.74990463 -113424843.97049904 0 0 0 0 -226710987.00344276 75219776.924003601 0 75219776.924003601 107155305.50381088 0 0 0 0 -205620732.2055954 -71730675.066968441 0 -71730675.066968441 -195066338.68782043 0 0 0 0 -97329747.905858517 194667623.51301765 0 194667623.51301765 -484554701.42486382 0 0 0 0 221441938.81713051 292792443.31223249 0 292792443.31223249 43303028.788261414 0 0 0 0 554438210.55616736 154754174.22785473 0 154754174.22785473 -11542735.250846863 0 0 0 0 424104408.18831444 409547603.56825638 0 409547603.56825638 297688520.34050226 0 0 0 0 211628850.80720675 206847427.50060487 0 206847427.50060487 135482056.8901825 0 0 0 0 381412934.95130348 54760200.748409271 0 54760200.748409271 -69298042.394950867 0 0 0 0 29539901.045287609 -59700193.74451828 0 -59700193.74451828 46054961.073684692 0 0 0 0 286455387.93276334 -96607467.649737358 0 -96607467.649737358 2227270.6084976196 0 0 0 0 -387346.33916560374 2352248.4231911302 0 2352248.4231911302 -443798.81823062152 0 0 0 0 230451669.34370136 21728100.595921516 0 21728100.595921516 -204555046.45647812 0 0 0 0 316427853.36158723 515138106.6701622 0 515138106.6701622 39366926.616067886 0 0 0 0 356965022.4799099 395688679.32444763 0 395688679.32444763 299413676.39710236 0 0 0 0 -19400378.096248984 33738580.886092849 0 33738580.886092849 -38192761.306606665 0 0 0 0 77920021.008361816 261573612.46514893 0 261573612.46514893 112322908.07250214 0 0 0 0 12098447.557357311 -63126199.853505135 0 -63126199.853505135 -36694372.93422699 0 0 0 0 -281496095.09472847 -41848324.110269547 0 -41848324.110269547 166251402.56213379 0 0 0 0 105208258.56826401 53665099.337087631 0 53665099.337087631 23256661.919532776 0 0 0 0 81796516.934586525 104868388.34602642 0 104868388.34602642 14668621.549118042 0 0 0 0 63963871.321828842 82081674.265748978 0 82081674.265748978 1631338.8199157715 0 0 0 0 34162976.816402435 81934675.49646759 0 81934675.49646759 22063113.668560028 0 0 0 0 -13529469.427989341 30959838.364810772 0 30959838.364810772 -34876748.59855818 0 0 0 0 61695344.746101379 81187601.444778442 0 81187601.444778442 7676453.8188037872 0 0 0 0 -78921656.645748138 123721647.91376495 0 123721647.91376495 110254707.83799744 0 0 0 0 314658960.96284485 193390368.51907349 0 193390368.51907349 147039008.41743469 0 0 0 0 -14121586.822129996 19165089.225942079 0 19165089.225942079 9309668.3363052011 0 0 0 0 -132027447.41323829 248403956.06688464 0 248403956.06688464 48690308.864273071 0 0 0 0 537509053.17546082 4322022.5514774323 0 4322022.5514774323 -72155483.75031662 0 0 0 0 3389352.663788124 2363841.2608442316 0 2363841.2608442316 -2847190.0475154109 0 0 0 0 -15910804.168645605 15162242.1170377 0 15162242.1170377 6454187.096224986 0 0 0 0 252625322.57275581 120529296.29906082 0 120529296.29906082 18977350.721660614 0 0 0 0 537868525.62440872 341880794.99874687 0 341880794.99874687 -49966939.577781677 0 0 0 0 26830532.820161819 70057009.698850632 0 70057009.698850632 -2064343.9949035645 0 0 0 0 -9500117.717285119 35632970.109904885 0 35632970.109904885 -18246178.150441185 0 0 0 0 -43431772.054950237 111279037.2478199 0 111279037.2478199 68558248.163135529 0 0 0 0 -253370441.38773441 -2211394.5788459778 0 -2211394.5788459778 114733902.14579773 0 0 0 0 348494563.12688065 145577366.41166496 0 145577366.41166496 -76382295.58165741 0 0 0 0 -4278878.3139073942 3222804.7901923396 0 3222804.7901923396 1331499.194263421 0 0 0 0 322944238.89736462 65093748.806090355 0 65093748.806090355 -88093906.710266113 0 0 0 0 54576307.505939484 10442676.061157227 0 10442676.061157227 -22410217.491790771 0 0 0 0 311486734.85096359 -40247202.250669479 0 -40247202.250669479 -58738829.048830032 0 0 0 0 271527600.59334564 100786349.11034966 0 100786349.11034966 36553517.575973511 0 0 0 0 7592144.9330806732 68390845.305784225 0 68390845.305784225 5505335.2713088989 0 0 0 0 4692576.7221794128 72205697.730003357 0 72205697.730003357 4635552.3951330185 0 0 0 0 30768916.128795624 83870188.768575668 0 83870188.768575668 9211076.9058036804 0 0 0 0 4804407.6606173515 89285717.079507828 0 89285717.079507828 11783253.798286438 0 0 0 0 5380281.9718322754 84969548.112915039 0 84969548.112915039 15869316.436836243 0 0 0 0 32904265.719650984 92506953.516762257 0 92506953.516762257 12500768.93497467 0 0 0 0 1572697.8236351013 77165377.978862762 0 77165377.978862762 32323268.993846893 0 0 0 0 3415359.7858924866 79938228.458808899 0 79938228.458808899 4389897.6047134399 0 0 0 0 -158686.67509937286 74397505.266242027 0 74397505.266242027 -992095.9150428772 0 0 0 0 -27849032.83612442 95149227.673545837 0 95149227.673545837 23713968.018470764 0 0 0 0 -7781123.51927948 99493774.02091217 0 99493774.02091217 3532824.2283658981 0 0 0 0 -23542168.911655426 75319212.099586487 0 75319212.099586487 56385166.607114792 0 0 0 0 -68135235.202693939 137633492.05757904 0 137633492.05757904 4931570.8556060791 0 0 0 0 1550195.4821853638 83672947.15531826 0 83672947.15531826 -69428225.786018372 0 0 0 0 -95994.230579152703 613362.47542808205 0 613362.47542808205 380921.02670411021 0 0 0 0 -64051816.312351227 77946941.441108704 0 77946941.441108704 114197590.73618317 0 0 0 0 1483543.5867786407 130526685.7680397 0 130526685.7680397 -75860410.101436615 0 0 0 0 32632199.377764702 71125668.480936527 0 71125668.480936527 92988113.87997818 0 0 0 0 12514145.13127327 28366987.771755219 0 28366987.771755219 72309079.018489838 0 0 0 0 -26807421.130701065 68368060.543205261 0 68368060.543205261 47052513.884223938 0 0 0 0 14001720.898487091 38221419.27947998 0 38221419.27947998 34305928.182125092 0 0 0 0 -11826791.125827789 67449272.996959686 0 67449272.996959686 24404891.106245041 0 0 0 0 -15469041.873378754 85437394.991373062 0 85437394.991373062 31325795.606521606 0 0 0 0 -505194.09045696259 75896819.44268322 0 75896819.44268322 29308735.533363342 0 0 0 0 -6547208.466632843 52876211.384162903 0 52876211.384162903 53285100.104091644 0 0 0 0 -105986829.12745667 -5608621.8583641052 0 -5608621.8583641052 70972273.184329987 0 0 0 0 28829900.023536921 51731630.349764585 0 51731630.349764585 26693745.813251495 0 0 0 0 45703068.606994629 45839395.200244904 0 45839395.200244904 18319719.419921875 0 0 0 0 29276103.512859344 53085984.209201813 0 53085984.209201813 30804786.261787891 0 0 0 0 27333985.283750534 48655561.10940361 0 48655561.10940361 24502369.226932526 0 0 0 0 13426964.099060059 52414695.329238892 0 52414695.329238892 50755768.643108368 0 0 0 0 3432084.3361682892 668144.38495635986 0 668144.38495635986 19635634.8125 0 0 0 0 17561977.956615448 58663773.393913269 0 58663773.393913269 69642032.951530457 0 0 0 0 929380.21796420962 831949.07550746202 0 831949.07550746202 1014115.8323357105 0 0 0 0 69958.924637325108 1733200.8065802604 0 1733200.8065802604 1481168.993122451 0 0 0 0 38083438.457000732 37418864.344989777 0 37418864.344989777 55450080.355407715 0 0 0 0 10715798.674549103 38675933.249259949 0 38675933.249259949 56791312.310853958 0 0 0 0 45422367.191364288 37839506.931472778 0 37839506.931472778 61256880.819469452 0 0 0 0 9857191.2106971741 47830801.849254608 0 47830801.849254608 58465053.195901871 0 0 0 0 29957322.004267693 73013269.419993639 0 73013269.419993639 103328054.95535278 0 0 0 0 996069.44471819699 3040413.9590658173 0 3040413.9590658173 3613722.0910219848 0 0 0 0 3467490.8401309662 3271120.1368080676 0 3271120.1368080676 3517557.0842694193 0 0 0 0 13485323.424878478 8296361.7112380266 0 8296361.7112380266 53803352.543739319 0 0 0 0 2924270.3619519249 5317700.828713797 0 5317700.828713797 7897861.6963558272 0 0 0 0 29160710.501587868 75274390.118308067 0 75274390.118308067 90445167.425796509 0 0 0 0 10706679.249820709 21264840.421653748 0 21264840.421653748 77937009.341265678 0 0 0 0 26829324.929382324 71218272.239711761 0 71218272.239711761 53333401.556007385 0 0 0 0 33840670.865844727 37621687.69499588 0 37621687.69499588 69005352.755897522 0 0 0 0 -42568340.82365799 147184392.99772263 0 147184392.99772263 183359100.15686035 0 0 0 0 32006543.163631439 55773564.68805933 0 55773564.68805933 36265951.800012589 0 0 0 0 35776585.128047943 55657428.175178528 0 55657428.175178528 59008627.785129547 0 0 0 0 11114641.367271423 52759957.017330885 0 52759957.017330885 81660571.560384274 0 0 0 0 47411707.776790619 42431869.957078934 0 42431869.957078934 11751112.317127228 0 0 0 0 28046179.667561933 38561823.958181411 0 38561823.958181411 -6729498.3053567931 0 0 0 0 13474293.768745422 33083871.053492546 0 33083871.053492546 50269972.897461414 0 0 0 0 20299149.900240421 23063246.274303287 0 23063246.274303287 69944125.79476738 0 0 0 0 38710665.06432724 32984092.770021439 0 32984092.770021439 9522407.5133743286 0 0 0 0 22931604.334746793 39106070.229221396 0 39106070.229221396 -3861026.5707862452 0 0 0 0 19091970.784114838 47673637.297894955 0 47673637.297894955 41107216.857118607 0 0 0 0 22060354.042621613 42392446.183298588 0 42392446.183298588 10844299.981639385 0 0 0 0 2647794.5953102112 24594054.302109003 0 24594054.302109003 34754284.822553635 0 0 0 0 20867644.120262146 31557297.109924793 0 31557297.109924793 -30000892.546423912 0 0 0 0 3970488.8778572083 26177416.190079689 0 26177416.190079689 898468.19983243942 0 0 0 0 12510444.750347137 47931058.478570461 0 47931058.478570461 -22987191.126664162 0 0 0 0 17466359.411268234 36218162.553617716 0 36218162.553617716 -46909847.484755516 0 0 0 0 36197483.37884903 41321859.11270237 0 41321859.11270237 19200068.348408699 0 0 0 0 2599586.2358169556 32939220.123425484 0 32939220.123425484 17563192.017999411 0 0 0 0 18535447.145835876 36890784.86702919 0 36890784.86702919 -12810743.010162354 0 0 0 0 20320215.881067276 47333503.618977427 0 47333503.618977427 -14237428.002613068 0 0 0 0 -939056.7561340332 35822639.475053787 0 35822639.475053787 -11174867.031267166 0 0 0 0 4306380.8437232971 49063001.881945372 0 49063001.881945372 -14029494.607820511 0 0 0 0 25041165.100662231 52682350.364748001 0 52682350.364748001 -32487896.117282867 0 0 0 0 27568556.963260859 19347245.60713122 0 19347245.60713122 -4993585.6946528712 0 0 0 0 5794559.0138702393 45672661.996909142 0 45672661.996909142 34759846.687919021 0 0 0 0 10245822.228843689 23142759.091719627 0 23142759.091719627 -5869804.6107244492 0 0 0 0 11304983.560092926 28840542.147794247 0 28840542.147794247 33175841.78209281 0 0 0 0 18737609.877174377 33793721.154532671 0 33793721.154532671 34044958.335606098 0 0 0 0 8410063.2774200439 31390955.690198898 0 31390955.690198898 58162575.799276829 0 0 0 0 3896962.0153465271 52764940.235515594 0 52764940.235515594 22833776.313940525 0 0 0 0 9265957.794757843 29244733.387542844 0 29244733.387542844 59059342.523626328 0 0 0 0 12746738.317243151 39403839.828193948 0 39403839.828193948 -7386733.4062392563 0 0 0 0 2590478.4636306763 50934879.261936188 0 50934879.261936188 20278202.973781586 0 0 0 0 17513379.336341858 40640310.677007675 0 40640310.677007675 26048794.020404816 0 0 0 0 17807600.728757121 39105922.012023948 0 39105922.012023948 -4051698.0925328149 0 0 0 0 17151099.333942413 21590247.466979504 0 21590247.466979504 60346321.453004882 0 0 0 0 18036483.051021576 39355089.466667175 0 39355089.466667175 30338007.934566975 0 0 0 0 20864610.545585632 24207308.687000275 0 24207308.687000275 33132082.305416584 0 0 0 0 10682210.0885849 22575155.835161209 0 22575155.835161209 22805080.331727743 0 0 0 0 16211938.322158813 20127412.332217216 0 20127412.332217216 -14367376.181422234 0 0 0 0 19185932.047557831 34686256.792191505 0 34686256.792191505 -1603676.5397481918 0 0 0 0 9223695.1341212168 20840006.506551053 0 20840006.506551053 -20688848.996320315 0 0 0 0 157177343.53128433 161397552.94592857 0 161397552.94592857 37664942.768556595 0 0 0 0 19031999.348201752 39228760.308743477 0 39228760.308743477 13716465.593417168 0 0 0 0 14518211.820928574 24243326.568194389 0 24243326.568194389 3507458.6867103577 0 0 0 0 134461645.76044083 280355754.88498306 0 280355754.88498306 90977360.743787766 0 0 0 0 9782303.8859253824 22313984.292465378 0 22313984.292465378 -13564371.080803305 0 0 0 0 177720283.4691391 73034496.326869965 0 73034496.326869965 -89777730.389434814 0 0 0 0 126444950.28382111 79871070.607888222 0 79871070.607888222 51854302.615794659 0 0 0 0 110831615.85478401 21803296.354593754 0 21803296.354593754 -16732613.733026505 0 0 0 0 109920223.51794815 26310076.917102814 0 26310076.917102814 -34075478.272674561 0 0 0 0 81185299.395385742 52046852.577281952 0 52046852.577281952 -91629631.986064911 0 0 0 0 109421952.97860336 80646389.135130882 0 80646389.135130882 6552026.459353447 0 0 0 0 1408876.1425649188 1974519.4602266215 0 1974519.4602266215 -4444862.1655343864 0 0 0 0 107650623.55590057 59463277.983988762 0 59463277.983988762 26766176.369342804 0 0 0 0 111353305.70920753 45897890.418072224 0 45897890.418072224 -49349952.235134125 0 0 0 0 135121552.25946808 105270342.72377682 0 105270342.72377682 9873937.886616528 0 0 0 0 131750158.52894592 79091778.060889244 0 79091778.060889244 -4477374.6621513367 0 0 0 0 129003260.76861191 61238725.845249176 0 61238725.845249176 -70713332.545883179 0 0 0 0 88645276.604034662 127702239.83744934 0 127702239.83744934 -164833436.73692894 0 0 0 0 82799647.163520813 26118819.316945076 0 26118819.316945076 -15879718.420795441 0 0 0 0 8436592.1470489502 28637611.602678299 0 28637611.602678299 -17380243.316166401 0 0 0 0 -1120395.0797671676 3249464.4961588942 0 3249464.4961588942 -2820178.7514822269 0 0 0 0 9002057.5495700091 22476044.339732185 0 22476044.339732185 -21043727.790741123 0 0 0 0 125540297.56581879 17105605.140301704 0 17105605.140301704 -35050923.573854446 0 0 0 0 15988048.075798035 38972638.599538088 0 38972638.599538088 -33583275.356369019 0 0 0 0 53161145.530738831 51188610.918676615 0 51188610.918676615 -67687542.311195374 0 0 0 0 5770039.786424078 11492967.223189056 0 11492967.223189056 -9584930.7816216797 0 0 0 0 4028718.3330352381 18141614.571774162 0 18141614.571774162 -4711363.4701657072 0 0 0 0 -13914860.851333618 16594916.91679287 0 16594916.91679287 -23844612.836483002 0 0 0 0 21939594.711495399 -4406851.1999059916 0 -4406851.1999059916 -12967966.658807755 0 0 0 0 90586908.600643158 111500726.57226133 0 111500726.57226133 76478240.540140152 0 0 0 0 314253434.34631348 -49267455.823734283 0 -49267455.823734283 -150167929.37183428 0 0 0 0 -189464379.94827271 -81608893.173776627 0 -81608893.173776627 29353734.667181969 0 0 0 0 1338775.0904757008 2865828.4590821611 0 2865828.4590821611 -2309844.4927073326 0 0 0 0 27354163.428268433 50244174.335474014 0 50244174.335474014 26307633.274028778 0 0 0 0 129337752.10349274 86065736.048202515 0 86065736.048202515 -12622109.360512733 0 0 0 0 118399142.89944077 83123730.92472744 0 83123730.92472744 -12311716.85905838 0 0 0 0 74957103.423034668 -10140340.26300931 0 -10140340.26300931 -37889580.943649292 0 0 0 0 142100730.97730255 83737164.577720642 0 83737164.577720642 -25695502.77453804 0 0 0 0 -17428090.394752502 19176795.959353447 0 19176795.959353447 -10761121.61138916 0 0 0 0 -7060442.8309491724 9058721.1792721897 0 9058721.1792721897 1110580.8838585094 0 0 0 0 -31505527.321825027 35509755.488195896 0 35509755.488195896 -17927539.781661987 0 0 0 0 -38352738.181526184 15956497.526357651 0 15956497.526357651 3235366.8093738556 0 0 0 0 -53343781.963829041 195580769.48281479 0 195580769.48281479 66796579.247240067 0 0 0 0 41929505.089496613 70532598.856067657 0 70532598.856067657 -95832466.592350006 0 0 0 0 -2780118.2136531025 4003758.7710015401 0 4003758.7710015401 -20926.188113889657 0 0 0 0 -187069669.39704895 -17499967.447616577 0 -17499967.447616577 282526941.34476471 0 0 0 0 142533897.38691133 143172523.75645676 0 143172523.75645676 59137077.272476196 0 0 0 0 230280548.87300873 165169737.80230618 0 165169737.80230618 47668397.481880188 0 0 0 0 -207013796.88523102 -82632255.867452621 0 -82632255.867452621 131754041.41581726 0 0 0 0 188164111.23441315 47936303.425440788 0 47936303.425440788 -27096028.981462955 0 0 0 0 -2671848.6137946472 2852364.1246077865 0 2852364.1246077865 1115291.3417639956 0 0 0 0 -232200094.71109009 142583499.59710503 0 142583499.59710503 239915877.5854454 0 0 0 0 195914407.07980347 440084870.10754967 0 440084870.10754967 379894187.73074055 0 0 0 0 441301561.93412781 -152428211.60430908 0 -152428211.60430908 263239129.58122444 0 0 0 0 116861840.61745453 202252627.17806911 0 202252627.17806911 286756550.35074234 0 0 0 0 2864053.5176027194 3689193.0093908347 0 3689193.0093908347 -5761434.1146432832 0 0 0 0 -41972627.760509491 89325281.530993462 0 89325281.530993462 225237057.9008503 0 0 0 0 -41429489.469547272 10273727.770211697 0 10273727.770211697 103857862.20273876 0 0 0 0 31028755.787218094 9301371.0914378166 0 9301371.0914378166 -8863308.4963054657 0 0 0 0 86547705.001882553 100983587.57196569 0 100983587.57196569 55781816.457969666 0 0 0 0 8425341.4149208069 -13413987.998748779 0 -13413987.998748779 14974069.012752533 0 0 0 0 21808369.378124237 -15060426.711029053 0 -15060426.711029053 -1164840.0597896576 0 0 0 0 16663333.141151428 -7511516.3219652176 0 -7511516.3219652176 -11926218.583667755 0 0 0 0 26739420.260578156 23493344.588031769 0 23493344.588031769 21750392.706113577 0 0 0 0 109448038.3754921 83970747.832698822 0 83970747.832698822 6743319.2421398163 0 0 0 0 114135730.33949661 85029804.269854546 0 85029804.269854546 -6452933.2455711365 0 0 0 0 118136975.67953491 98426079.004048347 0 98426079.004048347 3782793.0695114136 0 0 0 0 104908891.29158783 92151213.671998978 0 92151213.671998978 10274800.220294476 0 0 0 0 90903309.90650177 89665891.314030647 0 89665891.314030647 5178123.1465568542 0 0 0 0 98857773.915870667 68499415.806390762 0 68499415.806390762 -15790733.125217438 0 0 0 0 -36163580.190628052 86930682.631384492 0 86930682.631384492 40365495.439820766 0 0 0 0 28178791.6927948 76095821.951448441 0 76095821.951448441 49846940.632585287 0 0 0 0 840657.88292694092 150871219.05058414 0 150871219.05058414 99352822.101718903 0 0 0 0 46588334.140480042 97199669.314934134 0 97199669.314934134 -112340065.67845893 0 0 0 0 -35157879.585330963 118454586.6394766 0 118454586.6394766 -107024447.23642921 0 0 0 0 43333935.127929688 105335242.52679813 0 105335242.52679813 -287647609.23351985 0 0 0 0 66565948.185531616 36187514.950544357 0 36187514.950544357 -67952978.072024852 0 0 0 0 -20620507.313146591 270320251.92786372 0 270320251.92786372 -135410276.5470767 0 0 0 0 -96096790.793899536 72255835.972172976 0 72255835.972172976 -67296578.956349373 0 0 0 0 -22385898.47718811 135267581.30291748 0 135267581.30291748 73575631.641028404 0 0 0 0 79933467.307655334 110087508.47037816 0 110087508.47037816 64795257.274174452 0 0 0 0 -5527098.7546939738 2750148.4321219698 0 2750148.4321219698 -288668.67300333176 0 0 0 0 -79265628.711700439 56437315.602865696 0 56437315.602865696 -15157086.023019433 0 0 0 0 -12313140.035842896 -18377457.552113056 0 -18377457.552113056 7857958.8939011097 0 0 0 0 -152612628.21680832 92842677.699276328 0 92842677.699276328 11784855.798958063 0 0 0 0 -117255860.54998779 -165691.92387247086 0 -165691.92387247086 61034829.605527401 0 0 0 0 1268358.0156130493 23146971.699586019 0 23146971.699586019 7524497.2008489892 0 0 0 0 -10144944.455032349 28071077.502908945 0 28071077.502908945 -26903556.511599541 0 0 0 0 22124330.322564363 13155133.28569679 0 13155133.28569679 -11930539.522204924 0 0 0 0 140319132.52925301 253345492.99225023 0 253345492.99225023 -154741370.43726397 0 0 0 0 6001052.6047433987 19754067.086726949 0 19754067.086726949 -3832780.2722411021 0 0 0 0 1188274.1588821411 16612243.818396091 0 16612243.818396091 -15390830.803814888 0 0 0 0 -565569.19172668457 16273033.540887833 0 16273033.540887833 -10422059.151984453 0 0 0 0 10208395.915375158 20149097.684516776 0 20149097.684516776 -5730858.3862787569 0 0 0 0 -525560.32196807861 19283464.393403292 0 19283464.393403292 -13839278.356448293 0 0 0 0 -879424.62440490723 18057254.57852006 0 18057254.57852006 -11425376.60731566 0 0 0 0 1825393.6045641378 14597660.792411774 0 14597660.792411774 -4700606.5041949823 0 0 0 0 -15627671.919006824 29217858.50098139 0 29217858.50098139 -13590263.757675171 0 0 0 0 5800361.2774353027 16804187.90111351 0 16804187.90111351 2238892.6018066406 0 0 0 0 -10023186.254900217 12764783.866470952 0 12764783.866470952 -178637.82941547874 0 0 0 0 19040829.312042236 3168709.5762825012 0 3168709.5762825012 -245469478.82658958 0 0 0 0 -71208892.554100037 336463983.54031277 0 336463983.54031277 386321340.2256279 0 0 0 0 389873252.58924484 -224292647.62330437 0 -224292647.62330437 -130948009.13978386 0 0 0 0 -252806237.23631287 -122355145.64419174 0 -122355145.64419174 296821836.27234459 0 0 0 0 -309873036.53644562 28395501.656484604 0 28395501.656484604 87651663.371011734 0 0 0 0 644682.88282775879 8612741.6632113457 0 8612741.6632113457 -1521062.2447834015 0 0 0 0 -1307195.1350420676 12943489.78534288 0 12943489.78534288 -2751108.7253320459 0 0 0 0 -90189812.959564209 -9410549.3734970093 0 -9410549.3734970093 -108904197.91360474 0 0 0 0 1600385.6843929291 9464803.2283911705 0 9464803.2283911705 -1037463.8260669708 0 0 0 0 -13259491.97929848 8542765.8721336499 0 8542765.8721336499 -74439.939677964896 0 0 0 0 701723.65985107422 9398696.9274120331 0 9398696.9274120331 -849065.23390579224 0 0 0 0 -3885026.0742296726 21033792.127427436 0 21033792.127427436 -5628497.6373442383 0 0 0 0 4011168.587860547 18739575.380637322 0 18739575.380637322 -3472331.0445081946 0 0 0 0 -19997669.648174465 12047417.351962253 0 12047417.351962253 494399.38891810551 0 0 0 0 1868365.6653594971 16012661.496761799 0 16012661.496761799 2930901.1847982407 0 0 0 0 5329338.2957611084 16413416.580235481 0 16413416.580235481 2926961.7947750092 0 0 0 0 -20813175.64382726 21012449.649823263 0 21012449.649823263 -2231898.5614839122 0 0 0 0 13768808.73638916 9629191.8203268051 0 9629191.8203268051 459400.08400583267 0 0 0 0 -3495062.860276252 11730804.735798273 0 11730804.735798273 -3567832.2815588694 0 0 0 0 -13839882.708022922 13274749.493420864 0 13274749.493420864 -1593288.7011450473 0 0 0 0 -4245991.1745071411 11034049.879343867 0 11034049.879343867 -1665692.8733634949 0 0 0 0 2323539.1789855957 86478966.239983082 0 86478966.239983082 60955038.535910368 0 0 0 0 -2499130.6614608765 11076362.406213284 0 11076362.406213284 1118453.4337735176 0 0 0 0 3328133.3336317092 8884995.8888969533 0 8884995.8888969533 -1275516.8063297272 0 0 0 0 -4748183.2708339691 9385291.2217274904 0 9385291.2217274904 1364642.0903224945 0 0 0 0 -1406024.0323862731 4041779.8626759741 0 4041779.8626759741 -323894.69599963538 0 0 0 0 -16634860.845733643 84773821.118860483 0 84773821.118860483 146532975.39348817 0 0 0 0 -30771881.220039368 110058027.56519079 0 110058027.56519079 342578316.2627759 0 0 0 0 30389568.097229004 358850411.617383 0 358850411.617383 -568030163.6814785 0 0 0 0 44821027.966835022 408335927.09478569 0 408335927.09478569 -458260699.42750931 0 0 0 0 -3374567.5950202942 262280074.74588394 0 262280074.74588394 -457280283.11310196 0 0 0 0 -98569142.94354248 238197340.26794624 0 238197340.26794624 -458008301.2470417 0 0 0 0 1689546.4759608805 9630649.0035719723 0 9630649.0035719723 -84919.803532811347 0 0 0 0 -85329717.47416687 303925653.40080833 0 303925653.40080833 -472803301.03131866 0 0 0 0 -103099276.51927185 295519992.52358055 0 295519992.52358055 -274939571.30457878 0 0 0 0 197466975.50723267 129617125.80297184 0 129617125.80297184 -386542860.25203896 0 0 0 0 1256352.0903665572 555139.45689607784 0 555139.45689607784 -366242.38711534813 0 0 0 0 -20335601.324523926 221734541.27482891 0 221734541.27482891 -214514259.46154785 0 0 0 0 -403528594.85018158 378121122.41435528 0 378121122.41435528 -244457328.83786964 0 0 0 0 -98292815.726356506 526236584.51828814 0 526236584.51828814 -386415090.69799805 0 0 0 0 -423762413.34992981 679834749.58802032 0 679834749.58802032 -428418165.905128 0 0 0 0 -147786492.58911705 88053999.658220291 0 88053999.658220291 -248839659.76377392 0 0 0 0 -40826842.32787323 151264026.80137348 0 151264026.80137348 -214578610.21313477 0 0 0 0 -106614447.34025192 9286204.2357420921 0 9286204.2357420921 23991124.491321564 0 0 0 0 8752016.9225078821 11242558.290541394 0 11242558.290541394 -3932176.5803280501 0 0 0 0 -225378208.93728638 141938594.71746063 0 141938594.71746063 -37325265.618829727 0 0 0 0 468074938.1313324 500107084.88764477 0 500107084.88764477 -454976939.41962147 0 0 0 0 -4239318.1211776733 33718164.37369442 0 33718164.37369442 1585247.0484688282 0 0 0 0 -1715534.8157956451 12352042.853316566 0 12352042.853316566 604505.49813340977 0 0 0 0 -1485078.3960952759 29235752.93527317 0 29235752.93527317 4024552.1693305969 0 0 0 0 7818451.8190840557 14946149.052672692 0 14946149.052672692 -2948101.5584685821 0 0 0 0 6631876.2831776217 13605194.511856161 0 13605194.511856161 -1784296.010483183 0 0 0 0 40665626.055412292 3148453.7889919281 0 3148453.7889919281 -37353903.600061417 0 0 0 0 -474167247.76714706 558608911.25051212 0 558608911.25051212 -283351261.66708946 0 0 0 0 -560382481.79133606 513848370.60564899 0 513848370.60564899 -299548083.61727715 0 0 0 0 -525724212.87981415 307466225.4718771 0 307466225.4718771 181299603.88999081 0 0 0 0 -551122788.09841919 132434389.68778324 0 132434389.68778324 -215759601.98126316 0 0 0 0 -454438757.01789093 589306325.70490551 0 589306325.70490551 -491792295.2543354 0 0 0 0 129768864.63738251 687410802.90193081 0 687410802.90193081 -670524436.13195801 0 0 0 0 -862992.77844294906 2270249.1199329719 0 2270249.1199329719 -2366508.082916839 0 0 0 0 758933643.4409256 428096955.41521597 0 428096955.41521597 -577052021.40580225 0 0 0 0 -694807972.37306976 637141325.22388268 0 637141325.22388268 -56830319.85779953 0 0 0 0 52878425.67275238 292112959.09801769 0 292112959.09801769 304466875.40913725 0 0 0 0 464776288.62792206 -33036170.866747856 0 -33036170.866747856 -97800621.464976311 0 0 0 0 382063514.16995239 271642660.09371948 0 271642660.09371948 -547148252.48669004 0 0 0 0 124087550.2370491 282072916.98545086 0 282072916.98545086 -365168178.76512527 0 0 0 0 -52821672.544723511 115525445.5699501 0 115525445.5699501 -125640451.6361351 0 0 0 0 -75499452.558265686 29767649.178090096 0 29767649.178090096 -8748877.128364563 0 0 0 0 1015785.4900432378 2157325.5104707498 0 2157325.5104707498 -1680401.8365844022 0 0 0 0 7585321.9808007404 1317155.1581784971 0 1317155.1581784971 -1734714.2300348133 0 0 0 0 6797130.605140686 2472482.7801361084 0 2472482.7801361084 -9595994.7858123779 0 0 0 0 6824354.0943984985 3029329.6815328598 0 3029329.6815328598 -8099950.2253684998 0 0 0 0 6922780.5079021454 514692.08062696457 0 514692.08062696457 -10173238.475090027 0 0 0 0 7254816.6719360352 986132.21694660187 0 986132.21694660187 -4770935.7791137695 0 0 0 0 8153455.5737231895 -1047775.7810540805 0 -1047775.7810540805 -3000391.6898983018 0 0 0 0 7047969.3738327026 -192754.17631721497 0 -192754.17631721497 -7147618.1936645508 0 0 0 0 5260264.0536727905 167725.58451080322 0 167725.58451080322 -8706161.9232788086 0 0 0 0 8388150.7098289207 175978.85302243941 0 175978.85302243941 -3398043.729882462 0 0 0 0 5080164.2357788086 2189547.9707221985 0 2189547.9707221985 -9198172.1803512573 0 0 0 0 4170189.0656089783 4271464.1663122177 0 4271464.1663122177 -13754736.038848877 0 0 0 0 6466305.9721679688 -3137800.7797279358 0 -3137800.7797279358 -16248639.273732185 0 0 0 0 209231.94064098969 43796.357493311167 0 43796.357493311167 -13762.990117851645 0 0 0 0 268708693.45955658 -12455947.798814774 0 -12455947.798814774 -135375636.82043171 0 0 0 0 4067729.9829750061 6201487.4984259605 0 6201487.4984259605 -13940647.253156662 0 0 0 0 3687495.7723236084 3805466.8969769478 0 3805466.8969769478 -13940783.900501251 0 0 0 0 7776308.3224827349 -510094.00552445278 0 -510094.00552445278 -2501509.9120548042 0 0 0 0 4195739.6536316499 7483705.197068776 0 7483705.197068776 -2733605.2025433569 0 0 0 0 141214300.53949738 141081943.49303627 0 141081943.49303627 -12054775.249637604 0 0 0 0 8874295.7724914551 114268093.67605209 0 114268093.67605209 239846512.43296814 0 0 0 0 -77754028.116029739 102474998.28099346 0 102474998.28099346 -92565146.218727112 0 0 0 0 -132497617.17601013 253333430.35866165 0 253333430.35866165 -500962344.85155487 0 0 0 0 76391.879712849855 474777.87760915048 0 474777.87760915048 -166700.17475812603 0 0 0 0 14488400.884811401 136150928.15887451 0 136150928.15887451 172163521.05213165 0 0 0 0 -84826215.981273651 -37493371.125341415 0 -37493371.125341415 -689486622.40384674 0 0 0 0 62065669.481201172 197684822.01598358 0 197684822.01598358 -490506570.21074677 0 0 0 0 -197544795.69480896 48047606.701336861 0 48047606.701336861 467684581.51740289 0 0 0 0 -75639518.137268066 199875215.66648865 0 199875215.66648865 -463103381.24446106 0 0 0 0 53450.468111678958 2963430.6480779685 0 2963430.6480779685 -161751.33577138279 0 0 0 0 3194210.5796636343 2785555.9764693379 0 2785555.9764693379 -309835.82906670403 0 0 0 0 -98467980.502685547 -25571005.256217957 0 -25571005.256217957 272652680.47404099 0 0 0 0 -186944960.64154053 -246029134.57235003 0 -246029134.57235003 -235063169.44667053 0 0 0 0 177352092.72689056 153074254.49157238 0 153074254.49157238 -77082710.651573181 0 0 0 0 15093312.435127258 63596652.287269592 0 63596652.287269592 69376449.368286133 0 0 0 0 42511422.972694397 33629877.939160347 0 33629877.939160347 -18323668.686637878 0 0 0 0 79073842.041007996 75136737.071052551 0 75136737.071052551 -48027157.256015778 0 0 0 0 15583409.253250122 27896986.953092575 0 27896986.953092575 -49809947.849598885 0 0 0 0 31015226.457061768 46065899.278656006 0 46065899.278656006 -83774743.056428909 0 0 0 0 39002263.492752075 20845358.208500862 0 20845358.208500862 -53480042.479099393 0 0 0 0 -18917560.151382446 119712303.21951675 0 119712303.21951675 -140221850.56749249 0 0 0 0 23427346.422599792 32308575.575828552 0 32308575.575828552 -83616486.224142075 0 0 0 0 -22581756.503171921 106186378.77598524 0 106186378.77598524 -108110384.89485359 0 0 0 0 33233119.775497437 38743555.023468018 0 38743555.023468018 -103484879.16770184 0 0 0 0 20630783.487243652 39321572.7660532 0 39321572.7660532 -65697889.140516281 0 0 0 0 37737846.452453613 -34978503.304056168 0 -34978503.304056168 -77341005.049996972 0 0 0 0 21682967.728082657 -7132242.4450917244 0 -7132242.4450917244 29974682.328666687 0 0 0 0 118863716.91168213 53812672.963418484 0 53812672.963418484 143492196.40323448 0 0 0 0 -1197104.2129831314 82326929.670725107 0 82326929.670725107 138009582.14406776 0 0 0 0 20887706.067622662 95032601.14397186 0 95032601.14397186 -233976892.16431808 0 0 0 0 -113878738.04408264 -94913713.76072979 0 -94913713.76072979 -78064092.152334213 0 0 0 0 28118307.573551178 148909088.08785725 0 148909088.08785725 48720656.787384033 0 0 0 0 -30687324.933796883 198130268.44494677 0 198130268.44494677 -3995766.878988266 0 0 0 0 105432631.03098297 -35675090.44679451 0 -35675090.44679451 -328962862.55534458 0 0 0 0 241607056.91741943 459206946.11833191 0 459206946.11833191 407680499.39511847 0 0 0 0 311423006.19017792 314927290.20947361 0 314927290.20947361 231279616.48454428 0 0 0 0 112089440.53998756 264538060.76070893 0 264538060.76070893 426344653.70000648 0 0 0 0 134329678.46798706 76233266.380298615 0 76233266.380298615 82896263.652053833 0 0 0 0 24527871.494308472 2276544.3689231873 0 2276544.3689231873 -18932641.305373192 0 0 0 0 21071046.809921265 18742683.645009995 0 18742683.645009995 -13216289.418255806 0 0 0 0 3721548.62915802 -6516811.6627120972 0 -6516811.6627120972 -11704316.525183678 0 0 0 0 354670148.29342651 155006286.7956295 0 155006286.7956295 346143318.22612381 0 0 0 0 4558994.008783929 3214460.9126645718 0 3214460.9126645718 -4811094.5031158943 0 0 0 0 465033976.3421936 370817298.74975204 0 370817298.74975204 284758874.77018738 0 0 0 0 224324866.32590485 275171230.63854599 0 275171230.63854599 344635284.23428726 0 0 0 0 405746723.22723389 418766120.09255028 0 418766120.09255028 457899208.00042343 0 0 0 0 345146.44196785986 137944.21510400623 0 137944.21510400623 -356884.52125803567 0 0 0 0 548716327.33308029 37897969.159406185 0 37897969.159406185 406428749.65859604 0 0 0 0 -75335770.831794739 150278005.96582985 0 150278005.96582985 49080931.746833801 0 0 0 0 293928047.01078796 543093894.57282829 0 543093894.57282829 122190830.2364006 0 0 0 0 238524630.00248718 79815735.953269958 0 79815735.953269958 58703884.127811432 0 0 0 0 388495331.42080307 399997699.25394917 0 399997699.25394917 166523923.26661301 0 0 0 0 90148866.006416321 63780049.639858246 0 63780049.639858246 37759127.936319351 0 0 0 0 95626855.84564209 120583378.77508545 0 120583378.77508545 89221801.746116638 0 0 0 0 81265162.458930969 91984904.644517899 0 91984904.644517899 109109054.51013184 0 0 0 0 104824127.5905304 103134075.56759262 0 103134075.56759262 50059292.124961853 0 0 0 0 37304621.500991821 29946121.549754143 0 29946121.549754143 2805298.7748308182 0 0 0 0 10667976.338850021 21280715.495050192 0 21280715.495050192 11634083.125226974 0 0 0 0 9863631.0093536377 6892182.3353385925 0 6892182.3353385925 7613513.0101461411 0 0 0 0 17465022.13433075 6497975.1424827576 0 6497975.1424827576 -13581243.472105026 0 0 0 0 -24867655.175048828 34430640.366977692 0 34430640.366977692 -12667854.218139648 0 0 0 0 15001009.720329285 3265805.4420385361 0 3265805.4420385361 -3691565.4021587372 0 0 0 0 6025157.6194029301 5089845.0519291209 0 5089845.0519291209 -4287545.5992101738 0 0 0 0 10973825.077871323 13925893.110860348 0 13925893.110860348 -5061573.0761528015 0 0 0 0 691627.4192763865 460584.41224146262 0 460584.41224146262 68112.418414704502 0 0 0 0 -4914721.6913084984 4823345.8859144095 0 4823345.8859144095 903332.57108971104 0 0 0 0 17643189.983002663 18058920.659824491 0 18058920.659824491 3413284.3427257538 0 0 0 0 32649709.91683197 40947278.800631523 0 40947278.800631523 71661248.978118896 0 0 0 0 8470230.2130789012 5699452.3142879214 0 5699452.3142879214 -4657390.8113097902 0 0 0 0 87964470.903808594 1204601.708978653 0 1204601.708978653 -176299466.3484993 0 0 0 0 81833021.158653259 93761807.098362923 0 93761807.098362923 -95975281.451843262 0 0 0 0 129236117.94831848 110036743.76780319 0 110036743.76780319 -125241528.01408005 0 0 0 0 115433203.78230286 106984195.61229706 0 106984195.61229706 -289085101.01660919 0 0 0 0 110822695.06192017 -20414530.360847473 0 -20414530.360847473 -157814805.19842911 0 0 0 0 72281589.162353516 169283925.79496956 0 169283925.79496956 102959715.07555389 0 0 0 0 141557090.84012604 162091440.46005154 0 162091440.46005154 1996703.0616550446 0 0 0 0 121197420.11312103 130819479.64742661 0 130819479.64742661 83982125.827331543 0 0 0 0 -33071460.299278259 53822116.753272057 0 53822116.753272057 35487435.252819061 0 0 0 0 229685631.0561676 252538901.82166862 0 252538901.82166862 198804406.22269058 0 0 0 0 216488540.57089996 280241074.97267532 0 280241074.97267532 190805725.67912292 0 0 0 0 114992588.83666229 227303452.77422142 0 227303452.77422142 171586333.31380463 0 0 0 0 189599502.69995499 202679022.80876541 0 202679022.80876541 179664310.63430786 0 0 0 0 122278625.24388123 154217619.63028908 0 154217619.63028908 364336052.36633682 0 0 0 0 124026934.03829956 245420438.37644005 0 245420438.37644005 200201029.54692459 0 0 0 0 313662135.82095337 415458311.18577957 0 415458311.18577957 253257418.6758728 0 0 0 0 60512693.044734955 424913653.51003551 0 424913653.51003551 551933612.75000191 0 0 0 0 130683415.55306244 189127077.89246368 0 189127077.89246368 81343930.258972168 0 0 0 0 56606302.317901611 246827076.24618721 0 246827076.24618721 298341084.31326675 0 0 0 0 67457288.405410767 381559305.26072502 0 381559305.26072502 325755009.20352077 0 0 0 0 182503890.13996887 408425960.48437309 0 408425960.48437309 153996019.04021811 0 0 0 0 83759236.964565277 205134371.11948586 0 205134371.11948586 129131777.39612579 0 0 0 0 71880153.934043884 270011341.16174507 0 270011341.16174507 38940950.460494995 0 0 0 0 1706691.1100967098 -374723.83670713753 0 -374723.83670713753 -349924.71555212885 0 0 0 0 -66787112.923995972 154451481.40967178 0 154451481.40967178 -22279737.462921143 0 0 0 0 6977887.3763213158 1892148.5903904438 0 1892148.5903904438 -4658296.3563842773 0 0 0 0 10002015.049568392 3185560.8369728103 0 3185560.8369728103 -4749286.4711684529 0 0 0 0 707811.30434282124 -887081.6093977727 0 -887081.6093977727 -697113.62825524807 0 0 0 0 -89577548.817573547 -10925568.546144485 0 -10925568.546144485 -8180808.0204601288 0 0 0 0 94079668.714668274 139144194.35394287 0 139144194.35394287 -195187214.83824921 0 0 0 0 306768999.59889221 247672724.51601982 0 247672724.51601982 166881443.13287735 0 0 0 0 387883735.53445435 174439654.63466644 0 174439654.63466644 77580776.684465528 0 0 0 0 249548634.92678833 204625956.81528664 0 204625956.81528664 106913820.57897949 0 0 0 0 390644331.4238739 290021650.34866047 0 290021650.34866047 154270948.18040466 0 0 0 0 257588845.76834297 142761289.43371725 0 142761289.43371725 78220749.614303589 0 0 0 0 5876670.7815508321 486073.8891273262 0 486073.8891273262 -3102967.5236899126 0 0 0 0 3670653.9880065918 1269572.2005996704 0 1269572.2005996704 -7820821.2133140564 0 0 0 0 4797562.6168670654 -1012972.3952894211 0 -1012972.3952894211 -8963918.3221931458 0 0 0 0 583908.64112854004 1881762.7034416199 0 1881762.7034416199 -7883584.6381049156 0 0 0 0 9427683.3567484394 -433646.09681709483 0 -433646.09681709483 -3607332.9036467001 0 0 0 0 8145185.7268791199 791440.70908355713 0 791440.70908355713 -6539280.3210706711 0 0 0 0 7617325.5771484375 -473643.95489311218 0 -473643.95489311218 -9263901.5629787445 0 0 0 0 660763.07984924316 -3902582.7964458466 0 -3902582.7964458466 3322946.2542362213 0 0 0 0 21616474.721281052 2142409.1437430382 0 2142409.1437430382 -18937724.784589767 0 0 0 0 3678705.6584801227 -108841.08065892383 0 -108841.08065892383 -748196.58765527979 0 0 0 0 1112279.6388196908 -111854.83183862269 0 -111854.83183862269 -228148.57145678252 0 0 0 0 -11078836.046920776 40772888.182984352 0 40772888.182984352 -46508639.753818512 0 0 0 0 -18079561.625350952 35775008.368091583 0 35775008.368091583 -18265070.987010956 0 0 0 0 -16132261.137153625 16351986.408567429 0 16351986.408567429 -5470874.3247356415 0 0 0 0 10998811.744873047 50350660.064504623 0 50350660.064504623 -56754797.986272812 0 0 0 0 -9500641.2363529205 47936919.922737598 0 47936919.922737598 -55418068.691123962 0 0 0 0 -818317.95027923584 23921644.968612671 0 23921644.968612671 -37057028.977264404 0 0 0 0 -7134267.3922996521 37742048.448171616 0 37742048.448171616 -65421681.280454636 0 0 0 0 6846551.1993953586 2562173.5544347288 0 2562173.5544347288 -2762417.3601647327 0 0 0 0 2626397.2677612305 886508.56060886383 0 886508.56060886383 -26173581.776306152 0 0 0 0 -6734176.5254173279 13057679.296132088 0 13057679.296132088 -14843243.919504166 0 0 0 0 2184104.371383667 -303588.54437637329 0 -303588.54437637329 -8727781.3176846504 0 0 0 0 -3692737.046836853 1620542.7078018188 0 1620542.7078018188 -7482777.0936927795 0 0 0 0 4403400.8495077342 1845333.1977127735 0 1845333.1977127735 -1556444.9309460595 0 0 0 0 -5947822.1087970734 -3793356.7759289742 0 -3793356.7759289742 -17753234.772636414 0 0 0 0 18401002.679840088 -3986228.5595703125 0 -3986228.5595703125 -18054924.455460548 0 0 0 0 23831823.916847229 -12684490.934410095 0 -12684490.934410095 -28117997.47448349 0 0 0 0 -9207814.1410369873 48197697.103887558 0 48197697.103887558 -165099705.16010094 0 0 0 0 2540092.885133788 857114.64354017191 0 857114.64354017191 -1529315.450643409 0 0 0 0 83633717.424545288 -15619576.730651855 0 -15619576.730651855 -28645135.505878448 0 0 0 0 -17084240.373180389 91671119.339838982 0 91671119.339838982 -135968704.11493206 0 0 0 0 -4700325.6780319214 58496285.512552261 0 58496285.512552261 -204086869.28842926 0 0 0 0 -128991118.60853577 -2205517.9648303986 0 -2205517.9648303986 -178329350.62003136 0 0 0 0 -44163882.126819611 67131691.815274239 0 67131691.815274239 -119087151.68672943 0 0 0 0 4037770.5040435791 43180941.969472885 0 43180941.969472885 -163904084.53693771 0 0 0 0 12331185.561273575 16274943.934662819 0 16274943.934662819 -96897294.012031555 0 0 0 0 3208889.4530944824 74899659.520965576 0 74899659.520965576 -131625911.00409317 0 0 0 0 -21963213.737327576 91982444.348903656 0 91982444.348903656 -50540983.219137192 0 0 0 0 -15879971.52986908 100088774.65766048 0 100088774.65766048 -87710183.692432404 0 0 0 0 -49654735.201698303 111323113.42807388 0 111323113.42807388 -49139002.707899094 0 0 0 0 -19648416.43044281 127718069.44154644 0 127718069.44154644 -71234212.539600372 0 0 0 0 -830263.01263332367 85542405.673899651 0 85542405.673899651 -53236572.410663605 0 0 0 0 -10404528.712844849 89038057.407072067 0 89038057.407072067 -26176826.964687347 0 0 0 0 -19438284.95697403 124060835.92118955 0 124060835.92118955 -76895634.69836998 0 0 0 0 -84341084.046909332 163457204.75013161 0 163457204.75013161 -99397988.222278595 0 0 0 0 96111427.40404892 -20764484.101371765 0 -20764484.101371765 -135844121.10289955 0 0 0 0 -145095316.65657425 46396513.319084167 0 46396513.319084167 42405462.516311646 0 0 0 0 -154197980.5801549 107194590.28029811 0 107194590.28029811 -989002.58659934998 0 0 0 0 504049.81114281714 598523.61556457728 0 598523.61556457728 -1883899.7385762036 0 0 0 0 27512716.81930542 -70236689.873968124 0 -70236689.873968124 33788535.611555099 0 0 0 0 -41810500.62509346 11716837.951142311 0 11716837.951142311 -63000853.60565567 0 0 0 0 -30674034.343449593 41377203.370891094 0 41377203.370891094 -22321528.483270645 0 0 0 0 -26979256.228378296 51610681.148202896 0 51610681.148202896 -48388041.627925873 0 0 0 0 -27206515.41917038 78670955.361012459 0 78670955.361012459 -75156087.0785923 0 0 0 0 111739334.62566376 87365039.573698997 0 87365039.573698997 -38848314.038510323 0 0 0 0 96878968.275488853 121227682.22645545 0 121227682.22645545 19798626.261711121 0 0 0 0 226275998.91218185 101398276.59166622 0 101398276.59166622 -60510569.629142761 0 0 0 0 -37470950.202934265 50946913.461886406 0 50946913.461886406 555661.93818187714 0 0 0 0 -31649197.578327179 92022417.345228195 0 92022417.345228195 -32364807.202220917 0 0 0 0 113370139.61774445 69567840.109460831 0 69567840.109460831 -39671998.253623009 0 0 0 0 -202407840.57593918 133870837.27031898 0 133870837.27031898 20140788.496845245 0 0 0 0 -137165065.95311928 -35328504.820910454 0 -35328504.820910454 8125720.8714561462 0 0 0 0 314577168.08988762 147294850.01576138 0 147294850.01576138 -61367985.738077164 0 0 0 0 127395327.84799957 37679396.156404495 0 37679396.156404495 -55886378.5522995 0 0 0 0 231608093.66952133 77846507.709266663 0 77846507.709266663 42334985.972208977 0 0 0 0 7345606.2286911234 3846707.1408375986 0 3846707.1408375986 2506515.6758999713 0 0 0 0 194984123.96318245 136455832.34645271 0 136455832.34645271 10537774.04996109 0 0 0 0 110269308.41326237 34794595.647660255 0 34794595.647660255 -19734392.183763504 0 0 0 0 32883752.476978302 14455632.099039078 0 14455632.099039078 19165902.331089973 0 0 0 0 2144908.3295595981 1215880.9167930894 0 1215880.9167930894 588954.39768475294 0 0 0 0 -4742281.2046957016 88363747.096054077 0 88363747.096054077 -176711272.91509438 0 0 0 0 -29814776.380653381 115651716.31488514 0 115651716.31488514 -34086059.462088585 0 0 0 0 342824482.21917534 67786424.196196079 0 67786424.196196079 -130634645.00581932 0 0 0 0 267227804.86534214 213248854.8254838 0 213248854.8254838 59276545.533718109 0 0 0 0 275372677.32500553 220519152.62927198 0 220519152.62927198 -270474817.88249397 0 0 0 0 274683151.79517365 52182104.272096634 0 52182104.272096634 -474705552.2806282 0 0 0 0 138894860.14944458 -86236157.554512024 0 -86236157.554512024 -505836581.30676174 0 0 0 0 -53815615.959899902 53988175.630016327 0 53988175.630016327 -178968927.03381634 0 0 0 0 68728333.318878174 379082099.84131241 0 379082099.84131241 745370423.51580334 0 0 0 0 1653212.0707150623 811333.84065136965 0 811333.84065136965 -504163.39584656805 0 0 0 0 158902363.97717285 298702399.1714344 0 298702399.1714344 684446410.45810318 0 0 0 0 156286807.67283058 259137382.70044756 0 259137382.70044756 316169585.98215103 0 0 0 0 129961300.63327026 255210228.26565933 0 255210228.26565933 693932515.6341486 0 0 0 0 309950394.04182434 133630363.54961395 0 133630363.54961395 371665588.8144722 0 0 0 0 367758638.40302658 300086638.16518927 0 300086638.16518927 183004424.8896122 0 0 0 0 149961420.03999329 30173335.221307755 0 30173335.221307755 75489808.086872101 0 0 0 0 161096693.40200806 455613399.14900208 0 455613399.14900208 606127385.08981133 0 0 0 0 77233105.495471954 107278603.86773014 0 107278603.86773014 11264192.65549469 0 0 0 0 -19800334.298599243 43507185.230930328 0 43507185.230930328 75194119.743846893 0 0 0 0 64738406.960266113 101014345.96676064 0 101014345.96676064 169010815.2960186 0 0 0 0 68161177.900295258 92311509.941997766 0 92311509.941997766 45533327.405796051 0 0 0 0 -25927809.047775269 66318502.089683533 0 66318502.089683533 65624546.360383987 0 0 0 0 -38106832.185955048 88086792.647395134 0 88086792.647395134 44812167.088096619 0 0 0 0 -58545223.884185791 61191019.385471344 0 61191019.385471344 27152548.493303299 0 0 0 0 -75291360.13218689 52387651.127700806 0 52387651.127700806 60885431.037265778 0 0 0 0 -90299149.023059845 73126675.733549595 0 73126675.733549595 14276076.564289093 0 0 0 0 -19227514.135978699 54946205.90953064 0 54946205.90953064 15787251.390399933 0 0 0 0 -21368641.691268921 15552729.670897484 0 15552729.670897484 -29340604.569876194 0 0 0 0 -62527240.237800598 92654195.864985466 0 92654195.864985466 -152420611.42785263 0 0 0 0 99947730.380950928 97477011.447559357 0 97477011.447559357 -273761430.98228073 0 0 0 0 -30771092.384487152 62582655.647524834 0 62582655.647524834 1242939.938044548 0 0 0 0 183301.38870760053 1169904.3187367748 0 1169904.3187367748 -132157.7800370045 0 0 0 0 43699286.606666565 152605265.5884552 0 152605265.5884552 268877709.76404476 0 0 0 0 85333762.672362804 176506342.44420099 0 176506342.44420099 114630426.32941437 0 0 0 0 80901117.885040283 146127254.56113815 0 146127254.56113815 -24329796.407024384 0 0 0 0 14335161.704536438 128358310.49072456 0 128358310.49072456 -80652584.349880219 0 0 0 0 -14089581.498153687 49360240.48147583 0 49360240.48147583 2692425.0559082031 0 0 0 0 56979646.081306458 66976103.838476181 0 66976103.838476181 -148064670.44544411 0 0 0 0 119141854.78872681 122891268.03882599 0 122891268.03882599 -86368575.419002533 0 0 0 0 10359542.360305786 210290913.78326035 0 210290913.78326035 100357009.41313171 0 0 0 0 198871356.08939362 293803291.73078346 0 293803291.73078346 193009879.09047127 0 0 0 0 214025680.77481174 179388598.9736172 0 179388598.9736172 96846517.625022888 0 0 0 0 86716296.41960144 155104261.6851635 0 155104261.6851635 328058150.22203445 0 0 0 0 140185629.84831238 161636224.39847374 0 161636224.39847374 -107320316.12026215 0 0 0 0 74146367.67842865 -21560504.454046249 0 -21560504.454046249 -113717954.14473915 0 0 0 0 187818266.10699844 190958527.94243908 0 190958527.94243908 7219978.0125408173 0 0 0 0 16479103.666351318 14544067.259138107 0 14544067.259138107 104855801.12355852 0 0 0 0 40468812.946876526 -159870133.52157593 0 -159870133.52157593 -498175987.6605854 0 0 0 0 56026209.164283037 99150663.422735155 0 99150663.422735155 -235460945.94560623 0 0 0 0 354849.30066316575 4312645.2519380664 0 4312645.2519380664 -459008.81576956809 0 0 0 0 6683716.6463775635 14698030.546035767 0 14698030.546035767 -457015579.72982204 0 0 0 0 102749867.44019318 -36888108.468490601 0 -36888108.468490601 -458670993.78909492 0 0 0 0 56677365.367141724 74733228.386817932 0 74733228.386817932 68263317.975426674 0 0 0 0 -158963818.83959961 75781324.559707642 0 75781324.559707642 -192360213.12073517 0 0 0 0 -22159362.643707275 -20616939.511112213 0 -20616939.511112213 -177411231.66682816 0 0 0 0 93839.919634141028 384055.07652828842 0 384055.07652828842 86620.612040147185 0 0 0 0 -122879394.36068726 -215876031.41384506 0 -215876031.41384506 -502324637.81536865 0 0 0 0 -12483872.959663391 64932173.850193024 0 64932173.850193024 -154279353.78627777 0 0 0 0 9195042.6204071045 160767041.38859177 0 160767041.38859177 -448052631.53482437 0 0 0 0 58237271.389862061 11711696.512229919 0 11711696.512229919 -179131130.90257454 0 0 0 0 -45079695.864929199 226825006.74330521 0 226825006.74330521 -151259187.91912079 0 0 0 0 40473362.933000565 85704928.43392992 0 85704928.43392992 86204809.249214172 0 0 0 0 42244273.495674133 77154282.018066406 0 77154282.018066406 104405618.78172684 0 0 0 0 74468850.573005676 96048799.621982574 0 96048799.621982574 90367579.359427452 0 0 0 0 55837924.53886795 107037197.28965282 0 107037197.28965282 121496326.56827164 0 0 0 0 55074059.689002991 70110754.867544174 0 70110754.867544174 77441269.08801651 0 0 0 0 33929374.223011017 87892602.092365742 0 87892602.092365742 130524248.19635773 0 0 0 0 83244580.91979599 115580907.90214539 0 115580907.90214539 111589913.14815331 0 0 0 0 89901989.882442474 126431494.81040382 0 126431494.81040382 120166024.15564156 0 0 0 0 90577770.114658356 128749552.82110882 0 128749552.82110882 112873876.74275208 0 0 0 0 74704639.189853668 115238419.39797211 0 115238419.39797211 119957907.0032959 0 0 0 0 96103957.429290771 108781961.13031197 0 108781961.13031197 88890739.508698463 0 0 0 0 54245932.547119141 91152616.72328186 0 91152616.72328186 101727963.99399567 0 0 0 0 -6823380.0287017822 85751757.302595139 0 85751757.302595139 173083370.62564206 0 0 0 0 -6674290.1668319702 85848044.506177902 0 85848044.506177902 147524853.40471649 0 0 0 0 -2393335.000869751 29709736.680343628 0 29709736.680343628 160729608.05277538 0 0 0 0 27215195.332107544 43753576.656751633 0 43753576.656751633 69132479.403869629 0 0 0 0 26820597.472396851 85301115.351509094 0 85301115.351509094 23209486.261253357 0 0 0 0 -5637588.2226638794 71241793.96181488 0 71241793.96181488 99376886.07144928 0 0 0 0 5389689.5179347992 48865043.294209003 0 48865043.294209003 85926659.120597839 0 0 0 0 33445369.231658936 85221080.891654968 0 85221080.891654968 125046109.86327648 0 0 0 0 74763038.251785278 117558859.67251301 0 117558859.67251301 142683196.57042694 0 0 0 0 31436571.341796875 88008240.791200638 0 88008240.791200638 134281015.5443058 0 0 0 0 -6636380.2617275529 3376633.5889173485 0 3376633.5889173485 4442067.279673595 0 0 0 0 125910583.40353191 204361328.46039641 0 204361328.46039641 100724549.15454483 0 0 0 0 111204251.77919388 152392271.61756134 0 152392271.61756134 133113789.28389311 0 0 0 0 -18373856.936239958 26036190.396539539 0 26036190.396539539 -16632020.988225166 0 0 0 0 -78421495.171886444 15743985.791596413 0 15743985.791596413 79200090.477441788 0 0 0 0 -29582890.482627869 258650639.64358521 0 258650639.64358521 267278905.02129698 0 0 0 0 110231629.72274017 306831754.64308643 0 306831754.64308643 272992308.26637268 0 0 0 0 -22919224.3446481 28592153.226039227 0 28592153.226039227 -14014203.798643958 0 0 0 0 29544193.473049164 201465554.32733536 0 201465554.32733536 365395931.03475952 0 0 0 0 128021854.77873206 185931280.48044884 0 185931280.48044884 70725608.547554016 0 0 0 0 -6430705.4879074097 66081228.338704109 0 66081228.338704109 228158623.84109402 0 0 0 0 -8123466.9711360931 288704378.60134315 0 288704378.60134315 14741891.354623795 0 0 0 0 128797819.94844007 179103120.87448192 0 179103120.87448192 -59809502.314903259 0 0 0 0 152823254.75498581 141362386.2033453 0 141362386.2033453 58307744.417575836 0 0 0 0 160543185.40333557 154458593.80887985 0 154458593.80887985 63740713.468154907 0 0 0 0 129969280.08366966 166989470.68384171 0 166989470.68384171 65052169.709934235 0 0 0 0 187765669.2714839 185142881.88257456 0 185142881.88257456 69352813.23400116 0 0 0 0 200431735.96629143 135779656.05566597 0 135779656.05566597 52884343.947750092 0 0 0 0 43555317.676690578 58761933.228999138 0 58761933.228999138 23879112.80544281 0 0 0 0 82102089.457382202 141655894.26130676 0 141655894.26130676 197751268.79401588 0 0 0 0 82692037.11784935 88013326.018806934 0 88013326.018806934 174919816.68610382 0 0 0 0 114840976.3398819 108600722.03923988 0 108600722.03923988 120878592.24727058 0 0 0 0 61749224.39440918 -21880999.403688431 0 -21880999.403688431 22190167.908641815 0 0 0 0 -13469333.71541933 15991469.800722629 0 15991469.800722629 -14792555.223809496 0 0 0 0 95646557.971244812 129521302.81476021 0 129521302.81476021 121116792.62957621 0 0 0 0 4519333.4120561182 7157636.5630231332 0 7157636.5630231332 -8750051.4618196115 0 0 0 0 283974289.11654663 198884498.49142647 0 198884498.49142647 95039748.847185135 0 0 0 0 -302865311.67162323 30410696.847486496 0 30410696.847486496 236136998.39813042 0 0 0 0 -758046521.57956696 86123141.627260208 0 86123141.627260208 230268972.22406864 0 0 0 0 288994009.42017365 -5322829.1895675659 0 -5322829.1895675659 120506026.94263458 0 0 0 0 -364704038.32446861 186667830.7006917 0 186667830.7006917 81281198.090782166 0 0 0 0 -1162664424.0858459 -611604825.91771269 0 -611604825.91771269 387407257.37726593 0 0 0 0 460398597.74251556 105116188.53810501 0 105116188.53810501 -60349335.181034088 0 0 0 0 423087748.20701599 171899689.88294792 0 171899689.88294792 -140516625.86381316 0 0 0 0 -323548473.43574142 511640106.56291008 0 511640106.56291008 -100650641.90420151 0 0 0 0 -7833873.4529605433 11022001.759323452 0 11022001.759323452 -15065747.512698047 0 0 0 0 -412617971.92811584 476146544.79831314 0 476146544.79831314 -814266412.39417267 0 0 0 0 299449496.85892296 229636803.66400337 0 229636803.66400337 137774989.7600174 0 0 0 0 276079211.96286011 225499880.1676178 0 225499880.1676178 146822608.31922531 0 0 0 0 316423585.40016174 284149881.18189907 0 284149881.18189907 237577433.18560791 0 0 0 0 244094076.53054047 382132042.1328516 0 382132042.1328516 330003134.93553162 0 0 0 0 451547112.7040329 430806585.22186852 0 430806585.22186852 301631735.81117249 0 0 0 0 591223206.76281357 362665565.71167183 0 362665565.71167183 154185734.69869232 0 0 0 0 507828558.65621185 317992573.08930588 0 317992573.08930588 180262252.81609344 0 0 0 0 -1230596972.9645386 -396010094.84963036 0 -396010094.84963036 5399162.1968078613 0 0 0 0 -1269540.0531488135 2123109.8472720832 0 2123109.8472720832 -3681896.4028648399 0 0 0 0 -4802342.0334464535 6925270.0235199202 0 6925270.0235199202 -10042970.934895873 0 0 0 0 598886372.15503263 437097844.49143374 0 437097844.49143374 261261276.79837799 0 0 0 0 -32778357.621248007 256854843.42788053 0 256854843.42788053 453129481.37719345 0 0 0 0 -14490749.094589233 208246683.00887108 0 208246683.00887108 314911418.77223778 0 0 0 0 131592739.08177185 227832898.6154995 0 227832898.6154995 245266405.51030159 0 0 0 0 133772059.2700386 226733361.70149803 0 226733361.70149803 210725528.77588272 0 0 0 0 267621991.37401259 307624780.50158131 0 307624780.50158131 257910810.59899521 0 0 0 0 -24777708.169366837 306846431.71145248 0 306846431.71145248 400397311.97838783 0 0 0 0 90610195.578895092 299697559.83789039 0 299697559.83789039 393016377.51877975 0 0 0 0 93713087.558841705 295577916.78863525 0 295577916.78863525 292545089.46870613 0 0 0 0 -19090490.233706474 291056830.62452221 0 291056830.62452221 443582255.06759644 0 0 0 0 -152852142.80796146 350824064.07495594 0 350824064.07495594 423468320.93540573 0 0 0 0 -177477131.46051025 416121939.55473018 0 416121939.55473018 178549658.32700348 0 0 0 0 -24815936.379394531 333347404.79072762 0 333347404.79072762 219742465.3292408 0 0 0 0 -48103231.423315048 372350258.45240498 0 372350258.45240498 365465658.69317627 0 0 0 0 144579501.35282135 507734287.61356926 0 507734287.61356926 193278734.06310272 0 0 0 0 92917601.572241783 416387060.56677341 0 416387060.56677341 345524918.38423538 0 0 0 0 179731778.47767258 333477858.56477356 0 333477858.56477356 353087425.5766468 0 0 0 0 277196058.47549629 458063183.30073357 0 458063183.30073357 369239216.36565399 0 0 0 0 456636663.47117233 379893860.98810196 0 379893860.98810196 289492537.56306267 0 0 0 0 427206781.58546829 400728281.02149963 0 400728281.02149963 292307146.56151962 0 0 0 0 492050331.21588898 457648167.31496811 0 457648167.31496811 361480925.54830933 0 0 0 0 573924092.42487335 350643969.2810936 0 350643969.2810936 383511796.72568512 0 0 0 0 726853380.76327515 269700327.08125687 0 269700327.08125687 360980629.42483997 0 0 0 0 683137376.65994263 399221679.415905 0 399221679.415905 302665362.38295174 0 0 0 0 427883542.89946747 452712488.26275444 0 452712488.26275444 363925119.29714584 0 0 0 0 1124224998.0674667 434875033.88574982 0 434875033.88574982 156574755.06978607 0 0 0 0 1109754882.1115155 825443239.75003386 0 825443239.75003386 114553088.39665222 0 0 0 0 679142466.2722168 569162521.88212013 0 569162521.88212013 180530990.32175446 0 0 0 0 702512520.83370018 472592618.46693659 0 472592618.46693659 219271622.76811218 0 0 0 0 427161317.12097931 497808652.15125465 0 497808652.15125465 247058387.28264999 0 0 0 0 649506157.93582153 611969186.43824387 0 611969186.43824387 244356056.30492401 0 0 0 0 622319443.88435364 610700922.17557526 0 610700922.17557526 184292219.8100853 0 0 0 0 389365225.02571106 538015711.34550667 0 538015711.34550667 195607628.02216363 0 0 0 0 685776023.22321928 904017832.94391847 0 904017832.94391847 278832073.14595795 0 0 0 0 272420950.01245785 401681318.15092421 0 401681318.15092421 64013081.625015259 0 0 0 0 207360041.77898026 404736218.24790382 0 404736218.24790382 327668487.70133018 0 0 0 0 457783150.41321373 471139551.17903233 0 471139551.17903233 181576138.08433533 0 0 0 0 231106874.9906311 429447896.48958778 0 429447896.48958778 212864896.18822861 0 0 0 0 304680923.6439209 410857166.81110859 0 410857166.81110859 15982051.871623993 0 0 0 0 58152547.563235283 310498237.41997623 0 310498237.41997623 107764844.11021423 0 0 0 0 260031605.61101532 392650585.75279713 0 392650585.75279713 146605265.53546512 0 0 0 0 266360216.53623843 445407429.13599944 0 445407429.13599944 364291180.77793121 0 0 0 0 469627112.2126255 695460635.88206291 0 695460635.88206291 310669961.01718903 0 0 0 0 422676750.83817291 535370201.57689095 0 535370201.57689095 136494831.87529373 0 0 0 0 163830943.78258133 230370456.87459421 0 230370456.87459421 -316898642.95651817 0 0 0 0 134078626.11303139 220434007.09675312 0 220434007.09675312 151314194.62753201 0 0 0 0 -4158052.1707286835 448546501.93579388 0 448546501.93579388 -520309867.09525728 0 0 0 0 -21890152.433639526 -41599950.453568935 0 -41599950.453568935 -296198942.8276906 0 0 0 0 -566334954.97248173 307361717.39956212 0 307361717.39956212 151207723.20855713 0 0 0 0 4195268.1511764526 350254999.15904045 0 350254999.15904045 89569022.267513275 0 0 0 0 9248770.5677261353 178455641.2472651 0 178455641.2472651 41894505.191059113 0 0 0 0 7924744.1250543594 343382716.44890332 0 343382716.44890332 79328435.21446991 0 0 0 0 -68793622.702926636 319410080.87420845 0 319410080.87420845 144908230.7021246 0 0 0 0 -29496270.802452087 304614485.09697533 0 304614485.09697533 149153327.1767149 0 0 0 0 -29338804.399688721 287478903.30792522 0 287478903.30792522 127771260.71156406 0 0 0 0 82758338.592697144 280472747.05692673 0 280472747.05692673 115910303.33166885 0 0 0 0 81081291.320873499 238984440.15569633 0 238984440.15569633 96988773.102081299 0 0 0 0 15289277.541770935 309395058.45032787 0 309395058.45032787 107800300.40301704 0 0 0 0 159985676.48327637 295863821.10067177 0 295863821.10067177 62953880.760828018 0 0 0 0 26089387.726661682 366731137.98937702 0 366731137.98937702 69613970.768737793 0 0 0 0 140488992.41753769 258145889.23126125 0 258145889.23126125 90608155.393325806 0 0 0 0 218545158.0185585 320144958.3462081 0 320144958.3462081 113015860.97043991 0 0 0 0 271558502.53121948 209344155.18724251 0 209344155.18724251 97197728.906982422 0 0 0 0 271777483.87284851 248650148.05954742 0 248650148.05954742 56918531.983383179 0 0 0 0 200041675.69229126 285468935.43358994 0 285468935.43358994 48190311.663979053 0 0 0 0 -240871098.55720007 74737890.424090818 0 74737890.424090818 31067073.547674179 0 0 0 0 5825702.9457092285 328004693.70701408 0 328004693.70701408 44409551.147611618 0 0 0 0 -891295663.829319 94270873.729570389 0 94270873.729570389 300252675.31811333 0 0 0 0 -224395154.88491821 430196121.33655453 0 430196121.33655453 115356407.44880199 0 0 0 0 -18386671.708740234 296264006.25806379 0 296264006.25806379 92173202.004615784 0 0 0 0 971033384.31443024 333400958.39546871 0 333400958.39546871 248644820.1925745 0 0 0 0 1196756.9148757756 842206.82478084788 0 842206.82478084788 -5177504.3537918944 0 0 0 0 493863406.98099899 255655456.07517242 0 255655456.07517242 419563895.40311623 0 0 0 0 296474370.47580338 214018191.94320965 0 214018191.94320965 364061169.62946033 0 0 0 0 420372059.00402832 407936664.67623138 0 407936664.67623138 252302359.27614403 0 0 0 0 852313302.88088608 507411194.45703983 0 507411194.45703983 210387794.36494446 0 0 0 0 656891975.32770157 72684028.50438118 0 72684028.50438118 -30353031.781166077 0 0 0 0 86302634.554420471 580693773.52348709 0 580693773.52348709 280477672.34042358 0 0 0 0 -273964.83558944613 4505862.14495923 0 4505862.14495923 -11264043.291524958 0 0 0 0 167025991.84357738 273627782.77117014 0 273627782.77117014 114538066.35870361 0 0 0 0 166768210.79973602 269775420.27234554 0 269775420.27234554 58944529.496761322 0 0 0 0 78271608.598892212 233246488.47017384 0 233246488.47017384 134378185.71366501 0 0 0 0 232615272.16495514 162432095.33420372 0 162432095.33420372 193031166.14625931 0 0 0 0 162414680.19086456 294108063.04951954 0 294108063.04951954 77395784.074558258 0 0 0 0 -2194096969.2644234 257497175.93390846 0 257497175.93390846 799688510.21206665 0 0 0 0 -994973841.79418564 -881714836.51255608 0 -881714836.51255608 -245890298.6975708 0 0 0 0 229872060.05805206 818168821.37740135 0 818168821.37740135 263194583.3262558 0 0 0 0 -552065936.56425476 -146213316.69098663 0 -146213316.69098663 -461545486.31192017 0 0 0 0 -1185089.5910502579 1933572.4104226287 0 1933572.4104226287 -3711005.6708740778 0 0 0 0 530294116.50329494 309201115.40514922 0 309201115.40514922 18385815.514631271 0 0 0 0 -2454949.8977362067 5622552.3976929449 0 5622552.3976929449 -9980033.5153520741 0 0 0 0 468786556.70439148 146993788.61309433 0 146993788.61309433 32399981.094141006 0 0 0 0 150477043.70475769 288331009.45436668 0 288331009.45436668 38057224.378162384 0 0 0 0 234391405.68231964 190541970.69129753 0 190541970.69129753 109315262.85398054 0 0 0 0 322563806.04819489 275807403.64353943 0 275807403.64353943 13729657.832492828 0 0 0 0 306943966.81268311 197544347.22626305 0 197544347.22626305 27703950.707809448 0 0 0 0 274613853.73034668 248263436.19223976 0 248263436.19223976 -30403040.904121399 0 0 0 0 177487203.28530884 201461445.10378265 0 201461445.10378265 14541571.26656723 0 0 0 0 82195045.733695984 258664612.62093925 0 258664612.62093925 6461217.6735725403 0 0 0 0 163610524.89907837 250437348.16082573 0 250437348.16082573 -74452945.607128143 0 0 0 0 -70268898.14781189 305908399.46668434 0 305908399.46668434 26236419.633996487 0 0 0 0 82183330.831169128 281995153.97931671 0 281995153.97931671 -154568717.83264923 0 0 0 0 -15174403.37638855 335777993.60409451 0 335777993.60409451 16396929.638542175 0 0 0 0 148209256.38364029 276123065.02309513 0 276123065.02309513 -21840931.859897614 0 0 0 0 29452899.655780792 314204678.18523169 0 314204678.18523169 93662668.504457474 0 0 0 0 20100219.378688812 276654370.85603905 0 276654370.85603905 115203367.87368774 0 0 0 0 -146793810.53210831 289742592.46656799 0 289742592.46656799 122452721.2539978 0 0 0 0 44308285.396598816 245272865.02130127 0 245272865.02130127 130995738.13144684 0 0 0 0 -18475053.140518188 295384750.09541321 0 295384750.09541321 -10540648.867332458 0 0 0 0 -64128664.55380249 266283501.21510887 0 266283501.21510887 -1605919.5895867348 0 0 0 0 -136837685.3804245 358388336.54736328 0 358388336.54736328 -113542378.25414658 0 0 0 0 -99498707.823425293 226407727.81282258 0 226407727.81282258 -278441690.36964798 0 0 0 0 -199112063.12252045 306436586.80403042 0 306436586.80403042 -395742780.26566696 0 0 0 0 -504268276.50733185 122703039.49647713 0 122703039.49647713 -249228751.59840393 0 0 0 0 -512000.00733947754 120568385.02394104 0 120568385.02394104 -483878574.98539448 0 0 0 0 -6109482.4325714111 166787607.9993248 0 166787607.9993248 -299319193.58134079 0 0 0 0 75995584.340309143 168029432.92601013 0 168029432.92601013 -118482286.71878529 0 0 0 0 37946707.635780334 247356659.96106768 0 247356659.96106768 -268165798.09420013 0 0 0 0 188652470.44651794 198401626.4183712 0 198401626.4183712 -119580283.51692009 0 0 0 0 81298937.857498169 190788443.48465157 0 190788443.48465157 -57217295.996243477 0 0 0 0 95469643.216930389 60664658.365699768 0 60664658.365699768 -72023923.621105194 0 0 0 0 96628720.09413147 86043899.652239799 0 86043899.652239799 -170529619.1108284 0 0 0 0 26159729.945770264 28337457.202798843 0 28337457.202798843 -208670394.58665276 0 0 0 0 -40059269.013412476 -57714116.019207001 0 -57714116.019207001 -58364187.445987701 0 0 0 0 47163281.088531494 -5311665.5777158737 0 -5311665.5777158737 -27365649.027488708 0 0 0 0 10217858.895905852 4287341.0275513902 0 4287341.0275513902 -3925977.9573467979 0 0 0 0 -44345656.066680908 -94370261.495220184 0 -94370261.495220184 -305744105.22154617 0 0 0 0 32900190.551109314 80656213.350902557 0 80656213.350902557 86757138.211561203 0 0 0 0 -177765080.51372147 54608555.384308815 0 54608555.384308815 -12545377.803403854 0 0 0 0 290209.30692130327 5289807.3854837827 0 5289807.3854837827 -2166029.0204330119 0 0 0 0 1331959.8435156569 1069479.0664195418 0 1069479.0664195418 -2232675.4563531801 0 0 0 0 460052773.04734039 103830336.2163887 0 103830336.2163887 2223718.9449768066 0 0 0 0 480155779.3652668 122503770.20475721 0 122503770.20475721 -65143962.209762573 0 0 0 0 429113502.69358826 128704115.87049484 0 128704115.87049484 102237335.61949825 0 0 0 0 382931312.14343262 241425124.19793129 0 241425124.19793129 143265523.90995598 0 0 0 0 492018267.58853149 155059018.54899979 0 155059018.54899979 -34378432.343082428 0 0 0 0 399827740.02554703 187557762.61602306 0 187557762.61602306 -13557376.174499512 0 0 0 0 204734332.92617798 133929214.26314926 0 133929214.26314926 5815406.5436820984 0 0 0 0 313524036.87027359 216313154.80873585 0 216313154.80873585 -26766964.139850616 0 0 0 0 395158175.17340469 250505998.74710655 0 250505998.74710655 -5186925.6879425049 0 0 0 0 354131785.23273468 158174743.79755783 0 158174743.79755783 34173073.521823883 0 0 0 0 205576388.48571777 154466383.90681839 0 154466383.90681839 -6277974.4819440842 0 0 0 0 192257241.85931396 148361338.51333618 0 148361338.51333618 -3428355.0082092285 0 0 0 0 23418864.426467896 -8289022.8788394928 0 -8289022.8788394928 27308375.008118629 0 0 0 0 120600291.81064606 173605553.85900879 0 173605553.85900879 168117512.14124107 0 0 0 0 409380035.48872375 272426856.20696354 0 272426856.20696354 43281248.683635712 0 0 0 0 426538171.78286743 421494818.24235916 0 421494818.24235916 336327780.58025742 0 0 0 0 497494156.1876297 163217374.39445114 0 163217374.39445114 -46470647.912220001 0 0 0 0 510243217.51817703 176928371.83759022 0 176928371.83759022 -58402484.838233948 0 0 0 0 772775359.0308075 120512926.42666817 0 120512926.42666817 -224286497.37365913 0 0 0 0 758548963.41266632 318455170.21650887 0 318455170.21650887 -54723208.050498366 0 0 0 0 476827304.50520325 58801287.487413406 0 58801287.487413406 -71563436.790706635 0 0 0 0 560167937.61829376 131437908.81219101 0 131437908.81219101 -67803354.667015076 0 0 0 0 3536193.0442951024 1491496.0416161567 0 1491496.0416161567 -1238603.0037949979 0 0 0 0 562592.22264355421 1641330.6668289388 0 1641330.6668289388 -1779092.714344807 0 0 0 0 1010889926.594696 -96503418.428823471 0 -96503418.428823471 -533059073.5602951 0 0 0 0 -538091056.86398315 304231244.84185028 0 304231244.84185028 -490456706.26678753 0 0 0 0 137315953.63943481 282347320.86199188 0 282347320.86199188 221367462.75046921 0 0 0 0 217747361.01712799 265245516.67793846 0 265245516.67793846 47061197.055942535 0 0 0 0 123037680.61829758 57415072.340076447 0 57415072.340076447 -46793258.418827057 0 0 0 0 195582919.41145134 127733430.84893894 0 127733430.84893894 -454872536.33084106 0 0 0 0 72310195.768882751 146452387.00381851 0 146452387.00381851 51307655.24723053 0 0 0 0 81455158.618377686 89906546.201519966 0 89906546.201519966 77988918.852882385 0 0 0 0 -5514227.1884161457 5999078.1141051129 0 5999078.1141051129 -1628353.0174715035 0 0 0 0 106921220.58148956 189451756.48213959 0 189451756.48213959 247637793.85586596 0 0 0 0 89854795.685256958 118039163.76438713 0 118039163.76438713 95087437.544480801 0 0 0 0 79324088.120880127 126013597.95009995 0 126013597.95009995 141748737.09154129 0 0 0 0 25098231.43724823 25937773.057104111 0 25937773.057104111 14746749.750959396 0 0 0 0 40222448.061649323 37724058.863636971 0 37724058.863636971 -36794586.730560303 0 0 0 0 33219581.807041168 47808856.08300209 0 47808856.08300209 6895338.4031677246 0 0 0 0 -4879717.2338821366 7331830.1299589537 0 7331830.1299589537 -4440961.6153228134 0 0 0 0 102012448.57342148 13845454.491314888 0 13845454.491314888 -16108789.138432503 0 0 0 0 26290396.418872833 8278448.4265842438 0 8278448.4265842438 -1126793.1908111572 0 0 0 0 13333441.661590576 14626868.326497078 0 14626868.326497078 13192186.902580261 0 0 0 0 11762215.921051025 20080484.821113586 0 20080484.821113586 295321.9905796051 0 0 0 0 5245025.3671426773 -18146836.262955487 0 -18146836.262955487 -49337348.084693909 0 0 0 0 1980952.7616167665 2595448.7249014843 0 2595448.7249014843 -3446048.8028948233 0 0 0 0 -19872712.076820374 13753736.854169846 0 13753736.854169846 -6443064.2608623505 0 0 0 0 72766165.327796936 38017507.097536087 0 38017507.097536087 -26724579.894613266 0 0 0 0 255432685.96999359 364675528.66442966 0 364675528.66442966 227543829.14923954 0 0 0 0 760438.95669221878 -114878160.77612203 0 -114878160.77612203 -233920454.88351059 0 0 0 0 465849.72110617906 992462.19144596346 0 992462.19144596346 -1150628.1051883157 0 0 0 0 55438411.696838379 138345444.02103043 0 138345444.02103043 267367835.36658382 0 0 0 0 80248516.01663208 48689936.834470749 0 48689936.834470749 33875229.813229382 0 0 0 0 87545857.913597107 64839325.474151611 0 64839325.474151611 54059861.315156937 0 0 0 0 4876251.1958990544 11692484.813089497 0 11692484.813089497 -339865.03675688803 0 0 0 0 133903413.73406601 182780094.64507484 0 182780094.64507484 -41292155.285905838 0 0 0 0 195762562.37850952 74726528.410064697 0 74726528.410064697 15464154.449430466 0 0 0 0 444272666.28505707 62567800.536901474 0 62567800.536901474 -162536558.47510195 0 0 0 0 2511702.8921710625 7583927.1589005068 0 7583927.1589005068 -988239.95637274161 0 0 0 0 -1536176419.6567345 665125442.39484262 0 665125442.39484262 69716128.183158875 0 0 0 0 -1319268312.9860268 205418535.15236259 0 205418535.15236259 -122961723.4295578 0 0 0 0 358320.39027288556 2467469.2075158954 0 2467469.2075158954 -3391074.4997335151 0 0 0 0 -1449692345.927742 317904909.97770977 0 317904909.97770977 88635048.823536873 0 0 0 0 624507270.72190094 -285135079.65545559 0 -285135079.65545559 -78903335.598011017 0 0 0 0 890631969.81789398 -209408072.09390163 0 -209408072.09390163 -180308894.39131927 0 0 0 0 366359152.41353607 82889290.632303238 0 82889290.632303238 -106810687.50278091 0 0 0 0 316831040.54991913 3712804.8139457703 0 3712804.8139457703 -231070651.57146549 0 0 0 0 256212933.84090042 214471690.75355506 0 214471690.75355506 -370411171.67515182 0 0 0 0 -58383909.696151733 406164191.9182663 0 406164191.9182663 -268770003.90406704 0 0 0 0 82889044.45526886 180401928.38925552 0 180401928.38925552 -190703948.79530048 0 0 0 0 86456979.717460632 256508908.52981377 0 256508908.52981377 -437426734.06648636 0 0 0 0 -433721761.14851379 69400437.729829788 0 69400437.729829788 -390667981.36706924 0 0 0 0 -189085883.38935852 326793629.77891159 0 326793629.77891159 -241229447.64895248 0 0 0 0 -112844320.92964172 264709717.34452057 0 264709717.34452057 -534060879.58489323 0 0 0 0 -105492178.95393372 337752873.81655884 0 337752873.81655884 -343765859.6111908 0 0 0 0 -195586.79865570366 1758169.6425235998 0 1758169.6425235998 -718562.81308948528 0 0 0 0 4809938.577457428 302025014.32191372 0 302025014.32191372 -660386141.0564537 0 0 0 0 -50782905.582969666 152840115.73398495 0 152840115.73398495 305697311.57163048 0 0 0 0 38645121.559394836 400719260.52658272 0 400719260.52658272 -576875480.81698418 0 0 0 0 -30563404.401115417 308186149.31002045 0 308186149.31002045 -517733153.61638451 0 0 0 0 43313379.901954651 288388232.61025047 0 288388232.61025047 -261539419.11119854 0 0 0 0 194797368.47113863 303204990.1239481 0 303204990.1239481 -421150051.80600357 0 0 0 0 3259954.6837005615 190184671.83627701 0 190184671.83627701 -117002159.36310863 0 0 0 0 345694153.70240021 383286726.95761251 0 383286726.95761251 135933353.83737564 0 0 0 0 -1830525.642202422 4403362.1492869332 0 4403362.1492869332 -3807027.097845111 0 0 0 0 564170828.98937988 559030172.86289072 0 559030172.86289072 66440764.700263977 0 0 0 0 180822868.84555244 130955574.38439178 0 130955574.38439178 -50256010.578199387 0 0 0 0 109659921.62245941 143415681.6015892 0 143415681.6015892 218043848.39916897 0 0 0 0 -297711515.86434937 158994530.55376244 0 158994530.55376244 219910055.24695301 0 0 0 0 -287766108.64509583 457827014.05667639 0 457827014.05667639 -319710205.30809402 0 0 0 0 -900621041.03429413 343064951.43006134 0 343064951.43006134 122390942.53105068 0 0 0 0 -1132888041.5084496 755856143.3238833 0 755856143.3238833 -196935041.28048897 0 0 0 0 -985138957.40361786 159550895.41376495 0 159550895.41376495 -88774287.885020018 0 0 0 0 -822505484.70827103 487960426.66168261 0 487960426.66168261 293787225.85189056 0 0 0 0 -539269877.83978653 51729355.694594622 0 51729355.694594622 48419954.156921387 0 0 0 0 -802751287.79349518 558428329.09150267 0 558428329.09150267 -161345865.36647797 0 0 0 0 -4527068.7507666918 873426.91955335438 0 873426.91955335438 3041632.7708788402 0 0 0 0 17931128.723487854 63808494.911124229 0 63808494.911124229 -145577909.42476845 0 0 0 0 -6759221.2000579834 19521767.58194828 0 19521767.58194828 25227102.486269951 0 0 0 0 25788761.073590994 144331816.96323824 0 144331816.96323824 209824224.60642242 0 0 0 0 -1450861.3201660393 -205046.3130466938 0 -205046.3130466938 938939.60963536426 0 0 0 0 -271785973.28657532 133939338.46942902 0 133939338.46942902 -105322545.67952061 0 0 0 0 82942109.053497314 258444755.24424458 0 258444755.24424458 137112440.50182343 0 0 0 0 -24007749.202670097 106833194.04495168 0 106833194.04495168 376304698.04136467 0 0 0 0 11738678.583389282 -3284696.4571828842 0 -3284696.4571828842 43382538.939066887 0 0 0 0 -5681533.8065014333 5707718.3301586956 0 5707718.3301586956 3752321.9218425658 0 0 0 0 -326606380.83914185 372715372.28344154 0 372715372.28344154 -389392124.96277142 0 0 0 0 307019364.85529327 231932708.5085659 0 231932708.5085659 207737905.33965111 0 0 0 0 513418335.98182678 286060037.40986252 0 286060037.40986252 195723313.72711182 0 0 0 0 -561114267.82670212 519121730.31412268 0 519121730.31412268 -76190528.566980362 0 0 0 0 -591938642.38079643 462958198.66019201 0 462958198.66019201 -138359908.06679726 0 0 0 0 -420151330.97592163 523128588.51483917 0 523128588.51483917 -466139047.56843758 0 0 0 0 -140977907.73051071 257893338.96533298 0 257893338.96533298 -218228194.74147034 0 0 0 0 -231860919.2162056 99950568.771760464 0 99950568.771760464 -24332407.101354599 0 0 0 0 -8532920.7161484659 7545240.8964948077 0 7545240.8964948077 6093750.6267442554 0 0 0 0 -122988052.76272964 117401626.26310158 0 117401626.26310158 -142173388.8524828 0 0 0 0 -7199825.7972032502 4972410.8123413324 0 4972410.8123413324 11427282.853918109 0 0 0 0 16300959.427587509 45928220.736951232 0 45928220.736951232 56455043.223892212 0 0 0 0 -178363960.35224915 239993142.55297184 0 239993142.55297184 -254393141.30431581 0 0 0 0 -16452370.323653266 1514419.5898907632 0 1514419.5898907632 5949344.7215529494 0 0 0 0 -365679169.54496002 83232587.817353725 0 83232587.817353725 11735723.1407547 0 0 0 0 -18143871.937995911 144270234.32703972 0 144270234.32703972 -131057360.09083366 0 0 0 0 -391343712.49596405 -87378174.26275444 0 -87378174.26275444 20430798.184220791 0 0 0 0 39627266.57198751 -32290210.816575035 0 -32290210.816575035 -27220260.027682304 0 0 0 0 -364270621.49533463 49095607.999819279 0 49095607.999819279 84477791.504291534 0 0 0 0 -3999474.0782380262 4289786.8692061603 0 4289786.8692061603 7439270.8019355256 0 0 0 0 -536178454.6489836 245019193.05441546 0 245019193.05441546 -85476077.853319168 0 0 0 0 -559997670.37341309 448039033.63154411 0 448039033.63154411 -132744390.09681797 0 0 0 0 -467479696.40148544 150212545.28709984 0 150212545.28709984 19441731.023722649 0 0 0 0 -842645813.55205536 246414357.51065683 0 246414357.51065683 -38210427.526842594 0 0 0 0 -839904735.69711304 493681014.33759212 0 493681014.33759212 -86175711.57060051 0 0 0 0 -645685067.6563797 408422305.24451208 0 408422305.24451208 -79402363.007440567 0 0 0 0 1128564177.0518036 73142696.100907326 0 73142696.100907326 64905790.588953018 0 0 0 0 655517214.80891418 135731859.71564102 0 135731859.71564102 115124752.07293606 0 0 0 0 -3746370.2443656921 133461130.47958899 0 133461130.47958899 100385546.07715416 0 0 0 0 208673524.26660156 123098576.61552525 0 123098576.61552525 85453311.017317772 0 0 0 0 184985985.69986343 56834659.109660149 0 56834659.109660149 -189425673.23847902 0 0 0 0 -184517764.29569817 228715384.12397337 0 228715384.12397337 50471257.349791527 0 0 0 0 1272901.0232453123 -43443.081067278981 0 -43443.081067278981 -2177516.7135718875 0 0 0 0 219703628.62730217 -83078955.151445389 0 -83078955.151445389 80504831.521705627 0 0 0 0 355543157.54560852 10031897.464910507 0 10031897.464910507 -261762302.70367622 0 0 0 0 388302937.98368073 114921334.64209223 0 114921334.64209223 72367849.086818695 0 0 0 0 219137802.77320862 -71452652.08678627 0 -71452652.08678627 175903790.53094864 0 0 0 0 637660780.05873108 -134235197.53213501 0 -134235197.53213501 -134832730.02786756 0 0 0 0 645622844.56435013 -45587328.980295181 0 -45587328.980295181 175926644.7749939 0 0 0 0 767430586.5782938 -412224181.88661397 0 -412224181.88661397 196622700.76891327 0 0 0 0 -392953128.50292969 -443690096.08377552 0 -443690096.08377552 -32677956.769490719 0 0 0 0 -1506761047.5168991 1073183827.163662 0 1073183827.163662 -695201160.33882332 0 0 0 0 -6288382.6466242075 437181.74671730399 0 437181.74671730399 1752342.5728658941 0 0 0 0 -2411960785.2250366 58753191.193579674 0 58753191.193579674 239729261.24808502 0 0 0 0 -396111785.45267487 -54629254.214839935 0 -54629254.214839935 -50425508.828513622 0 0 0 0 -1690635054.0319977 11115618.974930763 0 11115618.974930763 67861314.95174408 0 0 0 0 1252471706.6935043 -310860591.63676262 0 -310860591.63676262 14665122.044773102 0 0 0 0 -1230312691.1280632 679815487.80652881 0 679815487.80652881 -269081389.16400146 0 0 0 0 -1459935172.5008316 1104143562.1042423 0 1104143562.1042423 -958142288.77961922 0 0 0 0 -211255.91121105105 110612.79595578462 0 110612.79595578462 -2442052.9735763799 0 0 0 0 -753880727.82089806 561860475.61539865 0 561860475.61539865 -481964778.22093201 0 0 0 0 164278510.90852356 -341590044.23853874 0 -341590044.23853874 319898297.39115483 0 0 0 0 -945512652.20789623 19153495.046684265 0 19153495.046684265 157207527.39978409 0 0 0 0 -661400820.98345327 260566051.33497822 0 260566051.33497822 157357681.13567543 0 0 0 0 -360721899.27793884 96084277.40413475 0 96084277.40413475 162684984.14257097 0 0 0 0 -653368936.14007568 318501200.79631281 0 318501200.79631281 342028075.17782128 0 0 0 0 282365682.27648938 237872600.15817457 0 237872600.15817457 69879568.871904373 0 0 0 0 389421.74553649873 824228.81337159127 0 824228.81337159127 -2472471.2573349606 0 0 0 0 281681270.12232208 125104200.05454969 0 125104200.05454969 98980950.135194778 0 0 0 0 276719296.305336 130582526.05271435 0 130582526.05271435 97646075.177687645 0 0 0 0 276562703.72809982 134717539.32496166 0 134717539.32496166 91845002.758659363 0 0 0 0 267261131.1877594 120519388.02202606 0 120519388.02202606 116397196.78495789 0 0 0 0 253548710.28278351 132377120.07945251 0 132377120.07945251 108341053.62064171 0 0 0 0 1690442.3147443235 832659.76008835807 0 832659.76008835807 -4599060.5830339734 0 0 0 0 231861976.3768692 150773275.28420448 0 150773275.28420448 124493467.37760019 0 0 0 0 249603193.49056625 189370328.08024788 0 189370328.08024788 81261821.747976303 0 0 0 0 607683321.39911652 616314395.65992355 0 616314395.65992355 -490183262.58216858 0 0 0 0 179902807.41073608 190149594.60983658 0 190149594.60983658 107643869.19184542 0 0 0 0 20979887.917556763 215525673.34164476 0 215525673.34164476 105122414.07823944 0 0 0 0 188795034.54055786 193707918.39998436 0 193707918.39998436 93771498.58895874 0 0 0 0 242038479.46772766 157707978.6185112 0 157707978.6185112 105734807.90208149 0 0 0 0 213137836.65040588 209424961.49593544 0 209424961.49593544 88238246.192372799 0 0 0 0 199872616.57854462 197450491.9558897 0 197450491.9558897 90861978.210647583 0 0 0 0 279590712.34074402 181431123.02792358 0 181431123.02792358 82088176.319223404 0 0 0 0 255079126.40469742 153801844.64131731 0 153801844.64131731 92603434.932281494 0 0 0 0 292172337.43469238 157187002.98978043 0 157187002.98978043 104435704.38896561 0 0 0 0 252258310.05249023 148431512.83236885 0 148431512.83236885 102515577.27601433 0 0 0 0 237002287.33759308 187838746.55165005 0 187838746.55165005 99627190.95268631 0 0 0 0 332924879.96226501 190751720.9485836 0 190751720.9485836 96374111.496210098 0 0 0 0 377753942.59234619 217785118.56986046 0 217785118.56986046 147661299.1917305 0 0 0 0 305244527.89241028 175860285.33239555 0 175860285.33239555 239261315.62217712 0 0 0 0 344778107.02368164 171729322.33243179 0 171729322.33243179 142140240.04110205 0 0 0 0 276712677.62397766 153222067.05990982 0 153222067.05990982 141011264.44852066 0 0 0 0 332157021.69153214 127443424.91940403 0 127443424.91940403 301834372.65315628 0 0 0 0 256100357.69818878 182449750.49114799 0 182449750.49114799 266756790.79326057 0 0 0 0 446480810.75280762 207740454.96033478 0 207740454.96033478 239131856.31272256 0 0 0 0 396194955.10046387 167128398.64743376 0 167128398.64743376 479062811.99743652 0 0 0 0 252981550.44637299 280829174.19931746 0 280829174.19931746 405207087.51750231 0 0 0 0 236793480.71916199 198649417.16120052 0 198649417.16120052 295226577.35465145 0 0 0 0 -235843781.59251499 217405376.98976481 0 217405376.98976481 583730420.37230492 0 0 0 0 72126745.442749023 221851481.11693859 0 221851481.11693859 300552679.86559391 0 0 0 0 247557810.85859871 220206428.71923208 0 220206428.71923208 106799255.58809662 0 0 0 0 -24299904.797080994 493671551.4414978 0 493671551.4414978 -36651303.339835167 0 0 0 0 -229694716.10240555 149763557.683146 0 149763557.683146 92993970.047763348 0 0 0 0 -542806476.93208313 289109364.47022057 0 289109364.47022057 516230547.69798851 0 0 0 0 -233621026.04042816 214812781.07816792 0 214812781.07816792 526257175.25115776 0 0 0 0 -197984126.42775345 181331511.27222395 0 181331511.27222395 492221333.92215347 0 0 0 0 -404671791.41953278 259769785.13436508 0 259769785.13436508 564934566.6506958 0 0 0 0 -443209989.54970551 207197538.11893129 0 207197538.11893129 499741276.2892828 0 0 0 0 -326144236.59854889 257238295.61366129 0 257238295.61366129 371547814.94989967 0 0 0 0 -353656256.01538086 241560834.55178165 0 241560834.55178165 494279759.73567736 0 0 0 0 157449102.41319847 151765920.18868017 0 151765920.18868017 159592668.42360783 0 0 0 0 193510364.57111359 215570934.09345531 0 215570934.09345531 231327454.31375647 0 0 0 0 796449996.46548462 549810748.45988274 0 549810748.45988274 400610640.4697957 0 0 0 0 1016066684.0157166 111924814.85473251 0 111924814.85473251 477299568.53762245 0 0 0 0 126043625.94477654 204327391.05428362 0 204327391.05428362 769124465.19852924 0 0 0 0 59515351.641872406 331178501.38957739 0 331178501.38957739 545099327.08417511 0 0 0 0 -1011729947.4758835 449404850.49633503 0 449404850.49633503 7285148.0605821609 0 0 0 0 -819277089.99494934 508583577.34667706 0 508583577.34667706 -77255202.257991791 0 0 0 0 -797272714.4180603 480011702.54487944 0 480011702.54487944 -117528375.06916046 0 0 0 0 -982449348.9661026 336499368.45398331 0 336499368.45398331 -65296744.396255493 0 0 0 0 -1023187.0845435902 795798.43742327392 0 795798.43742327392 2115551.0423127711 0 0 0 0 -1108559690.7476082 384002275.37209511 0 384002275.37209511 -35021702.159215927 0 0 0 0 -2463355.1346732788 2808169.6295886934 0 2808169.6295886934 5122763.1313609779 0 0 0 0 111517640.0666008 69795088.855249405 0 69795088.855249405 34873308.12694788 0 0 0 0 500685371.32164001 473045558.2613821 0 473045558.2613821 316639827.5235014 0 0 0 0 -235022929.32219982 142096750.8473829 0 142096750.8473829 168649281.5411005 0 0 0 0 -585177287.52709007 503820607.47238624 0 503820607.47238624 660249747.93052959 0 0 0 0 -654870912.14437866 319269049.322649 0 319269049.322649 394248419.63535309 0 0 0 0 -668877548.21389771 739153885.81095076 0 739153885.81095076 331347645.31134319 0 0 0 0 -1802472352.2944961 313348127.74473095 0 313348127.74473095 330948510.30273533 0 0 0 0 -1151970826.716301 631620035.82931137 0 631620035.82931137 485056569.14924049 0 0 0 0 -1030344794.3795624 616804466.41940308 0 616804466.41940308 293149477.32303619 0 0 0 0 -1049860105.7806244 650558485.80754566 0 650558485.80754566 242970863.92320919 0 0 0 0 -973487833.7866745 551127435.19474506 0 551127435.19474506 335244397.80007935 0 0 0 0 -1143829419.7475839 478254685.49925804 0 478254685.49925804 310619101.62724876 0 0 0 0 -835408345.64515686 575515543.10604954 0 575515543.10604954 95861882.434470177 0 0 0 0 -42642941.778381348 33777892.904190779 0 33777892.904190779 -51465790.902112961 0 0 0 0 -3389581.9725150205 4829820.8044630438 0 4829820.8044630438 -3115335.7181314621 0 0 0 0 -71491268.546258926 111503334.78943586 0 111503334.78943586 8934801.3417701721 0 0 0 0 -1203224480.1318302 83113960.440179586 0 83113960.440179586 21449951.941070557 0 0 0 0 -1052583226.8902054 561227125.57280636 0 561227125.57280636 133626904.03956509 0 0 0 0 -1012031406.4782448 593706176.81086206 0 593706176.81086206 121181724.21123886 0 0 0 0 -947633272.33356476 655761498.61237001 0 655761498.61237001 -187450899.17131233 0 0 0 0 -967284320.05773163 730194866.83481979 0 730194866.83481979 115176563.58893242 0 0 0 0 -851178532.51221085 697521198.00945759 0 697521198.00945759 -169993327.18436337 0 0 0 0 -937107025.19419575 655852057.73171484 0 655852057.73171484 -44411506.502639771 0 0 0 0 -1054559306.2368317 838295089.98180151 0 838295089.98180151 -80415902.3676579 0 0 0 0 -851860918.10969543 797568091.94458008 0 797568091.94458008 138431942.01365757 0 0 0 0 -789568507.94689941 590424940.99439907 0 590424940.99439907 290790715.23865533 0 0 0 0 -851899075.81639874 475991825.98984981 0 475991825.98984981 141857561.18096352 0 0 0 0 -1172593538.9730911 724047982.85841942 0 724047982.85841942 51512394.02582407 0 0 0 0 -998083617.2974329 651123859.31575847 0 651123859.31575847 -150031438.02983856 0 0 0 0 -2278447630.1469383 1038466182.7937078 0 1038466182.7937078 -264353173.22604847 0 0 0 0 -13603767.94672095 2759168.2914865436 0 2759168.2914865436 3984096.9973702449 0 0 0 0 -605805820.0501709 1078451647.7654765 0 1078451647.7654765 -1596409208.5165663 0 0 0 0 -855194022.26801682 773686997.18514156 0 773686997.18514156 -527690592.63031483 0 0 0 0 -15686834.299462192 5657573.7500250861 0 5657573.7500250861 7566855.1852057278 0 0 0 0 -14715212.199993134 7247480.3495531082 0 7247480.3495531082 -393208.14300537109 0 0 0 0 -14146003.514577083 13112095.268119637 0 13112095.268119637 4529743.0177810043 0 0 0 0 -27257143.869134903 20046181.305452824 0 20046181.305452824 21307025.148971558 0 0 0 0 -309454279.08529282 302635464.48773146 0 302635464.48773146 -443714011.08886993 0 0 0 0 -17576010.575576782 20277512.373733521 0 20277512.373733521 16695076.032608032 0 0 0 0 -21959017.65668869 15747176.704998493 0 15747176.704998493 12833103.942901611 0 0 0 0 -25226477.357563019 26788672.620840073 0 26788672.620840073 6994361.5624408722 0 0 0 0 -16048880.09075065 8057032.2965185568 0 8057032.2965185568 13953124.789814834 0 0 0 0 722086123.20325851 136142994.56096077 0 136142994.56096077 -157699497.0446744 0 0 0 0 663882361.46782684 159343201.3040781 0 159343201.3040781 22555490.978491783 0 0 0 0 290186184.73586845 22127603.176457167 0 22127603.176457167 -25786107.681293488 0 0 0 0 138229965.33498192 208637197.92687249 0 208637197.92687249 158939105.05996704 0 0 0 0 -790485059.61550784 188846853.199604 0 188846853.199604 368238149.23705769 0 0 0 0 -534891664.41738129 297779464.77227974 0 297779464.77227974 174891518.67428207 0 0 0 0 -1268983316.6677551 119418851.93273354 0 119418851.93273354 140528571.24210215 0 0 0 0 -545655815.77655029 104619088.11088467 0 104619088.11088467 50982613.169489801 0 0 0 0 -273461217.65445328 -76822756.191391945 0 -76822756.191391945 41464494.396774292 0 0 0 0 -550699934.03851509 50306665.596489191 0 50306665.596489191 -178305771.19898129 0 0 0 0 -1292172542.0612946 153290524.51322651 0 153290524.51322651 -130148637.36192799 0 0 0 0 -1773899363.5079746 -419101435.33449507 0 -419101435.33449507 -791535276.23553085 0 0 0 0 -928587995.33808899 577282075.54810524 0 577282075.54810524 -2134928554.0893087 0 0 0 0 -341563205.77552319 97917852.504306436 0 97917852.504306436 -52562590.709573746 0 0 0 0 -918977807.96853638 422264887.68063259 0 422264887.68063259 -243465366.42046165 0 0 0 0 -335223097.69379425 100046919.9639082 0 100046919.9639082 -976142043.24674606 0 0 0 0 237811304.81710052 276955751.0355587 0 276955751.0355587 -457256279.96130276 0 0 0 0 392874083.99716187 -64608374.478626251 0 -64608374.478626251 248658530.21444321 0 0 0 0 300302539.75717163 -2355644.9388427734 0 -2355644.9388427734 -431272166.15561962 0 0 0 0 317220561.5567627 190004875.07609969 0 190004875.07609969 114280332.17421627 0 0 0 0 1893323.0245670266 16776970.118399139 0 16776970.118399139 -11532099.457655918 0 0 0 0 842741307.76119995 310350256.36354733 0 310350256.36354733 -199572957.11719608 0 0 0 0 972557532.831604 635153437.77793503 0 635153437.77793503 342285483.47894287 0 0 0 0 35294993.618427277 27464177.839645386 0 27464177.839645386 -24058767.708126068 0 0 0 0 30000101.570067883 25308537.951679587 0 25308537.951679587 -18247164.279891968 0 0 0 0 32601014.950336456 13761494.614177704 0 13761494.614177704 -44405904.030452728 0 0 0 0 30190143.226634979 20613066.703403473 0 20613066.703403473 -29648299.304764748 0 0 0 0 35680648.614151001 20644296.33800602 0 20644296.33800602 -29563631.885360718 0 0 0 0 44687552.427593231 24814469.072053909 0 24814469.072053909 -35400353.448204994 0 0 0 0 35675185.654335022 35800992.927695274 0 35800992.927695274 -6859072.7649230957 0 0 0 0 71631835.520748138 98737635.942285061 0 98737635.942285061 -19047779.120407104 0 0 0 0 3020688.5355377197 37696529.962273598 0 37696529.962273598 -2108194.266450882 0 0 0 0 532841.01323670894 16354556.677015726 0 16354556.677015726 -15155988.250317782 0 0 0 0 -26650663.907325745 12773821.180328369 0 12773821.180328369 11139003.347595215 0 0 0 0 -1380720.52216262 3010595.6489550024 0 3010595.6489550024 -1576841.5943084694 0 0 0 0 135401128.47866058 4515845.7683062553 0 4515845.7683062553 -28626495.331947327 0 0 0 0 73928345.702331543 120265080.48042393 0 120265080.48042393 -75773767.765176773 0 0 0 0 413162.91061680764 20396951.535883278 0 20396951.535883278 -15142428.954205701 0 0 0 0 -52421193.911392212 -21225274.119726181 0 -21225274.119726181 30568550.208574295 0 0 0 0 -11027353.085460722 32153031.014251329 0 32153031.014251329 17879427.856391013 0 0 0 0 -7895376.4075698853 89439009.365195274 0 89439009.365195274 -68828170.495696485 0 0 0 0 -95359452.170581818 54164317.509846687 0 54164317.509846687 29497041.996543884 0 0 0 0 -78080461.769256592 13502947.469125748 0 13502947.469125748 33892416.106863022 0 0 0 0 -85216803.318677902 62541610.2625494 0 62541610.2625494 -1180326.8997039795 0 0 0 0 -36460996.873405457 56793376.663499832 0 56793376.663499832 5276764.3913326263 0 0 0 0 -91556940.08032608 51587553.837915421 0 51587553.837915421 29131890.225006104 0 0 0 0 -101513389.54841995 28810013.689634323 0 28810013.689634323 11021114.197806358 0 0 0 0 3640602.2986107133 2424220.1731144823 0 2424220.1731144823 477253.79472525418 0 0 0 0 36271195.746208191 54115969.144822121 0 54115969.144822121 7753504.1960220337 0 0 0 0 -22416174.506687984 40365884.634105042 0 40365884.634105042 1943535.9135445654 0 0 0 0 81240686.124343872 -40429649.461759567 0 -40429649.461759567 15734558.024208069 0 0 0 0 -3279342.3573360443 200983143.28390121 0 200983143.28390121 156504963.2240057 0 0 0 0 -152908044.17384338 220508297.87658882 0 220508297.87658882 2714036.9341646433 0 0 0 0 95807834.543198347 218161105.2838974 0 218161105.2838974 -38713088.990402222 0 0 0 0 -17922172.553385146 51638013.875805661 0 51638013.875805661 -21131327.626452819 0 0 0 0 -91595244.690641403 120085028.0390892 0 120085028.0390892 178045400.36961365 0 0 0 0 93247900.324913502 139224101.06265259 0 139224101.06265259 -48575119.342834473 0 0 0 0 37038103.392398834 20865005.982625961 0 20865005.982625961 -35640315.763893127 0 0 0 0 60698245.884757996 14222010.868606567 0 14222010.868606567 -70246001.384979248 0 0 0 0 -939609.17730328441 13454648.292814929 0 13454648.292814929 -9415451.7581389844 0 0 0 0 25747211.219055176 19486074.378509406 0 19486074.378509406 -29407923.504001454 0 0 0 0 15863066.202033997 21859765.16709137 0 21859765.16709137 -29640064.929710388 0 0 0 0 29354908.672779083 8306461.6428699493 0 8306461.6428699493 -44416586.555241585 0 0 0 0 17844363.011488408 29038183.928899124 0 29038183.928899124 -46987370.142038599 0 0 0 0 79119271.478557587 171893347.38148499 0 171893347.38148499 -211134705.02474976 0 0 0 0 -91765528.758176565 191378518.5667696 0 191378518.5667696 -69402007.278289795 0 0 0 0 -95632347.867004484 277989885.36922002 0 277989885.36922002 -147346199.75228882 0 0 0 0 149338156.22223663 69718974.287185669 0 69718974.287185669 -52088764.148773193 0 0 0 0 168977552.28420734 -19229304.991043091 0 -19229304.991043091 -87211389.737075806 0 0 0 0 151094056.84501648 11667217.099472046 0 11667217.099472046 -130294092.42015076 0 0 0 0 281468493.85357475 -164342090.3735199 0 -164342090.3735199 -314603722.25141239 0 0 0 0 109766397.24298048 170243179.41017532 0 170243179.41017532 -307420524.74334717 0 0 0 0 310735470.19848061 -54000250.140632629 0 -54000250.140632629 -355411161.41906738 0 0 0 0 -11095662.394235611 387487608.74753571 0 387487608.74753571 -529475660.78271484 0 0 0 0 -25043935.856689453 360412593.1340332 0 360412593.1340332 -498354772.07951355 0 0 0 0 406198142.19612122 -11604374.083404541 0 -11604374.083404541 -807260379.07301331 0 0 0 0 211404066.47531509 -17008366.780151367 0 -17008366.780151367 -308436850.42700195 0 0 0 0 -451562610.70490837 511186647.65969086 0 511186647.65969086 -400023037.73980713 0 0 0 0 55824547.544799805 -56677900.912891388 0 -56677900.912891388 -479939384.40712738 0 0 0 0 -476763302.89712334 169283118.06784844 0 169283118.06784844 -13500457.591461182 0 0 0 0 -3494926.4118375648 9681219.7758137807 0 9681219.7758137807 1678733.292785719 0 0 0 0 -70979180.243431091 -980046628.25648499 0 -980046628.25648499 -695349050.92882538 0 0 0 0 257784878.99417877 290438922.02038574 0 290438922.02038574 -1324878067.0825195 0 0 0 0 -109532377.32873154 612597563.36239624 0 612597563.36239624 -965069619.5705719 0 0 0 0 -299903494.48038483 271773898.07375336 0 271773898.07375336 -100419436.96124268 0 0 0 0 50301703.31659317 -25434943.30696106 0 -25434943.30696106 -114681514.81665802 0 0 0 0 142067205.73926163 373684033.79551697 0 373684033.79551697 -780842539.229599 0 0 0 0 118464241.28796959 246241650.17166138 0 246241650.17166138 -160240205.19604492 0 0 0 0 25629596.372413635 104608722.96709442 0 104608722.96709442 -78064321.315032959 0 0 0 0 69693993.158559799 134490957.61699677 0 134490957.61699677 -90485685.104660034 0 0 0 0 77013920.276222229 162641183.14252472 0 162641183.14252472 -310538606.30862427 0 0 0 0 13455880.675535202 60589993.401123047 0 60589993.401123047 -12937831.001991272 0 0 0 0 17242371.330529928 39610692.825509071 0 39610692.825509071 -27149121.895561218 0 0 0 0 48575668.108661652 66929432.763008118 0 66929432.763008118 -9397384.0926399231 0 0 0 0 14359843.240003586 55568870.128887653 0 55568870.128887653 2471125.1432723999 0 0 0 0 -6856498.0176218227 26423805.591032777 0 26423805.591032777 3199426.6311233714 0 0 0 0 67719695.018623352 37352727.277151108 0 37352727.277151108 14256301.627246857 0 0 0 0 -347703.92051976174 1608961.1027038097 0 1608961.1027038097 4916134.7028009072 0 0 0 0 -76912773.538274765 119132451.42687225 0 119132451.42687225 60147246.285797119 0 0 0 0 -149662153.42349434 9186126.2548141479 0 9186126.2548141479 87853323.512268066 0 0 0 0 -281874205.39462662 156483919.07186127 0 156483919.07186127 57124739.33505249 0 0 0 0 -259722323.46589327 12308705.432864189 0 12308705.432864189 87976196.598175049 0 0 0 0 68836986.725124359 147695177.74925995 0 147695177.74925995 -50249459.091917992 0 0 0 0 -4509682.8248369694 79411008.974536419 0 79411008.974536419 -14451266.076438904 0 0 0 0 64789283.861847401 93483177.884100199 0 93483177.884100199 -26877959.98915863 0 0 0 0 36949662.935259417 66585196.220417023 0 66585196.220417023 -2758417.9315094203 0 0 0 0 57919.451342940331 118410694.49663496 0 118410694.49663496 -58154226.998794556 0 0 0 0 20280166.730142076 55946477.673436671 0 55946477.673436671 -4063352.9678931236 0 0 0 0 88871838.148014069 140841132.20496178 0 140841132.20496178 29637197.524551392 0 0 0 0 40622738.729324341 61796882.871116638 0 61796882.871116638 -29460426.556715488 0 0 0 0 96233386.414497375 70782829.130548477 0 70782829.130548477 28338715.943595886 0 0 0 0 19028178.35518074 78397984.471551895 0 78397984.471551895 7064419.0501861572 0 0 0 0 46876395.812994003 124435736.63707161 0 124435736.63707161 26709719.766281128 0 0 0 0 -40131776.605087757 122692701.41437113 0 122692701.41437113 -15567735.518493652 0 0 0 0 -41969473.412057877 107192515.31522942 0 107192515.31522942 40070572.58757782 0 0 0 0 -34144110.511692047 59159503.548089981 0 59159503.548089981 -5309163.7249603271 0 0 0 0 -180400677.26502228 -52859240.721837044 0 -52859240.721837044 200512871.03616095 0 0 0 0 -5363469.8060678951 3152083.1849918356 0 3152083.1849918356 11669962.800698511 0 0 0 0 -27956334.206592545 49337600.438887596 0 49337600.438887596 -18281340.98332002 0 0 0 0 -43324938.754890442 59389866.979972839 0 59389866.979972839 38777136.110958099 0 0 0 0 97435755.376558304 126305838.94569969 0 126305838.94569969 47357459.784578323 0 0 0 0 -19459618.442575455 103617884.84345627 0 103617884.84345627 55256244.450378418 0 0 0 0 31921265.623823982 22988480.583150662 0 22988480.583150662 -37438933.032912329 0 0 0 0 46577220.661552429 44673202.654821396 0 44673202.654821396 -12487287.807224274 0 0 0 0 54990976.336105347 65463917.007774353 0 65463917.007774353 82147487.612861156 0 0 0 0 39298464.109287262 51021679.48528862 0 51021679.48528862 13419518.582813263 0 0 0 0 75896946.920375824 112014611.86467552 0 112014611.86467552 82600864.959922791 0 0 0 0 3575617.394526422 41287121.946170583 0 41287121.946170583 -26938332.247394886 0 0 0 0 12673353.747159958 45324359.844291687 0 45324359.844291687 8559468.0548248291 0 0 0 0 4865654.3585397713 17248965.519963495 0 17248965.519963495 205171.6578983143 0 0 0 0 59456454.237083435 54623159.459228516 0 54623159.459228516 28494695.015869141 0 0 0 0 -9242156.0736694336 28073882.282743454 0 28073882.282743454 54432632.516132355 0 0 0 0 -14171493.592885699 29086682.243986554 0 29086682.243986554 22956216.815743908 0 0 0 0 -2010958.8934783936 19889998.835525513 0 19889998.835525513 10474345.42276001 0 0 0 0 -20373350.978873208 48444689.497879967 0 48444689.497879967 -12743681.391616501 0 0 0 0 -10412860.861516254 41391264.003182188 0 41391264.003182188 -22272607.001714632 0 0 0 0 -5142651.8596943915 12351156.669851813 0 12351156.669851813 12793023.586605515 0 0 0 0 -12081717.48128891 42255850.990991592 0 42255850.990991592 74438585.647506714 0 0 0 0 63148926.150985718 77210721.317749977 0 77210721.317749977 66084802.916038513 0 0 0 0 1797876.2543529347 1226496.2240424007 0 1226496.2240424007 -3088911.7656615376 0 0 0 0 6584975.609041214 114315492.00497532 0 114315492.00497532 115503130.15390205 0 0 0 0 105071435.82406044 91846854.744631767 0 91846854.744631767 3225019.5849761963 0 0 0 0 -15999293.01053524 17029548.31306076 0 17029548.31306076 20201040.29019928 0 0 0 0 -19802976.870071363 17450938.682521529 0 17450938.682521529 43365864.984960191 0 0 0 0 -13943521.453802943 19250234.197222706 0 19250234.197222706 16407121.396574453 0 0 0 0 -6017265.3599046953 31017371.306807753 0 31017371.306807753 -13553317.622384446 0 0 0 0 16093463.404022217 52870982.957969666 0 52870982.957969666 48665812.574551582 0 0 0 0 18856615.538709641 44208235.161856651 0 44208235.161856651 24849891.623368263 0 0 0 0 -5915865.6206507683 55725160.622220561 0 55725160.622220561 -55808464.079622269 0 0 0 0 46989975.065565109 111572897.3788681 0 111572897.3788681 26054943.87146759 0 0 0 0 125718903.71170807 95325265.516052246 0 95325265.516052246 -3256126.2721710205 0 0 0 0 29485059.641796112 34680740.614169762 0 34680740.614169762 -46162383.991206735 0 0 0 0 30315918.062992096 35408272.769845963 0 35408272.769845963 -45528585.103090286 0 0 0 0 51088388.080280304 3564814.8275213242 0 3564814.8275213242 156221317.01346111 0 0 0 0 88869480.762639999 112841256.97482777 0 112841256.97482777 -15716001.112323761 0 0 0 0 56924839.046660423 4702662.3886823654 0 4702662.3886823654 31408182.778106451 0 0 0 0 106160605.36453366 107726854.08361679 0 107726854.08361679 8547786.9866714478 0 0 0 0 721714.46774630994 14904922.228260737 0 14904922.228260737 -18132946.427242022 0 0 0 0 67777931.494487762 9675183.9047513008 0 9675183.9047513008 -78658655.775215387 0 0 0 0 16242285.444824219 -33201450.108232677 0 -33201450.108232677 -46760549.953608513 0 0 0 0 63038509.807588577 -9386165.3570460081 0 -9386165.3570460081 12786848.752728462 0 0 0 0 115917904.54618263 45951037.558625311 0 45951037.558625311 -31586819.772143066 0 0 0 0 46977912.002128601 19890265.417355582 0 19890265.417355582 -37088681.807310641 0 0 0 0 -161892177.09503031 55183137.814501762 0 55183137.814501762 281911327.494627 0 0 0 0 -40273847.072830714 44252675.891917929 0 44252675.891917929 -24141342.850366898 0 0 0 0 91938160.610512257 362282961.27790403 0 362282961.27790403 204667637.04103947 0 0 0 0 -36666910.301591873 97197598.372555256 0 97197598.372555256 63297032.446468353 0 0 0 0 -155840422.55648232 -32038313.981683731 0 -32038313.981683731 5608535.9052901268 0 0 0 0 -354343.76144756749 2376086.0994637646 0 2376086.0994637646 2581126.1030976903 0 0 0 0 199458038.12576103 222204656.76449776 0 222204656.76449776 -173014024.22991371 0 0 0 0 -311959203.28688431 -66427574.13868618 0 -66427574.13868618 135830405.58666801 0 0 0 0 -274125170.03384972 29969025.052248955 0 29969025.052248955 187599802.7856636 0 0 0 0 -140375759.51904058 99066039.402003944 0 99066039.402003944 134409320.16597748 0 0 0 0 -177846477.80301881 106813830.77982783 0 106813830.77982783 134603232.22286797 0 0 0 0 -212046418.57838655 -2002401.8713591099 0 -2002401.8713591099 120058402.25470543 0 0 0 0 -309538041.08393764 -893411.28115463257 0 -893411.28115463257 60678154.184095383 0 0 0 0 -198766225.88636875 -16682646.83455658 0 -16682646.83455658 -105995429.672616 0 0 0 0 2184954.5127526764 6324011.450907005 0 6324011.450907005 -13316949.261817422 0 0 0 0 -202594911.81912422 59915267.891096115 0 59915267.891096115 45281123.708943367 0 0 0 0 -164745305.87912178 -105789488.28904629 0 -105789488.28904629 219448080.62648487 0 0 0 0 -13383601.354242802 22486337.618934989 0 22486337.618934989 12459457.242002487 0 0 0 0 1757760.6641948801 1291479.685443759 0 1291479.685443759 -5715679.4754707552 0 0 0 0 -687539479.38909912 -108576573.78423738 0 -108576573.78423738 -46177289.079982758 0 0 0 0 110985634.07821655 20428303.09384346 0 20428303.09384346 103198472.83343355 0 0 0 0 83472311.810539246 71209644.946363926 0 71209644.946363926 17736348.759504318 0 0 0 0 -45956448.427310944 -43778559.526845455 0 -43778559.526845455 33201127.434141159 0 0 0 0 -20771861.160202026 49670592.544223309 0 49670592.544223309 6778134.890961647 0 0 0 0 62538935.349839211 -8617200.8913224936 0 -8617200.8913224936 30669980.866558075 0 0 0 0 53214712.037029266 72309055.951418877 0 72309055.951418877 80172090.374693871 0 0 0 0 46691983.968093872 5246351.4141817093 0 5246351.4141817093 -21125300.622166634 0 0 0 0 236676460.31365967 203233291.23010492 0 203233291.23010492 30479275.011572838 0 0 0 0 236020413.63980216 306123312.12289006 0 306123312.12289006 230085139.91734695 0 0 0 0 79293004.014572144 48700021.267377853 0 48700021.267377853 94797531.406068802 0 0 0 0 180473263.49376678 133348670.45449734 0 133348670.45449734 101933036.64432544 0 0 0 0 172395576.0046463 93296126.501292706 0 93296126.501292706 225759879.52291679 0 0 0 0 457061230.87278366 356967135.11898947 0 356967135.11898947 235416215.71646118 0 0 0 0 229088839.5087738 209715796.07130146 0 209715796.07130146 373281607.11221123 0 0 0 0 296818231.93772125 169853068.20698357 0 169853068.20698357 165668309.09623337 0 0 0 0 163567537.02003479 75847292.805092812 0 75847292.805092812 169406513.63474175 0 0 0 0 143114778.5749588 217531893.52808237 0 217531893.52808237 240973862.64535141 0 0 0 0 338330772.7753334 247948499.36204195 0 247948499.36204195 213070564.28530121 0 0 0 0 244161508.21321487 160424880.77218604 0 160424880.77218604 98909442.824140549 0 0 0 0 170292013.51394653 88157229.396714687 0 88157229.396714687 53562321.327998638 0 0 0 0 175734135.78272057 107366225.24199593 0 107366225.24199593 60318752.92209053 0 0 0 0 -203076465.86804199 182700869.88976288 0 182700869.88976288 313515378.4369092 0 0 0 0 -3802956.2688598633 85679128.072994947 0 85679128.072994947 41039824.777648449 0 0 0 0 77861605.642097473 145471660.85140324 0 145471660.85140324 176784438.2240901 0 0 0 0 115116031.27936554 215954475.60519075 0 215954475.60519075 169331481.81875801 0 0 0 0 147891221.99110413 380306747.60879326 0 380306747.60879326 404961921.65409231 0 0 0 0 -93186677.286598206 217879863.31585979 0 217879863.31585979 358074619.23764801 0 0 0 0 -509272053.97691345 260638161.50610638 0 260638161.50610638 616957764.01465702 0 0 0 0 -63299656.155349731 265247863.63933849 0 265247863.63933849 347765026.73347473 0 0 0 0 -86882703.336212158 609554669.12553024 0 609554669.12553024 872865998.00048065 0 0 0 0 -325077050.45202637 832428881.41251373 0 832428881.41251373 708834219.66631794 0 0 0 0 147223314.9573822 885670858.37563229 0 885670858.37563229 709217172.76383018 0 0 0 0 1130485581.2949438 995767576.16274905 0 995767576.16274905 388961836.18503571 0 0 0 0 624807775.82572174 462870007.12063408 0 462870007.12063408 325143605.77468872 0 0 0 0 130143372.53227615 373854616.583498 0 373854616.583498 419054768.8761692 0 0 0 0 393931647.78581429 467697225.43155384 0 467697225.43155384 508189738.99903488 0 0 0 0 -549977700.36371613 751875252.71122932 0 751875252.71122932 289635414.2756691 0 0 0 0 446404456.89167404 834868451.47978354 0 834868451.47978354 -126149578.36012268 0 0 0 0 81505464.603996277 430118114.84538841 0 430118114.84538841 484079755.97366714 0 0 0 0 367759840.9414978 521002965.74293518 0 521002965.74293518 512303910.8146286 0 0 0 0 852923555.89442444 70814839.22977829 0 70814839.22977829 91359696.618798733 0 0 0 0 -288201558.5305481 1058527626.3506575 0 1058527626.3506575 1308442780.2650681 0 0 0 0 340207459.90979004 304989858.6287899 0 304989858.6287899 225116736.96307945 0 0 0 0 261466929.88674927 221232397.94318295 0 221232397.94318295 147970736.24391937 0 0 0 0 19805852.942192078 370611552.25653648 0 370611552.25653648 143383862.99164963 0 0 0 0 225948623.60926819 223750015.48967171 0 223750015.48967171 169225240.63008976 0 0 0 0 282957733.38621521 397119915.12359428 0 397119915.12359428 89177432.495820999 0 0 0 0 452852405.40739441 423612802.78509331 0 423612802.78509331 488822329.9944706 0 0 0 0 338302397.34677124 419839527.72461319 0 419839527.72461319 405474811.48745346 0 0 0 0 199761974.03467941 241236493.92067337 0 241236493.92067337 210603298.48774719 0 0 0 0 312950205.97697449 311276743.6896534 0 311276743.6896534 573535816.84578514 0 0 0 0 293870021.8047123 222165851.57732129 0 222165851.57732129 389385647.83786011 0 0 0 0 389001960.10340118 324186355.7317152 0 324186355.7317152 365525349.32320404 0 0 0 0 299931124.22305298 204386984.28965855 0 204386984.28965855 278843318.00515938 0 0 0 0 618058367.82217026 662571015.11736059 0 662571015.11736059 420164035.87624168 0 0 0 0 360797518.90132904 292214796.93190479 0 292214796.93190479 420062769.64523125 0 0 0 0 742324480.41139221 550537664.60347748 0 550537664.60347748 517125897.7712903 0 0 0 0 295386597.11777496 501650341.34068203 0 501650341.34068203 926599879.09271622 0 0 0 0 781138093.35018158 854163985.19821262 0 854163985.19821262 643531517.37528229 0 0 0 0 -978710.18482449651 -535052.84119119868 0 -535052.84119119868 4280498.6074383464 0 0 0 0 873000002.08789825 1224180006.7208447 0 1224180006.7208447 1063472914.8864062 0 0 0 0 -953919566.71450806 -89274337.448504806 0 -89274337.448504806 604647275.0552392 0 0 0 0 -581608483.2555542 398994386.97140026 0 398994386.97140026 1232805221.9292164 0 0 0 0 249089673.90408325 357385464.69261456 0 357385464.69261456 1430181964.7205601 0 0 0 0 -347039443.64492798 -78047751.972150326 0 -78047751.972150326 -31918160.729026794 0 0 0 0 -6710317.785842523 3636448.9821065366 0 3636448.9821065366 14571876.587258715 0 0 0 0 -130434698.2136116 159854419.10424638 0 159854419.10424638 -52020242.750704765 0 0 0 0 -267645081.96740723 95496211.4424932 0 95496211.4424932 5792324.43197155 0 0 0 0 39151552.245376587 223147036.68071842 0 223147036.68071842 713090532.78965521 0 0 0 0 786562963.9708662 645406704.53871429 0 645406704.53871429 397948167.28964043 0 0 0 0 -2760120.1170197353 4314686.564018622 0 4314686.564018622 2954166.8878279869 0 0 0 0 955424575.79374504 -17435723.91388309 0 -17435723.91388309 -28383724.650354385 0 0 0 0 466588427.4341507 -54527286.923875093 0 -54527286.923875093 37734636.575921059 0 0 0 0 -106926340.55125046 96232726.000674248 0 96232726.000674248 -9800317.1801095009 0 0 0 0 -16783982.344923444 22768435.977759451 0 22768435.977759451 22502497.192218356 0 0 0 0 -25335991.345901489 79121878.240749121 0 79121878.240749121 -46621991.911061049 0 0 0 0 -64006348.722602844 153132823.15492538 0 153132823.15492538 -21878640.510233879 0 0 0 0 20643734.234695435 77070130.784273148 0 77070130.784273148 -67841421.800833076 0 0 0 0 9432026.629573822 67523479.059836626 0 67523479.059836626 -62680497.181815147 0 0 0 0 85107356.811714172 47463452.105220556 0 47463452.105220556 -57796268.096355759 0 0 0 0 49242445.862348557 111210688.44961393 0 111210688.44961393 -44552585.807986021 0 0 0 0 106925443.12751007 23399980.752280891 0 23399980.752280891 26921678.224006265 0 0 0 0 134787253.13054371 130362534.44903594 0 130362534.44903594 26794125.825442791 0 0 0 0 73580812.038585663 72268429.219027996 0 72268429.219027996 -23785939.453360438 0 0 0 0 23480197.873939514 196950484.96625221 0 196950484.96625221 21306549.094031155 0 0 0 0 -102771423.59393311 103429942.41235489 0 103429942.41235489 -16635006.677627325 0 0 0 0 -129658417.42583275 882281841.76531231 0 882281841.76531231 43312097.191022873 0 0 0 0 7305755.1833496094 745566665.04508972 0 745566665.04508972 -330057209.75090981 0 0 0 0 -1446062.4973068237 1059204903.8908782 0 1059204903.8908782 -531980570.88503456 0 0 0 0 -84225700.020126343 697344773.76091385 0 697344773.76091385 -171973145.33940029 0 0 0 0 128240961.35778427 960999275.64481258 0 960999275.64481258 3794925.3427009583 0 0 0 0 -231195774.86920166 898346287.49375916 0 898346287.49375916 578924374.19569397 0 0 0 0 956588.15297698975 952124469.78566647 0 952124469.78566647 890851444.93542862 0 0 0 0 -282092933.13038635 689028745.48695564 0 689028745.48695564 71153249.650987387 0 0 0 0 -136823374.64126587 570065914.23390007 0 570065914.23390007 103821213.62097168 0 0 0 0 104856361.02870178 591458146.8961401 0 591458146.8961401 -118530128.70866489 0 0 0 0 -133735105.98352051 546293479.75661087 0 546293479.75661087 -98147439.834600449 0 0 0 0 119311649.51999998 465456029.5843581 0 465456029.5843581 -218237230.44167328 0 0 0 0 277451172.98445129 481786001.88779163 0 481786001.88779163 -285929530.35145617 0 0 0 0 17215921.873641968 673752663.90573025 0 673752663.90573025 -190435705.04696655 0 0 0 0 178426855.3108139 78614123.787163734 0 78614123.787163734 -792434246.60570717 0 0 0 0 158865429.24441528 696604795.17554808 0 696604795.17554808 -669525366.14146996 0 0 0 0 213686886.42306519 270494905.56038094 0 270494905.56038094 -208667572.35003245 0 0 0 0 495634994.48395157 682762338.27396441 0 682762338.27396441 -258660397.36915016 0 0 0 0 198283211.03345871 715217316.10219336 0 715217316.10219336 623748005.4897213 0 0 0 0 121185482.46910858 175295455.77240562 0 175295455.77240562 -170934576.25232506 0 0 0 0 366072434.06317139 345404355.10756683 0 345404355.10756683 -225278774.08883667 0 0 0 0 91140319.343444824 5792201.9154930115 0 5792201.9154930115 -423062563.80521059 0 0 0 0 261508848.22433472 273340575.29172468 0 273340575.29172468 -408085691.83527946 0 0 0 0 109996845.31700134 42327603.100119114 0 42327603.100119114 -500459154.91650772 0 0 0 0 98503771.453308105 32935809.049919128 0 32935809.049919128 -507559069.24127197 0 0 0 0 72732591.716522217 752067719.51372433 0 752067719.51372433 -334082619.88500834 0 0 0 0 185614075.22942734 782980186.73285866 0 782980186.73285866 -1459078003.124836 0 0 0 0 -17473.01085931827 25812076.933928866 0 25812076.933928866 10756519.075856209 0 0 0 0 -84317619.6352005 -487369242.20760345 0 -487369242.20760345 -1910690782.1564775 0 0 0 0 -1604930.3948146552 2712453.8481810689 0 2712453.8481810689 -1725863.9603624213 0 0 0 0 25081013.506835938 45011457.84607029 0 45011457.84607029 25417921.63193655 0 0 0 0 -67623675.183204651 -192500621.63182068 0 -192500621.63182068 -442080066.74837875 0 0 0 0 -4943955.5396058857 7904572.6153667457 0 7904572.6153667457 -4581821.5323492717 0 0 0 0 25920489.968990207 4284786.9876675531 0 4284786.9876675531 -6242662.592414856 0 0 0 0 -9053328.5918273926 17524830.640830994 0 17524830.640830994 9861079.9998984337 0 0 0 0 206061.83457183838 43042156.422936201 0 43042156.422936201 38105445.142488956 0 0 0 0 63211297.866012573 110964138.473454 0 110964138.473454 111303808.44236231 0 0 0 0 89848377.355743408 -2773348.2679703236 0 -2773348.2679703236 -3466343.6664779186 0 0 0 0 -23152612.611968994 -16444832.81489718 0 -16444832.81489718 34863844.198697805 0 0 0 0 232760451.00163937 75216602.498942405 0 75216602.498942405 -65506822.506826162 0 0 0 0 1789514.9653101861 1761469.7847744375 0 1761469.7847744375 -1426856.7606258676 0 0 0 0 8815936.3697052002 -88735718.732299522 0 -88735718.732299522 -121085328.86835882 0 0 0 0 1037991125.484375 928910315.23797894 0 928910315.23797894 12971864.394468307 0 0 0 0 273103832.10193634 296980543.95786422 0 296980543.95786422 130061406.94717664 0 0 0 0 109482.58142089844 206502023.07984281 0 206502023.07984281 702353689.29901719 0 0 0 0 -30523489.065139771 355376902.44974762 0 355376902.44974762 306740854.16476911 0 0 0 0 -9311588.9907073975 83803013.588166669 0 83803013.588166669 -189473990.55945772 0 0 0 0 -16148680.913078308 23732346.492647827 0 23732346.492647827 -73267480.328867033 0 0 0 0 -130704382.72177124 79599442.85505119 0 79599442.85505119 -9423130.884637028 0 0 0 0 -7704734.4468383789 -132635374.47891751 0 -132635374.47891751 -214582970.56683588 0 0 0 0 -37363591.035102844 -17776216.583416022 0 -17776216.583416022 46777158.013003103 0 0 0 0 -47615896.101705551 43188690.507756233 0 43188690.507756233 -2984715.9829039574 0 0 0 0 2857983.5368175954 6337368.2412999757 0 6337368.2412999757 -2396598.852844188 0 0 0 0 -17928999.225450516 74046852.536609858 0 74046852.536609858 -11224989.69994095 0 0 0 0 -36080139.82093811 2910808.1931120339 0 2910808.1931120339 18330433.552663952 0 0 0 0 -3023950.8672553301 524521.24412848055 0 524521.24412848055 4117626.6701229387 0 0 0 0 -5153944.4120373726 21149777.564757705 0 21149777.564757705 -75367180.807575226 0 0 0 0 -7011186.8923886269 12657106.415262375 0 12657106.415262375 6990297.6271386482 0 0 0 0 -17634791.334472656 75475397.739028931 0 75475397.739028931 -138337038.34097767 0 0 0 0 -15456976.15184021 -203288.12071609497 0 -203288.12071609497 3153146.2642766237 0 0 0 0 -5963935.0925831795 6766128.7838997543 0 6766128.7838997543 -133435372.51090813 0 0 0 0 -8753918.0800722539 13921125.483911216 0 13921125.483911216 -4250696.892465692 0 0 0 0 24148420.469940186 -23682163.047489166 0 -23682163.047489166 -137128358.61895025 0 0 0 0 91323563.218139648 83763085.930737019 0 83763085.930737019 -142315844.61170197 0 0 0 0 56592336.6404953 12831498.348353386 0 12831498.348353386 -261870230.98433113 0 0 0 0 194942535.40964508 132539364.68710041 0 132539364.68710041 -278192368.98471832 0 0 0 0 123579949.3916626 181346072.46079826 0 181346072.46079826 -159543381.51469254 0 0 0 0 60002084.150543213 113970242.86502647 0 113970242.86502647 -171395892.37984419 0 0 0 0 -180891610.88743591 192057628.26740265 0 192057628.26740265 -20266847.93989563 0 0 0 0 -215506112.82112122 152776079.31849766 0 152776079.31849766 -69634963.351394653 0 0 0 0 -2852444.77231884 1379291.4205273837 0 1379291.4205273837 2674827.9625621177 0 0 0 0 80327031.651031494 200405330.93745995 0 200405330.93745995 -103158927.03796768 0 0 0 0 1201790158.9860535 245938969.96470642 0 245938969.96470642 -9571977.7266101837 0 0 0 0 506275145.93815613 33254471.179779053 0 33254471.179779053 353692662.78420782 0 0 0 0 108313661.80451965 638397242.47770119 0 638397242.47770119 418949485.35099554 0 0 0 0 271127.59365518391 2522369.1189941689 0 2522369.1189941689 -705978.28793188743 0 0 0 0 -10965757.434585571 -8455462.3372535706 0 -8455462.3372535706 306185635.47841263 0 0 0 0 631325553.95146942 522997742.66294003 0 522997742.66294003 487230294.21812057 0 0 0 0 617940537.31481934 237578677.28486633 0 237578677.28486633 17772657.744808197 0 0 0 0 402985.63138389587 36621956.169976294 0 36621956.169976294 2771900.2018561661 0 0 0 0 -4330965.8988751024 16474643.030799296 0 16474643.030799296 -12624510.921983875 0 0 0 0 -17838378.82043457 96727060.543586731 0 96727060.543586731 -59214245.457200527 0 0 0 0 -7775997.0710819811 11746991.029975452 0 11746991.029975452 7288073.4685544027 0 0 0 0 -1957112.4928417206 24951812.81325157 0 24951812.81325157 4317128.9697726127 0 0 0 0 -15518766.966720581 24303546.005533025 0 24303546.005533025 5079868.2755904458 0 0 0 0 -5375872.8264007568 27709681.818383485 0 27709681.818383485 -25685573.369795665 0 0 0 0 -26755228.672445297 35032801.777164519 0 35032801.777164519 -4158368.5378266126 0 0 0 0 21643743.380088806 40331364.098857194 0 40331364.098857194 -11840192.846256703 0 0 0 0 -3331170.5017547607 20072769.768410251 0 20072769.768410251 -3827349.1898894534 0 0 0 0 -8299791.126953125 36338881.027994305 0 36338881.027994305 4343923.522718437 0 0 0 0 903163.11826705933 11938420.753891729 0 11938420.753891729 -10464533.56878233 0 0 0 0 -17818846.821759224 27559038.497608811 0 27559038.497608811 -24913572.42774871 0 0 0 0 7418348.8482894897 20018528.204367772 0 20018528.204367772 -66837942.293164402 0 0 0 0 510012352.32796097 501898095.09390831 0 501898095.09390831 419675059.51764488 0 0 0 0 413644227.51845551 594174421.69231224 0 594174421.69231224 386576177.38251209 0 0 0 0 -5255976.8471653908 14137495.736770451 0 14137495.736770451 -7661962.3434010791 0 0 0 0 20488692.783737183 19407293.380525917 0 19407293.380525917 -24512837.974806692 0 0 0 0 -4689464.1205274239 14837507.940375961 0 14837507.940375961 -11595391.712282985 0 0 0 0 740742958.04755402 577611421.71906853 0 577611421.71906853 173244901.17673111 0 0 0 0 694778086.42482185 433896258.25914264 0 433896258.25914264 40805338.693372726 0 0 0 0 435590195.74588013 452807167.5124774 0 452807167.5124774 -73220069.005723953 0 0 0 0 522089332.28036499 320400209.259408 0 320400209.259408 129411417.70219517 0 0 0 0 706400476.2559967 390424206.38636398 0 390424206.38636398 177672205.67294112 0 0 0 0 578818332.05011559 510864156.46715403 0 510864156.46715403 88591083.389961243 0 0 0 0 406359094.57810211 281953060.11886644 0 281953060.11886644 231114460.80445099 0 0 0 0 492580754.09794617 264998235.64466286 0 264998235.64466286 55347550.743654251 0 0 0 0 337434298.81271935 58231765.893097401 0 58231765.893097401 -80456160.260808945 0 0 0 0 288699499.73922729 122090599.52341366 0 122090599.52341366 -164072275.08261806 0 0 0 0 459278934.02232742 65372380.632860661 0 65372380.632860661 -167153042.16146469 0 0 0 0 309281977.22399139 552092666.0960083 0 552092666.0960083 498284339.7299242 0 0 0 0 329864798.39603806 -218837571.58186746 0 -218837571.58186746 -701905663.83875656 0 0 0 0 2119047.5944084227 764741.51824942883 0 764741.51824942883 -488716.98224674165 0 0 0 0 56495308.090198517 7408675.2336859703 0 7408675.2336859703 -64046847.090309143 0 0 0 0 542619706.64635468 124093493.38195801 0 124093493.38195801 -120784878.12206459 0 0 0 0 1040374406.7050133 556983278.2218442 0 556983278.2218442 -48164911.824581146 0 0 0 0 267351666.78092957 355940399.85484028 0 355940399.85484028 -97276316.016441345 0 0 0 0 270097978.65473938 497172004.48670006 0 497172004.48670006 -48060366.037465096 0 0 0 0 85444490.25922966 381971688.07500887 0 381971688.07500887 100272603.6845665 0 0 0 0 314035722.36994934 523584748.30452156 0 523584748.30452156 -32268764.372142792 0 0 0 0 206614141.84586334 359989383.39067364 0 359989383.39067364 38475841.128577709 0 0 0 0 357936366.08787918 432113228.77377176 0 432113228.77377176 -219211267.63055801 0 0 0 0 3857152.5642684847 1871389.9612768721 0 1871389.9612768721 -1124743.8117596372 0 0 0 0 277100491.97014618 193740696.8620224 0 193740696.8620224 -483772811.37307549 0 0 0 0 152975867.59139252 239834766.30572414 0 239834766.30572414 -269641490.412678 0 0 0 0 134092417.73875427 172069587.3146677 0 172069587.3146677 -884220570.34033513 0 0 0 0 1756634.4013284445 1160800.3472453076 0 1160800.3472453076 -595111.56977016106 0 0 0 0 49363975.161028862 322760433.75570178 0 322760433.75570178 -38700663.012752533 0 0 0 0 267222025.83731079 537972978.9862442 0 537972978.9862442 65088190.219415188 0 0 0 0 371531312.53234291 359680247.84124351 0 359680247.84124351 153807680.9774971 0 0 0 0 394660829.50975037 435211241.87446404 0 435211241.87446404 18912042.943932056 0 0 0 0 597306413.69498444 432913866.80810642 0 432913866.80810642 177556287.25065088 0 0 0 0 116659744.80837536 344965885.27626729 0 344965885.27626729 293928734.77361298 0 0 0 0 139761079.99620056 255173120.80488682 0 255173120.80488682 260882423.01269341 0 0 0 0 415330670.44568634 199789634.02882481 0 199789634.02882481 126994838.92075825 0 0 0 0 291314048.94963837 397104405.03002357 0 397104405.03002357 138581753.14748383 0 0 0 0 284860409.02700806 351833141.14161777 0 351833141.14161777 319235312.12438583 0 0 0 0 362324088.10158539 426436953.95603704 0 426436953.95603704 355011858.28157043 0 0 0 0 102636387.74084473 431350078.50290489 0 431350078.50290489 381648681.94962692 0 0 0 0 52603202.946929932 342684765.75523138 0 342684765.75523138 308207170.01324654 0 0 0 0 199320668.07464218 384778094.60652971 0 384778094.60652971 241181520.27894402 0 0 0 0 -56843819.492675781 464079171.93712997 0 464079171.93712997 34493084.252822876 0 0 0 0 135234579.77781677 285572893.04495668 0 285572893.04495668 145714017.04213333 0 0 0 0 -104347586.95566368 742144115.45440376 0 742144115.45440376 -134566714.35546684 0 0 0 0 -154270979.65003777 397523950.98149872 0 397523950.98149872 -6496886.3936576843 0 0 0 0 -126995085.98765564 493085563.86970139 0 493085563.86970139 -115626981.03928947 0 0 0 0 -230543383.02036285 203596687.35853767 0 203596687.35853767 -21992849.649831295 0 0 0 0 168097958.09975433 203463277.76072073 0 203463277.76072073 -47592622.072587967 0 0 0 0 135835945.04467773 239705647.46474743 0 239705647.46474743 149650735.61247015 0 0 0 0 172317877.85076523 -12824426.340769291 0 -12824426.340769291 -245768080.02204323 0 0 0 0 -25163907.80153656 277581142.4092021 0 277581142.4092021 -174460483.27542114 0 0 0 0 38155883.25753212 335579285.31314468 0 335579285.31314468 -841577071.56753922 0 0 0 0 -480936372.55026245 60659803.788305283 0 60659803.788305283 -234053549.2599287 0 0 0 0 47249177.91330719 413575915.01603651 0 413575915.01603651 -267781562.24402627 0 0 0 0 470349652.84494781 645217088.527071 0 645217088.527071 -261098039.49152565 0 0 0 0 271759174.73243713 198971015.96394968 0 198971015.96394968 -120258704.78023434 0 0 0 0 -568915958.8084259 306437395.13884926 0 306437395.13884926 -456281101.08963013 0 0 0 0 -371133087.47175598 1059812004.998579 0 1059812004.998579 -829312765.7043438 0 0 0 0 -70373842.430480957 738285283.96514988 0 738285283.96514988 -487852349.70301056 0 0 0 0 -336998220.6320343 1233624448.5944738 0 1233624448.5944738 -84573027.720083237 0 0 0 0 -93809837.402208328 713546493.79141092 0 713546493.79141092 288895438.2195015 0 0 0 0 75281792.188751221 1338620397.6350989 0 1338620397.6350989 172870245.55836773 0 0 0 0 5400142.9040038139 8968774.2903351597 0 8968774.2903351597 -261888.70667705499 0 0 0 0 -190211471.05673981 11512061.157648087 0 11512061.157648087 42979164.366039991 0 0 0 0 -64771706.342498779 85410956.261114597 0 85410956.261114597 10220255.361167908 0 0 0 0 -1268877.3171723634 701051.73750681803 0 701051.73750681803 549175.14866020717 0 0 0 0 -401667074.22579765 640753776.63335288 0 640753776.63335288 -57205762.134504318 0 0 0 0 -1546159611.0835114 812731862.88480949 0 812731862.88480949 -55582273.376870155 0 0 0 0 -1371889898.1711426 545391456.66027451 0 545391456.66027451 -456603673.41396999 0 0 0 0 -2416979442.2048764 1019335571.2863892 0 1019335571.2863892 -127932529.53767395 0 0 0 0 1528937.2304452937 3223390.6214923561 0 3223390.6214923561 -5314579.0865313523 0 0 0 0 -795222169.96138763 1024006873.437254 0 1024006873.437254 -2097028369.1749706 0 0 0 0 -19064054.680694699 -137620771.60182327 0 -137620771.60182327 -732400741.52083206 0 0 0 0 -47983953.4610672 649284024.77200985 0 649284024.77200985 -1085781095.8072853 0 0 0 0 -698790866.0550499 982605032.56179166 0 982605032.56179166 -538119274.96613121 0 0 0 0 -1195113937.566658 253806636.54301214 0 253806636.54301214 -382225704.96883583 0 0 0 0 -531350953.49378204 549658862.41217518 0 549658862.41217518 -261888948.90928173 0 0 0 0 -450117940.09762716 401929223.31122333 0 401929223.31122333 -135468323.84568214 0 0 0 0 -392349056.10127735 838974642.71187091 0 838974642.71187091 -222672991.73150635 0 0 0 0 -244442182.713974 750004468.97543621 0 750004468.97543621 -135881937.70042229 0 0 0 0 -294835383.87802887 850099838.55013561 0 850099838.55013561 -221842172.85238171 0 0 0 0 -340831423.63433075 784942949.34979248 0 784942949.34979248 166320618.53745985 0 0 0 0 -148162363.73260498 560907506.30141687 0 560907506.30141687 -389300396.13632965 0 0 0 0 -94658985.033029556 407261549.12633681 0 407261549.12633681 14151756.500213623 0 0 0 0 -247224128.74951172 718133098.2934351 0 718133098.2934351 -389879689.53841019 0 0 0 0 -90743810.481681824 448133690.91074562 0 448133690.91074562 -329113099.30731583 0 0 0 0 2286636.4067033082 6024696.6320861429 0 6024696.6320861429 1305119.9289597524 0 0 0 0 -366168856.65714264 322552666.04399061 0 322552666.04399061 -194387935.59867668 0 0 0 0 -398848281.70632935 284441155.03649044 0 284441155.03649044 -95605216.294677734 0 0 0 0 -357021689.25660515 200716229.08847928 0 200716229.08847928 -32046844.917027473 0 0 0 0 -86479475.928455353 124365276.55520201 0 124365276.55520201 -56903403.36009407 0 0 0 0 -355193626.70567322 323270803.30817795 0 323270803.30817795 150206210.33899021 0 0 0 0 -339791881.96561432 351572928.77778244 0 351572928.77778244 -41218831.57941103 0 0 0 0 178753742.85786057 130605687.13325953 0 130605687.13325953 -30039727.325885773 0 0 0 0 -399153173.89071655 534797842.15641403 0 534797842.15641403 126571096.87620664 0 0 0 0 577581372.44072628 555034790.77693999 0 555034790.77693999 489765760.5569973 0 0 0 0 -1074060.9741051346 2222385.2959583551 0 2222385.2959583551 -1318557.9142018259 0 0 0 0 -833406146.14028931 343862477.08525467 0 343862477.08525467 1055724176.1020241 0 0 0 0 724726.26298062503 2320517.3493571877 0 2320517.3493571877 812391.19008769095 0 0 0 0 -265424393.18997955 761340025.73920822 0 761340025.73920822 -731257390.49954605 0 0 0 0 -581801200.20065308 619424634.51832199 0 619424634.51832199 1929358982.4320965 0 0 0 0 -584830459.7652626 1178659824.7426119 0 1178659824.7426119 -458825130.78478622 0 0 0 0 -309155238.46290588 886559299.75827217 0 886559299.75827217 1473160409.4989986 0 0 0 0 -336370967.17166138 1144413594.7029476 0 1144413594.7029476 -1575460887.7690964 0 0 0 0 -885726265.46884155 -89877762.074611664 0 -89877762.074611664 1529551621.6654918 0 0 0 0 297934174.47970581 -21164811.625589371 0 -21164811.625589371 860188880.93951225 0 0 0 0 -2242460.4104003757 2573061.4034777954 0 2573061.4034777954 1454540.2227297286 0 0 0 0 -522215876.11797714 547752499.58201742 0 547752499.58201742 -156025844.03557968 0 0 0 0 -643718793.56372833 865930477.14672852 0 865930477.14672852 -544025807.62628174 0 0 0 0 -330253746.55473995 412892745.29530549 0 412892745.29530549 -824867997.72560883 0 0 0 0 -660262595.19450378 617614874.29337502 0 617614874.29337502 -161940781.45991886 0 0 0 0 -585295055.25206852 645853619.54647708 0 645853619.54647708 -280592954.15004349 0 0 0 0 -304312104.99947357 862369516.07145119 0 862369516.07145119 -113845328.10013294 0 0 0 0 -119732797.34151459 735793007.91243649 0 735793007.91243649 -201032974.88808918 0 0 0 0 -189645939.97805023 854069454.56253052 0 854069454.56253052 -255113523.67828178 0 0 0 0 -228896985.84759521 713422750.66238594 0 713422750.66238594 -137221089.77777195 0 0 0 0 280399785.77481079 635632422.57665539 0 635632422.57665539 -80732720.70720911 0 0 0 0 -178417028.77023315 670041498.72126675 0 670041498.72126675 -27483089.734562874 0 0 0 0 -570542962.75845337 613592699.35329103 0 613592699.35329103 44381279.086863518 0 0 0 0 -185561607.1890316 933248447.0431726 0 933248447.0431726 302066933.58094311 0 0 0 0 1246544027.716568 992776338.27874804 0 992776338.27874804 285892158.87099922 0 0 0 0 -1904061.9925559834 2045778.207599692 0 2045778.207599692 302997.72544733062 0 0 0 0 -1244443391.3993835 705401239.91659546 0 705401239.91659546 -18127484.849161148 0 0 0 0 -902605897.26906204 421727310.9705193 0 421727310.9705193 -119473210.04061699 0 0 0 0 -820210804.44473267 530369548.91919994 0 530369548.91919994 -76623047.01080513 0 0 0 0 -745951287.76436424 687638694.96815991 0 687638694.96815991 -25205502.408433914 0 0 0 0 -596451035.62124252 682489283.37309456 0 682489283.37309456 -97469486.715417862 0 0 0 0 -866974195.70117569 149203442.50579166 0 149203442.50579166 5915287.2010679245 0 0 0 0 -763862317.24119568 556214895.55386639 0 556214895.55386639 -52302617.870774269 0 0 0 0 -807008450.8395443 469992115.66449285 0 469992115.66449285 -152028250.58014679 0 0 0 0 -1954659463.6410542 -168464528.87468004 0 -168464528.87468004 -27300957.115911484 0 0 0 0 259847374.52290726 532193398.12162304 0 532193398.12162304 606175065.6698761 0 0 0 0 867880498.14317703 731486361.91653299 0 731486361.91653299 463135562.96655655 0 0 0 0 -5958029.734708719 5540059.0690407827 0 5540059.0690407827 3177221.4385871403 0 0 0 0 -693417442.75822449 -197888132.0319972 0 -197888132.0319972 -168357831.3754406 0 0 0 0 -589858456.42621613 3928312.1490030289 0 3928312.1490030289 -32326934.729532927 0 0 0 0 -353710376.50740337 -75710287.342476964 0 -75710287.342476964 -230692556.83720779 0 0 0 0 -434654242.99277687 195072186.76822126 0 195072186.76822126 283339182.60844803 0 0 0 0 -208016033.76809692 283511037.00942802 0 283511037.00942802 104816137.83424187 0 0 0 0 -335969164.05107117 267969754.25335979 0 267969754.25335979 562740271.14539719 0 0 0 0 -444341625.06460571 70554011.40123415 0 70554011.40123415 870081559.91652298 0 0 0 0 -367552256.23787689 -83528091.911083221 0 -83528091.911083221 1067888487.8945618 0 0 0 0 -377209715.86075592 206537029.18984151 0 206537029.18984151 285184561.85300827 0 0 0 0 -462960578.13391113 27635259.447198868 0 27635259.447198868 489949326.63865662 0 0 0 0 -349913601.03277588 51425477.888439178 0 51425477.888439178 494361254.77160072 0 0 0 0 -423506254.88851166 83810443.97469902 0 83810443.97469902 682125397.35593796 0 0 0 0 -287845636.98252106 200146438.14348316 0 200146438.14348316 538194658.24003029 0 0 0 0 -269672508.43874359 39174229.608495712 0 39174229.608495712 448165112.37657356 0 0 0 0 62481096.229911804 304423900.55609798 0 304423900.55609798 201811234.80065918 0 0 0 0 -576533314.32584381 327435515.11346722 0 327435515.11346722 240550192.67433548 0 0 0 0 -285340944.59320831 235798510.2593751 0 235798510.2593751 18611954.662080765 0 0 0 0 -428747826.37687683 631185554.87819767 0 631185554.87819767 156359117.67589092 0 0 0 0 -850903071.64252949 486941571.64841837 0 486941571.64841837 113364191.477314 0 0 0 0 -970411672.12203574 605004772.36121666 0 605004772.36121666 447052496.54356575 0 0 0 0 -174973877.12696838 895411503.32967281 0 895411503.32967281 460027461.042346 0 0 0 0 252418952.3052063 140677473.83027744 0 140677473.83027744 332635191.97027016 0 0 0 0 57923798.467453003 260585070.90203857 0 260585070.90203857 820706497.57941723 0 0 0 0 -4941120.4694306701 1482706.2239044011 0 1482706.2239044011 3312533.3737988062 0 0 0 0 503099910.13529205 379326676.16531181 0 379326676.16531181 82802675.606531143 0 0 0 0 -1477086.9420605674 1907943.1886283606 0 1907943.1886283606 1163697.8590556867 0 0 0 0 -26118800.822967529 452904088.12663269 0 452904088.12663269 1015412551.5834732 0 0 0 0 -19639171.755661011 -55774321.227039814 0 -55774321.227039814 782378884.27785492 0 0 0 0 -185223853.82447815 142346728.58210278 0 142346728.58210278 414065940.81547928 0 0 0 0 61784436.990896702 232401666.0528546 0 232401666.0528546 359656767.16882706 0 0 0 0 14940504.602981567 87679276.805301189 0 87679276.805301189 60250669.564409256 0 0 0 0 -15559162.89509201 22824714.145853996 0 22824714.145853996 1100046.5763034821 0 0 0 0 -8512259.4712387621 15894975.495203258 0 15894975.495203258 -4605859.8112528287 0 0 0 0 79154586.0364151 14897057.32697773 0 14897057.32697773 72920314.541468292 0 0 0 0 -14445406.660813652 6074914.3150386214 0 6074914.3150386214 10539926.923541225 0 0 0 0 -13365025.115287781 16695638.145151138 0 16695638.145151138 2164924.3609530926 0 0 0 0 -6698709.9578323364 24351932.335558891 0 24351932.335558891 10814463.859851837 0 0 0 0 19453778.707496643 43022787.91727066 0 43022787.91727066 54663983.989227295 0 0 0 0 -9524532.6540040225 16922074.448344238 0 16922074.448344238 -4487070.2778823897 0 0 0 0 -6673491.8193588257 20295328.926065445 0 20295328.926065445 10292746.235669136 0 0 0 0 -5407558.112473011 24612760.504685223 0 24612760.504685223 18215639.063991547 0 0 0 0 -18248470.254077911 20565128.86310482 0 20565128.86310482 25679187.130182266 0 0 0 0 -7672124.286383193 13901267.292674534 0 13901267.292674534 21976505.737237871 0 0 0 0 -682767186.25268173 43602497.188092232 0 43602497.188092232 -94594903.111652374 0 0 0 0 -582986177.90344238 -94995283.536239624 0 -94995283.536239624 -6400312.6202850342 0 0 0 0 -43846156.531402588 68083683.334223747 0 68083683.334223747 9453417.2754068375 0 0 0 0 -13318751.686687291 20815288.145332642 0 20815288.145332642 1530393.5774575919 0 0 0 0 -5491618.7899625301 23068663.365216434 0 23068663.365216434 16194174.257080078 0 0 0 0 19463585.333816528 32554241.568214417 0 32554241.568214417 -12233560.102392197 0 0 0 0 -3195696.5576234907 9066719.5962157845 0 9066719.5962157845 16184718.378536142 0 0 0 0 -1138559530.6538734 235148144.29746342 0 235148144.29746342 521891969.39546967 0 0 0 0 -8968761.0209350586 23735991.43314743 0 23735991.43314743 40265782.068515778 0 0 0 0 -144886879.62448311 58278838.401446819 0 58278838.401446819 96487170.429067612 0 0 0 0 -51172748.291900635 32651192.377984047 0 32651192.377984047 406276661.7796936 0 0 0 0 -251543679.51228333 -22576057.786028862 0 -22576057.786028862 401272580.04393566 0 0 0 0 -202320464.52579498 -148802432.06186867 0 -148802432.06186867 684441388.39801407 0 0 0 0 -201385471.22302246 115118004.61886263 0 115118004.61886263 675655473.71821594 0 0 0 0 -351084.45386030152 4021491.9866619706 0 4021491.9866619706 6038140.3097458333 0 0 0 0 199472813.57645416 -475111046.08919716 0 -475111046.08919716 627720240.79484367 0 0 0 0 62803657.091140747 -237444263.64846611 0 -237444263.64846611 232614350.88989353 0 0 0 0 -227324898.93952942 -143204144.39840126 0 -143204144.39840126 683807895.17334175 0 0 0 0 -230888663.4161576 -304925110.73712963 0 -304925110.73712963 1072447960.7133102 0 0 0 0 -149740601.64663696 1295119674.2576895 0 1295119674.2576895 559679613.80176926 0 0 0 0 163734835.60552216 927517413.39723969 0 927517413.39723969 270789845.01653004 0 0 0 0 -267362346.45495605 923637097.95509911 0 923637097.95509911 464609152.73879051 0 0 0 0 -14193242.185503162 14303663.384493042 0 14303663.384493042 2330554.1406932548 0 0 0 0 26350572.186491013 213117787.44148993 0 213117787.44148993 251876372.70533562 0 0 0 0 -280506812.58609009 243385320.85901642 0 243385320.85901642 -412646202.52191162 0 0 0 0 -282293387.99938202 441595352.94155884 0 441595352.94155884 1069398021.4353256 0 0 0 0 -534743637.59686279 209460940.27449989 0 209460940.27449989 379005492.19356537 0 0 0 0 -531883017.85418701 -50607113.209600449 0 -50607113.209600449 -38488549.157869339 0 0 0 0 587026812.63832092 -233801503.52524567 0 -233801503.52524567 294639136.30445671 0 0 0 0 1516865679.0674038 923334420.41551065 0 923334420.41551065 102508702.89155579 0 0 0 0 1301634478.3869705 2144927286.7276509 0 2144927286.7276509 72381589.635192871 0 0 0 0 -1168581627.1735001 663544589.50569916 0 663544589.50569916 299071514.73848438 0 0 0 0 -401982879.4221096 2160070330.5401001 0 2160070330.5401001 618775511.94532013 0 0 0 0 -563087105.61566925 147616412.27249336 0 147616412.27249336 -14707449.295707703 0 0 0 0 -622128249.9450531 385308031.48067665 0 385308031.48067665 -663881770.01391602 0 0 0 0 -505630447.66231155 -177586850.44734001 0 -177586850.44734001 -303214464.44077682 0 0 0 0 -6408217.1247226596 1759871.6396614024 0 1759871.6396614024 1519214.5776974643 0 0 0 0 -1893868706.2221603 -604116037.85971069 0 -604116037.85971069 704287420.77845955 0 0 0 0 -1575974373.2500839 -667455785.41099072 0 -667455785.41099072 650010639.87565804 0 0 0 0 102913931.62452698 -136126773.49693489 0 -136126773.49693489 177994771.64642715 0 0 0 0 -2346580467.882164 -558494519.38204193 0 -558494519.38204193 766390762.68310928 0 0 0 0 1961420790.3155594 -126751666.84879684 0 -126751666.84879684 -968038180.08944702 0 0 0 0 -2056854441.4099426 -392088576.59459686 0 -392088576.59459686 492171415.40415573 0 0 0 0 -507019790.77861023 80269393.148213387 0 80269393.148213387 -5069500.3009529114 0 0 0 0 -863049569.34152222 -1107244086.4191818 0 -1107244086.4191818 -1613697118.578207 0 0 0 0 -12358508.183005504 15837790.360342883 0 15837790.360342883 -8202104.9766403735 0 0 0 0 -167467313.52905273 404792394.68118 0 404792394.68118 -756011175.29170609 0 0 0 0 -1104496501.9696274 642850924.81118393 0 642850924.81118393 49308764.372375488 0 0 0 0 -436957222.75259399 580665035.77670276 0 580665035.77670276 372193659.29812241 0 0 0 0 -444764018.18542898 298636357.25632471 0 298636357.25632471 227163707.37878036 0 0 0 0 -535858951.1889267 472907109.13767815 0 472907109.13767815 486785068.65651894 0 0 0 0 -508443729.56539917 -92503654.438537598 0 -92503654.438537598 116548368.31578827 0 0 0 0 -274392394.25325012 283714484.07792377 0 283714484.07792377 379643197.49257469 0 0 0 0 27258739.00302887 221209914.71891117 0 221209914.71891117 300260199.0051384 0 0 0 0 -308901682.27274323 441316875.8461771 0 441316875.8461771 460172406.77910995 0 0 0 0 -275254541.31599045 720247760.50375462 0 720247760.50375462 748034484.79724503 0 0 0 0 -191495042.43828583 575529085.42240429 0 575529085.42240429 579941107.14488792 0 0 0 0 -45306073.730303854 596301151.47666287 0 596301151.47666287 482417753.8490448 0 0 0 0 -38935636.412872314 591538742.35255623 0 591538742.35255623 469571632.65861511 0 0 0 0 121785073.73044586 573728491.70205116 0 573728491.70205116 470620792.94673491 0 0 0 0 111634265.86443329 618595440.54610348 0 618595440.54610348 361593851.17596626 0 0 0 0 91483909.666992188 507067027.19682693 0 507067027.19682693 459250515.04835701 0 0 0 0 51182875.888751984 453941557.76391315 0 453941557.76391315 441484365.45170593 0 0 0 0 28782288.929840088 435739433.62517929 0 435739433.62517929 453159469.84765053 0 0 0 0 410471972.53349304 380069481.65102959 0 380069481.65102959 297349705.25372887 0 0 0 0 108849547.28048897 236513636.7280972 0 236513636.7280972 229305391.22894096 0 0 0 0 -10104920.270712428 8692343.1080215871 0 8692343.1080215871 6606716.4073062539 0 0 0 0 414973887.28036499 -1134312453.1194949 0 -1134312453.1194949 78773716.214347839 0 0 0 0 463297742.11575317 513104930.82531071 0 513104930.82531071 363526367.99329567 0 0 0 0 150788706.29286194 421193037.97292805 0 421193037.97292805 429686309.93816185 0 0 0 0 151944628.41833496 491982369.95106792 0 491982369.95106792 443207091.85073853 0 0 0 0 365119501.73860168 473784834.57875156 0 473784834.57875156 410633533.90127754 0 0 0 0 206497616.20727539 504097177.41970158 0 504097177.41970158 498940554.94476128 0 0 0 0 376380984.04064178 430205953.90518951 0 430205953.90518951 430004182.85805607 0 0 0 0 197400914.55508423 382389933.33765507 0 382389933.33765507 484042160.74906158 0 0 0 0 203523756.2242794 374353916.87071609 0 374353916.87071609 318214817.33145332 0 0 0 0 220902458.50891876 518498197.69856596 0 518498197.69856596 361464131.48772049 0 0 0 0 179841822.64472961 476727592.21412468 0 476727592.21412468 399607465.37240982 0 0 0 0 191281024.62128067 463168290.09212208 0 463168290.09212208 414756680.17121315 0 0 0 0 294652092.2389679 635654721.76278496 0 635654721.76278496 57121285.604553223 0 0 0 0 255948802.79813385 603523777.29726791 0 603523777.29726791 243398631.74026966 0 0 0 0 229722525.67325974 568115984.93878794 0 568115984.93878794 196036863.65644264 0 0 0 0 300601923.70487213 463119503.84997845 0 463119503.84997845 228884283.89419079 0 0 0 0 211777921.7583313 503623113.49583435 0 503623113.49583435 97971836.584835052 0 0 0 0 120039649.27455139 507176599.43850708 0 507176599.43850708 -4576313.3885765076 0 0 0 0 237931038.67422485 475897278.91500759 0 475897278.91500759 -134006336.29216099 0 0 0 0 84047441.545070648 342459754.51672029 0 342459754.51672029 -128901444.0609436 0 0 0 0 297068225.74838734 485637101.40822256 0 485637101.40822256 -131943186.14081955 0 0 0 0 265457874.12429047 644657088.41462708 0 644657088.41462708 104100831.02282524 0 0 0 0 72429216.249679565 417951617.53893089 0 417951617.53893089 -33244596.086533546 0 0 0 0 305182699.59954834 588778738.25357628 0 588778738.25357628 -46640336.567737579 0 0 0 0 241205124.5993042 616970146.56647682 0 616970146.56647682 146097530.56027603 0 0 0 0 303496931.66754532 612446798.91340971 0 612446798.91340971 130853085.8468399 0 0 0 0 362409816.51986694 709355089.241539 0 709355089.241539 123198073.58826137 0 0 0 0 424802569.3649292 706548096.30207348 0 706548096.30207348 17839506.122070312 0 0 0 0 337535250.07954407 678449677.5339694 0 678449677.5339694 376846665.59683609 0 0 0 0 452439313.85910797 791463867.64229202 0 791463867.64229202 229765432.34609604 0 0 0 0 284475696.45635223 791306791.13140678 0 791306791.13140678 503020544.89636612 0 0 0 0 353022709.59666443 772694159.80656815 0 772694159.80656815 314856633.6580143 0 0 0 0 192582486.91954803 824621645.44249439 0 824621645.44249439 508666320.58537674 0 0 0 0 262765839.41873932 735678422.09121466 0 735678422.09121466 321655197.48834801 0 0 0 0 258885154.19735718 705896769.88218307 0 705896769.88218307 228604779.28415298 0 0 0 0 161044693.22322845 696676749.86767673 0 696676749.86767673 404487925.92568207 0 0 0 0 157036319.74835205 753727352.85214043 0 753727352.85214043 417760814.18832636 0 0 0 0 -44438406.898164839 749281051.21394193 0 749281051.21394193 577107519.40180206 0 0 0 0 54725503.355209351 842950395.31846952 0 842950395.31846952 739272140.15367126 0 0 0 0 26743152.356193542 729130454.22949028 0 729130454.22949028 550520858.26648903 0 0 0 0 434524460.27506161 570635328.80912125 0 570635328.80912125 836046284.11635208 0 0 0 0 272548257.74722672 833996913.24989796 0 833996913.24989796 776410042.81414032 0 0 0 0 299330874.3946228 806187303.82793427 0 806187303.82793427 503670416.02207565 0 0 0 0 393801523.70249176 840500186.14562416 0 840500186.14562416 656491060.02572823 0 0 0 0 -224904451.04213715 426018821.36620522 0 426018821.36620522 483224664.83118725 0 0 0 0 -153763899.20979309 735692439.40007782 0 735692439.40007782 1142877863.7390556 0 0 0 0 -21003618.211601257 90537004.537284851 0 90537004.537284851 -128687084.02480125 0 0 0 0 -3334987.7361602783 156578830.25385761 0 156578830.25385761 107247476.18352509 0 0 0 0 -139592990.16073608 -45776370.620702744 0 -45776370.620702744 492715449.04107475 0 0 0 0 -152216668.94825745 -123346311.81474209 0 -123346311.81474209 73739526.008899689 0 0 0 0 -280363.61836332083 -336165.34288525581 0 -336165.34288525581 4526846.3102119155 0 0 0 0 -2260718.8005523682 55308849.200824738 0 55308849.200824738 43720484.399902344 0 0 0 0 -14327128.376749292 6371641.7550633531 0 6371641.7550633531 4724173.0906107686 0 0 0 0 10333864.360813141 53730140.052411556 0 53730140.052411556 -29127234.469308853 0 0 0 0 41975314.453674316 411737102.07548332 0 411737102.07548332 639830679.44762707 0 0 0 0 69639276.655394077 711988128.29084826 0 711988128.29084826 -107369188.42082214 0 0 0 0 1257974.5655094087 5860613.2565576583 0 5860613.2565576583 4845246.1655490585 0 0 0 0 253277384.50793457 -92976261.077610016 0 -92976261.077610016 63347773.815912247 0 0 0 0 68434778.141036987 292064724.67568779 0 292064724.67568779 1870923601.0577431 0 0 0 0 1367352.6815139204 3929955.6194603723 0 3929955.6194603723 -137463.28477923013 0 0 0 0 -18147745.877141267 10752697.787725322 0 10752697.787725322 10532715.435092486 0 0 0 0 -33199309.109474182 -112692877.38146496 0 -112692877.38146496 732703415.72719193 0 0 0 0 -4893915.5397024676 662384.20112329721 0 662384.20112329721 15543160.686613005 0 0 0 0 -66557916.731201172 21338919.977876663 0 21338919.977876663 60967525.1647892 0 0 0 0 399215522.40511322 1092242188.3317623 0 1092242188.3317623 1428902256.0486298 0 0 0 0 292483787.25376892 889469009.6842308 0 889469009.6842308 1043786564.5643907 0 0 0 0 543558070.92188263 1171674294.3543997 0 1171674294.3543997 1596346928.1778336 0 0 0 0 244554972.45738983 869638950.61008453 0 869638950.61008453 1325343742.8941345 0 0 0 0 467920014.5292635 748868003.73960066 0 748868003.73960066 1064798669.9620171 0 0 0 0 437910468.3217926 997975484.43384743 0 997975484.43384743 1245097299.4150982 0 0 0 0 360277171.10704803 782281558.61835003 0 782281558.61835003 876784514.8472023 0 0 0 0 248456224.88562012 766927554.5502224 0 766927554.5502224 1445995760.0654736 0 0 0 0 340216031.00357056 835696265.68404961 0 835696265.68404961 870721076.71518898 0 0 0 0 461389538.20169067 782247028.09810829 0 782247028.09810829 503303449.78706157 0 0 0 0 525255703.63748932 829658454.50969696 0 829658454.50969696 434587828.3516407 0 0 0 0 716130911.52241516 824656751.80747032 0 824656751.80747032 735238183.43993092 0 0 0 0 357802371.41402435 653436271.9128685 0 653436271.9128685 674217103.16180515 0 0 0 0 648201798.93523026 595375477.44835281 0 595375477.44835281 498411806.44005966 0 0 0 0 363827561.53309631 360727951.4258728 0 360727951.4258728 451755786.31253242 0 0 0 0 943080356.18109131 470511267.62227631 0 470511267.62227631 1191984933.6562629 0 0 0 0 446269085.68346405 695241266.2353735 0 695241266.2353735 1144719225.6113434 0 0 0 0 1047413811.4080658 1009979681.9581776 0 1009979681.9581776 1177671980.867485 0 0 0 0 154379477.02210999 1065452470.5607491 0 1065452470.5607491 1857250295.7975359 0 0 0 0 355906343.36893082 718361142.90227509 0 718361142.90227509 1220942799.3745308 0 0 0 0 397960043.11812592 558781975.84390831 0 558781975.84390831 1790428443.039753 0 0 0 0 209538957.03346252 881194125.6033783 0 881194125.6033783 1114008686.6935539 0 0 0 0 385453526.9624939 1060260840.694953 0 1060260840.694953 1191843426.0707436 0 0 0 0 292829817.16656494 1075893398.7547226 0 1075893398.7547226 834771497.13991165 0 0 0 0 414624213.31892395 704760621.84964561 0 704760621.84964561 380888993.75798035 0 0 0 0 820714460.11494446 1344404011.4953518 0 1344404011.4953518 979959911.64588547 0 0 0 0 993268062.46779633 648738478.11543274 0 648738478.11543274 143657274.7925415 0 0 0 0 272318404.37770081 661782441.09177399 0 661782441.09177399 564156139.15852356 0 0 0 0 87529379.960697174 1238484143.0299864 0 1238484143.0299864 1419554728.7578888 0 0 0 0 6894938.1171875 1112452512.7867489 0 1112452512.7867489 1237232323.822876 0 0 0 0 473050003.96142578 1178474046.7199821 0 1178474046.7199821 987314796.73881149 0 0 0 0 569079463.29824233 1499205446.8028181 0 1499205446.8028181 1476226927.6643715 0 0 0 0 516110101.98936462 887632096.54601479 0 887632096.54601479 1359457234.9769592 0 0 0 0 61378.669067382812 23706967.257236481 0 23706967.257236481 30956805.749511719 0 0 0 0 -2970499.0517560542 6525357.4328629076 0 6525357.4328629076 8321059.4805499017 0 0 0 0 1809033420.4369812 1508356771.8712063 0 1508356771.8712063 1125089400.6227131 0 0 0 0 -59076.568977355957 23606784.969747543 0 23606784.969747543 31050655.147169113 0 0 0 0 634581646.2999115 816588960.7813158 0 816588960.7813158 1052549085.1522045 0 0 0 0 633691369.72468567 798539627.49982262 0 798539627.49982262 706384165.71383667 0 0 0 0 -4019652.3230740279 6205404.3245374411 0 6205404.3245374411 9467362.937317878 0 0 0 0 24637155.313117981 10184833.102640152 0 10184833.102640152 -29396714.408004761 0 0 0 0 28661225.355506897 37009761.070280075 0 37009761.070280075 7439618.0011749268 0 0 0 0 4218885.7853364348 -47853113.586330242 0 -47853113.586330242 -41393484.374506339 0 0 0 0 -22807937.06817627 2055840.8357906342 0 2055840.8357906342 13934376.74294281 0 0 0 0 5773799.010055542 -1895575.0903663635 0 -1895575.0903663635 12763191.160441875 0 0 0 0 -4908998.5384674072 -2896685.6635017395 0 -2896685.6635017395 1488752.6963882446 0 0 0 0 4644247.8337464724 6040207.7702806368 0 6040207.7702806368 702606.42099326104 0 0 0 0 -353780595.71643829 34298371.895237923 0 34298371.895237923 -1753098.5008850098 0 0 0 0 884102.9506072998 7465847.9329166412 0 7465847.9329166412 -3567406.1917495728 0 0 0 0 8686708.9658508301 2717738.1306018829 0 2717738.1306018829 -4274861.9727325439 0 0 0 0 -146360663.14385223 123191564.02027988 0 123191564.02027988 -83725487.858747482 0 0 0 0 -424021.51544031128 6301350.2121448517 0 6301350.2121448517 7621165.8530142158 0 0 0 0 -44997181.694046021 -3631354.3740701675 0 -3631354.3740701675 547994.16727590561 0 0 0 0 251173.46575267613 -1384431.0874647796 0 -1384431.0874647796 5837743.2245152015 0 0 0 0 3969096.6139878035 3673561.2685913518 0 3673561.2685913518 2125283.8880103626 0 0 0 0 -75894642.67414856 41688008.468027115 0 41688008.468027115 3634945.7634887695 0 0 0 0 -63606299.554473877 300747260.79769707 0 300747260.79769707 -302212481.48799515 0 0 0 0 -90347822.811508179 236718388.80086136 0 236718388.80086136 -160292481.99638748 0 0 0 0 27112944.037948608 155193657.05260849 0 155193657.05260849 -270801271.39866066 0 0 0 0 6849738.764292419 4301026.6295721717 0 4301026.6295721717 221284.72466726694 0 0 0 0 -70914509.342102051 82614244.298294067 0 82614244.298294067 -134202681.87782669 0 0 0 0 5781332.1474456787 5762828.6679558754 0 5762828.6679558754 5659114.9989624023 0 0 0 0 25795217.086860657 7518245.5196180344 0 7518245.5196180344 -1275667.5954227448 0 0 0 0 -3886967.8875769824 5419553.8252952248 0 5419553.8252952248 8988792.055081781 0 0 0 0 454678777.88093567 420989804.20786476 0 420989804.20786476 456358298.82958221 0 0 0 0 243006590.92539978 336863729.80042839 0 336863729.80042839 509868193.08312607 0 0 0 0 327502246.55987549 441261515.43885803 0 441261515.43885803 555744440.177742 0 0 0 0 -334205.71690988541 1374610.7156911716 0 1374610.7156911716 1826263.9927618783 0 0 0 0 429777282.00073242 782885223.16677952 0 782885223.16677952 361728499.38532829 0 0 0 0 306349935.16809082 528989409.55541039 0 528989409.55541039 120637654.39677429 0 0 0 0 198674518.44522095 621454808.50086784 0 621454808.50086784 41493995.371368408 0 0 0 0 211118572.93562317 374551467.33971024 0 374551467.33971024 -359375755.39081192 0 0 0 0 230194727.93356323 537042006.76974869 0 537042006.76974869 36269784.101286411 0 0 0 0 119341166.46087646 -37145731.585720062 0 -37145731.585720062 -647445985.52955246 0 0 0 0 -643958.12885056436 1442310.4489425197 0 1442310.4489425197 698086.21056926996 0 0 0 0 -278839653.96437073 406709460.68844986 0 406709460.68844986 -550639955.2870369 0 0 0 0 220498154.17597389 510549223.08411193 0 510549223.08411193 -654205191.05814362 0 0 0 0 -284591416.47610474 180239013.33451462 0 180239013.33451462 -263042100.66081619 0 0 0 0 -224069445.87316895 484980242.2049408 0 484980242.2049408 -500619821.78798199 0 0 0 0 -436883942.49142456 313875495.50752449 0 313875495.50752449 -244168045.40531921 0 0 0 0 -40239599.074310303 279753083.5961113 0 279753083.5961113 -143292445.5996871 0 0 0 0 -135089342.95010376 323827969.29170418 0 323827969.29170418 -243840820.51380885 0 0 0 0 -255990202.30000305 392855072.27710056 0 392855072.27710056 -134469684.43419266 0 0 0 0 -206047294.63446045 183471450.67083931 0 183471450.67083931 -263769252.1240654 0 0 0 0 -172237839.56793213 375068993.69707108 0 375068993.69707108 -32002636.39666748 0 0 0 0 62055824.909057617 375609168.09482765 0 375609168.09482765 -133340573.82463455 0 0 0 0 91011140.0396595 368715852.05410671 0 368715852.05410671 -131301334.47122955 0 0 0 0 96069909.021362305 379370872.73900604 0 379370872.73900604 -221714276.35166466 0 0 0 0 20898452.350212097 362434240.89883423 0 362434240.89883423 -129478370.47894287 0 0 0 0 -149773029.69998169 390111533.19730759 0 390111533.19730759 -32487620.889522552 0 0 0 0 -36472411.629192352 448024041.56289768 0 448024041.56289768 -40481673.422271729 0 0 0 0 -226198614.4197998 428951730.31576347 0 428951730.31576347 79818642.479485989 0 0 0 0 -272368267.62484741 388782613.38772202 0 388782613.38772202 65968980.76348114 0 0 0 0 -259710448.48010254 339038648.16804504 0 339038648.16804504 64493445.642658353 0 0 0 0 -765675074.39909363 141989168.68817139 0 141989168.68817139 257864683.35027313 0 0 0 0 -222841.76852441207 2286095.4183190838 0 2286095.4183190838 2753012.8685682528 0 0 0 0 -528053020.04679871 399474042.54417992 0 399474042.54417992 535195480.50440335 0 0 0 0 541125191.28217316 539868800.639328 0 539868800.639328 410150699.95881653 0 0 0 0 -310198941.13835144 145858172.05844498 0 145858172.05844498 -66717206.135967255 0 0 0 0 574692.24730192393 -101831356.40650518 0 -101831356.40650518 -57834291.974868774 0 0 0 0 -124563961.77896118 142525297.67116547 0 142525297.67116547 -68777477.294719696 0 0 0 0 -171305299.88354492 256975475.78434753 0 256975475.78434753 -162396537.94220352 0 0 0 0 -187750648.82583618 316073154.16861153 0 316073154.16861153 -100531079.84957218 0 0 0 0 -180653569.37223053 358603457.52262115 0 358603457.52262115 -64080062.789230347 0 0 0 0 -300962640.03329468 279068098.2886734 0 279068098.2886734 -9488713.5063095093 0 0 0 0 -187833210.21562576 315282325.04826713 0 315282325.04826713 -67134111.14440918 0 0 0 0 -185875969.61729431 147131882.44152451 0 147131882.44152451 -113730125.44377518 0 0 0 0 -121073436.55374908 301918032.19987106 0 301918032.19987106 -458478493.63240814 0 0 0 0 231961.99870300293 216835405.86138153 0 216835405.86138153 -386868687.62138748 0 0 0 0 -19355918.612052917 172585252.32296753 0 172585252.32296753 -456194432.56813645 0 0 0 0 -48867298.834754944 399212431.25603485 0 399212431.25603485 -810367798.51058197 0 0 0 0 117408569.5112648 -58340218.584083557 0 -58340218.584083557 -462308561.71208191 0 0 0 0 -654670295.52603912 530731444.31955719 0 530731444.31955719 -423455120.49439621 0 0 0 0 36262286.637695312 -116274927.71247482 0 -116274927.71247482 -51023084.582695007 0 0 0 0 664683.06623109058 953083.21776768565 0 953083.21776768565 -4511342.1399714351 0 0 0 0 136910881.40853882 -879519.27119636536 0 -879519.27119636536 -68411552.373916626 0 0 0 0 61734997.972213745 53556953.924060822 0 53556953.924060822 -69112827.538281441 0 0 0 0 2053457.0632619746 1923362.5143941566 0 1923362.5143941566 -12273296.668804646 0 0 0 0 -3711719.7783279419 30116734.972793579 0 30116734.972793579 -24018648.328849792 0 0 0 0 -8963914.2911548615 53739272.087977409 0 53739272.087977409 -115588293.07112122 0 0 0 0 296857.00966632366 17214670.517333038 0 17214670.517333038 16907282.911004119 0 0 0 0 8059679.722694397 58922949.34929657 0 58922949.34929657 -56112431.596511841 0 0 0 0 -28563623.389457703 59743500.729848862 0 59743500.729848862 30090067.124137878 0 0 0 0 26550060.274032593 10867390.196670532 0 10867390.196670532 -13239074.917377472 0 0 0 0 -130187703.55419922 58587284.211540222 0 58587284.211540222 -21962361.843780518 0 0 0 0 -173060192.72446442 129717327.3960371 0 129717327.3960371 -134531391.41807556 0 0 0 0 -203945.05796051025 133463059.47717857 0 133463059.47717857 -226978205.02880478 0 0 0 0 17885.482055664062 60563522.176721573 0 60563522.176721573 -72407849.06496048 0 0 0 0 -82912716.583511353 156782833.61387825 0 156782833.61387825 -183225105.57626724 0 0 0 0 -58705096.734611511 50127648.596767426 0 50127648.596767426 -17124291.808738708 0 0 0 0 -60996969.286161423 35977627.092400551 0 35977627.092400551 -38295663.814628601 0 0 0 0 -18142426.700317383 105952213.19778824 0 105952213.19778824 -619558.17809104919 0 0 0 0 4866371.1002205163 4814723.4516721368 0 4814723.4516721368 -19831421.194514982 0 0 0 0 -64261056.854881287 44420871.717220306 0 44420871.717220306 -55163496.683240891 0 0 0 0 50589214.255226135 155938066.65454006 0 155938066.65454006 379961683.79793549 0 0 0 0 170204082.5558548 -276701991.62158585 0 -276701991.62158585 268254334.07948303 0 0 0 0 273653345.71847534 -514136257.79765511 0 -514136257.79765511 752641891.22803497 0 0 0 0 407257.55429423973 4021537.1881336719 0 4021537.1881336719 1780665.3962017298 0 0 0 0 -483500936.96359253 251163609.39878845 0 251163609.39878845 1842253088.583107 0 0 0 0 -67315669.65650177 -108222745.01756477 0 -108222745.01756477 595932475.378582 0 0 0 0 -295533.6608581543 10014317.315893173 0 10014317.315893173 334406721.24610138 0 0 0 0 -39619454.201965332 71788266.737548828 0 71788266.737548828 -54486441.349060059 0 0 0 0 296857.21931238472 -91528.740692906082 0 -91528.740692906082 -2278585.80140201 0 0 0 0 542983582.32330322 -488094664.70259094 0 -488094664.70259094 -231209368.73725891 0 0 0 0 33391940.009613037 925349353.14300919 0 925349353.14300919 1406507131.5397997 0 0 0 0 -106744496.47564697 348131972.18993378 0 348131972.18993378 1479375036.7747307 0 0 0 0 3532909.6605265588 -221169.71207288653 0 -221169.71207288653 529268.67043896019 0 0 0 0 -186361160.85187531 19593915.66381073 0 19593915.66381073 575069899.02240753 0 0 0 0 -7065863.1395645142 -217177504.36281776 0 -217177504.36281776 -220024520.40518951 0 0 0 0 114945877.29383087 219217651.63877678 0 219217651.63877678 83628157.603851318 0 0 0 0 125580462.62831116 734352362.15827942 0 734352362.15827942 794781651.47096729 0 0 0 0 -253982818.78353882 278075500.30690765 0 278075500.30690765 872073529.77078247 0 0 0 0 88435066.415557861 926803085.73666191 0 926803085.73666191 945423288.29994965 0 0 0 0 -66324538.259750366 531271452.51322746 0 531271452.51322746 603370472.70626068 0 0 0 0 289087946.21238708 938374221.70666885 0 938374221.70666885 700609696.82974243 0 0 0 0 -2345009.642737342 1024896278.797501 0 1024896278.797501 1240254115.9326401 0 0 0 0 209413994.25740051 1041912039.3468151 0 1041912039.3468151 1009343562.5897141 0 0 0 0 126384194.91827393 1095420897.5182991 0 1095420897.5182991 1239221318.1246719 0 0 0 0 30794609.185157776 763557747.24354744 0 763557747.24354744 1075406006.2847519 0 0 0 0 85179672.972213745 122525856.51529694 0 122525856.51529694 6563041.6180648804 0 0 0 0 296435325.68208313 -28183016.744701385 0 -28183016.744701385 -206144878.04679489 0 0 0 0 639123950.14107513 520225559.06015396 0 520225559.06015396 173417553.99360657 0 0 0 0 89399536.437759399 135357405.68120956 0 135357405.68120956 -19504852.303581238 0 0 0 0 -125116652.14468765 609839803.1313982 0 609839803.1313982 440427252.82186127 0 0 0 0 70070822.060256958 643550732.99062729 0 643550732.99062729 560219760.75137711 0 0 0 0 223789414.3734436 771299803.74178696 0 771299803.74178696 210042060.98183441 0 0 0 0 -2762289.1903686523 501687248.70240402 0 501687248.70240402 -72765867.467407227 0 0 0 0 74951496.839767456 376226850.742836 0 376226850.742836 45509003.841077805 0 0 0 0 146872134.4979248 211279488.47846222 0 211279488.47846222 7464422.2243041992 0 0 0 0 212644894.27078247 619131574.56502151 0 619131574.56502151 250464613.21396637 0 0 0 0 276025553.89047241 374665910.49643326 0 374665910.49643326 -454796594.2963562 0 0 0 0 334802960.18759155 60380103.688262939 0 60380103.688262939 -474791210.02451634 0 0 0 0 -1609618.8913579807 4622499.1728271954 0 4622499.1728271954 -291401.34450817108 0 0 0 0 -836976368.5428772 33794379.774588585 0 33794379.774588585 31308971.237186432 0 0 0 0 -147073665.62400818 792916373.7581234 0 792916373.7581234 -650619808.99588013 0 0 0 0 -463151913.24168968 649831630.50096655 0 649831630.50096655 -413594945.74584961 0 0 0 0 332905115.91027832 164849573.18265152 0 164849573.18265152 -935441454.20599747 0 0 0 0 -797308685.5150032 -118387485.96286011 0 -118387485.96286011 383156863.94429779 0 0 0 0 90041745.893783569 -249510771.78988647 0 -249510771.78988647 255316625.33512497 0 0 0 0 300199642.94320679 80513798.920116425 0 80513798.920116425 -392789933.31038857 0 0 0 0 -29105815.101165771 91467067.386146545 0 91467067.386146545 581229653.756073 0 0 0 0 2792416.8202241063 663456.73162645847 0 663456.73162645847 548632.19380459934 0 0 0 0 292296102.12714386 -55248412.066278458 0 -55248412.066278458 268756949.5819931 0 0 0 0 192062327.92808533 -64871984.577354431 0 -64871984.577354431 601754717.51145363 0 0 0 0 250424716.68255615 -122511522.02756119 0 -122511522.02756119 233899767.02077436 0 0 0 0 2324244.6633458287 12494726.86979305 0 12494726.86979305 11248870.416332774 0 0 0 0 36821345.323131561 35633861.579893112 0 35633861.579893112 -45985978.946746826 0 0 0 0 134997133.00447083 -202394565.40583038 0 -202394565.40583038 239129335.40309429 0 0 0 0 -154805855.43760681 -42842622.532905579 0 -42842622.532905579 342496399.80781555 0 0 0 0 -284817085.16071415 221342705.59221411 0 221342705.59221411 34430725.26197052 0 0 0 0 -329446102.46294594 -121426022.78875017 0 -121426022.78875017 314714535.16921997 0 0 0 0 127943637.77958679 -128120914.26241684 0 -128120914.26241684 237217910.21720886 0 0 0 0 -43543372.558719635 74841189.910769463 0 74841189.910769463 2383464.400932312 0 0 0 0 87243000.025619507 65041174.205944061 0 65041174.205944061 -117739524.68695068 0 0 0 0 16575435.312316895 -58142606.720901489 0 -58142606.720901489 170343675.02453613 0 0 0 0 -476069680.75289917 -440621262.86353111 0 -440621262.86353111 86674712.592630386 0 0 0 0 28217754.89666748 311890831.60168839 0 311890831.60168839 -671876167.11035919 0 0 0 0 -434505763.2125566 476861568.00451553 0 476861568.00451553 -214532956.67220306 0 0 0 0 -97789793.732452393 256421364.96812439 0 256421364.96812439 -86128086.59015274 0 0 0 0 -113981159.92432404 306029713.32966614 0 306029713.32966614 -236324959.02802277 0 0 0 0 -252178607.30316925 179149087.30482483 0 179149087.30482483 -78440020.853652954 0 0 0 0 -81650689.754455566 328739140.63411713 0 328739140.63411713 -229245313.28479767 0 0 0 0 -61813802.160255432 238086905.54836655 0 238086905.54836655 -24562371.422985077 0 0 0 0 18386386.21282959 25468874.154506683 0 25468874.154506683 -62320409.490283966 0 0 0 0 92166375.90536499 110792822.38417816 0 110792822.38417816 -616272102.60226917 0 0 0 0 -11160048.013694763 69655560.599254608 0 69655560.599254608 -13024718.59847641 0 0 0 0 -20303463.211853027 151313519.55370712 0 151313519.55370712 -259488663.51291847 0 0 0 0 -70786721.103746414 41166665.430276871 0 41166665.430276871 -25103571.991333008 0 0 0 0 7091315.2233505249 12097693.266271591 0 12097693.266271591 28239203.548583984 0 0 0 0 -46162587.375562668 11699004.856829166 0 11699004.856829166 38696289.014945984 0 0 0 0 2460839.3127901256 24626346.275026977 0 24626346.275026977 9946154.5370156989 0 0 0 0 169357353.56220245 73331131.974834442 0 73331131.974834442 34140585.069494724 0 0 0 0 -255223141.53616333 10439632.064716339 0 10439632.064716339 18391240.917598724 0 0 0 0 28238889.170791626 67885534.346449852 0 67885534.346449852 8437139.2616043091 0 0 0 0 -5192555.3850027397 15021446.763743099 0 15021446.763743099 1327808.2451520339 0 0 0 0 -13411427.9686203 89755787.393445492 0 89755787.393445492 -2785701.6995925903 0 0 0 0 -241002474.66130066 -43315315.364395142 0 -43315315.364395142 91212968.950248718 0 0 0 0 342138020.96206665 153148533.97719574 0 153148533.97719574 -132989677.56906509 0 0 0 0 280543307.73954773 417815737.4795208 0 417815737.4795208 -711537084.9069519 0 0 0 0 375121770.34190369 164201913.32711458 0 164201913.32711458 -146039936.25862885 0 0 0 0 155028587.65299988 187784490.71597195 0 187784490.71597195 -17864412.855354309 0 0 0 0 7019027.0209465027 -23541415.85106945 0 -23541415.85106945 538053.85570526123 0 0 0 0 725740714.24090612 151919030.55833167 0 151919030.55833167 -1089196742.277401 0 0 0 0 -131941.23189553618 21640694.697117597 0 21640694.697117597 8364628.9917252213 0 0 0 0 705795214.81852722 -656445476.59964752 0 -656445476.59964752 -108766255.89409989 0 0 0 0 7748711.008644104 31070813.341234207 0 31070813.341234207 -208837286.18985748 0 0 0 0 373797.47435227036 10583086.151999608 0 10583086.151999608 -1921489.9448930398 0 0 0 0 56932498.17098999 50674870.024028778 0 50674870.024028778 2945227.9680812359 0 0 0 0 -69575492.304389954 -31058311.503715515 0 -31058311.503715515 27294020.137908936 0 0 0 0 -419616890.68205857 121418415.73852056 0 121418415.73852056 54087010.86164856 0 0 0 0 133267851.57051849 559192970.44626427 0 559192970.44626427 -474213942.33578968 0 0 0 0 1040523.6527896821 3676586.8663737085 0 3676586.8663737085 -2054808.5466369838 0 0 0 0 44822171.096168518 -198823629.07325363 0 -198823629.07325363 -803176922.78726196 0 0 0 0 68301962.615081787 74540432.468013763 0 74540432.468013763 -195960354.30677414 0 0 0 0 90635759.115754128 66412127.718039513 0 66412127.718039513 -194156656.42936707 0 0 0 0 -25143548.082263947 57183613.463510513 0 57183613.463510513 136833215.88203812 0 0 0 0 67307953.981430054 29584457.373924255 0 29584457.373924255 44082852.239536285 0 0 0 0 -25085064.727308273 15282633.570297241 0 15282633.570297241 42208815.233039856 0 0 0 0 24576150.009305954 90628581.498233795 0 90628581.498233795 -14956747.819122314 0 0 0 0 16480860.999536648 24403777.573589444 0 24403777.573589444 14930506.872699313 0 0 0 0 -11935957.977600098 67551599.988002777 0 67551599.988002777 -64516469.478370667 0 0 0 0 -5120219.8196034282 9791857.5169659592 0 9791857.5169659592 4700260.8686094787 0 0 0 0 14227869.041549683 -11754035.614242554 0 -11754035.614242554 29872981.956817627 0 0 0 0 -118026732.57887268 378897745.04229546 0 378897745.04229546 391673921.37306213 0 0 0 0 -6316887.6021231413 10914447.841929168 0 10914447.841929168 12359505.014193641 0 0 0 0 -219851948.92803955 111192406.90333557 0 111192406.90333557 684743934.32945251 0 0 0 0 -10339108.917058945 47293674.476551056 0 47293674.476551056 54337185.643856049 0 0 0 0 11474982.317795336 21845079.549589202 0 21845079.549589202 13090218.311850213 0 0 0 0 576628.89395289123 2977635.1080450639 0 2977635.1080450639 4974381.8402186334 0 0 0 0 -39729540.156112671 -282584669.94841766 0 -282584669.94841766 393777603.0896306 0 0 0 0 8240799.0285644531 53555235.279876709 0 53555235.279876709 -134776457.96197701 0 0 0 0 183730275.78457642 -200144896.33715439 0 -200144896.33715439 10805048.205896616 0 0 0 0 12005892.562477112 53316479.492553711 0 53316479.492553711 -126417850.23358917 0 0 0 0 3379529.2135314941 53923754.519536972 0 53923754.519536972 -115015138.26263428 0 0 0 0 35552553.013442993 81237102.081954956 0 81237102.081954956 -109254167.3181057 0 0 0 0 8654596.740234375 67526196.756362915 0 67526196.756362915 -80441758.483108521 0 0 0 0 -16953026.75718689 81893602.499969482 0 81893602.499969482 -86189923.940673828 0 0 0 0 14542925.628448486 95898252.643321991 0 95898252.643321991 -84979433.861763 0 0 0 0 -22941078.71194458 96777967.571533203 0 96777967.571533203 -84917109.436278343 0 0 0 0 -12574118.207332611 83879898.334653854 0 83879898.334653854 -88586005.354217529 0 0 0 0 150708460.180336 48475421.650806427 0 48475421.650806427 -130973284.48195171 0 0 0 0 62517326.43793869 140163651.20863533 0 140163651.20863533 -124238665.73173523 0 0 0 0 -43759405.077178955 161743548.43790054 0 161743548.43790054 -127848082.73819923 0 0 0 0 -76052668.421722412 70850654.106048584 0 70850654.106048584 -118294131.14331818 0 0 0 0 -60139145.172897339 64092391.635704041 0 64092391.635704041 -83530325.655883789 0 0 0 0 -36365347.99029541 100708497.56916809 0 100708497.56916809 -98439180.969223022 0 0 0 0 -4579114.799407959 49709814.86003685 0 49709814.86003685 -117366259.85533905 0 0 0 0 1901993.0019664764 71862868.254912376 0 71862868.254912376 -82752524.522323608 0 0 0 0 -7914203.3666286469 44480520.01196003 0 44480520.01196003 -71804381.551765442 0 0 0 0 -33151166.225891113 81613420.793487549 0 81613420.793487549 -68636335.233890533 0 0 0 0 28888124.584018871 27536956.36685124 0 27536956.36685124 9900499.6170477867 0 0 0 0 124345067.8717804 -87796650.13677597 0 -87796650.13677597 49400969.500012398 0 0 0 0 145537478.64025879 -71683921.036224365 0 -71683921.036224365 53727171.242758751 0 0 0 0 125209610.88777161 -112369443.5032196 0 -112369443.5032196 40931709.689517975 0 0 0 0 74069012.277313232 -43574438.432405472 0 -43574438.432405472 33800684.156625748 0 0 0 0 21897825.145962805 26542775.357330918 0 26542775.357330918 14402647.03445071 0 0 0 0 3948203.9083938599 65888134.211219788 0 65888134.211219788 -91508788.390621185 0 0 0 0 12910878.737205505 52749365.599494934 0 52749365.599494934 -119524537.91108704 0 0 0 0 9267562.09375 47614953.81426239 0 47614953.81426239 -107989689.4803009 0 0 0 0 15679367.107559204 49777419.229732513 0 49777419.229732513 -133631208.70250702 0 0 0 0 10651672.071796417 52677937.507511139 0 52677937.507511139 -104663906.80117798 0 0 0 0 -3815702.4158935547 24510406.191474915 0 24510406.191474915 -132362450.0568924 0 0 0 0 -59722558.59588623 35716483.684326172 0 35716483.684326172 -66043414.236755371 0 0 0 0 -5778411.5440979004 44373950.598129272 0 44373950.598129272 -92824925.908370972 0 0 0 0 -1609563.7153625488 72411162.010131836 0 72411162.010131836 -66953131.321228027 0 0 0 0 -7778460.0548152924 68525450.675546646 0 68525450.675546646 -60225939.802581787 0 0 0 0 -27788120.041351318 -53184168.618080139 0 -53184168.618080139 383217471.7287941 0 0 0 0 -18365927.04737854 76154455.563011169 0 76154455.563011169 -49759789.159332275 0 0 0 0 11888166.049926758 98374694.407302856 0 98374694.407302856 -40825361.02456665 0 0 0 0 28281295.752977401 34868147.473752022 0 34868147.473752022 11380131.530497737 0 0 0 0 38762030.045501709 110861295.60849762 0 110861295.60849762 -57908860.384277344 0 0 0 0 81554649.668395996 120880601.72633362 0 120880601.72633362 -56104955.108703613 0 0 0 0 10129245.827038705 -4499471.7886387557 0 -4499471.7886387557 -9416475.34313602 0 0 0 0 -27534477.237213135 -133406976.32604218 0 -133406976.32604218 368493700.49832153 0 0 0 0 -45095868.22265625 39197056.746704102 0 39197056.746704102 -76757052.917175293 0 0 0 0 -4647404.8096313477 66125928.850387573 0 66125928.850387573 -69796493.192810059 0 0 0 0 -20857224.43170166 73813595.161743164 0 73813595.161743164 -53853846.405517578 0 0 0 0 -23920960.689575195 76627770.496887207 0 76627770.496887207 -55786235.98890686 0 0 0 0 6154117.9733276367 94247381.443984985 0 94247381.443984985 -49271557.54750061 0 0 0 0 4668167.4198150635 94568992.539993286 0 94568992.539993286 -53333234.961517334 0 0 0 0 1382968.486831665 101502399.18030167 0 101502399.18030167 -37051984.201080322 0 0 0 0 50035890.867492676 122887279.40200806 0 122887279.40200806 -35301653.265136719 0 0 0 0 32914393.6796875 99252909.850387573 0 99252909.850387573 -39257449.462753296 0 0 0 0 32011184.008850098 110139431.39477539 0 110139431.39477539 -36207353.915174484 0 0 0 0 74254765.225830078 104361080.99859619 0 104361080.99859619 -21176550.261901855 0 0 0 0 36643438.340759277 107409376.85253906 0 107409376.85253906 -45702415.392059326 0 0 0 0 -2779563.7921905518 101524798.02243805 0 101524798.02243805 -44898237.972473145 0 0 0 0 -51415096.679534912 -109876203.75650024 0 -109876203.75650024 349025965.60664821 0 0 0 0 -45609298.546630859 -130987343.82685852 0 -130987343.82685852 322166717.39121628 0 0 0 0 -31148713.07144165 -99963442.510421753 0 -99963442.510421753 271768521.89964294 0 0 0 0 -30961375.308837891 -93737012.541633606 0 -93737012.541633606 287862434.89779663 0 0 0 0 -35039992.411437988 -92198558.063323975 0 -92198558.063323975 330171600.24735641 0 0 0 0 -16977619.287353516 -47158122.865036011 0 -47158122.865036011 350056573.44134998 0 0 0 0 -3978213.5559692383 -51887296.835144043 0 -51887296.835144043 307391074.80540466 0 0 0 0 40427061.330108643 7500083.2331542969 0 7500083.2331542969 355774498.84283447 0 0 0 0 78812929.731567383 20780365.053939819 0 20780365.053939819 326824353.06158447 0 0 0 0 -64630535.321937561 51535124.523685455 0 51535124.523685455 -64891681.364929199 0 0 0 0 -38533869.135131836 78021673.090240479 0 78021673.090240479 -57772139.485900879 0 0 0 0 310638746.86968994 -83771374.958236694 0 -83771374.958236694 -411210530.53639221 0 0 0 0 143432011.51847076 56362274.651947021 0 56362274.651947021 246175365.46466064 0 0 0 0 -347682752.9254837 249004980.07821083 0 249004980.07821083 401624504.00592041 0 0 0 0 -418164616.10327148 -8121828.3013916016 0 -8121828.3013916016 767335840.41267395 0 0 0 0 172196303.8770752 -126732564.06829834 0 -126732564.06829834 267105889.6711731 0 0 0 0 221366339.71539307 -42182579.492458344 0 -42182579.492458344 229834869.42935181 0 0 0 0 118880826.48339844 123362203.69258118 0 123362203.69258118 -57542993.308044434 0 0 0 0 181932322.71386719 121417582.75579834 0 121417582.75579834 -58951074.885475159 0 0 0 0 85416513.550491333 115315611.3523407 0 115315611.3523407 -33977454.23815918 0 0 0 0 83371841.449829102 -158687144.88424683 0 -158687144.88424683 296548948.9055481 0 0 0 0 -33376114.258304715 -108548622.62851697 0 -108548622.62851697 274558097.39926147 0 0 0 0 -33577946.37677002 -131521551.48368073 0 -131521551.48368073 309696093.64984131 0 0 0 0 31402730.050109863 -116500770.56333923 0 -116500770.56333923 255482100.64022827 0 0 0 0 -36087982.063354492 -120843188.90304565 0 -120843188.90304565 296529399.17675781 0 0 0 0 31872551.454925537 -158403850.27210236 0 -158403850.27210236 303765024.10832787 0 0 0 0 49768609.729354858 -92011659.541498184 0 -92011659.541498184 257687743.59335327 0 0 0 0 56013514.225143433 -23916294.19002533 0 -23916294.19002533 231868510.61322021 0 0 0 0 98267332.366546631 -77569538.036705017 0 -77569538.036705017 245601702.9797821 0 0 0 0 -16014399.2527771 -55394791.805702209 0 -55394791.805702209 245180592.0739398 0 0 0 0 24077843.034828186 -27263787.188724518 0 -27263787.188724518 225677161.38298035 0 0 0 0 -51265365.816802979 15682132.334388733 0 15682132.334388733 239965582.58589458 0 0 0 0 -16082086.377227783 75739693.16620636 0 75739693.16620636 249276718.49118042 0 0 0 0 94689420.507049561 8464138.8074798584 0 8464138.8074798584 240290041.56048012 0 0 0 0 -116639691.02445984 -42527055.212089539 0 -42527055.212089539 196002825.39016724 0 0 0 0 -77479793.72278595 -27411248.888389587 0 -27411248.888389587 151602355.49623871 0 0 0 0 -78546707.171173096 -10435956.085975647 0 -10435956.085975647 222963138.59625435 0 0 0 0 -20320576.934082031 -82294876.817756653 0 -82294876.817756653 207425213.64904785 0 0 0 0 -103286754.01889038 -48622154.836624146 0 -48622154.836624146 194451446.27791977 0 0 0 0 -48212397.805831909 -101441211.25566864 0 -101441211.25566864 129172811.40566254 0 0 0 0 -29204393.484741211 -122729421.94763184 0 -122729421.94763184 262475872.91874695 0 0 0 0 -43415038.063720703 -76206906.479156494 0 -76206906.479156494 234952679.98451233 0 0 0 0 -26793549.108825684 -89554692.491439819 0 -89554692.491439819 209974453.80065918 0 0 0 0 -34706123.726032257 -109486795.69636345 0 -109486795.69636345 264782108.00270081 0 0 0 0 -35784745.437660217 -114822480.99814796 0 -114822480.99814796 176335720.19421387 0 0 0 0 -51784100.033065796 -80356308.588829041 0 -80356308.588829041 211990421.68228531 0 0 0 0 -48212773.437606812 -143240208.30172348 0 -143240208.30172348 39985291.552215576 0 0 0 0 -96213396.137756348 -71233317.780437469 0 -71233317.780437469 122634663.03548336 0 0 0 0 -186943650.06196594 -41498573.54857254 0 -41498573.54857254 149794405.35683441 0 0 0 0 -84384666.127799988 -83987643.350177765 0 -83987643.350177765 47869576.778717041 0 0 0 0 158443517.31918335 -26100582.986474991 0 -26100582.986474991 145309600.24874878 0 0 0 0 67681779.689117432 -69775345.517562866 0 -69775345.517562866 154949811.7355957 0 0 0 0 111520916.86123657 -46953275.423835754 0 -46953275.423835754 111391231.34510422 0 0 0 0 127221528.24639893 -84752703.345352173 0 -84752703.345352173 55690337.358837128 0 0 0 0 123573653.44778442 20799838.8452034 0 20799838.8452034 253031824.47927856 0 0 0 0 104549357.47567749 -14989615.209449768 0 -14989615.209449768 185996644.82418823 0 0 0 0 49841325.669616699 -29607894.419311523 0 -29607894.419311523 239209298.18804932 0 0 0 0 39104228.71697998 -17280337.047241211 0 -17280337.047241211 283594458.86523438 0 0 0 0 9350747.845741272 -48066779.10820961 0 -48066779.10820961 271638279.45185852 0 0 0 0 17483008.678039551 -64598568.749649048 0 -64598568.749649048 216229690.89875793 0 0 0 0 -10197304.858886719 -75440546.419807434 0 -75440546.419807434 213744429.94107056 0 0 0 0 -13301396.758087158 -87999312.192375183 0 -87999312.192375183 232962597.8160553 0 0 0 0 43442802.188293457 -67114931.600353241 0 -67114931.600353241 156910174.12145996 0 0 0 0 7234955.7713012695 -94173693.309494019 0 -94173693.309494019 147953520.86398697 0 0 0 0 52649390.765640259 -42338223.397468567 0 -42338223.397468567 211316417.47158813 0 0 0 0 81607403.469100952 -93493865.210380554 0 -93493865.210380554 60796211.081703186 0 0 0 0 -27081929.793548584 -106152535.20578766 0 -106152535.20578766 104823027.42357254 0 0 0 0 17567140.42829895 -84198661.470603943 0 -84198661.470603943 111941949.44404602 0 0 0 0 45338620.208007812 -118184248.59422302 0 -118184248.59422302 23190873.901779175 0 0 0 0 36245622.150108337 -123905302.6085186 0 -123905302.6085186 49801702.402374268 0 0 0 0 94884518.605911255 -108809998.37504578 0 -108809998.37504578 -122551.53151702881 0 0 0 0 127028298.62942505 -102741123.4482193 0 -102741123.4482193 8776497.66796875 0 0 0 0 80748381.036834717 -85689379.624687195 0 -85689379.624687195 92330116.52299118 0 0 0 0 97062126.108276367 -121622872.11813354 0 -121622872.11813354 47128050.11533165 0 0 0 0 161879955.67468262 -113408085.38084793 0 -113408085.38084793 -66020106.449920654 0 0 0 0 102110773.15652275 -143122850.09610271 0 -143122850.09610271 -41805969.946365356 0 0 0 0 53258640.614898682 -152552453.95042038 0 -152552453.95042038 -45953490.049201965 0 0 0 0 -13864714.747131348 -122148191.09088898 0 -122148191.09088898 22932323.165688515 0 0 0 0 50369235.411987305 -126707031.96968842 0 -126707031.96968842 -53906095.726547241 0 0 0 0 27283847.834899902 -160739447.397995 0 -160739447.397995 -101960220.66213989 0 0 0 0 -90653863.378112793 -139613649.93016434 0 -139613649.93016434 -87355946.957338333 0 0 0 0 104437286.18557739 -173086063.52270126 0 -173086063.52270126 -122606090.85701752 0 0 0 0 184004689.31794739 -121066503.43365479 0 -121066503.43365479 -126792261.03359938 0 0 0 0 -165657107.35055542 -2110599.3158283234 0 -2110599.3158283234 -5976866.8448486328 0 0 0 0 -226596368.07542038 -98048558.236717224 0 -98048558.236717224 50068790.119354248 0 0 0 0 -105642996.87588501 -137864756.00050354 0 -137864756.00050354 -6998025.8326225281 0 0 0 0 -79560751.944656372 -106567680.26693726 0 -106567680.26693726 -62783639.307365417 0 0 0 0 -1303110.2911224365 -105498156.71311188 0 -105498156.71311188 643094.30502319336 0 0 0 0 -229974113.35441589 -119250139.98918152 0 -119250139.98918152 -51297577.485046387 0 0 0 0 -70133414.846298218 -123361950.54444122 0 -123361950.54444122 -152326797.87522125 0 0 0 0 -190273725.28805161 -79552149.769117355 0 -79552149.769117355 -201909504.88137817 0 0 0 0 -561909913.67880249 47730257.742471695 0 47730257.742471695 -128071832.25734329 0 0 0 0 -284089226.98441792 68645044.953186274 0 68645044.953186274 -237108144.66309357 0 0 0 0 -272052074.10289001 -13110609.140708923 0 -13110609.140708923 -168992464.13894653 0 0 0 0 -260923943.7428236 -120659173.91245961 0 -120659173.91245961 -96708535.129348755 0 0 0 0 -331030612.53662109 -40995224.411026001 0 -40995224.411026001 -171626288.58740234 0 0 0 0 232295768.93099976 -199095368.83660507 0 -199095368.83660507 -185879047.52846336 0 0 0 0 215331652.35614014 -134285479.73117447 0 -134285479.73117447 -197719969.31671143 0 0 0 0 55484591.589057922 -225981614.90171432 0 -225981614.90171432 -178533303.92740631 0 0 0 0 198463168.31140137 -284404089.03062439 0 -284404089.03062439 -95518566.332515717 0 0 0 0 -166083695.76032257 -294547855.66072273 0 -294547855.66072273 -65469251.040122986 0 0 0 0 631012324.30014038 -232469402.51591873 0 -232469402.51591873 -222139198.56838608 0 0 0 0 478911409.67611694 175605449.77341461 0 175605449.77341461 -540049304.4698019 0 0 0 0 235444236.20412064 160551.31253623962 0 160551.31253623962 -90080973.072990417 0 0 0 0 283946413.41902161 185398626.70616341 0 185398626.70616341 -122334924.08557892 0 0 0 0 216864142.25159454 -132324603.08367538 0 -132324603.08367538 -196641960.50611115 0 0 0 0 160564247.26421452 -34904329.241251826 0 -34904329.241251826 -56913709.060768127 0 0 0 0 276165090.58400726 -55505379.565244675 0 -55505379.565244675 -125525737.42780304 0 0 0 0 154094441.93428612 -92825533.397285461 0 -92825533.397285461 -46846924.044082642 0 0 0 0 162831808.11235046 -113916587.35352325 0 -113916587.35352325 -106363008.97540855 0 0 0 0 108599863.42585754 77919971.102693558 0 77919971.102693558 -48156202.781885147 0 0 0 0 237565219.08612061 16263860.349227905 0 16263860.349227905 -53077450.718921185 0 0 0 0 84406540.388336182 84035079.638999939 0 84035079.638999939 157182407.28139496 0 0 0 0 154311254.66070557 245109479.9533844 0 245109479.9533844 277907263.69470501 0 0 0 0 -1388231.3316141516 5066250.8920900002 0 5066250.8920900002 778590.98053228855 0 0 0 0 171287250.91491699 292030656.35008621 0 292030656.35008621 -523001165.98721504 0 0 0 0 70102046.042201281 131084961.33211941 0 131084961.33211941 -177518928.74330902 0 0 0 0 -63480002.066040039 198650732.2428894 0 198650732.2428894 204700930.62346077 0 0 0 0 -57782936.500854492 112998414.62240982 0 112998414.62240982 -164330167.43541718 0 0 0 0 735088928.37242889 -793151662.76440811 0 -793151662.76440811 469381407.73262024 0 0 0 0 1475891560.2657013 -272153115.97486877 0 -272153115.97486877 -502385602.52026653 0 0 0 0 377693217.4962616 762866336.88376999 0 762866336.88376999 88215909.376747131 0 0 0 0 1166133.1248861849 5031939.7941927388 0 5031939.7941927388 2139655.3571975306 0 0 0 0 1477866867.7993469 226077709.60242462 0 226077709.60242462 -178580889.43161011 0 0 0 0 401313746.51696777 190960487.02646637 0 190960487.02646637 972741364.56201935 0 0 0 0 817610247.52954102 -135761339.36008072 0 -135761339.36008072 -277315028.48802185 0 0 0 0 1387762651.9165168 -667910645.88111782 0 -667910645.88111782 82336565.755172729 0 0 0 0 637757056.9418869 -194076399.09970093 0 -194076399.09970093 -32840168.813519478 0 0 0 0 930106461.59790039 -6298610.6896953583 0 -6298610.6896953583 -404016336.30645752 0 0 0 0 400700917.29516602 201722547.82107162 0 201722547.82107162 -295693924.88339996 0 0 0 0 326729313.34713745 42077401.670433044 0 42077401.670433044 10028227.397026062 0 0 0 0 9921294.4287488461 68077827.288994551 0 68077827.288994551 -136910787.57009125 0 0 0 0 3478287.7850595117 15171031.59594661 0 15171031.59594661 4316255.7062706798 0 0 0 0 637307243.44595337 192562991.4967041 0 192562991.4967041 -6390750.3954665661 0 0 0 0 -6843828.3430416882 19662711.775660947 0 19662711.775660947 -8086702.571757324 0 0 0 0 -2443287928.3425598 1528412898.2510452 0 1528412898.2510452 -14734376.451339722 0 0 0 0 637482928.32449341 116429389.72843933 0 116429389.72843933 -200732121.88859177 0 0 0 0 429066108.54724884 288885965.47989273 0 288885965.47989273 -342263922.83399963 0 0 0 0 -3393521.2460415959 7380177.2953823451 0 7380177.2953823451 -4003054.1228268482 0 0 0 0 98656763.045135498 214388719.50106621 0 214388719.50106621 378105755.65340424 0 0 0 0 1798766460.1662292 -7515054.9014625549 0 -7515054.9014625549 516637354.88762665 0 0 0 0 -5014980.5720108673 6966552.4973430559 0 6966552.4973430559 -6277515.2069349997 0 0 0 0 -2513852309.7468872 -270011409.52680588 0 -270011409.52680588 864053092.70189285 0 0 0 0 -2521350148.307579 794742050.07495499 0 794742050.07495499 161641491.82820892 0 0 0 0 -2009643599.9663086 483282536.08494568 0 483282536.08494568 17507041.751052856 0 0 0 0 -1253494309.5956573 1169967659.5667591 0 1169967659.5667591 -985083769.22053909 0 0 0 0 -1074015443.2934189 256982279.48148537 0 256982279.48148537 24257792.04873848 0 0 0 0 -1121722674.86483 763320562.30674362 0 763320562.30674362 80320363.154178619 0 0 0 0 -1125612254.7314491 325408650.16705453 0 325408650.16705453 255511069.79407501 0 0 0 0 -278084177.18527222 812827913.95582199 0 812827913.95582199 -163045572.99913406 0 0 0 0 -332523658.93483734 984927271.52996635 0 984927271.52996635 429999717.86244965 0 0 0 0 -332972133.78899574 927452454.95028114 0 927452454.95028114 -426905611.68087006 0 0 0 0 -828983430.78862762 702894496.52978134 0 702894496.52978134 21575313.115036011 0 0 0 0 -239237497.45510864 624811986.06924438 0 624811986.06924438 -54503980.652252197 0 0 0 0 267211793.94035339 164561326.72802353 0 164561326.72802353 -236022432.12671852 0 0 0 0 79394226.621196747 504175210.91167259 0 504175210.91167259 -634201163.14446259 0 0 0 0 -313405047.08425903 454278080.61066818 0 454278080.61066818 -459917555.77375793 0 0 0 0 -1667644169.1013184 1426806763.4007835 0 1426806763.4007835 -598877358.06837082 0 0 0 0 -409174535.17646027 834931195.75851059 0 834931195.75851059 -1807784372.8531952 0 0 0 0 -2330301248.6513977 635969514.37493324 0 635969514.37493324 367683307.14597321 0 0 0 0 -2270422889.0935974 266067479.28473282 0 266067479.28473282 -188082016.07910538 0 0 0 0 -916690004.47439575 -344488965.99241257 0 -344488965.99241257 -1157415998.3415527 0 0 0 0 425165723.83714294 299788221.53240204 0 299788221.53240204 -796010341.18556595 0 0 0 0 -327782901.35826111 273882219.49887466 0 273882219.49887466 -515149765.13124847 0 0 0 0 356900178.32450867 347104028.22543335 0 347104028.22543335 -99667866.623174667 0 0 0 0 -126694293.16946411 -37523177.111076355 0 -37523177.111076355 -362100637.93511963 0 0 0 0 140286627.55455017 -307601420.96446609 0 -307601420.96446609 80488471.320578575 0 0 0 0 -207230216.63352585 78307618.048381805 0 78307618.048381805 56028284.628662109 0 0 0 0 -888498723.8356781 -303797184.88466263 0 -303797184.88466263 -102669382.17357445 0 0 0 0 -415267362.88967133 -290360021.27341843 0 -290360021.27341843 164951641.68359375 0 0 0 0 210102212.52709961 -246745961.39222717 0 -246745961.39222717 -98575142.823925018 0 0 0 0 -877215613.88126373 250654952.40784836 0 250654952.40784836 -38019356.309791565 0 0 0 0 -1020299188.6070933 439022463.55015588 0 439022463.55015588 -176733495.12281036 0 0 0 0 -626413060.92194748 246476198.25826645 0 246476198.25826645 -187838067.42890167 0 0 0 0 -1113258688.0696449 750157175.22285652 0 750157175.22285652 -351700617.62397003 0 0 0 0 -1021045196.32827 781595648.80437469 0 781595648.80437469 -460114212.6230278 0 0 0 0 -994336868.68378448 732590998.86721039 0 732590998.86721039 -418822479.34742355 0 0 0 0 -366618007.43922043 454023495.24317169 0 454023495.24317169 -587509683.5460453 0 0 0 0 641187340.94383526 318992030.76875782 0 318992030.76875782 49128515.392448425 0 0 0 0 -3582356.4417942017 9096913.4492335171 0 9096913.4492335171 -13949270.322618753 0 0 0 0 -951354012.1186924 1057354898.5019169 0 1057354898.5019169 -1160215088.9172897 0 0 0 0 -1249180167.661869 -435080704.02566338 0 -435080704.02566338 -161364356.00064087 0 0 0 0 -8575409.693726629 8913817.5202410519 0 8913817.5202410519 310752.32012987509 0 0 0 0 -13655001.257369138 30073806.261107549 0 30073806.261107549 8464026.3025603816 0 0 0 0 -2600995.24451828 26525822.563223839 0 26525822.563223839 19269478.010299683 0 0 0 0 36469036.116989136 21460349.315814972 0 21460349.315814972 -3068938.3209705353 0 0 0 0 722192.45697680861 2554953.112728823 0 2554953.112728823 5620481.3549001291 0 0 0 0 -1059133304.4034665 -125489685.00177848 0 -125489685.00177848 1049201.161857605 0 0 0 0 -11603036.145386696 29502324.131772339 0 29502324.131772339 33451213.154773712 0 0 0 0 -18097242.781692132 30390024.680779077 0 30390024.680779077 3430547.3833451271 0 0 0 0 -11317770.246780396 23449866.74005127 0 23449866.74005127 21637362.924064636 0 0 0 0 1289851.3812179565 209302610.38971329 0 209302610.38971329 114622997.85964775 0 0 0 0 -6721413.9042434692 28466802.020765305 0 28466802.020765305 25987126.156433105 0 0 0 0 -7729567.4974477664 31625244.954038791 0 31625244.954038791 -5094376.9447390214 0 0 0 0 -137256583.41936493 82462030.517793655 0 82462030.517793655 326365342.47312164 0 0 0 0 -10374926.098396301 207935055.95307159 0 207935055.95307159 449326169.80712128 0 0 0 0 -679059025.25026703 290503842.96538925 0 290503842.96538925 441270390.03050995 0 0 0 0 -305796055.40189934 -38686392.356942177 0 -38686392.356942177 171408352.15768051 0 0 0 0 25718091.486694336 682585736.12248421 0 682585736.12248421 170658005.7758255 0 0 0 0 -1041079536.3080673 658021880.75683022 0 658021880.75683022 187853037.43791485 0 0 0 0 -1350711896.8140998 -438222760.76969385 0 -438222760.76969385 29828261.662338257 0 0 0 0 -1191486988.0147858 1475889324.2129555 0 1475889324.2129555 -1856696712.2691193 0 0 0 0 -3340609779.0070224 -14486861.535894394 0 -14486861.535894394 21732267.67401886 0 0 0 0 1064515.651275333 6745567.6694029979 0 6745567.6694029979 -10595099.497557722 0 0 0 0 -2958322870.1160755 1274786033.1743212 0 1274786033.1743212 -386803557.2625885 0 0 0 0 -1498647513.146843 -227081431.74950409 0 -227081431.74950409 -84861462.210773468 0 0 0 0 -1364064837.2839699 813835402.1495018 0 813835402.1495018 -329806332.67835999 0 0 0 0 -1993997895.115387 648970167.15149307 0 648970167.15149307 122170285.96791077 0 0 0 0 1097040217.8555202 233268731.79061222 0 233268731.79061222 -1460338505.9794312 0 0 0 0 -97165433.945404053 88295703.267765045 0 88295703.267765045 315438549.0290451 0 0 0 0 -2705315.9177433737 -500031.92743707448 0 -500031.92743707448 -4037653.1096631959 0 0 0 0 2129550773.1766167 430978943.65816498 0 430978943.65816498 -1835744217.6376762 0 0 0 0 -7159729.0921325684 640353576.93716431 0 640353576.93716431 -1578257308.1825333 0 0 0 0 -1697320786.8631744 1496490576.2322598 0 1496490576.2322598 -873808740.01263809 0 0 0 0 -454272868.75579834 368534256.26238632 0 368534256.26238632 -630323123.22421837 0 0 0 0 -1048733611.5944061 676675417.65603447 0 676675417.65603447 -294632868.67016602 0 0 0 0 -276235759.9498291 117021081.94488525 0 117021081.94488525 -303303110.33852768 0 0 0 0 -444361972.00334167 60752328.459182739 0 60752328.459182739 -318121944.19807434 0 0 0 0 -325008851.88984299 -83580372.03417778 0 -83580372.03417778 24179950.927589417 0 0 0 0 -361937432.90522766 -59858947.367042542 0 -59858947.367042542 -20814441.946746826 0 0 0 0 126301002.03775787 -18496447.153896332 0 -18496447.153896332 -955827390.0918808 0 0 0 0 -580387133.62699509 460885363.95682144 0 460885363.95682144 -536461120.54817963 0 0 0 0 -205610175.26935577 39014493.9868927 0 39014493.9868927 -352165128.85595512 0 0 0 0 -376348873.9967308 20509422.285446167 0 20509422.285446167 156511035.61630249 0 0 0 0 -350713492.29258728 161414581.42668152 0 161414581.42668152 169936704.35327911 0 0 0 0 58235843.377357483 194209263.1971817 0 194209263.1971817 101309586.15353394 0 0 0 0 112565691.06083679 46994893.501226425 0 46994893.501226425 452125579.82304382 0 0 0 0 -210768956.91620064 75987578.078074455 0 75987578.078074455 231503397.84629822 0 0 0 0 -255266206.42247772 211752583.81617355 0 211752583.81617355 466767670.61928558 0 0 0 0 -2582031.6627655029 280696798.01389694 0 280696798.01389694 327047243.02876282 0 0 0 0 -105026392.94927979 190998235.08655548 0 190998235.08655548 280569686.60844421 0 0 0 0 -110070341.52027893 271902488.36138916 0 271902488.36138916 363555812.68395996 0 0 0 0 -46182538.923069 414674616.1892004 0 414674616.1892004 659689402.07873535 0 0 0 0 401323130.41252136 540245355.33868027 0 540245355.33868027 329350948.87078094 0 0 0 0 -171739320.14122009 -71494499.274673462 0 -71494499.274673462 41510602.032855988 0 0 0 0 -293051601.45962524 30168585.959157944 0 30168585.959157944 197634533.00358582 0 0 0 0 -284502043.28823853 128041852.08681107 0 128041852.08681107 195295319.15561676 0 0 0 0 -212259771.43516541 28892445.198013306 0 28892445.198013306 48215877.020878792 0 0 0 0 -227236010.85485458 83154193.725723267 0 83154193.725723267 276634541.5216217 0 0 0 0 -193559181.79469299 190715996.35150528 0 190715996.35150528 336356887.92149734 0 0 0 0 -146130165.52290344 47999744.052764893 0 47999744.052764893 191238762.50973129 0 0 0 0 -158420326.21959305 60805634.580721855 0 60805634.580721855 243703098.65231323 0 0 0 0 36869677.529572286 42490782.318243518 0 42490782.318243518 174718.50319785252 0 0 0 0 -29001392.24017334 108717484.48495483 0 108717484.48495483 250962057.88302994 0 0 0 0 -70172526.534332275 245724068.462677 0 245724068.462677 -58768270.842880249 0 0 0 0 -22626638.115829468 98581628.782726288 0 98581628.782726288 249784870.70321608 0 0 0 0 -74359109.289657593 104677990.75902557 0 104677990.75902557 275758411.35238647 0 0 0 0 -31948233.090713501 65178503.146636963 0 65178503.146636963 254130803.83746338 0 0 0 0 -45626172.664770126 73873731.569619179 0 73873731.569619179 250484876.88394165 0 0 0 0 -85089109.857330322 52768581.553192139 0 52768581.553192139 243296717.54769897 0 0 0 0 -139369935.76685333 101477075.36180115 0 101477075.36180115 279975037.73262024 0 0 0 0 -66426539.950897217 102014767.03445435 0 102014767.03445435 276506208.62102127 0 0 0 0 -74028724.307067871 106720897.08531189 0 106720897.08531189 280395664.58854675 0 0 0 0 -61886576.87902832 115096223.75215149 0 115096223.75215149 273520595.57794189 0 0 0 0 -83446729.973377228 142517323.20180416 0 142517323.20180416 269576776.93913269 0 0 0 0 -43502522.557556152 142343606.68156433 0 142343606.68156433 268950756.48923874 0 0 0 0 -90720682.093139648 117879636.35385895 0 117879636.35385895 276086445.6674118 0 0 0 0 -109212148.31018066 136029199.81989288 0 136029199.81989288 291033921.84313393 0 0 0 0 -105183164.19589233 139841745.13002777 0 139841745.13002777 275943758.37924957 0 0 0 0 -94454285.708625793 202965091.81750679 0 202965091.81750679 289098879.20707703 0 0 0 0 -27990718.940917969 144042794.82878113 0 144042794.82878113 216037000.18374634 0 0 0 0 -26128335.898933411 166949131.1184082 0 166949131.1184082 218541889.67486572 0 0 0 0 -46699766.733322144 152320663.1434288 0 152320663.1434288 245042770.89413452 0 0 0 0 -26982848.756896973 133898181.60868073 0 133898181.60868073 239080941.22454834 0 0 0 0 -43132467.730934143 119993756.21081161 0 119993756.21081161 264001192.68934631 0 0 0 0 -72250597.422668457 125254702.05577087 0 125254702.05577087 263566670.1342926 0 0 0 0 13276787.853179932 94300789.760444641 0 94300789.760444641 254490164.40630341 0 0 0 0 84526589.816604614 64293250.57975769 0 64293250.57975769 28395635.180400848 0 0 0 0 217845524.0330267 44710740.440965176 0 44710740.440965176 -44691689.106697083 0 0 0 0 69072645.376907349 170361204.0885005 0 170361204.0885005 86431068.375656128 0 0 0 0 180573319.00640869 240979057.66809845 0 240979057.66809845 129241839.23607254 0 0 0 0 79660714.083450317 277198539.35503006 0 277198539.35503006 117088500.59341431 0 0 0 0 67417667.713516235 304760844.54178238 0 304760844.54178238 256556213.82894897 0 0 0 0 -18816710.693527222 199242544.75811386 0 199242544.75811386 238169784.85961914 0 0 0 0 -16707325.689666748 229281448.06910324 0 229281448.06910324 193742595.36754608 0 0 0 0 59793675.584619522 216613817.50912285 0 216613817.50912285 175569148.68659973 0 0 0 0 20220194.715057373 166044383.13217926 0 166044383.13217926 140276819.87573242 0 0 0 0 21552414.445281982 70517514.140815735 0 70517514.140815735 188759370.76570129 0 0 0 0 36494990.574890137 155822485.3769455 0 155822485.3769455 145793175.16854095 0 0 0 0 13545940.957336426 159130401.18922424 0 159130401.18922424 219311535.42540741 0 0 0 0 15077724.415924072 169358800.65699768 0 169358800.65699768 179821338.98817444 0 0 0 0 4381820.5598449707 125261274.93790436 0 125261274.93790436 222578087.06066132 0 0 0 0 27940738.156188965 121378841.54918671 0 121378841.54918671 176067362.72889614 0 0 0 0 44973257.144607544 141208486.71497345 0 141208486.71497345 95919668.399200439 0 0 0 0 33193019.058868408 64133602.932868958 0 64133602.932868958 131367455.62332535 0 0 0 0 34724128.448471069 48872419.416534424 0 48872419.416534424 31970282.432495117 0 0 0 0 28619371.300094604 128298069.13530922 0 128298069.13530922 100653690.76278687 0 0 0 0 89801049.100395203 125956756.75649643 0 125956756.75649643 -13872030.633651733 0 0 0 0 30136968.857559204 127207108.38227654 0 127207108.38227654 102652131.75085449 0 0 0 0 20252378.382469267 24230485.786662377 0 24230485.786662377 -27170799.295102723 0 0 0 0 404464574.32216263 97137844.781841278 0 97137844.781841278 -203736840.00587463 0 0 0 0 8660136.8069670238 24481571.826280423 0 24481571.826280423 -12737990.681311518 0 0 0 0 164923879.9936409 66501243.344596863 0 66501243.344596863 -54953665.872337341 0 0 0 0 -1341520709.7287064 492084217.36367416 0 492084217.36367416 39667421.162796021 0 0 0 0 415559431.07675242 -77187849.566364288 0 -77187849.566364288 -139974183.79727173 0 0 0 0 -1149063495.3249397 600206011.55966949 0 600206011.55966949 39801275.222000122 0 0 0 0 3469079.1343027391 5455076.4306882769 0 5455076.4306882769 -1955578.8007572293 0 0 0 0 -1201940838.4749451 551788499.46173096 0 551788499.46173096 5247123.7646312714 0 0 0 0 -1280193062.8130531 483652538.43624687 0 483652538.43624687 160243776.14094543 0 0 0 0 -412860084.48331833 43291484.921956062 0 43291484.921956062 -211470940.85072327 0 0 0 0 -1162843091.364563 481874838.96445465 0 481874838.96445465 28862965.203845978 0 0 0 0 4436951.9976703934 21497678.199387696 0 21497678.199387696 -25712242.912539721 0 0 0 0 -427114525.10202026 29662587.850654602 0 29662587.850654602 239156102.24508667 0 0 0 0 568919077.69846725 568102408.85188293 0 568102408.85188293 442133938.35836029 0 0 0 0 417245115.30561829 741500834.05300522 0 741500834.05300522 246992745.95637894 0 0 0 0 722837086.13005066 227197324.53273773 0 227197324.53273773 -81792155.759780884 0 0 0 0 4491020.6998577416 7234407.6229669973 0 7234407.6229669973 -5233106.5984569862 0 0 0 0 9262862.5654850006 30783141.539373398 0 30783141.539373398 -17089312.18081665 0 0 0 0 11128603.461341858 35522320.199020386 0 35522320.199020386 -12648077.580368042 0 0 0 0 12844267.848716736 24843161.654777527 0 24843161.654777527 -8346303.5863037109 0 0 0 0 14833125.998180389 27769353.193479538 0 27769353.193479538 -28422846.326690674 0 0 0 0 10808122.455490112 48076466.639862061 0 48076466.639862061 -44879662.902137756 0 0 0 0 11838428.656143188 37133108.508888245 0 37133108.508888245 -9125727.0317993164 0 0 0 0 15175588.82333374 28296935.55166626 0 28296935.55166626 -27942119.459541321 0 0 0 0 114531621.02427542 109738421.38704896 0 109738421.38704896 121303012.67337036 0 0 0 0 13636420.578366201 26090844.614348792 0 26090844.614348792 -12162785.890613794 0 0 0 0 154390145.71679354 99609230.602590084 0 99609230.602590084 -106914193.52619934 0 0 0 0 156776791.53427887 82766338.20350647 0 82766338.20350647 -3949785.6833190918 0 0 0 0 6908311.4675920829 10545859.939075224 0 10545859.939075224 -3137250.9344922304 0 0 0 0 105467981.80724883 -219117100.50358319 0 -219117100.50358319 95795229.483032227 0 0 0 0 -3742381.6974838749 6926711.1507543772 0 6926711.1507543772 1336603.6541118249 0 0 0 0 -1009831687.2302322 329592789.27328491 0 329592789.27328491 -281124019.14343262 0 0 0 0 184172287.14844894 -123215271.15353394 0 -123215271.15353394 31191308.254821777 0 0 0 0 -428635.75977516174 19453965.438909531 0 19453965.438909531 -2431856.8203964233 0 0 0 0 7003804.7332992554 15552949.221355438 0 15552949.221355438 7245263.2472457886 0 0 0 0 1713477.9573460519 19485460.258208282 0 19485460.258208282 -4012910.0832424238 0 0 0 0 12707321.488937378 13394885.078536987 0 13394885.078536987 -7691727.878616333 0 0 0 0 -15166771.671924591 878670.40074157715 0 878670.40074157715 22811575.776599884 0 0 0 0 -6088545.1031270102 28429047.368171237 0 28429047.368171237 2129677.2204604745 0 0 0 0 -6951279.6569903865 48689972.252548099 0 48689972.252548099 19857471.944446862 0 0 0 0 100243491.74842834 76368164.248943329 0 76368164.248943329 -190164702.64097595 0 0 0 0 3293525.7668457031 80179818.302711487 0 80179818.302711487 -69801097.127884388 0 0 0 0 -9331544.3201141357 49430956.736122131 0 49430956.736122131 -26334221.987792969 0 0 0 0 -11867914.670455933 94846860.253311157 0 94846860.253311157 -7494163.5170135498 0 0 0 0 -13636355.955883026 39043098.693238258 0 39043098.693238258 12541750.787536621 0 0 0 0 30153917.440078735 64729783.895233154 0 64729783.895233154 2925094.2010726929 0 0 0 0 -1818368.9749224037 4385198.7198968921 0 4385198.7198968921 3002331.7249278426 0 0 0 0 14999908.033948898 20659114.670412064 0 20659114.670412064 -31146147.350631714 0 0 0 0 -36086562.577384949 123735545.38890457 0 123735545.38890457 8161296.1206970215 0 0 0 0 -105620690.83798218 -64580989.765930176 0 -64580989.765930176 14004744.595511913 0 0 0 0 -67354084.581832886 95176268.012367249 0 95176268.012367249 -44608967.110563278 0 0 0 0 12534358.568466187 40455399.006843567 0 40455399.006843567 -57236982.191848755 0 0 0 0 -13684926.526763916 45724424.68535614 0 45724424.68535614 720408.7936706543 0 0 0 0 -13535396.546951294 25414945.278678894 0 25414945.278678894 49524676.937805176 0 0 0 0 16198762.541152954 26894132.414859772 0 26894132.414859772 6080761.3063049316 0 0 0 0 76639291.763122559 14565700.296758652 0 14565700.296758652 7868796.1585884094 0 0 0 0 -40463150.807617188 56010241.957733154 0 56010241.957733154 28500372.677436829 0 0 0 0 -22131781.748993866 32514374.243824124 0 32514374.243824124 6395153.0852740407 0 0 0 0 822586.32958863676 28117315.560233377 0 28117315.560233377 -9660384.1514064372 0 0 0 0 -6364760.9942321777 46910456.154647827 0 46910456.154647827 8285992.5783748627 0 0 0 0 -6524631.6030426025 44670284.420333862 0 44670284.420333862 31820543.286689758 0 0 0 0 -7643003.966468811 38674582.768909454 0 38674582.768909454 24821312.311954498 0 0 0 0 -10367301.302986145 50738419.10243988 0 50738419.10243988 29788027.630661011 0 0 0 0 -3080857.8351821899 39475295.373390198 0 39475295.373390198 11779832.344787598 0 0 0 0 -8469458.2330658883 24575628.079541877 0 24575628.079541877 -1190606.0573713966 0 0 0 0 3442064.052230835 48855344.471420288 0 48855344.471420288 -9174632.1491394043 0 0 0 0 362610114.63734055 -178240581.67571068 0 -178240581.67571068 -154650794.43382263 0 0 0 0 16897346.138930134 24310024.052606694 0 24310024.052606694 -18092268.068640858 0 0 0 0 -10083917.784286499 19585979.732978821 0 19585979.732978821 -7316479.9317417145 0 0 0 0 -96779465.672569275 41338673.197795868 0 41338673.197795868 33006089.802215576 0 0 0 0 -40347011.309274673 71033665.52703476 0 71033665.52703476 47635539.150100708 0 0 0 0 -15869282.161872864 21571820.968566895 0 21571820.968566895 59364528.322113037 0 0 0 0 -4925352.5107934978 23627310.418697782 0 23627310.418697782 13235933.525036901 0 0 0 0 12569922.612823486 59909400.890945435 0 59909400.890945435 24025853.846511841 0 0 0 0 -1137523.7316894531 61553748.918655396 0 61553748.918655396 42416188.522529602 0 0 0 0 -1209059.7452344857 -2101542.2150144503 0 -2101542.2150144503 1329878.4983403087 0 0 0 0 22236350.73381424 38272252.72668457 0 38272252.72668457 359722.37915039062 0 0 0 0 6721323.3661308289 50472671.461948395 0 50472671.461948395 9495026.8275909424 0 0 0 0 -19269029.6456604 43746920.347930908 0 43746920.347930908 8566480.308675766 0 0 0 0 -1361376.5836639404 21109013.937583923 0 21109013.937583923 -12100862.028060913 0 0 0 0 -15257581.805799484 51735694.114002228 0 51735694.114002228 18465808.005523682 0 0 0 0 -10436829.702479482 55515073.39991641 0 55515073.39991641 19486573.150695801 0 0 0 0 -9269861.7732696533 50090988.141422272 0 50090988.141422272 99694.829818725586 0 0 0 0 -16228836.430782318 50667873.811786652 0 50667873.811786652 6613470.3640899658 0 0 0 0 -25168915.853000641 37666852.702819824 0 37666852.702819824 -624747.65927124023 0 0 0 0 -79004262.202344894 32161959.034166336 0 32161959.034166336 3316703.7080383301 0 0 0 0 -57403754.577125549 11565066.806861877 0 11565066.806861877 -3171416.2690544128 0 0 0 0 -27919437.993785858 40887410.415077209 0 40887410.415077209 -3897747.0426330566 0 0 0 0 -52285476.58065033 26215771.804012299 0 26215771.804012299 -3613600.5564168692 0 0 0 0 -52664085.850199223 28647022.681428909 0 28647022.681428909 -14804052.12449646 0 0 0 0 -29968575.887321472 42923391.528778076 0 42923391.528778076 -3347748.734992981 0 0 0 0 -19394313.107807159 34719915.707946777 0 34719915.707946777 -2063749.3763961792 0 0 0 0 -22947355.953712463 43592906.6913414 0 43592906.6913414 9223.0490915813316 0 0 0 0 -50608314.188922882 23238638.831100464 0 23238638.831100464 -6909810.5175018311 0 0 0 0 -64816493.417640686 39466638.908263206 0 39466638.908263206 -24575.562042236328 0 0 0 0 4197301.8746147156 44528686.192335129 0 44528686.192335129 -41378.227844238281 0 0 0 0 -7679749.4611434937 33091096.600063324 0 33091096.600063324 -1460723.9728851318 0 0 0 0 -10113315.957550049 49268155.508449554 0 49268155.508449554 5899947.5389785767 0 0 0 0 8318803.0179023743 38045489.129961014 0 38045489.129961014 25132691.928939819 0 0 0 0 6636469.105304718 45163136.923610687 0 45163136.923610687 3257725.0774917603 0 0 0 0 -9837392.3821673393 52798749.346796989 0 52798749.346796989 19410306.165359497 0 0 0 0 -9595429.7756958008 49548012.756454468 0 49548012.756454468 5656358.076965332 0 0 0 0 4958544.2979011536 53357926.954998016 0 53357926.954998016 11948883.16513443 0 0 0 0 -68288159.174690247 16580519.422777176 0 16580519.422777176 85591309.545860291 0 0 0 0 8258911.9595108032 59610361.687849045 0 59610361.687849045 20590462.015647888 0 0 0 0 -10880365.673444301 10362046.616550134 0 10362046.616550134 9540048.4441547841 0 0 0 0 -28757008.048145294 16456269.847148895 0 16456269.847148895 12430486.214050293 0 0 0 0 -94975.602507717907 66549.869673857465 0 66549.869673857465 -340326.652995646 0 0 0 0 -193073895.03246689 -5243167.863319397 0 -5243167.863319397 31496200.12902832 0 0 0 0 75344279.330963135 73103040.319816589 0 73103040.319816589 -116955.54362487793 0 0 0 0 -75914533.961795807 42849887.992454529 0 42849887.992454529 33176.076866149902 0 0 0 0 -33347174.654304504 75652368.065189362 0 75652368.065189362 2675876.28008461 0 0 0 0 -52510251.83637619 52458475.76681757 0 52458475.76681757 -13828.688941955566 0 0 0 0 -56884702.635993958 38060046.875217438 0 38060046.875217438 -20856641.728271484 0 0 0 0 -65734643.701332092 54038803.447727203 0 54038803.447727203 14452929.024978638 0 0 0 0 -74438275.924911499 77821073.67162323 0 77821073.67162323 -29333535.654502869 0 0 0 0 -22629105.927581787 55241568.428924561 0 55241568.428924561 -19193431.072727203 0 0 0 0 -18893303.74711132 73107708.522548497 0 73107708.522548497 23363247.511520386 0 0 0 0 -18278895.642738342 48102368.730632782 0 48102368.730632782 7924609.6351509094 0 0 0 0 -65548566.314441681 64881814.681770325 0 64881814.681770325 106835272.52194977 0 0 0 0 16206345.571994781 179764660.66950512 0 179764660.66950512 247847990.57330322 0 0 0 0 549114.01263706386 870039.28101952374 0 870039.28101952374 457959.65008477867 0 0 0 0 88954950.077369452 170590917.01190931 0 170590917.01190931 -173742010.90800095 0 0 0 0 85728206.878692627 262820525.36343002 0 262820525.36343002 53203318.721336365 0 0 0 0 -41799346.864898682 103014356.89139175 0 103014356.89139175 194823795.62703323 0 0 0 0 82122925.414920807 87825726.852993965 0 87825726.852993965 94439885.82201004 0 0 0 0 -33895403.115553737 26054897.272106029 0 26054897.272106029 -6324510.827004347 0 0 0 0 -35783048.410515442 33818996.775123775 0 33818996.775123775 -5589252.3382324427 0 0 0 0 -16138110.474761963 69366243.726654053 0 69366243.726654053 20661129.146657944 0 0 0 0 -41320188.391136169 76896618.671073914 0 76896618.671073914 38633272.673355103 0 0 0 0 37635212.683494568 150027651.19542694 0 150027651.19542694 -22108608.656661987 0 0 0 0 40305201.81955719 141754985.37041855 0 141754985.37041855 -3486948.2265930176 0 0 0 0 71134787.209671021 118733114.28192139 0 118733114.28192139 -10947482.710186005 0 0 0 0 38763874.871414185 125019337.78557777 0 125019337.78557777 -28540057.629882812 0 0 0 0 7082824.6131057739 116419375.82665634 0 116419375.82665634 58213574.462408066 0 0 0 0 8857421.9934082031 65625022.531078339 0 65625022.531078339 5953039.5288772583 0 0 0 0 87948933.812255859 55993134.905937195 0 55993134.905937195 -22966413.420333862 0 0 0 0 113636713.14712524 68191527.582504272 0 68191527.582504272 -17594490.886428833 0 0 0 0 69057532.662582397 114672254.72782803 0 114672254.72782803 -18816580.814712524 0 0 0 0 159262715.29986572 109859085.57949257 0 109859085.57949257 -21859552.655929565 0 0 0 0 90096865.830062866 115098055.05854034 0 115098055.05854034 14045869.365867615 0 0 0 0 188206799.75531006 94226543.554412842 0 94226543.554412842 -29688960.853477478 0 0 0 0 230642579.66778564 117912314.9127655 0 117912314.9127655 -60148433.529426575 0 0 0 0 15924244.814949036 -4493382.673664093 0 -4493382.673664093 99067184.38848877 0 0 0 0 120689784.61375427 50098817.329586029 0 50098817.329586029 20087348.816558838 0 0 0 0 426275390.17988586 -29640222.224212646 0 -29640222.224212646 -9939270.0161590576 0 0 0 0 130213692.07315063 -302575652.05526733 0 -302575652.05526733 433404319.04776001 0 0 0 0 20309647.936462402 -22280082.069747925 0 -22280082.069747925 112303428.13491821 0 0 0 0 40523690.69493866 119547299.25600433 0 119547299.25600433 -41285781.130783081 0 0 0 0 49823262.589828491 139120564.64763641 0 139120564.64763641 -22202770.964935303 0 0 0 0 35780105.579406738 120501790.07983398 0 120501790.07983398 -10432806.040771484 0 0 0 0 85788839.621688843 131149698.07168579 0 131149698.07168579 -29289621.968109131 0 0 0 0 71400322.716583252 116449382.3176651 0 116449382.3176651 -26534245.049468994 0 0 0 0 62704800.65032959 131683407.48194885 0 131683407.48194885 -15795125.703430176 0 0 0 0 42896783.68321228 108375659.78305817 0 108375659.78305817 -22521012.741577148 0 0 0 0 17574347.373947144 95996607.350894928 0 95996607.350894928 -41054481.772705078 0 0 0 0 11334568.334686279 107074893.55896759 0 107074893.55896759 -27457460.045448303 0 0 0 0 31039292.555511475 118214222.63615417 0 118214222.63615417 -27703244.480659485 0 0 0 0 19147687.004837036 80012643.78527832 0 80012643.78527832 -94030577.859138489 0 0 0 0 24185450.839355469 99587166.330955505 0 99587166.330955505 -50918805.992897034 0 0 0 0 10907538.037242889 72479654.896562576 0 72479654.896562576 -75022683.743209839 0 0 0 0 43910882.806182861 109854271.39952087 0 109854271.39952087 -62839919.177778244 0 0 0 0 26241334.748840332 127322414.88681793 0 127322414.88681793 -26625243.261474609 0 0 0 0 12815596.571258545 72489933.425270081 0 72489933.425270081 -76164927.185276031 0 0 0 0 10573313.064804077 81843650.255950928 0 81843650.255950928 -90318056.841392517 0 0 0 0 -8208994.0853176117 33462217.057937145 0 33462217.057937145 -130859639.51486206 0 0 0 0 13349524.14793396 60728087.44506073 0 60728087.44506073 -111481031.00863075 0 0 0 0 38288653.276596069 67568571.200139999 0 67568571.200139999 -180126365.98015213 0 0 0 0 98118387.488220215 149682347.10506821 0 149682347.10506821 -82349834.027366638 0 0 0 0 29229830.056900024 143073279.25853729 0 143073279.25853729 -20241281.569507599 0 0 0 0 1357072.5744654238 1633792.0237254277 0 1633792.0237254277 596515.6636030525 0 0 0 0 -61698669.595672607 219173735.2909832 0 219173735.2909832 -188902188.95383835 0 0 0 0 -74203333.144989014 83694466.614694595 0 83694466.614694595 -115976441.10321486 0 0 0 0 -43686603.776821136 119045316.04872608 0 119045316.04872608 -200362227.94682312 0 0 0 0 794776.11080226302 783681.27631478757 0 783681.27631478757 108585.17438182235 0 0 0 0 100653377.44541931 231378336.74402237 0 231378336.74402237 -323683044.10556793 0 0 0 0 12604372.742477417 190529102.59271622 0 190529102.59271622 -16816773.491088867 0 0 0 0 -91922197.964782715 175487662.26778412 0 175487662.26778412 -17379382.775535583 0 0 0 0 -20077042.240875244 89603249.52772522 0 89603249.52772522 -270584343.43261337 0 0 0 0 -135961800.25135803 77694333.883552551 0 77694333.883552551 17609081.667854309 0 0 0 0 -88626888.983773187 155133039.47414219 0 155133039.47414219 94059063.972396851 0 0 0 0 -88390972.406066895 68267237.392238617 0 68267237.392238617 171998662.85082245 0 0 0 0 -159369959.45912933 89100088.211380005 0 89100088.211380005 284403898.97438049 0 0 0 0 -111798832.90026093 42893191.355632782 0 42893191.355632782 289631662.62180328 0 0 0 0 -98476558.963043213 7926410.0955963135 0 7926410.0955963135 355018892.47182465 0 0 0 0 -33311440.058349609 20430321.535247803 0 20430321.535247803 186466336.42410278 0 0 0 0 -54421307.365890503 117524299.19181061 0 117524299.19181061 281004196.15450668 0 0 0 0 -54880159.675323486 19673951.414497375 0 19673951.414497375 439462244.91570282 0 0 0 0 -10780747.624649048 119983662.74386597 0 119983662.74386597 273030538.27908707 0 0 0 0 -52314239.77507019 186212091.7100811 0 186212091.7100811 227820636.2028656 0 0 0 0 17785800.86819458 105420581.78639984 0 105420581.78639984 296502262.95170403 0 0 0 0 -124689792.91043091 89803850.465824127 0 89803850.465824127 294863319.52759647 0 0 0 0 -102348439.64770508 180762295.78302765 0 180762295.78302765 257412005.17170334 0 0 0 0 -132386272.05539703 38780533.969379425 0 38780533.969379425 125571290.25908661 0 0 0 0 -79725927.34513855 176715160.05700493 0 176715160.05700493 316355273.64209747 0 0 0 0 -29686551.310115919 24040910.950583924 0 24040910.950583924 -8186784.1744178273 0 0 0 0 -25235874.532539368 60681374.228469849 0 60681374.228469849 62611767.916534424 0 0 0 0 -13507233.257545471 47624271.448612213 0 47624271.448612213 5186158.2632217407 0 0 0 0 -24010145.763246134 24606466.410376623 0 24606466.410376623 -11809371.537723999 0 0 0 0 -51388213.383041382 107664708.28099251 0 107664708.28099251 412410271.45545959 0 0 0 0 -18131243.995212555 48886021.748348236 0 48886021.748348236 10754288.104934692 0 0 0 0 -10290211.951255798 58753126.78188324 0 58753126.78188324 10528037.667005539 0 0 0 0 -6257811.9067306519 57035260.591136932 0 57035260.591136932 -4457069.4717636108 0 0 0 0 -22650286.399688721 51933410.475955963 0 51933410.475955963 250077.75055503845 0 0 0 0 -441512.71036911011 55733271.357978821 0 55733271.357978821 -3033605.0662231445 0 0 0 0 -10501456.167385101 53601009.205490112 0 53601009.205490112 -3459009.2362823486 0 0 0 0 -9668851.0794639587 62536477.43583107 0 62536477.43583107 -5404.6365737915039 0 0 0 0 63427006.763427734 22774847.419126511 0 22774847.419126511 -19511910.864562988 0 0 0 0 -12700790.47273425 5511043.9103737324 0 5511043.9103737324 -1469321.249805361 0 0 0 0 -1723894.5469970703 54405451.910381317 0 54405451.910381317 -1671391.3888397217 0 0 0 0 25507731.440963745 64833630.308792114 0 64833630.308792114 -8973.5009613037109 0 0 0 0 -4310612.0512924194 18870372.158443451 0 18870372.158443451 -19674813.884185791 0 0 0 0 -8458233.9575653076 32138652.949081421 0 32138652.949081421 -11119424.755216599 0 0 0 0 28010039.302909851 42599433.16191864 0 42599433.16191864 -12746890.449623108 0 0 0 0 -20124076.075842932 19805718.593608633 0 19805718.593608633 -7979685.3371451646 0 0 0 0 -14935390.951148987 30528180.261516571 0 30528180.261516571 -10366274.240852356 0 0 0 0 -30411840.405456543 91756838.107269287 0 91756838.107269287 -52107403.403945923 0 0 0 0 -8365543.932636261 49025746.940311432 0 49025746.940311432 4860418.9142608643 0 0 0 0 -54022541.160217285 -24199233.992584229 0 -24199233.992584229 341029923.96274948 0 0 0 0 16779063.709285736 214738673.0380981 0 214738673.0380981 521778261.21607971 0 0 0 0 -5440643.9903025329 -2101221.5465155654 0 -2101221.5465155654 7159758.0482289195 0 0 0 0 -67195442.923980713 75173654.882133484 0 75173654.882133484 359202292.40870285 0 0 0 0 1503279.4971365333 4198544.232332699 0 4198544.232332699 -4192997.7016889006 0 0 0 0 -78692568.265319824 106121989.26303864 0 106121989.26303864 302236369.17356873 0 0 0 0 -785270.19844150543 59170879.4778409 0 59170879.4778409 329447130.58882141 0 0 0 0 -63086495.651489258 69571045.86125946 0 69571045.86125946 352787985.23040676 0 0 0 0 -111430585.43911743 28646444.205436707 0 28646444.205436707 327700316.75291443 0 0 0 0 -113010234.97993469 42388037.564434052 0 42388037.564434052 260587197.16426086 0 0 0 0 -101857875.51524353 -20787514.081031799 0 -20787514.081031799 336478551.7609024 0 0 0 0 -99065176.958999634 -30513201.725593567 0 -30513201.725593567 234291799.09987259 0 0 0 0 -39994283.158035278 19682623.96434021 0 19682623.96434021 111769303.53503418 0 0 0 0 -12952405.190383911 -39792763.236248016 0 -39792763.236248016 224151948.20942688 0 0 0 0 -53301156.133361816 12979869.223251343 0 12979869.223251343 246414664.73534012 0 0 0 0 -68003139.278442383 94708318.177396774 0 94708318.177396774 62465336.463226318 0 0 0 0 24938720.460586548 303961.25318145752 0 303961.25318145752 78772479.123703003 0 0 0 0 76729633.747711182 -138061156.33094788 0 -138061156.33094788 160027100.321064 0 0 0 0 -10759471.262029037 1585375.905112043 0 1585375.905112043 -3171268.6079327986 0 0 0 0 -13775384.191108704 10165154.646224976 0 10165154.646224976 95203676.278648376 0 0 0 0 -23380142.367095947 7085409.8585128784 0 7085409.8585128784 -16923835.681625366 0 0 0 0 -64023298.450500488 39738595.043533325 0 39738595.043533325 9766206.1083068848 0 0 0 0 -3052777.4850597382 11914160.268992379 0 11914160.268992379 1652476.4004097879 0 0 0 0 -14888792.694193333 18357124.074451055 0 18357124.074451055 -9155948.2447271273 0 0 0 0 -6630260.8437652588 -25245560.404754639 0 -25245560.404754639 46916170.487295926 0 0 0 0 -12845697.523480415 12779954.057211876 0 12779954.057211876 -17504067.691009521 0 0 0 0 -14648639.132072449 -23361370.124568939 0 -23361370.124568939 67766282.115318298 0 0 0 0 -14123832.589447021 2823696.1450119019 0 2823696.1450119019 46721199.820083618 0 0 0 0 -37378982.477633476 7576532.9097876549 0 7576532.9097876549 75940181.885543823 0 0 0 0 -18384795.737884521 -5125082.4829711914 0 -5125082.4829711914 113627151.20008278 0 0 0 0 -9884063.8998718262 20401388.207672119 0 20401388.207672119 -13804254.743564606 0 0 0 0 -20461195.810493469 36894621.346920013 0 36894621.346920013 -7104268.1578979492 0 0 0 0 -12870848.367285125 8374016.009802863 0 8374016.009802863 -5016407.3543801308 0 0 0 0 -37067251.311786652 31612665.078695297 0 31612665.078695297 -2862893.0585174561 0 0 0 0 -4040886.0595932007 3268847.7899436951 0 3268847.7899436951 -325961.92526245117 0 0 0 0 -9394427.2885947227 15914998.593720492 0 15914998.593720492 -7512030.3937946334 0 0 0 0 -23765645.321533203 13934728.287635803 0 13934728.287635803 -26846800.402954102 0 0 0 0 -12494994.621551514 9969246.295501709 0 9969246.295501709 4320841.4937591553 0 0 0 0 -373126.07149112225 446117.07133418322 0 446117.07133418322 -429504.44083178788 0 0 0 0 -7950961.9235098064 5900772.709574379 0 5900772.709574379 -1042675.7771268114 0 0 0 0 -13230053.072174072 15951808.975952148 0 15951808.975952148 -4898973.3214874268 0 0 0 0 -3116634.8650054932 25407476.200759888 0 25407476.200759888 -8029971.6556854248 0 0 0 0 -8608544.3479156494 13684185.125396729 0 13684185.125396729 -4527825.717754364 0 0 0 0 -28161886.55872345 24757546.531341553 0 24757546.531341553 -3860115.7800598145 0 0 0 0 13296870.979980469 10759914.32270813 0 10759914.32270813 -14855179.305976868 0 0 0 0 -10904478.255367022 4940877.5759339258 0 4940877.5759339258 -1872459.7470231652 0 0 0 0 -17034729.37298584 32215090.141960144 0 32215090.141960144 -27728.980522155762 0 0 0 0 -46731203.146759033 21820482.190460205 0 21820482.190460205 -2695935.387260437 0 0 0 0 -13345588.734130859 34299380.832050323 0 34299380.832050323 -9675331.465133667 0 0 0 0 -2263343454.4561768 1190142707.1207886 0 1190142707.1207886 263816.69857311784 0 0 0 0 189614.91805648804 405089635.5114212 0 405089635.5114212 -240172318.19684601 0 0 0 0 -1785430092.0840149 2272461063.0945587 0 2272461063.0945587 -827921539.75393295 0 0 0 0 -481594844.12463379 -257535020.47538376 0 -257535020.47538376 -45526400.688621521 0 0 0 0 -2450517.8456885219 2352243.0366606824 0 2352243.0366606824 -773551.90703289956 0 0 0 0 -43990344.094116211 65719913.842557907 0 65719913.842557907 -81695868.252258301 0 0 0 0 30562202.538146973 -15782363.013938904 0 -15782363.013938904 -204906694.13749886 0 0 0 0 -6555165.8015245497 7119768.4235852212 0 7119768.4235852212 -2309174.4746144861 0 0 0 0 -6440508.9747803286 9064261.2823280543 0 9064261.2823280543 -3134944.928055495 0 0 0 0 -186154230.72939301 62749735.451711655 0 62749735.451711655 -1475559.4015960693 0 0 0 0 -50849336.276046753 -17087073.659362793 0 -17087073.659362793 -18985742.767986298 0 0 0 0 -149144152.71566772 -4100544.7484741211 0 -4100544.7484741211 5854506.1878509521 0 0 0 0 -84705968.847305298 38391106.302268982 0 38391106.302268982 -14073292.444787979 0 0 0 0 -192354752.11537504 219342295.67773724 0 219342295.67773724 -144394621.14830017 0 0 0 0 -183517557.91966724 75354722.05997467 0 75354722.05997467 -6439606.2175292969 0 0 0 0 -2184694.2535188943 3291671.9319017529 0 3291671.9319017529 -6925929.4221889153 0 0 0 0 -1460735.054599043 3116339.4207845181 0 3116339.4207845181 -1785345.9182810783 0 0 0 0 -51104206.805221558 25177247.690992355 0 25177247.690992355 -118146393.45355225 0 0 0 0 34113304.979415894 28992109.409183502 0 28992109.409183502 2308805.9026374817 0 0 0 0 -14633849.881973267 81689332.870414734 0 81689332.870414734 179091000.92031479 0 0 0 0 296123.89726231992 1838411.3456261903 0 1838411.3456261903 -7668854.3682937846 0 0 0 0 -72529345.247283936 359090360.0874939 0 359090360.0874939 942441245.77015495 0 0 0 0 9986.4929113011713 28367063.403119836 0 28367063.403119836 233507698.56248474 0 0 0 0 253765364.45832062 -179647377.20447922 0 -179647377.20447922 715053352.59328651 0 0 0 0 235699306.24935913 349949424.7334671 0 349949424.7334671 466861500.78781891 0 0 0 0 -89306806.985046387 328850119.347229 0 328850119.347229 896691517.4733963 0 0 0 0 216071388.92306519 -410075161.72592163 0 -410075161.72592163 637209454.49968719 0 0 0 0 -130610163.06007385 133579709.0958786 0 133579709.0958786 90710842.794250488 0 0 0 0 156014.02463540435 3763865.9259980619 0 3763865.9259980619 690795.95144757628 0 0 0 0 -145469338.23924255 -94134327.202987671 0 -94134327.202987671 1008671043.8876724 0 0 0 0 -52848217.003257751 -137492984.87514114 0 -137492984.87514114 411888594.65989685 0 0 0 0 -150326721.34838867 -2523678.1649856567 0 -2523678.1649856567 465538423.60106277 0 0 0 0 -70452524.64900589 -52664830.78612709 0 -52664830.78612709 482736463.33955383 0 0 0 0 -139525187.93147278 6927621.4313583374 0 6927621.4313583374 352589759.52757263 0 0 0 0 -134081931.81100464 -341700.6594581604 0 -341700.6594581604 361922987.81404877 0 0 0 0 -133361934.74377441 85753514.642524719 0 85753514.642524719 216488707.98535156 0 0 0 0 -160970773.65105438 98965299.426879883 0 98965299.426879883 400743862.81257629 0 0 0 0 -151846839.07485199 175808344.4560585 0 175808344.4560585 252146943.34571075 0 0 0 0 -145101232.31343079 168474536.42589188 0 168474536.42589188 221339457.16836834 0 0 0 0 -57519778.748664856 104341355.17628479 0 104341355.17628479 449666150.65234375 0 0 0 0 -198404290.21827698 159984199.18784714 0 159984199.18784714 570031008.36886024 0 0 0 0 -168462554.11911011 331731160.64041138 0 331731160.64041138 351505398.14994621 0 0 0 0 -71364322.534423828 224196144.21090126 0 224196144.21090126 27093292.284683228 0 0 0 0 -200537955.93769836 328932771.95199203 0 328932771.95199203 104302102.57804489 0 0 0 0 -15547462.626281738 289248219.57741547 0 289248219.57741547 -242298968.49299622 0 0 0 0 -121716172.38522339 142784151.36074829 0 142784151.36074829 216028332.94921494 0 0 0 0 -45409160.547027588 514290401.02908325 0 514290401.02908325 -472359974.56434721 0 0 0 0 132487247.47992134 307024353.19016266 0 307024353.19016266 -240377521.61920929 0 0 0 0 -437692040.40499496 361649263.04652786 0 361649263.04652786 -24225955.408081055 0 0 0 0 -132720303.37111664 10022331.463291168 0 10022331.463291168 -479459947.74448586 0 0 0 0 75996000.748779297 -34931240.227668762 0 -34931240.227668762 -147756607.69979477 0 0 0 0 -25975.613695245116 162472864.74466628 0 162472864.74466628 271047116.28046417 0 0 0 0 71156854.990097046 98047116.339118958 0 98047116.339118958 148432688.48608398 0 0 0 0 -43343448.898035049 252999731.74416161 0 252999731.74416161 37581399.624687195 0 0 0 0 93297395.187149048 396297152.72818947 0 396297152.72818947 523407491.47084045 0 0 0 0 -30726779.465315357 55536208.796314016 0 55536208.796314016 -54707247.518926561 0 0 0 0 636944761.1237011 529094702.95372009 0 529094702.95372009 303570244.16074371 0 0 0 0 438441740.67528915 9118242.1942901611 0 9118242.1942901611 216849179.2569809 0 0 0 0 568077572.28524208 336671332.96554565 0 336671332.96554565 457021894.11113739 0 0 0 0 1875240728.815073 446674989.91579437 0 446674989.91579437 248068.59647369385 0 0 0 0 685100199.58369732 595058249.16699409 0 595058249.16699409 633978606.1630249 0 0 0 0 453076769.65398788 489374024.91218948 0 489374024.91218948 135411663.05104446 0 0 0 0 378893239.14022827 127907187.41397095 0 127907187.41397095 -60510808.24199295 0 0 0 0 -9315435.6378479712 12371723.908739127 0 12371723.908739127 6568851.6690922827 0 0 0 0 541853597.08132935 358197902.03637505 0 358197902.03637505 -203596044.94637489 0 0 0 0 201193991.91165924 145060232.70832825 0 145060232.70832825 -31526004.244861603 0 0 0 0 212652348.505867 137816103.54917908 0 137816103.54917908 -358425998.4243927 0 0 0 0 -134991423.49936008 70538525.75562048 0 70538525.75562048 -401220209.79319763 0 0 0 0 -113292725.48342133 186763131.23099518 0 186763131.23099518 -118538048.05903244 0 0 0 0 -115222964.81504822 421310905.10642624 0 421310905.10642624 376288269.80756569 0 0 0 0 -40496779.022455215 123058032.16399765 0 123058032.16399765 246887165.87885666 0 0 0 0 -7728784.479183197 116735863.38627625 0 116735863.38627625 -232512465.43087769 0 0 0 0 -62796091.957382202 443387069.05397224 0 443387069.05397224 -57980566.860908508 0 0 0 0 428047629.45342255 119243054.34621811 0 119243054.34621811 -197473123.88097382 0 0 0 0 523254234.68859053 635839023.80054617 0 635839023.80054617 536874856.34829712 0 0 0 0 -38632280.047615252 43792419.46976544 0 43792419.46976544 -31170509.826578081 0 0 0 0 499309362.5408113 484223007.29513264 0 484223007.29513264 309126078.23135376 0 0 0 0 551367328.12130737 767972828.17931747 0 767972828.17931747 70873704.270412445 0 0 0 0 618941778.05735016 922254841.94139099 0 922254841.94139099 937797261.4234848 0 0 0 0 327962395.12951279 451382101.73258209 0 451382101.73258209 656291739.0422287 0 0 0 0 287384289.78851032 267665040.08910656 0 267665040.08910656 380872500.6786499 0 0 0 0 46895641.764862061 660869218.3263855 0 660869218.3263855 577107405.90796185 0 0 0 0 369537146.84355259 253145880.95077896 0 253145880.95077896 296434896.19544983 0 0 0 0 71944710.443393707 731889448.83834839 0 731889448.83834839 573127893.46271515 0 0 0 0 4725542.1734750606 4314065.109779872 0 4314065.109779872 -2283445.0542427897 0 0 0 0 435178169.01084518 397572258.46463776 0 397572258.46463776 429912038.74518204 0 0 0 0 298927790.52772141 293933363.80239105 0 293933363.80239105 302193708.78500366 0 0 0 0 725250628.82183313 286632134.25842285 0 286632134.25842285 192044757.17771912 0 0 0 0 469706565.72213745 288598193.68302917 0 288598193.68302917 239069532.9473877 0 0 0 0 326332760.58108521 218342626.13860321 0 218342626.13860321 228436422.41409302 0 0 0 0 -8439651.4583854675 17391322.026649475 0 17391322.026649475 377418534.31707764 0 0 0 0 155497269.22043753 316520162.4110527 0 316520162.4110527 1292840993.1087799 0 0 0 0 194934622.03346443 275846432.87606812 0 275846432.87606812 315263029.18519592 0 0 0 0 246890547.16531181 366532718.78268433 0 366532718.78268433 1303697247.9023743 0 0 0 0 217391825.16712761 727568102.01825714 0 727568102.01825714 144644864.39746094 0 0 0 0 208458007.21745682 973534558.34597778 0 973534558.34597778 431225316.52026367 0 0 0 0 -4936431.302028656 718288204.04151917 0 718288204.04151917 363728619.78390121 0 0 0 0 239228983.34052229 695872331.82680988 0 695872331.82680988 87552121.80065918 0 0 0 0 117717663.97772598 470825134.37982178 0 470825134.37982178 -32072112.975921631 0 0 0 0 -254620099.5750494 321840830.13626099 0 321840830.13626099 -114046180.32566071 0 0 0 0 -125539492.86326694 108845359.82831955 0 108845359.82831955 1669199685.6775017 0 0 0 0 371001.35450962558 3934047.7539134398 0 3934047.7539134398 2309483.0519410744 0 0 0 0 17247549.364883184 196535961.84526062 0 196535961.84526062 486646503.1015625 0 0 0 0 55122347.877301216 160630002.62037277 0 160630002.62037277 476768466.71299744 0 0 0 0 -44649131.85526228 321258395.95882797 0 321258395.95882797 583053942.11330986 0 0 0 0 2321936.2327311896 2277652.8222093508 0 2277652.8222093508 -1095773.9200149328 0 0 0 0 -649230.59022378922 5431946.5732097626 0 5431946.5732097626 384618279.14054108 0 0 0 0 11261972.420135319 61745268.57585144 0 61745268.57585144 394898548.84039879 0 0 0 0 8007339.2718552351 91883399.860544205 0 91883399.860544205 162327544.34910583 0 0 0 0 26917916.428696632 147411197.61906433 0 147411197.61906433 227594493.4498291 0 0 0 0 -48524755.479698718 88267076.206661224 0 88267076.206661224 604245886.7146492 0 0 0 0 3005182.4067948684 9394020.0314990282 0 9394020.0314990282 4486567.9834519699 0 0 0 0 -67824375.919603825 404037138.14966202 0 404037138.14966202 333200438.64492798 0 0 0 0 -4436932.8095777035 191033165.64749146 0 191033165.64749146 490717563.16819 0 0 0 0 -42657212.742935285 294063228.18231773 0 294063228.18231773 272512512.28271484 0 0 0 0 66615404.124353647 285102195.46750069 0 285102195.46750069 134126208.06707764 0 0 0 0 49766999.35249567 309679209.40252686 0 309679209.40252686 236209824.28565979 0 0 0 0 164734350.03072679 343286922.75844955 0 343286922.75844955 -24562814.137231827 0 0 0 0 29818328.266683578 443392686.52021027 0 443392686.52021027 19566961.169319153 0 0 0 0 198064714.08700275 332425171.4446106 0 332425171.4446106 -356964193.66254234 0 0 0 0 215181520.7121315 -450221273.94584465 0 -450221273.94584465 -457134215.108284 0 0 0 0 -707655021.148592 -190994729.51672363 0 -190994729.51672363 369943827.82827377 0 0 0 0 -446614646.66582489 792070320.88684082 0 792070320.88684082 47109427.246246338 0 0 0 0 688780378.75999498 860390916.58310699 0 860390916.58310699 -926772786.00083923 0 0 0 0 584425397.361619 1344834697.428112 0 1344834697.428112 -269481493.92913055 0 0 0 0 -998592561.87156057 -308734879.49864197 0 -308734879.49864197 183522207.88726807 0 0 0 0 -1965893.4387948122 6630775.4507304356 0 6630775.4507304356 -4510623.4409405142 0 0 0 0 -484496162.00154495 -5614264.9368019104 0 -5614264.9368019104 147432298.34635925 0 0 0 0 -137728614.92587471 370635169.07434464 0 370635169.07434464 279863094.68492317 0 0 0 0 298310044.30488873 317808214.02651978 0 317808214.02651978 72698258.737869263 0 0 0 0 145334226.61335582 273462352.7708416 0 273462352.7708416 168979364.60269928 0 0 0 0 -3641840.0521253902 21450919.526591957 0 21450919.526591957 -13542099.459774762 0 0 0 0 33994388.016191363 108776766.29202271 0 108776766.29202271 141671730.25310326 0 0 0 0 90533738.222624779 130647421.78333664 0 130647421.78333664 50091152.76852417 0 0 0 0 2418710.3899604343 40838854.296066575 0 40838854.296066575 -21961944.859791383 0 0 0 0 231662215.21518612 -93271013.025627136 0 -93271013.025627136 62045555.809196472 0 0 0 0 -63575221.019461274 127548860.36462331 0 127548860.36462331 15977632.915214539 0 0 0 0 -1193928.4698791504 156588139.7071228 0 156588139.7071228 -1982142.2704963684 0 0 0 0 -66090428.992651343 90008601.259796739 0 90008601.259796739 -14584442.522438049 0 0 0 0 45478756.812619209 56104580.002174377 0 56104580.002174377 -57735366.596862793 0 0 0 0 8803543.8447680324 4048396.6915967688 0 4048396.6915967688 -11456347.636364043 0 0 0 0 412124037.72670054 129161562.84468842 0 129161562.84468842 -81406356.689117432 0 0 0 0 143027396.60434341 360868571.91957092 0 360868571.91957092 73253743.767920017 0 0 0 0 -71034372.099924088 150882923.81539917 0 150882923.81539917 51032256.587068558 0 0 0 0 -105130029.37267971 204975902.18167114 0 204975902.18167114 70609141.009544373 0 0 0 0 -19290370.896993637 221907296.88378143 0 221907296.88378143 25890941.578613281 0 0 0 0 -15461873.943565369 194523327.69021225 0 194523327.69021225 -102842698.0995636 0 0 0 0 -42782558.333698273 330679293.07618713 0 330679293.07618713 -145448380.3254509 0 0 0 0 68827993.081085205 243033682.0773468 0 243033682.0773468 27784345.066783905 0 0 0 0 122730256.33705473 113983659.70383644 0 113983659.70383644 681469.68257141113 0 0 0 0 120770069.15855122 87173000.349475861 0 87173000.349475861 -78791436.770782471 0 0 0 0 139155269.00402069 1835902.8553314209 0 1835902.8553314209 37140587.277404785 0 0 0 0 -96414241.102859497 155409443.33825874 0 155409443.33825874 378358713.61373901 0 0 0 0 -391371902.55155563 899368754.29304504 0 899368754.29304504 -33726953.794204712 0 0 0 0 -240919230.64355755 -392869031.90977478 0 -392869031.90977478 945230159.3923645 0 0 0 0 1121689.4863752909 5927698.5819739476 0 5927698.5819739476 -4106060.2344787843 0 0 0 0 115327684.66695833 98186622.969907761 0 98186622.969907761 -56611511.042785645 0 0 0 0 34468655.997518405 8577065.4089233391 0 8577065.4089233391 -37522023.700626381 0 0 0 0 176068902.1768229 -220612680.37748718 0 -220612680.37748718 145508084.93490601 0 0 0 0 -299841.28454208374 18729902.416954041 0 18729902.416954041 -9295392.2253923416 0 0 0 0 84567039.983943939 17473511.465097427 0 17473511.465097427 -68333846.639629364 0 0 0 0 7878238.376861468 40096618.498481393 0 40096618.498481393 -46550809.569068439 0 0 0 0 11342584.935105324 59779552.838989258 0 59779552.838989258 -10648606.103591919 0 0 0 0 7418763.2095951345 27800679.496544369 0 27800679.496544369 -33902675.474022537 0 0 0 0 128912396.02824402 -5662377.1539306641 0 -5662377.1539306641 -79701233.629743576 0 0 0 0 45898097.643865652 9736212.0634509921 0 9736212.0634509921 -41844947.159652613 0 0 0 0 165697298.25997925 -42655154.246695518 0 -42655154.246695518 -65974236.221599579 0 0 0 0 160371266.74055481 -26137955.155297279 0 -26137955.155297279 -109976456.60003662 0 0 0 0 204103535.46060181 49981989.830635071 0 49981989.830635071 -64686155.554864645 0 0 0 0 240473417.05644226 11564982.812286377 0 11564982.812286377 -103428903.05243015 0 0 0 0 65889699.897455692 245072583.57833862 0 245072583.57833862 66676551.131858826 0 0 0 0 275074276.55437469 41374376.449531555 0 41374376.449531555 -118386676.61738586 0 0 0 0 -1007262.9880596539 14219496.559830066 0 14219496.559830066 -12448013.305446625 0 0 0 0 -8976868.2488883063 59985502.372497931 0 59985502.372497931 -69690133.959186196 0 0 0 0 308022927.3343122 256716110.2301507 0 256716110.2301507 -51892428.074874878 0 0 0 0 248025142.38796997 6504311.000246048 0 6504311.000246048 -109920499.59951782 0 0 0 0 197171718.38833618 -61727613.430205345 0 -61727613.430205345 -149704817.84827423 0 0 0 0 302709505.3271122 68939749.153393269 0 68939749.153393269 -212940065.67073822 0 0 0 0 278594905.54432678 130123173.42715454 0 130123173.42715454 -8317847.3762722015 0 0 0 0 461773878.55953407 185696343.74182653 0 185696343.74182653 -168678098.65266418 0 0 0 0 -27224218.97846774 68020611.580863148 0 68020611.580863148 -65330244.908236973 0 0 0 0 264137388.30141735 -41275526.982650757 0 -41275526.982650757 -328625025.93206024 0 0 0 0 22619037.242549911 -3649799.2788949609 0 -3649799.2788949609 -17600770.667890295 0 0 0 0 566384824.76381779 1366249099.3163071 0 1366249099.3163071 172557661.76751328 0 0 0 0 -149549180.92059708 132547152.44420815 0 132547152.44420815 -295813972.70651627 0 0 0 0 -194826191.64866257 35801138.632165909 0 35801138.632165909 -449932370.13921356 0 0 0 0 -5484514.1002426147 -21297672.664409637 0 -21297672.664409637 -235663801.82759857 0 0 0 0 223465267.669487 33964853.845087051 0 33964853.845087051 -168486781.90080833 0 0 0 0 227540845.40768433 42708880.383085251 0 42708880.383085251 -342290076.73424911 0 0 0 0 383092913.37014771 144898719.41568184 0 144898719.41568184 -256628412.61728668 0 0 0 0 60846126.962890625 7176975.5435810089 0 7176975.5435810089 -210623047.74428558 0 0 0 0 139605237.83215332 -106477443.48667908 0 -106477443.48667908 -258372356.5350132 0 0 0 0 59615686.699747086 -16317706.029057026 0 -16317706.029057026 -415629656.28381348 0 0 0 0 -95495630.01424408 -71219243.15281868 0 -71219243.15281868 -260697189.86944962 0 0 0 0 -24663351.372114182 -149150249.56690884 0 -149150249.56690884 -153192845.59715271 0 0 0 0 47121083.97958374 -13175991.602434158 0 -13175991.602434158 -250853466.94324684 0 0 0 0 172673714.32974243 -26732860.454549789 0 -26732860.454549789 -80464705.77788353 0 0 0 0 112649143.45521545 -104602286.10678291 0 -104602286.10678291 -137465569.5321576 0 0 0 0 173302350.25235367 -42709476.040673256 0 -42709476.040673256 -138577012.12715149 0 0 0 0 103249432.84358215 -141701359.43743515 0 -141701359.43743515 -40029403.737873077 0 0 0 0 32680394.238084354 3419275.609371189 0 3419275.609371189 -23270353.682867836 0 0 0 0 158161839.62332153 44083373.201879501 0 44083373.201879501 -89750478.916845322 0 0 0 0 54315648.558822632 -33684311.562301636 0 -33684311.562301636 -66369058.262310505 0 0 0 0 54362588.613688484 -76634364.014232025 0 -76634364.014232025 -2037715.1840438843 0 0 0 0 14914628.356613055 1823503.1524933428 0 1823503.1524933428 -12835276.712851293 0 0 0 0 26476396.642836474 1475645.4906133153 0 1475645.4906133153 -18827927.675876599 0 0 0 0 -8467458.1519470215 -37039763.525693893 0 -37039763.525693893 -35835620.219251633 0 0 0 0 -61747984.870471954 -29398876.128940582 0 -29398876.128940582 64414267.405002594 0 0 0 0 25953212.934707642 -87838739.250740051 0 -87838739.250740051 37349624.603135109 0 0 0 0 -27261290.415027618 2923470.0956125259 0 2923470.0956125259 -9221976.2720222473 0 0 0 0 7487090.5590133667 -12465266.629543304 0 -12465266.629543304 -2406905.5594902039 0 0 0 0 3950217.2327440381 2576526.7191214077 0 2576526.7191214077 -3343062.6397563256 0 0 0 0 376439127.71092606 242187796.1759634 0 242187796.1759634 -78146483.892856598 0 0 0 0 1391734910.4239044 -38795402.137004852 0 -38795402.137004852 -118674459.23192787 0 0 0 0 1091779.8550060242 1596137.6573641449 0 1596137.6573641449 -1054526.1296421755 0 0 0 0 153553.48636703938 2494146.6527505592 0 2494146.6527505592 -516163.24653783441 0 0 0 0 56595218.185726166 183604607.28971577 0 183604607.28971577 -625337417.8312149 0 0 0 0 -96562644.432938576 16111607.934229612 0 16111607.934229612 -3508510.3485031128 0 0 0 0 -142605422.02966309 -106934564.09745979 0 -106934564.09745979 -182677155.63529205 0 0 0 0 -324194436.94539642 480150461.4663372 0 480150461.4663372 68507233.535284042 0 0 0 0 -723663646.11660767 837876209.23730278 0 837876209.23730278 -178633754.32820702 0 0 0 0 638018188.26211548 512601261.94540977 0 512601261.94540977 -105990594.54104042 0 0 0 0 511839231.3671875 877026865.75572586 0 877026865.75572586 320085981.86239338 0 0 0 0 -266315354.2808609 888943688.23491096 0 888943688.23491096 -102377535.20275116 0 0 0 0 -102316025.72838211 452805395.10218096 0 452805395.10218096 53607238.654190063 0 0 0 0 -766902538.28668976 1102841898.0616331 0 1102841898.0616331 -891344797.3757019 0 0 0 0 -599081743.82726669 697276339.59388351 0 697276339.59388351 -1712212.9133167267 0 0 0 0 -1895201006.9048233 1530297250.9465075 0 1530297250.9465075 -829295188.00569534 0 0 0 0 -1351124863.7383461 854962861.53969574 0 854962861.53969574 -13523141.837730408 0 0 0 0 -825810563.44515228 767051739.07005692 0 767051739.07005692 3568438.5662765503 0 0 0 0 -1105725301.9393616 899385543.1000576 0 899385543.1000576 -13265937.651304245 0 0 0 0 -462249502.3689394 1035413827.6502671 0 1035413827.6502671 -284339706.331707 0 0 0 0 -876838835.34306717 997775937.7190361 0 997775937.7190361 -197893385.10168266 0 0 0 0 -709607586.63597107 866963951.33172417 0 866963951.33172417 -102227514.06310463 0 0 0 0 -776854069.3589592 798702432.52968073 0 798702432.52968073 -156599523.71424103 0 0 0 0 -827676483.01489258 626256688.27201843 0 626256688.27201843 -86347420.611967087 0 0 0 0 -430191965.94598389 487245938.1528511 0 487245938.1528511 57910524.09247303 0 0 0 0 -1137032800.5877533 672306924.25971222 0 672306924.25971222 11232924.032478333 0 0 0 0 -786770565.94142342 795602782.39983177 0 795602782.39983177 41964345.082038879 0 0 0 0 -722468610.06934738 344451496.13698959 0 344451496.13698959 116133399.37120438 0 0 0 0 -249343606.17717361 304656762.11850929 0 304656762.11850929 116864112.01051331 0 0 0 0 58366170.670368195 933385626.1149292 0 933385626.1149292 230904960.47709656 0 0 0 0 -240286814.75004005 293179422.6039753 0 293179422.6039753 130058065.62518311 0 0 0 0 -1275944733.7828217 881445938.95279884 0 881445938.95279884 277167249.11004257 0 0 0 0 -896453679.00057983 630872926.20441628 0 630872926.20441628 13978593.189460754 0 0 0 0 -844244357.2580719 672138991.59694672 0 672138991.59694672 159718133.63958359 0 0 0 0 -960394434.12098503 451869175.89183187 0 451869175.89183187 -247327397.52350616 0 0 0 0 -1172694556.445961 671838089.69292831 0 671838089.69292831 -460302068.83682823 0 0 0 0 -2187831598.85746 869712498.48481369 0 869712498.48481369 -199328569.62376213 0 0 0 0 -785204583.81406403 316588501.40506363 0 316588501.40506363 -477630486.43828964 0 0 0 0 -766976905.652565 85061894.056003571 0 85061894.056003571 -238840034.06996155 0 0 0 0 -1264594557.5514603 215948832.54520416 0 215948832.54520416 -223004603.2236824 0 0 0 0 -608860401.38889313 109817065.26692009 0 109817065.26692009 -250564927.76987457 0 0 0 0 -613175588.47835767 330083836.35405946 0 330083836.35405946 -324839742.25772858 0 0 0 0 -115277379.68208838 149324241.43793523 0 149324241.43793523 -487179323.42978668 0 0 0 0 -1002108438.5850906 484044034.35433197 0 484044034.35433197 -315578326.57540703 0 0 0 0 -614332705.46169281 675318596.55136633 0 675318596.55136633 -498931326.15402603 0 0 0 0 -1005275925.3214264 499243480.86412811 0 499243480.86412811 -204797417.67034149 0 0 0 0 61738984.537948608 -245517250.53613949 0 -245517250.53613949 426852339.59410095 0 0 0 0 -125029232.71696854 49691112.133434296 0 49691112.133434296 51793586.053987503 0 0 0 0 -8181120.3158406503 23159898.053214319 0 23159898.053214319 24657941.143954791 0 0 0 0 -23258414.387832642 24330864.188407898 0 24330864.188407898 25019652.073410034 0 0 0 0 -66175473.316085815 17049006.817203522 0 17049006.817203522 10327935.743646622 0 0 0 0 -32136935.996991545 5627970.9468177054 0 5627970.9468177054 26720029.972901601 0 0 0 0 -21627544.709734783 -216066.58767130412 0 -216066.58767130412 20457203.032949515 0 0 0 0 -10341776.655249055 6806492.8138260692 0 6806492.8138260692 3140980.7757875472 0 0 0 0 5790417.4098205566 -43338182.744064331 0 -43338182.744064331 35111071.794399261 0 0 0 0 -121283764.58795929 -28159393.132568359 0 -28159393.132568359 100932113.44368553 0 0 0 0 -212907713.89971924 -105359690.82776117 0 -105359690.82776117 -54736911.344860077 0 0 0 0 -647019858.52910233 69975227.308292389 0 69975227.308292389 68979252.789966583 0 0 0 0 -1024403753.0250435 -612309990.27728701 0 -612309990.27728701 -367420643.68741989 0 0 0 0 -27188265.988433838 -7829115.1656036377 0 -7829115.1656036377 -3634839.1504611969 0 0 0 0 -4885395.0320804864 1111905.275958214 0 1111905.275958214 3309698.8505620472 0 0 0 0 -2509460922.4143448 350386302.87812591 0 350386302.87812591 300976800.48981667 0 0 0 0 -896682792.9357605 -26495968.992773056 0 -26495968.992773056 305400155.84028351 0 0 0 0 -709371742.51690292 266212426.67635632 0 266212426.67635632 206138962.11203003 0 0 0 0 -1599679879.9537487 377650394.95295143 0 377650394.95295143 206183949.18764114 0 0 0 0 -797133874.4071312 181325973.39537621 0 181325973.39537621 125793191.33985519 0 0 0 0 -567748159.87271118 174292689.15336609 0 174292689.15336609 122811109.15359688 0 0 0 0 -573683000.3761673 127433928.18278313 0 127433928.18278313 224074542.48363495 0 0 0 0 -543607106.32930183 94374099.269483566 0 94374099.269483566 180431175.82105255 0 0 0 0 -718679468.00522232 96412123.554359436 0 96412123.554359436 192340389.08012772 0 0 0 0 -1153171.5530640595 4238074.9612898119 0 4238074.9612898119 -955409.58772777021 0 0 0 0 -55097441.758146286 -306099043.59426403 0 -306099043.59426403 184936039.67231369 0 0 0 0 -716580975.4732666 66662325.47744751 0 66662325.47744751 70579221.701773167 0 0 0 0 -715665865.98363495 110033794.48497581 0 110033794.48497581 125550277.78186798 0 0 0 0 -2508389.2552643418 12736047.337221503 0 12736047.337221503 16679166.493332751 0 0 0 0 -205248442.19499397 151304686.02018428 0 151304686.02018428 8890059.1384620667 0 0 0 0 534701451.11726379 -832397233.77671814 0 -832397233.77671814 131729146.06018353 0 0 0 0 -94160044.708686829 -88835723.176876068 0 -88835723.176876068 356990832.03476715 0 0 0 0 -370778353.92260551 -32724112.723608017 0 -32724112.723608017 507877656.77032471 0 0 0 0 -1365929178.9368057 794896521.89471436 0 794896521.89471436 -105601004.15794563 0 0 0 0 -579162278.99148941 941157770.3989172 0 941157770.3989172 -696480343.75530243 0 0 0 0 -777470356.37207794 443723733.79224014 0 443723733.79224014 -525872414.39631271 0 0 0 0 -339784879.76909256 -59330442.448299408 0 -59330442.448299408 -1786133784.1896973 0 0 0 0 -305113182.55440164 -559830157.10720873 0 -559830157.10720873 -464824908.51030731 0 0 0 0 -98306576.085144043 606839844.85452652 0 606839844.85452652 -965231583.03255463 0 0 0 0 36700303.404343605 40083370.19217205 0 40083370.19217205 -126411212.31711578 0 0 0 0 803367103.51042938 129107819.03105164 0 129107819.03105164 -499873289.20346069 0 0 0 0 195671593.63046265 450229075.74628448 0 450229075.74628448 -543334247.18188858 0 0 0 0 -422852238.81501389 462542770.0233078 0 462542770.0233078 -93854326.381134033 0 0 0 0 168299751.42317927 -13926654.554817796 0 -13926654.554817796 300401456.39043427 0 0 0 0 159454680.11451721 337926600.98652267 0 337926600.98652267 -108439247.63817215 0 0 0 0 423506607.47370911 -330060194.32588577 0 -330060194.32588577 593104403.07781982 0 0 0 0 1056273932.8747969 -598843489.60189676 0 -598843489.60189676 -134839839.07681274 0 0 0 0 -608597406.08752823 65396244.267570496 0 65396244.267570496 174247860.43917465 0 0 0 0 -590190661.90279388 537400457.14953041 0 537400457.14953041 -159927935.68710041 0 0 0 0 2547671.9869532585 8099065.1770538241 0 8099065.1770538241 6689332.8779448196 0 0 0 0 -261265515.63224792 308144743.55316544 0 308144743.55316544 -351740558.81511688 0 0 0 0 -518541630.25427246 28316543.127056122 0 28316543.127056122 28966489.587295532 0 0 0 0 -318082783.56710815 210794749.30037689 0 210794749.30037689 179899507.58110619 0 0 0 0 -548468082.14809799 717174350.98709106 0 717174350.98709106 -114042773.95770264 0 0 0 0 3135396.3604167029 3784709.0934719443 0 3784709.0934719443 252418.03821858019 0 0 0 0 -423427548.40758324 397780846.57671928 0 397780846.57671928 518561169.76012421 0 0 0 0 -328060200.84037781 529411093.23645782 0 529411093.23645782 600490005.0251236 0 0 0 0 -68941703.168126106 698152592.1566844 0 698152592.1566844 167797648.74012756 0 0 0 0 127300716.67213583 -292633017.41457224 0 -292633017.41457224 -167740996.89849091 0 0 0 0 -1232895665.7869034 -197817382.56270218 0 -197817382.56270218 100510010.02880859 0 0 0 0 -723814658.71718216 535210392.88367462 0 535210392.88367462 -142241641.34520721 0 0 0 0 -65837363.488327026 426327083.32254791 0 426327083.32254791 -148854044.22469711 0 0 0 0 -371167654.19247055 660478218.65389252 0 660478218.65389252 4226222.6186599731 0 0 0 0 -291062186.33603668 582061335.9247818 0 582061335.9247818 -207992463.74636078 0 0 0 0 -21265223.204093933 400276533.87200165 0 400276533.87200165 80746770.378314972 0 0 0 0 -413405119.03133392 752850988.37911987 0 752850988.37911987 -241976613.31415939 0 0 0 0 -327028456.79585266 705282219.22175789 0 705282219.22175789 -19193648.063804626 0 0 0 0 -180149595.77999115 286792634.07191849 0 286792634.07191849 194445059.40120697 0 0 0 0 -526179184.63896561 659055779.039505 0 659055779.039505 -6024481.6091384888 0 0 0 0 -524832000.63814068 658448531.99069262 0 658448531.99069262 -172192259.63313293 0 0 0 0 -762813961.32736969 589998772.13734436 0 589998772.13734436 -163293629.20220184 0 0 0 0 -751513073.26140594 565600882.17765808 0 565600882.17765808 -163092341.24169922 0 0 0 0 -1134664297.4274063 526704788.69557953 0 526704788.69557953 -33127693.073516846 0 0 0 0 -934248407.91908264 587687118.35941315 0 587687118.35941315 -14947054.733577728 0 0 0 0 -1124195445.2669392 661714116.69972992 0 661714116.69972992 98076362.762619019 0 0 0 0 -834739089.25915909 741134855.53271866 0 741134855.53271866 32991799.825759888 0 0 0 0 -750917158.77542114 575629870.04240036 0 575629870.04240036 -9102162.1349563599 0 0 0 0 -939408624.05200958 829574725.35647964 0 829574725.35647964 -119917128.11310005 0 0 0 0 -1383190079.8002777 629988772.6890564 0 629988772.6890564 94571516.140213013 0 0 0 0 -1957337744.3412857 -442682645.01415062 0 -442682645.01415062 -256243302.06192017 0 0 0 0 -1719582523.4361725 148198772.99782562 0 148198772.99782562 -244569599.29438251 0 0 0 0 -1588529126.1125298 -104003530.28347969 0 -104003530.28347969 85885299.028656006 0 0 0 0 -988958523.47053528 306310120.08484268 0 306310120.08484268 -157533017.91466188 0 0 0 0 -647083129.99176788 -117554062.82819939 0 -117554062.82819939 23087577.765197754 0 0 0 0 -907512167.12799072 -151748465.05101013 0 -151748465.05101013 -199155726.39527464 0 0 0 0 -788222326.85917664 265292214.99341583 0 265292214.99341583 -164300204.89391708 0 0 0 0 -1580161254.7611008 -4798662.5058441162 0 -4798662.5058441162 -186378479.24868774 0 0 0 0 -3147122529.0933456 71388513.105356216 0 71388513.105356216 260736687.25882721 0 0 0 0 -1613473452.5024338 334896184.77916145 0 334896184.77916145 -212906421.96173859 0 0 0 0 -3963721.9991630781 9649378.3279854096 0 9649378.3279854096 1145129.4554354921 0 0 0 0 251625573.67532349 31434324.042482376 0 31434324.042482376 -183928381.78541565 0 0 0 0 -3947303.6965314187 6887858.8160529286 0 6887858.8160529286 3489114.7348841876 0 0 0 0 887620052.41164398 753883369.05570221 0 753883369.05570221 -150404511.12427902 0 0 0 0 688337237.66811752 121804184.92992401 0 121804184.92992401 -83372340.234367371 0 0 0 0 50317477.955978394 24462296.100893021 0 24462296.100893021 325838552.12849426 0 0 0 0 171290314.62952423 458381145.33555603 0 458381145.33555603 155222559.38247013 0 0 0 0 -162184815.74689865 37118666.033927917 0 37118666.033927917 181619400.27225494 0 0 0 0 -257909843.64933872 353501307.10286665 0 353501307.10286665 189613401.14492035 0 0 0 0 -196488886.23107529 241213198.0789547 0 241213198.0789547 78424036.756835938 0 0 0 0 -376514270.73636627 389705570.59049988 0 389705570.59049988 136928502.11647415 0 0 0 0 -7154618.3280041926 11899679.921577197 0 11899679.921577197 6588970.6943223104 0 0 0 0 -198403460.69635773 228403586.15774536 0 228403586.15774536 7295125.3824691772 0 0 0 0 -239451975.13110733 208235525.96048546 0 208235525.96048546 97594102.079460144 0 0 0 0 -237881348.04320526 222231092.17015457 0 222231092.17015457 153985769.02001572 0 0 0 0 -7981060.791586468 20168705.418574609 0 20168705.418574609 -386145.81235091388 0 0 0 0 452297183.53175163 363984578.42834663 0 363984578.42834663 -217304388.24144745 0 0 0 0 -4015735.1696681846 6392263.2074627653 0 6392263.2074627653 3911550.3164883107 0 0 0 0 72267947.686021805 -127354710.85591507 0 -127354710.85591507 -100230798.01287842 0 0 0 0 -1284549011.7964249 332670992.42152405 0 332670992.42152405 80716648.425972939 0 0 0 0 -1567861056.936718 -299698143.34635925 0 -299698143.34635925 -55061596.027065277 0 0 0 0 -949331655.28773117 223512090.0970192 0 223512090.0970192 -35050111.211182594 0 0 0 0 -2223930114.5678539 -48778722.82090044 0 -48778722.82090044 280718266.30413055 0 0 0 0 -967185640.94407272 315929356.20093918 0 315929356.20093918 301243383.12835884 0 0 0 0 -188157945.08419991 -172679336.4974575 0 -172679336.4974575 437790525.40409088 0 0 0 0 -675476404.89564896 542572564.29230118 0 542572564.29230118 289448620.62219238 0 0 0 0 -31437587.820133567 28880829.16493652 0 28880829.16493652 -15409743.800566524 0 0 0 0 712896905.55142212 672565787.40605927 0 672565787.40605927 702797085.19888306 0 0 0 0 358847933.15352821 571221635.08354187 0 571221635.08354187 795699029.34966278 0 0 0 0 620930343.47639847 302102827.66501999 0 302102827.66501999 212835373.09116364 0 0 0 0 498925648.37864685 593894285.53683472 0 593894285.53683472 -200072889.32606506 0 0 0 0 -13285959.485802487 10207371.176221132 0 10207371.176221132 -3863758.2772470266 0 0 0 0 637061354.59214592 915725057.53480446 0 915725057.53480446 -502769066.02927399 0 0 0 0 -2946337448.2497864 -1239107144.9196091 0 -1239107144.9196091 1051941154.8606949 0 0 0 0 -705222767.27974772 76035782.971756935 0 76035782.971756935 83474193.346160889 0 0 0 0 -1390969332.0628624 31402082.124263763 0 31402082.124263763 267145032.80373764 0 0 0 0 -8409281.7139683999 22861815.836807366 0 22861815.836807366 -9614796.3826511353 0 0 0 0 -1688147001.3533421 155617075.44952202 0 155617075.44952202 379883375.18668365 0 0 0 0 -765667990.44081116 28771032.236005783 0 28771032.236005783 202695012.15753555 0 0 0 0 -260234127.58695984 452469608.95949745 0 452469608.95949745 92222725.552719116 0 0 0 0 -973163455.74637413 123907788.73708344 0 123907788.73708344 -40924469.464511871 0 0 0 0 634997346.70188236 897144559.34882832 0 897144559.34882832 -3212325978.8386688 0 0 0 0 -1266584244.4910202 250119896.34096909 0 250119896.34096909 -35481276.582645416 0 0 0 0 -2383302606.9636307 1415171104.9414902 0 1415171104.9414902 821709848.5085144 0 0 0 0 -6018776.9311450813 17172882.356920958 0 17172882.356920958 -16831783.845980853 0 0 0 0 -1448846566.3742599 110644832.64249039 0 110644832.64249039 -111845248.98986053 0 0 0 0 -1455482011.2507567 811668038.2769829 0 811668038.2769829 -260133869.38204956 0 0 0 0 -3530584763.8275299 426238684.45274734 0 426238684.45274734 101402514.0166893 0 0 0 0 -1006431850.3050919 694056685.69843674 0 694056685.69843674 -561288567.15509796 0 0 0 0 -2524870.8362160809 5894766.6843892876 0 5894766.6843892876 -8518247.8802028745 0 0 0 0 343381096.82681847 -71141902.107700348 0 -71141902.107700348 628016498.94885254 0 0 0 0 855346185.28058434 97975453.252290726 0 97975453.252290726 -244499900.3675766 0 0 0 0 -565007073.82609177 687491663.33447266 0 687491663.33447266 21044444.911857605 0 0 0 0 -213919024.26635361 894241629.29615784 0 894241629.29615784 143256946.8723259 0 0 0 0 -581020855.7816658 653381464.67170715 0 653381464.67170715 53259980.454174042 0 0 0 0 -266535418.69057083 784989966.11952591 0 784989966.11952591 -79555023.065704346 0 0 0 0 220857530.8664093 680551642.73605347 0 680551642.73605347 -83557627.972361565 0 0 0 0 107915899.81669044 764269952.24724197 0 764269952.24724197 -126742178.37535095 0 0 0 0 273945620.71313572 1111244223.3321476 0 1111244223.3321476 -215674409.89460754 0 0 0 0 -997320554.61394119 575433708.28134918 0 575433708.28134918 1208518313.3469429 0 0 0 0 -285344486.23682404 1627649561.9277878 0 1627649561.9277878 -676839987.78081703 0 0 0 0 -796138383.78748322 1271241198.7675095 0 1271241198.7675095 -75167265.582992554 0 0 0 0 -689987190.71153831 446326366.94810867 0 446326366.94810867 -197940504.78469086 0 0 0 0 -724804835.448349 528194392.52111053 0 528194392.52111053 -201302530.45709991 0 0 0 0 -729604012.55656433 472332318.20439911 0 472332318.20439911 -287608767.07540894 0 0 0 0 -840428580.49139786 537045166.32111359 0 537045166.32111359 -171294213.42831421 0 0 0 0 -644256592.04013824 643318361.75178528 0 643318361.75178528 -191373681.57965469 0 0 0 0 -679797093.00971222 522264585.07891846 0 522264585.07891846 -305929980.27243042 0 0 0 0 -673058471.47281647 583938165.57834244 0 583938165.57834244 -242038814.41033936 0 0 0 0 -651855028.67606354 571899778.40278244 0 571899778.40278244 -277761621.25067139 0 0 0 0 -451692313.29563904 598328095.90456009 0 598328095.90456009 -286091789.85276794 0 0 0 0 -459400746.97336388 631895465.84881258 0 631895465.84881258 -284034226.54927826 0 0 0 0 -402810049.08436203 645763231.60219955 0 645763231.60219955 -297825823.34185791 0 0 0 0 -424251062.0351181 623755560.5585289 0 623755560.5585289 -320153743.50640869 0 0 0 0 -404387806.77265549 537148234.45863724 0 537148234.45863724 -275996818.84559822 0 0 0 0 -380394305.14881897 606904986.65125275 0 606904986.65125275 -315671993.56800842 0 0 0 0 -453615752.59189987 701727360.21232224 0 701727360.21232224 -325390860.77819061 0 0 0 0 -363446020.11665344 639335792.80882263 0 639335792.80882263 -340993487.84649181 0 0 0 0 -416678500.38874054 671428130.9510231 0 671428130.9510231 -344785433.23938036 0 0 0 0 -450133920.45960999 665970754.88246536 0 665970754.88246536 -236337805.39642525 0 0 0 0 -401580732.06332207 573530459.44249535 0 573530459.44249535 -256463820.61372375 0 0 0 0 -525003052.86707497 596780302.30097771 0 596780302.30097771 -254506562.94522858 0 0 0 0 -715827438.98833084 646992809.45010376 0 646992809.45010376 -243021192.46646118 0 0 0 0 -639454473.77182007 524705759.98475838 0 524705759.98475838 -193561718.51815033 0 0 0 0 -766654594.88410854 935609962.95691872 0 935609962.95691872 -446256512.00016022 0 0 0 0 -957467066.98348236 484626951.70845413 0 484626951.70845413 -196850217.51280403 0 0 0 0 -990605368.45579529 776577866.10485077 0 776577866.10485077 -346607104.0044136 0 0 0 0 -247172641.5121572 839101052.0343473 0 839101052.0343473 -716961189.05449677 0 0 0 0 -214201709.10458755 444457755.15516281 0 444457755.15516281 -266907738.49967957 0 0 0 0 -211496961.32112694 750586267.3350029 0 750586267.3350029 -524995941.27057648 0 0 0 0 -459045218.28525543 640681135.25963974 0 640681135.25963974 -293048477.80026245 0 0 0 0 -73891618.054561615 424935713.11127472 0 424935713.11127472 -249218221.70565796 0 0 0 0 -233054142.76533508 587987709.26634979 0 587987709.26634979 -375043937.24171448 0 0 0 0 198319582.30259323 -14153824.336006165 0 -14153824.336006165 88626683.366218567 0 0 0 0 -61832423.987375259 444801313.36784744 0 444801313.36784744 -217542339.27193451 0 0 0 0 -43588348.758514404 189583901.61324692 0 189583901.61324692 153927128.72083282 0 0 0 0 7378167.875654947 10130927.794236872 0 10130927.794236872 -3411005.9233659059 0 0 0 0 73097932.199174881 258600759.59816742 0 258600759.59816742 -253184695.79152679 0 0 0 0 38450037.559570312 -144884762.58556938 0 -144884762.58556938 86231767.972671509 0 0 0 0 -251110500.26880527 274773570.12015903 0 274773570.12015903 -131992972.51519012 0 0 0 0 -64137979.195365906 56146017.560695648 0 56146017.560695648 12711976.573411942 0 0 0 0 -2272333.1963693071 -3866769.8779196888 0 -3866769.8779196888 2405622.4402184486 0 0 0 0 -2639676.7614957951 5044131.0497493148 0 5044131.0497493148 5868133.0444227904 0 0 0 0 -83180489.508410454 -15601444.161611557 0 -15601444.161611557 -13927914.843276978 0 0 0 0 150397900.114048 -274223024.40941238 0 -274223024.40941238 -273034734.4757576 0 0 0 0 -3597023.0078613311 12855478.637855947 0 12855478.637855947 10575701.226827741 0 0 0 0 5811526.6198706161 6647843.1230598539 0 6647843.1230598539 -2884987.9659689367 0 0 0 0 903121621.81733322 -126673493.5602417 0 -126673493.5602417 -319147464.34726334 0 0 0 0 -56053519.903334618 210211852.74802017 0 210211852.74802017 344514200.46903992 0 0 0 0 567192592.93790627 320219468.41068649 0 320219468.41068649 -125906217.65377808 0 0 0 0 271777485.58807755 -294216101.74212265 0 -294216101.74212265 -560521370.89120483 0 0 0 0 535807967.74831009 -291033896.12846375 0 -291033896.12846375 320370372.54258728 0 0 0 0 480069873.74111557 418784884.14871216 0 418784884.14871216 -184008058.04164886 0 0 0 0 253488142.28632736 93257187.102352142 0 93257187.102352142 -241383195.58670044 0 0 0 0 218750405.46791553 508626332.55908489 0 508626332.55908489 -500320305.740448 0 0 0 0 118243282.51762581 579997138.35196114 0 579997138.35196114 -636171453.08351135 0 0 0 0 -509001119.56994629 422311133.04214478 0 422311133.04214478 -524305259.75679779 0 0 0 0 -262583742.70626068 88315015.952087402 0 88315015.952087402 -159476731.11527634 0 0 0 0 -425618846.27197361 656962462.78280354 0 656962462.78280354 -959365005.61826324 0 0 0 0 -141259922.37215805 605235144.06674719 0 605235144.06674719 -85811333.581375122 0 0 0 0 30825898.073904037 46293098.643522263 0 46293098.643522263 135780593.05973816 0 0 0 0 -78939490.033532143 211966605.30960846 0 211966605.30960846 84318444.825889587 0 0 0 0 99836139.906040192 483506619.93782616 0 483506619.93782616 222322019.64253998 0 0 0 0 1058115400.5621796 414890260.45121765 0 414890260.45121765 425062.00136566162 0 0 0 0 1120369236.2605515 539783421.63684082 0 539783421.63684082 -10149174.988830566 0 0 0 0 1784847607.3511219 -378414908.35974884 0 -378414908.35974884 -255461015.99365234 0 0 0 0 2275647.7465471253 2000603.1048857421 0 2000603.1048857421 -987466.39056926966 0 0 0 0 -115851593.94653702 174117254.66838455 0 174117254.66838455 577297159.37480164 0 0 0 0 -58418277.4395504 76826949.17033577 0 76826949.17033577 2993.0452041625977 0 0 0 0 1407244737.5346375 272123784.04273987 0 272123784.04273987 -743784640.78263855 0 0 0 0 -2760178.2645784542 719077.35386004299 0 719077.35386004299 2389024.3605517745 0 0 0 0 -2533484.4160153568 -4321450.6533867121 0 -4321450.6533867121 2417999.1618345529 0 0 0 0 -108128768.07632446 24566081.148609161 0 24566081.148609161 3743112.2396850586 0 0 0 0 -1738286.4539146423 5015844.7466659546 0 5015844.7466659546 -20478224.837493896 0 0 0 0 -49211344.935182571 30047199.455842972 0 30047199.455842972 -16469626.092193604 0 0 0 0 -921618039.23410797 1192324684.0543938 0 1192324684.0543938 -511723724.23482895 0 0 0 0 -401408252.28518677 668345113.27576447 0 668345113.27576447 -421113191.18374634 0 0 0 0 -279619161.05148268 513546278.21726751 0 513546278.21726751 -295104176.61438751 0 0 0 0 -325321286.33523178 718337024.3744545 0 718337024.3744545 -127721842.50126648 0 0 0 0 -208286208.27954221 966820365.40316534 0 966820365.40316534 -764234499.4651413 0 0 0 0 628682839.27261353 337674779.20497513 0 337674779.20497513 -496890973.25190735 0 0 0 0 -2547340954.9320202 1425734287.8423138 0 1425734287.8423138 -410239648.5737915 0 0 0 0 -1163021659.6654806 1350904950.7009392 0 1350904950.7009392 -1016356426.2383728 0 0 0 0 -1078610902.4939003 277351170.28835678 0 277351170.28835678 -172586605.18712997 0 0 0 0 -1457614745.9203568 910639984.1356678 0 910639984.1356678 25283515.849632263 0 0 0 0 -766797403.00013542 691140140.00823021 0 691140140.00823021 356393.86937713623 0 0 0 0 -808395977.05939484 663420248.92080879 0 663420248.92080879 49668424.348266602 0 0 0 0 -858971186.46120644 719489434.20432091 0 719489434.20432091 21009.655456542969 0 0 0 0 -439911414.15765667 759060651.83759689 0 759060651.83759689 -228200833.91120911 0 0 0 0 -606397796.71018982 575109126.02999878 0 575109126.02999878 -247896.21318054199 0 0 0 0 -742885473.07256794 752067944.45104027 0 752067944.45104027 -226529158.94035339 0 0 0 0 -561388080.0858593 591340407.27375793 0 591340407.27375793 -161875611.88008118 0 0 0 0 -476262087.37615871 473006837.39995575 0 473006837.39995575 -60403.399589538574 0 0 0 0 -456720754.21498203 615069372.82043457 0 615069372.82043457 -258053539.63550568 0 0 0 0 -585384361.14803314 437970268.06127548 0 437970268.06127548 -226206341.24071312 0 0 0 0 -295334797.9911623 335198439.27492905 0 335198439.27492905 -153621.69125366211 0 0 0 0 -399293799.81822681 474784296.08442116 0 474784296.08442116 -184208324.88627625 0 0 0 0 -139141973.15916252 418883771.86928558 0 418883771.86928558 -191434057.94682693 0 0 0 0 -235134712.63986111 322696839.17171288 0 322696839.17171288 -278540687.34161377 0 0 0 0 -2127720.9290052801 379621.99496147037 0 379621.99496147037 2666773.1270878911 0 0 0 0 163222968.02152252 202091389.07756424 0 202091389.07756424 -251124672.69983292 0 0 0 0 2781396.2827568054 534493643.55577469 0 534493643.55577469 -339124518.85440063 0 0 0 0 216017968.00282478 167556679.41474915 0 167556679.41474915 11312807.555580139 0 0 0 0 13404970.55123806 132708714.35269547 0 132708714.35269547 136687822.09783173 0 0 0 0 -44999863.70433712 122465798.31516647 0 122465798.31516647 311004566.40886688 0 0 0 0 -248119916.36851501 241625304.39949799 0 241625304.39949799 296416939.01268768 0 0 0 0 -383725008.19377136 530077812.4828949 0 530077812.4828949 -510826692.62236786 0 0 0 0 1137871.3693051338 1391208.6127455346 0 1391208.6127455346 -3409888.5589292496 0 0 0 0 -636463376.98790836 422913689.4987812 0 422913689.4987812 -21027993.488693237 0 0 0 0 -483089299.78192902 59992926.763158798 0 59992926.763158798 50113545.587234497 0 0 0 0 -400236730.07360458 530305367.97459507 0 530305367.97459507 -74178297.806350708 0 0 0 0 -507904525.58719063 687550197.49633408 0 687550197.49633408 -284496862.3467865 0 0 0 0 -239872883.7025795 579464861.98593903 0 579464861.98593903 -59772612.953987122 0 0 0 0 -62661128.929416656 492956186.8037262 0 492956186.8037262 -17542237.391464233 0 0 0 0 57911051.126556396 499775658.45420837 0 499775658.45420837 -60448538.185798645 0 0 0 0 95700972.637073517 433845818.90071869 0 433845818.90071869 8984300.2397918701 0 0 0 0 350535341.75890541 292055185.45373535 0 292055185.45373535 -12631920.938606262 0 0 0 0 340843173.09112358 -970127.69912719727 0 -970127.69912719727 -33381302.476608276 0 0 0 0 78173960.342044592 218950392.44310379 0 218950392.44310379 -10894287.98135376 0 0 0 0 50253508.427243948 37112024.773238659 0 37112024.773238659 -13324507.252578735 0 0 0 0 22664288.478942871 240070899.03393555 0 240070899.03393555 -16194783.178382874 0 0 0 0 -248776330.00119096 216512295.99720752 0 216512295.99720752 88387042.726760864 0 0 0 0 161667200.45729035 34950035.550237656 0 34950035.550237656 -20779230.966293335 0 0 0 0 1596566.4727835655 4692907.6620840058 0 4692907.6620840058 -6503003.5310725868 0 0 0 0 158991225.49876404 -702592.79288482666 0 -702592.79288482666 -47053311.230705261 0 0 0 0 13929461.43618907 45190645.875686646 0 45190645.875686646 175549980.11669922 0 0 0 0 12766084.098120689 79790327.795520782 0 79790327.795520782 158583206.15129852 0 0 0 0 166710569.36867142 2246092.2499237061 0 2246092.2499237061 12852376.420730591 0 0 0 0 119987129.26343536 25934477.052780151 0 25934477.052780151 15500578.431292534 0 0 0 0 162935824.59417343 47328124.803657532 0 47328124.803657532 -24383598.898033142 0 0 0 0 188471017.31446552 -48383808.353900909 0 -48383808.353900909 1879461.7603149414 0 0 0 0 831941514.08370018 -65364044.958984375 0 -65364044.958984375 -3848593.0956802368 0 0 0 0 -602717.81516588107 1584412.2830882072 0 1584412.2830882072 1993273.5125168562 0 0 0 0 -471746.56414973736 14013865.422244549 0 14013865.422244549 -470839550.36857605 0 0 0 0 598103.73403795436 1575277.2460116073 0 1575277.2460116073 -2037882.4208772779 0 0 0 0 -788028.48357146606 4494850.3943269104 0 4494850.3943269104 4001718.9260246158 0 0 0 0 -9546154.9253559113 -55086566.033584595 0 -55086566.033584595 -214836907.06231689 0 0 0 0 -30223262.493812561 293873847.42784119 0 293873847.42784119 -383749750.65264511 0 0 0 0 -596979582.95102787 538020521.12489319 0 538020521.12489319 -491479746.20269775 0 0 0 0 -188063906.56312227 136488295.28611946 0 136488295.28611946 -160576197.84579468 0 0 0 0 -86364897.182125092 474083103.24514771 0 474083103.24514771 184414200.22132874 0 0 0 0 -426720864.6030159 497521341.26746368 0 497521341.26746368 9217336.314201355 0 0 0 0 71587901.364379883 466255438.57727814 0 466255438.57727814 -306264412.32223511 0 0 0 0 9011955.5986795425 518921376.02485085 0 518921376.02485085 280820855.04350281 0 0 0 0 -99557147.167762756 254022394.87076569 0 254022394.87076569 27868353.245498657 0 0 0 0 465517276.66326332 572701381.07207489 0 572701381.07207489 171265853.3931427 0 0 0 0 140847592.08953857 629251047.13613892 0 629251047.13613892 139371821.41012573 0 0 0 0 199741732.17816734 493299503.67573547 0 493299503.67573547 412996436.21827698 0 0 0 0 2850043.3892606646 2558493.4615578279 0 2558493.4615578279 -1443989.3927494735 0 0 0 0 357906828.44652987 -8672862.1247630119 0 -8672862.1247630119 381401353.61373901 0 0 0 0 443723240.99260521 96646830.516025543 0 96646830.516025543 -170989905.49401855 0 0 0 0 501337727.24843597 415850115.72450256 0 415850115.72450256 236637505.33755493 0 0 0 0 277688832.70004654 401376935.5140152 0 401376935.5140152 264749046.27422333 0 0 0 0 378684341.49770403 285421321.22475624 0 285421321.22475624 143763381.40748596 0 0 0 0 311990277.8867836 433402361.75621796 0 433402361.75621796 -22083956.308799744 0 0 0 0 214344153.64717865 275611023.82540131 0 275611023.82540131 112015477.82226562 0 0 0 0 572536599.70655441 498762615.00715637 0 498762615.00715637 277667109.11101151 0 0 0 0 381365278.56848145 314340415.83135033 0 314340415.83135033 120220594.74899292 0 0 0 0 3424803.6751555204 51503342.747441292 0 51503342.747441292 -123708759.03704834 0 0 0 0 18663739.72667098 102045188.12885857 0 102045188.12885857 -268373979.5847168 0 0 0 0 -49745354.470628738 148111785.15660095 0 148111785.15660095 -185359902.27488708 0 0 0 0 -5367666.5451164246 80243325.601142883 0 80243325.601142883 -161712710.38526917 0 0 0 0 -5611883.1054954529 57412763.557899475 0 57412763.557899475 -82738881.333946228 0 0 0 0 -10467968.647261083 50839538.764994621 0 50839538.764994621 -42782382.470703125 0 0 0 0 -9384444.1459823251 59915318.613092422 0 59915318.613092422 -84394800.050430298 0 0 0 0 13414308.24111104 23442180.827907562 0 23442180.827907562 -77031875.295837402 0 0 0 0 12619825.956775665 31220643.196151733 0 31220643.196151733 -116994749.89718628 0 0 0 0 4406898.0692654178 11414729.885020651 0 11414729.885020651 3214292.4760260209 0 0 0 0 10470748.148011684 7615724.0668182373 0 7615724.0668182373 -80015792.893096924 0 0 0 0 19852216.396008432 7939459.0451755524 0 7939459.0451755524 -95402808.853515625 0 0 0 0 -6023725.1176366806 -21888315.966732025 0 -21888315.966732025 -22287080.390762329 0 0 0 0 -1731008.0098351315 7053864.5116048157 0 7053864.5116048157 2670398.2637810875 0 0 0 0 11872034.944438934 49340852.114578247 0 49340852.114578247 2676891.4389877319 0 0 0 0 17214480.336368084 28451510.298225403 0 28451510.298225403 -141020683.78683853 0 0 0 0 -80538909.704296112 -54869131.025686264 0 -54869131.025686264 17098067.906730652 0 0 0 0 126164573.54707146 -68166268.866165161 0 -68166268.866165161 -244365482.54838562 0 0 0 0 144403125.13079548 86938419.449371338 0 86938419.449371338 -414493624.78265381 0 0 0 0 -546861340.64690781 132877277.06159973 0 132877277.06159973 -295077083.37568665 0 0 0 0 -464024873.5922184 143794239.78579712 0 143794239.78579712 -84890364.00837326 0 0 0 0 -237150993.19771099 192629977.29827118 0 192629977.29827118 -288422383.33065033 0 0 0 0 -944081.52646217495 2593391.4023188353 0 2593391.4023188353 614989.18822665885 0 0 0 0 -716656953.42673659 53596518.004001617 0 53596518.004001617 -306559868.33779907 0 0 0 0 -748177654.62804413 254688459.17565536 0 254688459.17565536 -73542611.514434814 0 0 0 0 -372793627.95697403 63136479.9766922 0 63136479.9766922 -536345236.30712891 0 0 0 0 -321574197.50894165 426752834.31188202 0 426752834.31188202 -540411791.66350031 0 0 0 0 40958467.062567711 130169996.03809738 0 130169996.03809738 -374628170.27157593 0 0 0 0 -15028619.631320953 99780292.263381958 0 99780292.263381958 -231040006.29270744 0 0 0 0 -104736849.12269974 161601788.35722351 0 161601788.35722351 -333763880.47612 0 0 0 0 -88155160.9874897 223285912.01181793 0 223285912.01181793 -458404042.45046234 0 0 0 0 -218056537.71947002 245039957.26163101 0 245039957.26163101 -221653313.09240723 0 0 0 0 -109929046.27275658 264695939.62294769 0 264695939.62294769 -339625321.2091732 0 0 0 0 -155256099.22771692 206151911.98012543 0 206151911.98012543 -131711798.39950562 0 0 0 0 -165744735.88755655 298830505.54607773 0 298830505.54607773 -148813498.73638153 0 0 0 0 -216372675.19815063 294707058.23356628 0 294707058.23356628 -241165846.98704529 0 0 0 0 -333685855.37511063 102034404.7461586 0 102034404.7461586 -38406546.012214661 0 0 0 0 -415188135.16573811 294023244.64245605 0 294023244.64245605 -118780815.45500946 0 0 0 0 -3558995.460307423 4545665.9472121522 0 4545665.9472121522 5313851.6827192605 0 0 0 0 -142508625.58897781 23391066.689193726 0 23391066.689193726 210643092.61959076 0 0 0 0 -274341238.01884079 240438837.5243454 0 240438837.5243454 -117656960.5355072 0 0 0 0 -269410326.20388508 450438989.06454468 0 450438989.06454468 -114567271.23039031 0 0 0 0 -1839026.4065192668 1527413.9889735654 0 1527413.9889735654 2638846.9337673783 0 0 0 0 -273059435.09751129 376982462.77892685 0 376982462.77892685 257839444.54459381 0 0 0 0 -133173824.98123598 220718701.99402237 0 220718701.99402237 3800023.7490615845 0 0 0 0 -209862840.18071556 211552688.78907013 0 211552688.78907013 170458818.36271667 0 0 0 0 -179331646.10776043 286211596.84002686 0 286211596.84002686 -3235229.7798995972 0 0 0 0 -118887159.85521221 200831261.14916992 0 200831261.14916992 -62667547.14557457 0 0 0 0 -51845094.977088928 127615936.86071014 0 127615936.86071014 -74280743.819503784 0 0 0 0 -59052934.783444703 148566434.61872435 0 148566434.61872435 -103538077.08143616 0 0 0 0 -56701715.158558846 193547015.69252014 0 193547015.69252014 -211496436.92002487 0 0 0 0 -60207867.385873795 113722392.61711121 0 113722392.61711121 -38949878.987304688 0 0 0 0 -96243964.557691574 146164566.66532135 0 146164566.66532135 54916093.282241821 0 0 0 0 -44979287.05229187 96969917.47883606 0 96969917.47883606 -22629556.73865509 0 0 0 0 -101266362.69763708 142679566.51391602 0 142679566.51391602 57585192.867958069 0 0 0 0 -195558261.11493942 137243693.80896425 0 137243693.80896425 99616285.906349182 0 0 0 0 -210455291.83965921 106325423.87759399 0 106325423.87759399 126997237.7658844 0 0 0 0 -278885580.87921715 68051795.85900116 0 68051795.85900116 106146080.25137329 0 0 0 0 -292075435.90980697 162109821.79189873 0 162109821.79189873 174295153.5411377 0 0 0 0 -289418931.64314246 115472292.63411903 0 115472292.63411903 497434972.19744873 0 0 0 0 -294418688.12348557 95144748.775978088 0 95144748.775978088 242128707.90362549 0 0 0 0 -188296906.12259769 25803679.595077515 0 25803679.595077515 90300267.825866699 0 0 0 0 -288062905.18531752 125105867.56915283 0 125105867.56915283 -7166401.6543121338 0 0 0 0 -324289659.74118185 14216398.913467407 0 14216398.913467407 71626317.719421387 0 0 0 0 -345646510.66221064 -56924629.679092884 0 -56924629.679092884 44790211.847335815 0 0 0 0 -335680701.30095351 46848678.009860516 0 46848678.009860516 16004998.716934204 0 0 0 0 -228831174.75756001 -38927235.797391891 0 -38927235.797391891 10139359.812026978 0 0 0 0 -309132305.0067091 70284468.831077576 0 70284468.831077576 111385324.19481659 0 0 0 0 -13756524.487552881 -240875376.80122566 0 -240875376.80122566 576890743.96247864 0 0 0 0 -151819981.24858475 261893429.32134628 0 261893429.32134628 490668565.01944828 0 0 0 0 -10652555.380244255 -153258.78519439697 0 -153258.78519439697 122051518.90855408 0 0 0 0 -173848586.71386677 145524157.17111874 0 145524157.17111874 2899976.3821105957 0 0 0 0 -184284840.20780849 109367207.91945648 0 109367207.91945648 -16786664.320907593 0 0 0 0 -163217061.17313004 1294882.2619781494 0 1294882.2619781494 -26163486.170829773 0 0 0 0 -225039209.83167362 289290241.66798782 0 289290241.66798782 -179112057.48838043 0 0 0 0 -206957681.96866512 315932839.09175873 0 315932839.09175873 -111838883.88771152 0 0 0 0 -3886078.4989891201 879891.49274945259 0 879891.49274945259 4562758.2222333848 0 0 0 0 -129831762.83031416 122105495.63951874 0 122105495.63951874 -168974683.43965149 0 0 0 0 -4707027.8024273589 462519.21730260551 0 462519.21730260551 4112147.2288166285 0 0 0 0 -308328157.52844667 214342705.61424637 0 214342705.61424637 -306369.81871032715 0 0 0 0 -135092114.23407459 186416435.4128952 0 186416435.4128952 -225124792.48868561 0 0 0 0 -302271030.19140816 265906784.05776596 0 265906784.05776596 -176742204.0788846 0 0 0 0 -281272778.01921046 -60517275.617956161 0 -60517275.617956161 -21128575.606506348 0 0 0 0 -460096734.89666176 43143831.949478149 0 43143831.949478149 -114225803.1392169 0 0 0 0 -744327957.70103598 -25616724.489685059 0 -25616724.489685059 -81785297.615261078 0 0 0 0 -650048025.59196854 -59536357.006401062 0 -59536357.006401062 -118287643.64413214 0 0 0 0 -546958499.65961552 -308424583.98338318 0 -308424583.98338318 -37920813.73891449 0 0 0 0 -404471.229567267 530191.30000512302 0 530191.30000512302 185926.12263128161 0 0 0 0 -487168587.86236858 11957666.627090454 0 11957666.627090454 10011918.880447388 0 0 0 0 -286505751.73694324 103376328.73397827 0 103376328.73397827 -30265538.027496338 0 0 0 0 -231361283.66729403 195493454.60401917 0 195493454.60401917 -164887150.16995239 0 0 0 0 -390403047.18708301 198709822.91931534 0 198709822.91931534 -82466294.411071777 0 0 0 0 -655188363.32217789 161340210.788414 0 161340210.788414 -80099377.758047581 0 0 0 0 -695644578.12690639 336895723.79925537 0 336895723.79925537 -431685.39848269662 0 0 0 0 -135893383.68158495 186529098.82441044 0 186529098.82441044 -185669714.26379395 0 0 0 0 -261054990.77035356 317710135.70579529 0 317710135.70579529 -138653262.46707153 0 0 0 0 -1062648733.6893837 -37339679.216712952 0 -37339679.216712952 61550294.07460022 0 0 0 0 4859615.9834643537 -1250596.0212301351 0 -1250596.0212301351 -2957815.1240918636 0 0 0 0 5546480.3972747326 7479092.182926178 0 7479092.182926178 649.39810180664062 0 0 0 0 1151921.8985481262 4829722.8956565857 0 4829722.8956565857 -847847.08347320557 0 0 0 0 117851.49245468713 5460780.4236110076 0 5460780.4236110076 811537.67976211756 0 0 0 0 11665945.990933657 7136124.2680397034 0 7136124.2680397034 -12759446.40102005 0 0 0 0 19561743.03818655 -13769883.050159454 0 -13769883.050159454 6345363.7432632446 0 0 0 0 26094032.629829168 3354343.1075592041 0 3354343.1075592041 -35936652.014663696 0 0 0 0 -2075026.3312091827 6767048.6817722321 0 6767048.6817722321 -10519.618431091309 0 0 0 0 -9409850.6969089508 -36361414.45615387 0 -36361414.45615387 36516069.896278381 0 0 0 0 -860051.75492069218 4575173.7706951723 0 4575173.7706951723 1337406.445607923 0 0 0 0 -2049814.0662107468 4676086.0590133667 0 4676086.0590133667 -3376448.3013687134 0 0 0 0 -2077329.7800865173 2049550.4884719849 0 2049550.4884719849 30902.005516052246 0 0 0 0 15078033.838402748 46515728.994499207 0 46515728.994499207 -39088559.051422119 0 0 0 0 35140252.767625809 4830483.2909736633 0 4830483.2909736633 -86054094.848777771 0 0 0 0 -161737.25608082861 539694.77913118899 0 539694.77913118899 32588.780578257516 0 0 0 0 -30327932.967002869 18605163.18624115 0 18605163.18624115 -51507530.30872345 0 0 0 0 -79162755.038728714 29474853.56124115 0 29474853.56124115 5971674.2494850159 0 0 0 0 -25118875.540634632 33900899.316345215 0 33900899.316345215 -21404259.869382858 0 0 0 0 -27290513.710467339 -6601835.5271110535 0 -6601835.5271110535 5043271.6555337906 0 0 0 0 -12343842.354569422 834940.10437449813 0 834940.10437449813 5825456.0595722795 0 0 0 0 -22128790.170982346 7600522.2865428925 0 7600522.2865428925 -932083.35814666748 0 0 0 0 -24292876.290096998 10490593.277359009 0 10490593.277359009 -3717368.9699211121 0 0 0 0 4634661.1772208214 8734731.1169433594 0 8734731.1169433594 -2522868.6532592773 0 0 0 0 -9615359.0063802283 233938.11616887152 0 233938.11616887152 4957263.3205346763 0 0 0 0 -3786337.9946217537 12123099.138103485 0 12123099.138103485 -3472950.6979961395 0 0 0 0 -7106.1525552889798 3054278.8119210228 0 3054278.8119210228 -4779355.2234714627 0 0 0 0 -103412028.17736721 16689127.009590149 0 16689127.009590149 33737287.382019043 0 0 0 0 -72948738.070976198 56447161.602771759 0 56447161.602771759 30350573.996055603 0 0 0 0 -193124.83422271092 1015873.6653647944 0 1015873.6653647944 -3876399.1861481667 0 0 0 0 30723450.836513519 -13529751.911697388 0 -13529751.911697388 -29788345.022424221 0 0 0 0 141254000.97591591 67953595.067581177 0 67953595.067581177 -16523260.056884766 0 0 0 0 52830148.706912994 32425411.623016357 0 32425411.623016357 -25859273.252731323 0 0 0 0 42907118.364736557 41267915.350171089 0 41267915.350171089 -43323.185180664062 0 0 0 0 28536222.426052094 35323164.66701889 0 35323164.66701889 -2210144.8435134888 0 0 0 0 43918644.240012646 39200834.606289864 0 39200834.606289864 -8190937.9124145508 0 0 0 0 74404329.08549881 54746450.872299194 0 54746450.872299194 -6453162.7474632263 0 0 0 0 50578968.825407028 46957452.984676361 0 46957452.984676361 13982.965530395508 0 0 0 0 18465847.550065041 24346804.223749161 0 24346804.223749161 9139198.1258621216 0 0 0 0 60936253.852703094 56206767.105278015 0 56206767.105278015 6938999.8746948242 0 0 0 0 37601618.914989471 63268696.794303894 0 63268696.794303894 63928644.994125366 0 0 0 0 23940984.499141693 26093078.439987183 0 26093078.439987183 57705.208539962769 0 0 0 0 13332171.244472504 8662304.7965679169 0 8662304.7965679169 -785002.53464508057 0 0 0 0 -7973172.230802536 13023848.33039856 0 13023848.33039856 771143.83605957031 0 0 0 0 -588017.97272354737 175288.41458518431 0 175288.41458518431 -62023.360922574997 0 0 0 0 -15265987.411270142 47386285.515838623 0 47386285.515838623 -26921.218139648438 0 0 0 0 90662120.561982155 12879729.941082001 0 12879729.941082001 -1125629.0216674805 0 0 0 0 -6332436.2295002639 1261536.0178635418 0 1261536.0178635418 4183659.4812988639 0 0 0 0 -2126421.2366752625 89732784.008850098 0 89732784.008850098 12341017.361209869 0 0 0 0 -821358.71648020111 2531792.3471973017 0 2531792.3471973017 917028.19735971093 0 0 0 0 -49804488.36280632 -9023249.8902664185 0 -9023249.8902664185 -35371401.937057495 0 0 0 0 -42835568.281171799 31931738.247299194 0 31931738.247299194 29334020.034378052 0 0 0 0 -4990934.3010101318 10464419.187850952 0 10464419.187850952 9633662.6618881226 0 0 0 0 -7035113.3216584288 1618718.231523715 0 1618718.231523715 4003903.6759728342 0 0 0 0 3544456.8661203384 4575511.0733108521 0 4575511.0733108521 -3459239.6124343872 0 0 0 0 -22873935.020670176 50313427.498085022 0 50313427.498085022 -23949875.309463501 0 0 0 0 -8527287.6728635579 8550441.1924383417 0 8550441.1924383417 83330.408180391416 0 0 0 0 -19731928.977583408 11815200.885271072 0 11815200.885271072 -3435723.4823226929 0 0 0 0 -20230930.354498625 12827547.80236721 0 12827547.80236721 -5488794.0265426636 0 0 0 0 -24799585.85167408 46646890.066677094 0 46646890.066677094 26731311.478469849 0 0 0 0 -1853374.4531860352 1163236.0283203125 0 1163236.0283203125 -5518248.9296112061 0 0 0 0 3232169.8494017757 4093784.360542126 0 4093784.360542126 -1930195.6064987332 0 0 0 0 13007850.721374512 24575530.900764465 0 24575530.900764465 -82427051.397689819 0 0 0 0 5094303.6570105478 6052216.9765677303 0 6052216.9765677303 -3178523.3706671186 0 0 0 0 42184397.729166985 86153022.941139221 0 86153022.941139221 41214804.598091125 0 0 0 0 7730632.6613731384 -33782649.086120605 0 -33782649.086120605 120495309.55136108 0 0 0 0 -15978686.49805069 1067976.6342315674 0 1067976.6342315674 56174768.471313477 0 0 0 0 10506436.61095047 98952123.516921997 0 98952123.516921997 92150469.519134521 0 0 0 0 -26544778.279888153 32208339.334129333 0 32208339.334129333 95380966.527145386 0 0 0 0 326768832.14015579 111147969.81591034 0 111147969.81591034 -30159540.439971924 0 0 0 0 1847625.2219825871 2146085.3454653323 0 2146085.3454653323 -1056149.5138682276 0 0 0 0 163204985.83584023 -64964684.007764816 0 -64964684.007764816 -116290698.62397766 0 0 0 0 -1361359.9510968104 101975.45965190604 0 101975.45965190604 2362156.7617475539 0 0 0 0 151842130.82953262 169396747.44856262 0 169396747.44856262 150607549.92487335 0 0 0 0 152579011.91332817 -376483597.71614456 0 -376483597.71614456 -85418679.704833984 0 0 0 0 341037682.44961548 65742307.139610291 0 65742307.139610291 -34080913.503511906 0 0 0 0 170173680.88628578 22931674.804821014 0 22931674.804821014 -29218310.898880005 0 0 0 0 7562167.3378534317 4738738.7907278538 0 4738738.7907278538 -30384681.089309692 0 0 0 0 7691875.9473262839 13903057.691452399 0 13903057.691452399 4775460.1365883648 0 0 0 0 34624631.966255188 35957829.54706955 0 35957829.54706955 -101946808.10122681 0 0 0 0 15488942.830507278 -22048576.291439056 0 -22048576.291439056 -20104452.542617798 0 0 0 0 1899370.591252327 8979385.1594295502 0 8979385.1594295502 -63799265.26209259 0 0 0 0 -18626612.536073685 -4716662.6572303772 0 -4716662.6572303772 6359628.9743499756 0 0 0 0 4675345.1852452988 4492277.0905422308 0 4492277.0905422308 -1750877.9326811284 0 0 0 0 -34623362.012068748 19604155.221786499 0 19604155.221786499 -3078044.3325271606 0 0 0 0 -21008013.997491837 1773340.2214660645 0 1773340.2214660645 -9450806.4514312744 0 0 0 0 -6727429.0765151978 10782817.262752533 0 10782817.262752533 -8812525.5474700928 0 0 0 0 -110214649.53761292 150797112.36115646 0 150797112.36115646 -106464282.71372223 0 0 0 0 -109676412.82961655 156575245.39424133 0 156575245.39424133 -52613062.515686035 0 0 0 0 -101999163.31329918 262980043.34116173 0 262980043.34116173 -338903928.31130219 0 0 0 0 3725270.0302194059 14722531.485508457 0 14722531.485508457 5898961.2921667323 0 0 0 0 172849976.36967087 145122237.09321976 0 145122237.09321976 -595307229.5164566 0 0 0 0 -142597268.86416531 198413726.47150803 0 198413726.47150803 -151933857.72999573 0 0 0 0 -102529769.90379715 362896133.38502502 0 362896133.38502502 43053581.757644653 0 0 0 0 -125179018.01731682 308008862.17546844 0 308008862.17546844 501531176.58783722 0 0 0 0 433929221.07070923 640266237.5138855 0 640266237.5138855 -376089779.64445496 0 0 0 0 -76249.549983978271 206501558.25214767 0 206501558.25214767 -360661744.10224152 0 0 0 0 -45290525.845563889 -47185970.298559189 0 -47185970.298559189 -508149986.12683105 0 0 0 0 72547323.359508514 390928679.96144867 0 390928679.96144867 -749091651.06871414 0 0 0 0 77149054.547691584 59075048.340621948 0 59075048.340621948 22152539.872619629 0 0 0 0 48500651.45902276 59099455.331741333 0 59099455.331741333 137698068.90640259 0 0 0 0 91622994.34536171 145958645.07232666 0 145958645.07232666 160129758.12247849 0 0 0 0 -16988853.316446722 45049204.787704468 0 45049204.787704468 124433066.02116394 0 0 0 0 11609859.173396528 40808414.373962402 0 40808414.373962402 -20662828.462875366 0 0 0 0 39175693.927692175 76822792.642242432 0 76822792.642242432 24316535.35829258 0 0 0 0 57861722.908235312 32408454.880058289 0 32408454.880058289 -24981689.809356689 0 0 0 0 37437976.624468803 22107170.469497681 0 22107170.469497681 10378095.871459961 0 0 0 0 32687834.267899036 49192540.031921387 0 49192540.031921387 27215475.4296875 0 0 0 0 7367984.603618145 31709621.277099609 0 31709621.277099609 -24727034.509475708 0 0 0 0 8921765.6303310394 50186647.23878479 0 50186647.23878479 -15946738.807983398 0 0 0 0 -48531662.006973982 90318179.568958282 0 90318179.568958282 14790308.863464355 0 0 0 0 -20839122.456180096 49935760.73915863 0 49935760.73915863 72654858.529800415 0 0 0 0 87540121.316802025 47233612.660598755 0 47233612.660598755 24976114.383468628 0 0 0 0 708831.06540489197 71847303.20022583 0 71847303.20022583 34574062.066375732 0 0 0 0 19507084.191117287 36684247.512077332 0 36684247.512077332 99830258.668792725 0 0 0 0 192247541.79943943 137777705.21235657 0 137777705.21235657 31817281.700653076 0 0 0 0 -10400093.814483643 49943833.770019531 0 49943833.770019531 18649417.295196533 0 0 0 0 124996848.32061577 54664086.347640991 0 54664086.347640991 82791466.849891663 0 0 0 0 -115168144.98835301 110263407.99549484 0 110263407.99549484 94643140.276794434 0 0 0 0 -27183178.706809044 46877790.326461792 0 46877790.326461792 144161489.09068298 0 0 0 0 -36542524.414404869 105008536.82269287 0 105008536.82269287 58640481.849067688 0 0 0 0 -16236229.829559386 11785413.282432556 0 11785413.282432556 3248401.0177459717 0 0 0 0 -30062124.615820825 -24166415.930053711 0 -24166415.930053711 13529565.996582031 0 0 0 0 83576055.955871582 134250522.48020935 0 134250522.48020935 181574817.23956299 0 0 0 0 -1159130.4311443048 104029.10850327089 0 104029.10850327089 488524.3643783778 0 0 0 0 -943220.88141276478 304681.66066794097 0 304681.66066794097 651739.59574326873 0 0 0 0 -23711322.593690336 6612194.4824676514 0 6612194.4824676514 21471016.392745972 0 0 0 0 -20854414.227431744 22328439.216744423 0 22328439.216744423 13220844.911865234 0 0 0 0 -30374429.968825817 10789889.526802063 0 10789889.526802063 6024271.0576477051 0 0 0 0 -27878719.368963957 42416699.088630676 0 42416699.088630676 -3861652.8381576538 0 0 0 0 -24880326.900800228 36240407.960914612 0 36240407.960914612 -10979188.961105347 0 0 0 0 -25328108.981543899 42376653.859573364 0 42376653.859573364 44272549.032302856 0 0 0 0 -25249153.374356151 35094706.645256042 0 35094706.645256042 -2299718.3243713379 0 0 0 0 8829587.5587830544 69694278.503448486 0 69694278.503448486 -5086928.8170928955 0 0 0 0 -27997089.932668447 43053695.450965881 0 43053695.450965881 2559089.5386886597 0 0 0 0 -2864132.8420099616 44304591.789699554 0 44304591.789699554 -41641480.258117676 0 0 0 0 10082490.489189522 15965506.586569428 0 15965506.586569428 1901895.6706531867 0 0 0 0 5149551.8625999093 60732848.926986694 0 60732848.926986694 -53656698.159236908 0 0 0 0 -56177936.209098816 131881401.71781921 0 131881401.71781921 -179685864.96097565 0 0 0 0 8461922.1662712619 6624914.873130165 0 6624914.873130165 -4186546.8939014077 0 0 0 0 -2092642.7503188476 16745237.755730182 0 16745237.755730182 7859837.4672376364 0 0 0 0 -3803704.581925869 12945036.576620102 0 12945036.576620102 -24510327.152618408 0 0 0 0 1671988.0905157616 1250467.5111503489 0 1250467.5111503489 -1734495.6016104221 0 0 0 0 -96992170.820871353 120663641.95207977 0 120663641.95207977 -50510412.182426453 0 0 0 0 -53458480.253171921 124859833.16230774 0 124859833.16230774 -107002405.63850403 0 0 0 0 -41185123.020805359 68408549.960327148 0 68408549.960327148 -84355501.787033081 0 0 0 0 12882946.651937008 28492616.030658722 0 28492616.030658722 -36939512.024940491 0 0 0 0 -14382191.064729691 65456499.115867615 0 65456499.115867615 -35774416.302963257 0 0 0 0 -16230411.493888855 64818335.811004639 0 64818335.811004639 -35857225.607627869 0 0 0 0 -42184220.357120514 99422242.479125977 0 99422242.479125977 -58582320.503501892 0 0 0 0 7662026.2345166411 13150649.914253525 0 13150649.914253525 2825040.2062891647 0 0 0 0 -34994269.560283661 66610493.938621521 0 66610493.938621521 71553109.248260498 0 0 0 0 -8203189.0276880264 6333211.0235137939 0 6333211.0235137939 30239118.143890381 0 0 0 0 34101203.050247192 8552780.9206390381 0 8552780.9206390381 666692.24914550781 0 0 0 0 30977695.24471879 48252753.202186584 0 48252753.202186584 -107294801.45807648 0 0 0 0 199915.87990228832 22558849.04511404 0 22558849.04511404 -67994928.571792603 0 0 0 0 46307943.686388969 60867380.339614868 0 60867380.339614868 -50968732.671432495 0 0 0 0 22239109.89134264 47985777.518318176 0 47985777.518318176 -31694945.807441711 0 0 0 0 17411873.503369331 20274451.592178345 0 20274451.592178345 -74639339.252388 0 0 0 0 32258655.074816704 19472484.986656189 0 19472484.986656189 -48833480.508583069 0 0 0 0 20277480.886752129 36930326.984855652 0 36930326.984855652 -70002201.414733887 0 0 0 0 401414.20250368118 27013807.232421875 0 27013807.232421875 -72153957.72337532 0 0 0 0 9693956.4823656082 14171751.756988525 0 14171751.756988525 -87396788.40209198 0 0 0 0 1440203.2810202669 8821259.43416816 0 8821259.43416816 3344892.5659331717 0 0 0 0 -8106884.5396165848 19842499.313598633 0 19842499.313598633 35343434.587688446 0 0 0 0 16876405.991074562 82039872.457622528 0 82039872.457622528 133283913.40351105 0 0 0 0 17577772.25265646 94429236.303314209 0 94429236.303314209 151856132.1198597 0 0 0 0 30842006.188830614 144239842.2891016 0 144239842.2891016 42919012.00163269 0 0 0 0 680250.27145664208 4237039.4978421852 0 4237039.4978421852 605068.26682248153 0 0 0 0 16587299.767054558 62273021.121582031 0 62273021.121582031 -38898078.523704529 0 0 0 0 12045656.167900085 89551560.964771271 0 89551560.964771271 -86514227.426132202 0 0 0 0 67209130.558915138 168999300.28040314 0 168999300.28040314 -55674066.405754089 0 0 0 0 694002.4982072711 142014142.77951694 0 142014142.77951694 33427865.919204712 0 0 0 0 3148674.6091241241 113635271.50027847 0 113635271.50027847 -49910552.291412354 0 0 0 0 72659344.858579159 269402360.70962906 0 269402360.70962906 15923561.012054443 0 0 0 0 84393568.465727806 234143945.7453537 0 234143945.7453537 92170801.807777405 0 0 0 0 120414060.51619244 294090531.10554504 0 294090531.10554504 28402848.911556244 0 0 0 0 164755831.91793329 291746165.9301877 0 291746165.9301877 18877800.862693787 0 0 0 0 170581465.04775238 245649865.44112396 0 245649865.44112396 -24947806.768445969 0 0 0 0 88783281.081665993 113433451.34076118 0 113433451.34076118 -101283510.28938293 0 0 0 0 -679502005.13162231 200218554.31935883 0 200218554.31935883 308908361.85118103 0 0 0 0 -428526.8590426594 10738146.011927359 0 10738146.011927359 15816734.474383041 0 0 0 0 -107338786.26579344 246960368.86450231 0 246960368.86450231 -188515908.30380249 0 0 0 0 -109357580.40666485 138186935.32260132 0 138186935.32260132 -48792662.548873901 0 0 0 0 -86015062.1521492 142990212.51443481 0 142990212.51443481 -99610089.721229553 0 0 0 0 -143377837.87971115 114328379.47738647 0 114328379.47738647 -113930766.70954895 0 0 0 0 -98847750.101797104 122417995.50515556 0 122417995.50515556 -60914304.649749756 0 0 0 0 -151079801.26773262 122293087.47396088 0 122293087.47396088 -54946178.449890137 0 0 0 0 -106858084.33872414 114930405.78575897 0 114930405.78575897 -32970072.299720764 0 0 0 0 -95848297.72892952 137252973.89568329 0 137252973.89568329 -26452626.888748169 0 0 0 0 -52506419.386707306 89152051.971214294 0 89152051.971214294 -39909191.882610321 0 0 0 0 -63204984.981721878 101413737.57315826 0 101413737.57315826 -36048630.35502243 0 0 0 0 -63747280.580060959 97998647.700922012 0 97998647.700922012 -50845406.057388306 0 0 0 0 -90627375.274538994 123626604.02958298 0 123626604.02958298 -53238816.042297363 0 0 0 0 -80751120.022785187 101088041.86097717 0 101088041.86097717 -47663587.169311523 0 0 0 0 -134506590.63390541 122671758.2582016 0 122671758.2582016 -43818234.732162476 0 0 0 0 -130050675.28059387 140215045.97399902 0 140215045.97399902 -52113125.720046997 0 0 0 0 -133101414.61333084 144819139.61170197 0 144819139.61170197 -57112461.746364594 0 0 0 0 -153050514.34272766 131998004.38163948 0 131998004.38163948 -21876381.791351318 0 0 0 0 4809948.4518818408 8615162.0340122059 0 8615162.0340122059 8977365.0980980545 0 0 0 0 -121068664.59731841 93312832.053281546 0 93312832.053281546 -16972930.447044373 0 0 0 0 -120464986.82038879 149927493.64705658 0 149927493.64705658 -114613847.20355606 0 0 0 0 -124402980.37182355 117557110.77086687 0 117557110.77086687 -71015241.812301636 0 0 0 0 192328694.88790417 -517699556.16396332 0 -517699556.16396332 -239680766.60469055 0 0 0 0 -85964649.073295593 -26477029.12437439 0 -26477029.12437439 471912906.95951366 0 0 0 0 1206548.0881493911 2742847.534466587 0 2742847.534466587 3305250.8256619424 0 0 0 0 -58414096.793998718 25034991.883903503 0 25034991.883903503 98699134.560362816 0 0 0 0 271893622.11085892 128314711.42230988 0 128314711.42230988 -727862514.22669983 0 0 0 0 229326512.30258179 -21074595.647846222 0 -21074595.647846222 -178911130.17243958 0 0 0 0 802325.48794576665 3927311.5938745104 0 3927311.5938745104 3469849.9736908972 0 0 0 0 -64180198.296421051 28287117.806858063 0 28287117.806858063 -80087877.64944458 0 0 0 0 81642557.429542542 66552555.498298645 0 66552555.498298645 -168475005.75276375 0 0 0 0 56304916.368078232 -48491017.599201202 0 -48491017.599201202 -103737538.87487793 0 0 0 0 -9308885.559715271 -183931607.25912476 0 -183931607.25912476 -58934059.687492371 0 0 0 0 -23605615.791991711 2390633.8260829449 0 2390633.8260829449 1072303864.7662048 0 0 0 0 -218941249.63908577 5292640.7290077209 0 5292640.7290077209 367117561.01456833 0 0 0 0 646855.70487909578 4603902.6043098345 0 4603902.6043098345 4441534.0434223711 0 0 0 0 750721021.38822937 1779920251.429882 0 1779920251.429882 -410025547.53973389 0 0 0 0 4557237.4642718621 12675612.176859312 0 12675612.176859312 14673639.56587939 0 0 0 0 -167618345.40620232 183608342.4724884 0 183608342.4724884 -107827536.44395351 0 0 0 0 148903873.76015854 -739136205.32289886 0 -739136205.32289886 -119165499.68423843 0 0 0 0 652677583.39782715 718124256.61073303 0 718124256.61073303 652990800.07812119 0 0 0 0 -105253.34172563069 1688784.4397196295 0 1688784.4397196295 10739822.811300248 0 0 0 0 1138729899.8686371 411448388.33495903 0 411448388.33495903 126829948.50498962 0 0 0 0 -902615475.08115196 -497392107.14141083 0 -497392107.14141083 878061659.41106033 0 0 0 0 130493506.00073051 -470692065.45291424 0 -470692065.45291424 380813885.37750244 0 0 0 0 -459978762.45777512 -63578135.656745911 0 -63578135.656745911 114271819.60157013 0 0 0 0 521930125.56034899 522646747.43838787 0 522646747.43838787 167238723.49560547 0 0 0 0 594129588.67918777 101982203.45686722 0 101982203.45686722 -33493208.155204773 0 0 0 0 160942561.83340836 44013768.485630035 0 44013768.485630035 37460778.174171448 0 0 0 0 55758722.568031311 84278273.922462463 0 84278273.922462463 147748112.48013306 0 0 0 0 -470601400.60944843 64798399.380573273 0 64798399.380573273 286931493.3112793 0 0 0 0 1050450.3038911317 9596111.6098046713 0 9596111.6098046713 28530031.126232356 0 0 0 0 77619408.996109009 43734193.260736465 0 43734193.260736465 53555529.19380188 0 0 0 0 59126782.413543701 18624171.112174988 0 18624171.112174988 36582702.518829346 0 0 0 0 -3818164.1488966942 -150087.75702715293 0 -150087.75702715293 4726747.4179659039 0 0 0 0 -364454467.14117432 157448735.01475525 0 157448735.01475525 -138578814.7307868 0 0 0 0 231281981.08879089 210287038.95448303 0 210287038.95448303 1532309.4150848389 0 0 0 0 350824010.38360977 424734863.34675217 0 424734863.34675217 128940432.96317291 0 0 0 0 240490186.91550446 409621731.7657814 0 409621731.7657814 427561010.19288635 0 0 0 0 -29215457.578765869 370616471.57414627 0 370616471.57414627 646062137.55322266 0 0 0 0 161595601.66159439 256438579.19010925 0 256438579.19010925 318965905.83773804 0 0 0 0 344143751.63131714 439478099.32114792 0 439478099.32114792 144366177.51789093 0 0 0 0 308622.08526394516 2536721.4541064035 0 2536721.4541064035 2286808.3081888258 0 0 0 0 583016072.4290123 629488599.97097778 0 629488599.97097778 271760219.27003479 0 0 0 0 -709863543.97775269 577222873.84945536 0 577222873.84945536 661351675.00778198 0 0 0 0 -522886928.33125305 617286081.16122246 0 617286081.16122246 666151036.92469788 0 0 0 0 -1457168.4828109741 -40259231.002065659 0 -40259231.002065659 -26338524.968650818 0 0 0 0 -236244517.07333374 458140492.41802979 0 458140492.41802979 -289143002.99873734 0 0 0 0 6957624.1048774719 84153199.148554802 0 84153199.148554802 141624593.67675018 0 0 0 0 102390057.32407379 169705373.17362976 0 169705373.17362976 79927402.125671387 0 0 0 0 -492709011.80031204 265624703.61653519 0 265624703.61653519 -112536760.21067429 0 0 0 0 -28419239.716579437 57048945.995780945 0 57048945.995780945 -16949970.403701782 0 0 0 0 -212678032.27893066 189692561.98867798 0 189692561.98867798 -61086515.937904358 0 0 0 0 74550193.169891357 144107981.54045105 0 144107981.54045105 -188551416.57871246 0 0 0 0 54096671.009735107 140448453.21066856 0 140448453.21066856 -207119217.82305908 0 0 0 0 33445334.396577835 -3070304.7320137024 0 -3070304.7320137024 -172323490.56326675 0 0 0 0 3962901.2050148509 4551906.1727304943 0 4551906.1727304943 -6824493.0623696744 0 0 0 0 -652103775.48616409 492005004.56983948 0 492005004.56983948 -77218665.850566864 0 0 0 0 18114349.477611542 40597300.650754929 0 40597300.650754929 -27126113.779251099 0 0 0 0 9426040.2535091247 13599595.198737884 0 13599595.198737884 17022.82161128521 0 0 0 0 30167625.246433258 -16230340.320632935 0 -16230340.320632935 3492213.2800827026 0 0 0 0 -43119196.715400696 36405159.245368958 0 36405159.245368958 33595137.946533203 0 0 0 0 -5658003.796628952 114564523.29307365 0 114564523.29307365 10956237.311889648 0 0 0 0 -170285202.46518707 98237558.177806854 0 98237558.177806854 63149842.34463501 0 0 0 0 58656219.216178238 104399694.07044175 0 104399694.07044175 12080302.113723755 0 0 0 0 193819841.76764774 -44894850.683115005 0 -44894850.683115005 -71774855.257049561 0 0 0 0 2178070.7445385344 2101062.2789455988 0 2101062.2789455988 -2112198.388801977 0 0 0 0 -13517811.218688965 -49300124.521659851 0 -49300124.521659851 34680169.574584961 0 0 0 0 -140745666.46311951 107929427.67471313 0 107929427.67471313 61690633.796457291 0 0 0 0 -142927729.41789389 -73541016.12712431 0 -73541016.12712431 57500023.115615845 0 0 0 0 1508803.0304946899 6165249.9677505493 0 6165249.9677505493 3712944.2335395813 0 0 0 0 8670541.6934275627 105147685.15930343 0 105147685.15930343 -42798796.101066589 0 0 0 0 -368244919.58773041 503958209.88561249 0 503958209.88561249 -111080799.53175354 0 0 0 0 4548774.4662457071 21141798.799957979 0 21141798.799957979 33226546.261863947 0 0 0 0 -438181267.35147619 297277996.96436119 0 297277996.96436119 16501322.853485107 0 0 0 0 -138630910.6125946 287214580.22052002 0 287214580.22052002 -52798158.713539124 0 0 0 0 35488949.050668716 241662538.71230316 0 241662538.71230316 -411998047.15376282 0 0 0 0 385215425.18091202 276414481.7272644 0 276414481.7272644 -111456615.81702137 0 0 0 0 -23416230.009730339 310354881.05747223 0 310354881.05747223 -104195296.25950623 0 0 0 0 -156629739.11344719 390540082.45677948 0 390540082.45677948 416798913.86425781 0 0 0 0 -66513855.245700836 253741180.32362366 0 253741180.32362366 -302241024.81577301 0 0 0 0 19503704.090549108 34682356.121497303 0 34682356.121497303 30716105.643325329 0 0 0 0 -45539389.575689316 471226268.05235291 0 471226268.05235291 -406984048.19010878 0 0 0 0 107205006.46609688 163525676.77639771 0 163525676.77639771 -278742303.93104553 0 0 0 0 104619724.61602783 133254604.01397705 0 133254604.01397705 -495262488.96748352 0 0 0 0 247907050.22178268 273433141.26163483 0 273433141.26163483 -312837740.83957291 0 0 0 0 257586052.08696556 695437932.96273804 0 695437932.96273804 -499808786.02247429 0 0 0 0 770818916.58228779 -71717002.634368896 0 -71717002.634368896 -733159418.69710159 0 0 0 0 925105839.55979347 -461560305.24235535 0 -461560305.24235535 -20374399.386238098 0 0 0 0 -176917254.26330853 311010755.51115417 0 311010755.51115417 -333650217.67849731 0 0 0 0 238108763.93993759 86887348.096725464 0 86887348.096725464 -216625714.72993469 0 0 0 0 -194507647.87109327 -235373267.2297132 0 -235373267.2297132 -89473019.172729492 0 0 0 0 227910758.49950838 -151375964.47414398 0 -151375964.47414398 -115511467.57685852 0 0 0 0 23028171.513748169 -28200384.150096893 0 -28200384.150096893 15933501.04524231 0 0 0 0 324752215.08910656 -174642101.93869781 0 -174642101.93869781 86826523.067230225 0 0 0 0 165461924.50306129 153387905.73149872 0 153387905.73149872 218793797.89186096 0 0 0 0 95771673.496973038 150307370.04623032 0 150307370.04623032 -77069904.255203247 0 0 0 0 390125812.56513023 185474530.39881897 0 185474530.39881897 -74849980.614369392 0 0 0 0 972873645.45769119 302171172.7423439 0 302171172.7423439 222580577.10917664 0 0 0 0 180547582.23698711 -122121968.90737534 0 -122121968.90737534 709581843.39059448 0 0 0 0 103876168.98242474 56301295.8639431 0 56301295.8639431 435224627.74263 0 0 0 0 243008101.68362999 542843190.90366364 0 542843190.90366364 408170908.10476685 0 0 0 0 355477991.74009991 243078095.36604691 0 243078095.36604691 -251544150.43132782 0 0 0 0 -4957204.2475376129 -450346794.7543335 0 -450346794.7543335 1193590077.4268265 0 0 0 0 -2298909.4093793333 4096253.1456416547 0 4096253.1456416547 7825647.6162776649 0 0 0 0 -98309088.801548958 -36955787.711324692 0 -36955787.711324692 376493746.44692993 0 0 0 0 -459860822.81183624 -71206668.513031006 0 -71206668.513031006 603479587.89552307 0 0 0 0 -228200399.9673996 281206942.98233032 0 281206942.98233032 363074382.23470306 0 0 0 0 -375197293.87534332 238675457.35483551 0 238675457.35483551 369251302.41339111 0 0 0 0 -81850906.677414417 74029869.465791702 0 74029869.465791702 404166816.96347046 0 0 0 0 -12718385.499542236 469649513.32089996 0 469649513.32089996 1161873324.3569415 0 0 0 0 -87286460.147693634 -20562857.773273468 0 -20562857.773273468 155834057.53461266 0 0 0 0 -5299006.2265739441 71542270.648166656 0 71542270.648166656 -37644206.271728516 0 0 0 0 42740402.632204056 -149508384.98892546 0 -149508384.98892546 -18171773.436424255 0 0 0 0 -47206457.485424042 57886792.874881744 0 57886792.874881744 -91505648.756439209 0 0 0 0 3130875.3003707156 1362623.0301058814 0 1362623.0301058814 2103848.8903624564 0 0 0 0 -28811802.640434265 59809123.163345337 0 59809123.163345337 -95849604.586502075 0 0 0 0 -38754259.284858704 63745613.482751846 0 63745613.482751846 -97132898.311897278 0 0 0 0 -23878136.379165649 72057283.783256531 0 72057283.783256531 -15389903.061737061 0 0 0 0 -90159548.709569931 42367610.869848251 0 42367610.869848251 99286273.991802216 0 0 0 0 -5866358.8054015413 8502066.2247977853 0 8502066.2247977853 10579597.052088253 0 0 0 0 10270765.942695946 23474290.027203135 0 23474290.027203135 15129346.104642615 0 0 0 0 -7747538.1226577759 94117431.711292267 0 94117431.711292267 -6404752.4772148132 0 0 0 0 -54937357.328800201 47871515.682817459 0 47871515.682817459 63683439.067131042 0 0 0 0 -29627158.515785217 123438307.02427673 0 123438307.02427673 -63940478.280166626 0 0 0 0 -55414637.019085884 47629609.141834259 0 47629609.141834259 81852107.230361938 0 0 0 0 8265778.9594814703 17273084.289192125 0 17273084.289192125 16428887.764276341 0 0 0 0 -72188461.849319458 45930210.585003853 0 45930210.585003853 81759929.984848022 0 0 0 0 -67069007.208892822 25186657.41652298 0 25186657.41652298 108736337.90522385 0 0 0 0 -44787704.121643066 71158432.574085236 0 71158432.574085236 78875569.999334335 0 0 0 0 -66950802.715486526 59925583.789351463 0 59925583.789351463 112740831.146492 0 0 0 0 -128939100.05111313 88916364.883853912 0 88916364.883853912 114268207.70078278 0 0 0 0 -169511091.78969574 99697032.090316772 0 99697032.090316772 144741434.21063614 0 0 0 0 -104460616.34655952 50122146.115947723 0 50122146.115947723 169834696.74736786 0 0 0 0 -15229410.921339989 -106124054.60301924 0 -106124054.60301924 229781388.83963776 0 0 0 0 -169507598.45723343 -5468309.8693313599 0 -5468309.8693313599 212896151.75085592 0 0 0 0 7181716.14773551 12428731.107941443 0 12428731.107941443 13242660.216836661 0 0 0 0 -272571972.34671021 136605327.50905609 0 136605327.50905609 -29027771.063718796 0 0 0 0 -204807713.72013283 -21948218.668391228 0 -21948218.668391228 166132011.66197205 0 0 0 0 -184894283.77642059 349213964.05411911 0 349213964.05411911 -92562569.025690079 0 0 0 0 -148546538.11896896 191622301.68143272 0 191622301.68143272 166484675.51230621 0 0 0 0 394755962.06445312 475532874.38240814 0 475532874.38240814 310089994.57035065 0 0 0 0 408179830.11767149 569761774.78456354 0 569761774.78456354 155086733.73310852 0 0 0 0 -858643321.9967804 -534318419.21061707 0 -534318419.21061707 247647340.13294983 0 0 0 0 -508822571.71284485 1135448911.519413 0 1135448911.519413 1992593395.5447769 0 0 0 0 -322563454.71252823 1089987.2439002991 0 1089987.2439002991 663511630.78779221 0 0 0 0 -326602302.98228455 -177881709.1741333 0 -177881709.1741333 5638961.4838409424 0 0 0 0 35855430.615596771 129130398.86612701 0 129130398.86612701 10146488.542236328 0 0 0 0 11375850.065162711 14066170.651515113 0 14066170.651515113 6441305.9836954176 0 0 0 0 1458348815.4102859 403503179.01575089 0 403503179.01575089 -188118404.74332428 0 0 0 0 688726331.46263885 -254793603.62934875 0 -254793603.62934875 -38082543.053920746 0 0 0 0 2186736105.6795921 1295948013.3278656 0 1295948013.3278656 416964086.68945312 0 0 0 0 4648315.2163489833 1470603.9281060994 0 1470603.9281060994 792670.80726858974 0 0 0 0 30394465.656051636 210612436.38239288 0 210612436.38239288 924466277.17822266 0 0 0 0 2781014615.5004883 845098535.75524902 0 845098535.75524902 1067831076.931366 0 0 0 0 2122213623.498745 -213926485.8773613 0 -213926485.8773613 -45664786.99259758 0 0 0 0 5328098.0620975457 4835453.1169251557 0 4835453.1169251557 1984308.6373622119 0 0 0 0 -165859054.40552139 1139434029.5059204 0 1139434029.5059204 1109382417.9474564 0 0 0 0 -29835629.54580307 -40335733.761791229 0 -40335733.761791229 -116060716.63414764 0 0 0 0 1104090773.847311 518362767.81735611 0 518362767.81735611 -12182682.59740448 0 0 0 0 121027205.45687866 208423838.73466492 0 208423838.73466492 -67266208.164018631 0 0 0 0 508923317.64858055 -11128053.543174744 0 -11128053.543174744 -180238556.61287689 0 0 0 0 497958694.33168793 -14736991.298624039 0 -14736991.298624039 -182696858.46673584 0 0 0 0 172365127.30667114 51711084.646392822 0 51711084.646392822 -186998601.60201263 0 0 0 0 155424856.00867462 54837824.950191498 0 54837824.950191498 -170728462.89296722 0 0 0 0 170243801.41043663 58468682.602291107 0 58468682.602291107 -170269470.60431671 0 0 0 0 -46076280.515871048 69933769.0532341 0 69933769.0532341 -117270893.38053894 0 0 0 0 133929157.3601265 150076503.74188995 0 150076503.74188995 -253686484.71373367 0 0 0 0 -104065618.86319733 -277282112.11637497 0 -277282112.11637497 -107759304.9135437 0 0 0 0 7671283.4000058919 1509498.8244770467 0 1509498.8244770467 733953.12103038281 0 0 0 0 -65695882.757888794 165051493.56112671 0 165051493.56112671 -188036226.52215576 0 0 0 0 131467530.48959351 -118279083.58828735 0 -118279083.58828735 -139593042.23084068 0 0 0 0 -174746338.22600174 103547408.65981674 0 103547408.65981674 -29225958.301300049 0 0 0 0 151920294.58248138 44080501.15940094 0 44080501.15940094 -172083747.7048645 0 0 0 0 -84394401.428085327 13512278.569084167 0 13512278.569084167 -28528016.922012329 0 0 0 0 1160443.6282716952 -77955.927434515208 0 -77955.927434515208 -827446.22262766212 0 0 0 0 -3408629.3856887817 84972495.761627197 0 84972495.761627197 -173577407.67681885 0 0 0 0 -36862069.325302124 76959791.032993317 0 76959791.032993317 26569631.140037537 0 0 0 0 2063332.128300041 114925.63493841514 0 114925.63493841514 -1234546.004730843 0 0 0 0 112723236.91988182 52567531.509313583 0 52567531.509313583 -92698281.894363403 0 0 0 0 88247016.709095001 3827032.8030281067 0 3827032.8030281067 -155659490.28935242 0 0 0 0 28079174.522476196 59510147.193820953 0 59510147.193820953 177217771.26405334 0 0 0 0 61806395.353437424 75482221.174571991 0 75482221.174571991 11372814.041816711 0 0 0 0 -88072118.279935837 175230422.97122765 0 175230422.97122765 -93703987.049484253 0 0 0 0 167985048.66421127 48264546.210140228 0 48264546.210140228 -155263466.78940582 0 0 0 0 174498534.41887665 59576831.920288086 0 59576831.920288086 -169578119.26359177 0 0 0 0 155059614.35299301 149226169.23714828 0 149226169.23714828 344734.76187896729 0 0 0 0 170921988.79540634 103410632.12973404 0 103410632.12973404 -135801322.67611313 0 0 0 0 49069808.107028961 49688126.683187485 0 49688126.683187485 -7051756.7974777222 0 0 0 0 192968187.98715067 193030570.49864197 0 193030570.49864197 277498568.99443054 0 0 0 0 268582586.37332535 165113394.24373245 0 165113394.24373245 39482940.038532257 0 0 0 0 25394092.677522659 59945017.261032104 0 59945017.261032104 461163697.62841415 0 0 0 0 78395940.253693581 213858850.07188988 0 213858850.07188988 629232724.51706696 0 0 0 0 -1533330.2834500596 462328.39760010689 0 462328.39760010689 84943.394608213566 0 0 0 0 374929645.1493988 209151561.5742569 0 209151561.5742569 -878181263.86707115 0 0 0 0 659760743.30678082 560413363.13728046 0 560413363.13728046 -469757661.93035889 0 0 0 0 421534327.44535828 -369483144.53117371 0 -369483144.53117371 -357065489.42433167 0 0 0 0 364802893.8816452 41674016.683563232 0 41674016.683563232 399720018.48306274 0 0 0 0 33745754.723018646 16151294.570602417 0 16151294.570602417 176042225.40566254 0 0 0 0 -71747271.114234924 22010672.6847229 0 22010672.6847229 181710457.59090233 0 0 0 0 59623964.990650177 66243602.998828888 0 66243602.998828888 178218767.07130814 0 0 0 0 -4864307.7902831137 1778910.3620298356 0 1778910.3620298356 616786.68044630531 0 0 0 0 -32015740.441177368 14734196.073406219 0 14734196.073406219 374534849.37244415 0 0 0 0 -110250601.01626205 125265494.13200378 0 125265494.13200378 -447156476.6540432 0 0 0 0 247455.82643127441 24930319.711997986 0 24930319.711997986 -460304973.61430359 0 0 0 0 -7635535.0069581866 3120673.6312449425 0 3120673.6312449425 1632276.0997699024 0 0 0 0 -67094061.059776306 29259365.214817047 0 29259365.214817047 276328081.00952911 0 0 0 0 -3413558.7225284576 14314308.700679779 0 14314308.700679779 160619934.26577759 0 0 0 0 -79551250.947631836 18132103.399452209 0 18132103.399452209 160692751.09523439 0 0 0 0 -5880009.0243806839 36272604.577074051 0 36272604.577074051 17603803.622329712 0 0 0 0 -75082016.980140686 141494184.52376556 0 141494184.52376556 -10772341.6095047 0 0 0 0 1928253.7442762777 252606.78183876723 0 252606.78183876723 -971911.11917662621 0 0 0 0 -41361603.140366077 72322423.426196098 0 72322423.426196098 -91899659.185348511 0 0 0 0 -43256678.304321289 58494157.6210289 0 58494157.6210289 -86957961.476745605 0 0 0 0 2196908.056722641 87583932.610965729 0 87583932.610965729 -163845926.6373291 0 0 0 0 -43295802.982826233 59639449.70942688 0 59639449.70942688 -91521307.403538346 0 0 0 0 1942507.2363262177 58251539.681694031 0 58251539.681694031 -74424799.666400909 0 0 0 0 1585793.8458337784 50632718.209350586 0 50632718.209350586 -66810314.644332886 0 0 0 0 -6801347.7578830719 37895072.444719315 0 37895072.444719315 -82447854.558479309 0 0 0 0 -44774620.516692638 56672314.460471153 0 56672314.460471153 -67980825.928421021 0 0 0 0 26713548.921829224 60718681.217193604 0 60718681.217193604 -102601924.6549263 0 0 0 0 917555.27215413004 102273.93642730266 0 102273.93642730266 -453089.00447750837 0 0 0 0 37560033.601663589 113829182.06193542 0 113829182.06193542 -19903358.343986511 0 0 0 0 -27008115.784015656 87016005.244533539 0 87016005.244533539 99862316.69316864 0 0 0 0 -5384041.9369258881 22548246.057483673 0 22548246.057483673 78458349.886451721 0 0 0 0 49416209.261829376 64183429.387350082 0 64183429.387350082 85109662.697189331 0 0 0 0 21399041.778408051 91859105.22467041 0 91859105.22467041 150368783.95482635 0 0 0 0 -68231741.157828331 87611416.041423798 0 87611416.041423798 170822174.34375763 0 0 0 0 -20690528.268658638 56004820.961149216 0 56004820.961149216 123190435.1962738 0 0 0 0 314066804.81561279 160606857.61230469 0 160606857.61230469 -42262139.000694275 0 0 0 0 -10838371.926470689 5593734.3809534535 0 5593734.3809534535 3840064.1984667964 0 0 0 0 4002847.3399009705 47320422.864303589 0 47320422.864303589 124539886.20771027 0 0 0 0 -17659006.186880589 -2347994.316950798 0 -2347994.316950798 49245361.896209717 0 0 0 0 -23963228.919143677 21367649.386146545 0 21367649.386146545 100579627.0095253 0 0 0 0 -74690880.613780975 30366356.369447708 0 30366356.369447708 35414527.812515259 0 0 0 0 -261023576.42136002 292350313.04415894 0 292350313.04415894 -124044905.44281006 0 0 0 0 -3346846.2684083134 2815135.9965651929 0 2815135.9965651929 3316036.8948810101 0 0 0 0 -39500221.321502686 22815718.504936218 0 22815718.504936218 36066544.053657532 0 0 0 0 -36409115.409111023 14694689.956932068 0 14694689.956932068 32558949.79737854 0 0 0 0 -79645831.972976685 292184094.19708633 0 292184094.19708633 -149719404.1864624 0 0 0 0 -83202397.896788597 271214145.43651485 0 271214145.43651485 -158897916.84631348 0 0 0 0 -232458785.29627228 174727202.51243591 0 174727202.51243591 -182683849.13913918 0 0 0 0 -15019487.80290699 -77629251.427619934 0 -77629251.427619934 -21177513.031715393 0 0 0 0 75379979.528358221 333822323.61686647 0 333822323.61686647 -205721477.58291626 0 0 0 0 -1176587.2784093209 878606.39384021983 0 878606.39384021983 1332599.5529686064 0 0 0 0 71516800.148414612 181079486.15490341 0 181079486.15490341 -185547137.34690189 0 0 0 0 -165581555.844841 305632207.92085266 0 305632207.92085266 82403781.097373962 0 0 0 0 -258214202.66830444 54028675.28440094 0 54028675.28440094 -243349999.32739258 0 0 0 0 -65056627.854667664 152900013.11798096 0 152900013.11798096 -324030572.83389282 0 0 0 0 -10266219.112983704 240199010.70024872 0 240199010.70024872 -192519622.48612595 0 0 0 0 -18229539.847465515 258447827.68810272 0 258447827.68810272 -229119080.99316406 0 0 0 0 93340542.761692047 95907320.980415344 0 95907320.980415344 -410319748.90280151 0 0 0 0 146934866.28129578 266485436.87555695 0 266485436.87555695 -485786468.61679077 0 0 0 0 72005291.375804901 319178063.2917099 0 319178063.2917099 -278149315.98544312 0 0 0 0 65019276.866865158 315630790.0408287 0 315630790.0408287 -232832190.35357666 0 0 0 0 55537522.666717529 285079682.01318359 0 285079682.01318359 -318405704.93386936 0 0 0 0 -25073034.157836914 281019439.25337982 0 281019439.25337982 -224748626.47709656 0 0 0 0 -24358150.965606689 284113997.60447693 0 284113997.60447693 -213278857.30747223 0 0 0 0 -15690.309997558594 323272551.13866043 0 323272551.13866043 -173784014.87307739 0 0 0 0 -56090510.351514816 340108623.01598358 0 340108623.01598358 -79268325.89024353 0 0 0 0 -4677733.8208999634 305777014.6193161 0 305777014.6193161 -173982071.02149969 0 0 0 0 -96053042.536453247 276063217.99357605 0 276063217.99357605 -70403435.210388184 0 0 0 0 97075356.239372253 382724157.5006485 0 382724157.5006485 -55302970.003341675 0 0 0 0 34958674.604045868 374639889.19993591 0 374639889.19993591 -54858640.489379883 0 0 0 0 82235239.17641449 309372974.88781738 0 309372974.88781738 -232265943.31956005 0 0 0 0 69118464.615135193 338496612.37890625 0 338496612.37890625 -71502326.981227875 0 0 0 0 74009731.323280334 295481441.04104614 0 295481441.04104614 30283769.840240479 0 0 0 0 204379014.88781738 345272583.40135956 0 345272583.40135956 -12628458.145248413 0 0 0 0 160573294.05119324 300335639.60311127 0 300335639.60311127 -58559199.071640015 0 0 0 0 97427144.786384583 300369967.91675949 0 300369967.91675949 73153429.367767334 0 0 0 0 111759647.92893219 337265931.89824677 0 337265931.89824677 75683740.498641968 0 0 0 0 281564615.24532318 216375473.63367462 0 216375473.63367462 40742817.637794495 0 0 0 0 63952533.078369141 248317074.2157135 0 248317074.2157135 5504186.0277671814 0 0 0 0 -41276467.516403198 304115327.49851227 0 304115327.49851227 -58743414.170089722 0 0 0 0 -123139813.49476624 326769955.89250946 0 326769955.89250946 7379170.2715759277 0 0 0 0 -39174056.054580688 319822567.83000183 0 319822567.83000183 40657519.264808655 0 0 0 0 -136538657.06558228 259828648.76064301 0 259828648.76064301 9281518.3633439541 0 0 0 0 -178188166.98228455 294035829.63843536 0 294035829.63843536 -7854652.1234283447 0 0 0 0 -306321818.50910187 250443786.66072845 0 250443786.66072845 23039805.520706177 0 0 0 0 -183232629.91025543 261353669.13871002 0 261353669.13871002 -57197081.667358398 0 0 0 0 -286349563.75072479 227390481.08953094 0 227390481.08953094 6307626.43907547 0 0 0 0 -353618151.19580078 175772959.7519455 0 175772959.7519455 35084818.624923706 0 0 0 0 -330190771.88199997 197297026.0190506 0 197297026.0190506 -25351135.073699951 0 0 0 0 -319184444.83817291 184898962.20675659 0 184898962.20675659 -37623625.847141266 0 0 0 0 -245521915.13366699 226576448.43746185 0 226576448.43746185 -155286599.42472839 0 0 0 0 -102765246.28379822 260377267.30200195 0 260377267.30200195 -162171341.27558136 0 0 0 0 -103747748.54542542 281042550.78129578 0 281042550.78129578 -152193033.38000488 0 0 0 0 -240731630.38855457 251134674.24016857 0 251134674.24016857 -55221010.928146362 0 0 0 0 597759105.08375549 15712700.615310669 0 15712700.615310669 -520131719.85473633 0 0 0 0 161988182.04397202 -281683702.50557327 0 -281683702.50557327 79656737.585586548 0 0 0 0 602592543.87473869 609100487.00614548 0 609100487.00614548 221183628.30171204 0 0 0 0 -31299371.297733307 312222986.92182732 0 312222986.92182732 1419957127.3478394 0 0 0 0 927264133.30180168 231168382.6721096 0 231168382.6721096 -602182811.87042236 0 0 0 0 436903.29174153414 1288151.9867931623 0 1288151.9867931623 1423696.0546777099 0 0 0 0 271193733.0623703 111180311.09963989 0 111180311.09963989 -523680540.45553589 0 0 0 0 -73211994.51486969 92768901.932174683 0 92768901.932174683 -503463329.03001404 0 0 0 0 206303130.42796898 224411229.60877991 0 224411229.60877991 -449720237.33972168 0 0 0 0 -24856780.930671692 -109217527.96021271 0 -109217527.96021271 -398734986.99144936 0 0 0 0 163264984.18626785 -180884530.0223999 0 -180884530.0223999 -373769659.94067383 0 0 0 0 16898377.721115112 -109835012.44502258 0 -109835012.44502258 -180639717.85686111 0 0 0 0 -267611507.22660446 -407009020.71746826 0 -407009020.71746826 -413156222.71878052 0 0 0 0 1311851.5399344391 727700.71215001866 0 727700.71215001866 -2259661.3872825503 0 0 0 0 4879052.1622972488 -21789290.973762512 0 -21789290.973762512 -753779887.72470856 0 0 0 0 -115847428.9670639 353655586.77299118 0 353655586.77299118 -186016391.03904724 0 0 0 0 -142618570.70606422 226675236.56487656 0 226675236.56487656 -554175392.85796356 0 0 0 0 -404923095.03911209 -29232956.852676392 0 -29232956.852676392 -521849804.66706848 0 0 0 0 83374115.931671143 28591451.152008057 0 28591451.152008057 -832624494.73116302 0 0 0 0 174207153.88412476 219495652.69091034 0 219495652.69091034 -457172830.46633911 0 0 0 0 44045091.535133362 -9575082.9998474121 0 -9575082.9998474121 -628399520.1481781 0 0 0 0 187989264.66366577 363355890.02764893 0 363355890.02764893 -665060565.60763168 0 0 0 0 103620418.68852997 331314034.46431732 0 331314034.46431732 -229488884.20536804 0 0 0 0 212489904.71363831 279613853.72840118 0 279613853.72840118 -230762612.30016661 0 0 0 0 151499155.48407745 305093951.51995659 0 305093951.51995659 -68413675.541656494 0 0 0 0 308460797.72755241 18622375.347513199 0 18622375.347513199 -59741396.382156372 0 0 0 0 659440784.48040009 -147218154.92855644 0 -147218154.92855644 -10675534.619308472 0 0 0 0 510189695.99549103 354796477.9833374 0 354796477.9833374 38802950.55078125 0 0 0 0 417070271.40415192 253421168.64442444 0 253421168.64442444 -66126766.301513672 0 0 0 0 208930293.21411896 242709078.85414124 0 242709078.85414124 167742868.95246887 0 0 0 0 680663069.13499451 154802168.67335129 0 154802168.67335129 -1151657.156036377 0 0 0 0 370693360.15087128 214911656.43466949 0 214911656.43466949 27799770.352218628 0 0 0 0 280241180.33046341 170561954.31413269 0 170561954.31413269 197492106.54866028 0 0 0 0 375633314.91177559 149097433.19233561 0 149097433.19233561 399732874.69119263 0 0 0 0 578949854.32589531 251948456.83197403 0 251948456.83197403 106794406.8719883 0 0 0 0 -26157536.946491241 22287609.054496765 0 22287609.054496765 4336632.0004882812 0 0 0 0 1583719.8138287147 2831537.6985742338 0 2831537.6985742338 4591973.9117386788 0 0 0 0 -33542.791988030076 1532536.3683451712 0 1532536.3683451712 613232.53489517793 0 0 0 0 -11037201.768013716 -61214000.999470711 0 -61214000.999470711 -197015314.78850555 0 0 0 0 293292300.40230179 23933403.577079773 0 23933403.577079773 -38280009.794578552 0 0 0 0 4168833.2091865903 3262482.178980872 0 3262482.178980872 -5689435.2507524788 0 0 0 0 8815581.4319795035 11001010.394143119 0 11001010.394143119 3013915.176121898 0 0 0 0 -65310393.19877243 -102569733.08584213 0 -102569733.08584213 -153440100.61594391 0 0 0 0 -19632783.781953812 40376339.894931793 0 40376339.894931793 9448152.6782455444 0 0 0 0 -24809104.476600647 30896942.782676697 0 30896942.782676697 -7895068.7527275085 0 0 0 0 -17670589.820663452 40564072.221214294 0 40564072.221214294 -8048059.231552124 0 0 0 0 -4909036.7231893539 62715962.298019409 0 62715962.298019409 12561468.950927734 0 0 0 0 18996502.029961348 87889174.05713892 0 87889174.05713892 -68632953.19707489 0 0 0 0 265816497.18349075 34159238.418071747 0 34159238.418071747 -721200329.56303787 0 0 0 0 9157698.841088552 12619399.08442159 0 12619399.08442159 3903032.9709894396 0 0 0 0 -13327500.303077698 10046903.640060425 0 10046903.640060425 -24124861.608833313 0 0 0 0 -27885089.72121048 13825957.169204712 0 13825957.169204712 -3752692.4370422363 0 0 0 0 -27648117.138612747 13641735.860811234 0 13641735.860811234 -15601672.531417847 0 0 0 0 -15881881.126922607 -2368702.1065750122 0 -2368702.1065750122 -4814203.0651245117 0 0 0 0 -28630161.874782562 4375610.5534210205 0 4375610.5534210205 27190170.362136841 0 0 0 0 -26579941.418379083 24107255.964823544 0 24107255.964823544 28704726.325653076 0 0 0 0 -38174672.389041901 32433942.299980164 0 32433942.299980164 57134612.647491455 0 0 0 0 -37331546.006412983 29110795.711779118 0 29110795.711779118 12956675.688476562 0 0 0 0 -33526784.839982033 19528776.492559433 0 19528776.492559433 7844635.2312088013 0 0 0 0 -50625208.474946499 10768587.492640913 0 10768587.492640913 6095811.0499649048 0 0 0 0 -41723532.960346222 29680825.8359375 0 29680825.8359375 17054740.467559814 0 0 0 0 -50153835.471904755 28577495.935806274 0 28577495.935806274 16615237.620056152 0 0 0 0 -92781566.9516716 27490321.178153992 0 27490321.178153992 3497506.9073181152 0 0 0 0 933612013.78052902 266861294.62107468 0 266861294.62107468 -33242243.060188293 0 0 0 0 2186860.5939575294 -9179.8870830945671 0 -9179.8870830945671 1643704.4494205564 0 0 0 0 561883362.34762573 216166988.92814636 0 216166988.92814636 6362067.2753295898 0 0 0 0 395879699.07005692 216391264.21760559 0 216391264.21760559 42273960.581195831 0 0 0 0 721293127.84318352 129654123.35263824 0 129654123.35263824 -16444938.24848175 0 0 0 0 701218292.09896851 133992501.58533525 0 133992501.58533525 98824580.20916748 0 0 0 0 687994457.50557828 282174842.78501058 0 282174842.78501058 -43942639.383903503 0 0 0 0 813963200.24151611 356415387.41506195 0 356415387.41506195 152168.8823928833 0 0 0 0 -245571414.29465342 246515280.97797871 0 246515280.97797871 1114856.5903625488 0 0 0 0 1347213478.9552822 171949716.408638 0 171949716.408638 -112993478.44249725 0 0 0 0 2637354.0011718897 -1747844.1231005192 0 -1747844.1231005192 47284.246319502592 0 0 0 0 -36877855.429050446 28120132.475002289 0 28120132.475002289 -31901804.964363098 0 0 0 0 -28897085.052562714 13685855.345054626 0 13685855.345054626 -15555246.281402588 0 0 0 0 -4372235.8198455758 -717059.5736201182 0 -717059.5736201182 4715541.6267947704 0 0 0 0 -42922025.181364059 29588842.156398773 0 29588842.156398773 7988.5512531560853 0 0 0 0 -85797547.59363842 -691540.07953071594 0 -691540.07953071594 -10211965.843238831 0 0 0 0 -15334385.976766586 -6149103.8571014404 0 -6149103.8571014404 -21523737.147621155 0 0 0 0 -3263928.1071194261 -74078.745373208076 0 -74078.745373208076 4691596.3842235506 0 0 0 0 -26668540.728607178 18275356.171993256 0 18275356.171993256 -22105524.907616615 0 0 0 0 24198671.489034653 33977559.786540508 0 33977559.786540508 -19732163.456283569 0 0 0 0 -146092874.1858654 42070188.225498199 0 42070188.225498199 43727839.063644409 0 0 0 0 -190808344.0864296 332841636.43463516 0 332841636.43463516 79888090.472412109 0 0 0 0 -453721700.57939911 217846555.80673981 0 217846555.80673981 91388953.921389103 0 0 0 0 -625850835.92636871 229078160.55612373 0 229078160.55612373 78661070.700046539 0 0 0 0 -395357811.06576157 163533343.38258743 0 163533343.38258743 439991.91412353516 0 0 0 0 -460848200.52649689 145269313.18289948 0 145269313.18289948 26866752.312728882 0 0 0 0 -397459663.41065216 254813735.77103233 0 254813735.77103233 57624916.725784302 0 0 0 0 -375685235.56616974 273184963.54969025 0 273184963.54969025 103007570.67918396 0 0 0 0 -156700685.79059601 268410341.4202652 0 268410341.4202652 18831991.766082764 0 0 0 0 -234665232.96696281 311652558.61293793 0 311652558.61293793 56455610.344665527 0 0 0 0 -23934381.421066284 252192257.9462204 0 252192257.9462204 27393780.324249268 0 0 0 0 -47439459.155033112 348334297.7173996 0 348334297.7173996 49399477.391189575 0 0 0 0 -153360737.41883469 284478785.49793243 0 284478785.49793243 92586427.10194397 0 0 0 0 400682087.72607422 220036392.72845459 0 220036392.72845459 4058311.2014541626 0 0 0 0 296553850.46257019 309773528.03748703 0 309773528.03748703 91172923.15410614 0 0 0 0 27777028.987670898 337580449.57313919 0 337580449.57313919 70858815.820892334 0 0 0 0 258570049.03742981 227889402.90457535 0 227889402.90457535 -21773429.528932571 0 0 0 0 -74357223.916524887 424161093.15154648 0 424161093.15154648 42245699.8412323 0 0 0 0 408322185.15107727 122913987.03846741 0 122913987.03846741 78061454.391468048 0 0 0 0 225440166.8881464 400662025.31164742 0 400662025.31164742 53427.186149597168 0 0 0 0 -290898761.64037704 152887975.74918747 0 152887975.74918747 20587614.319091797 0 0 0 0 -444670868.16484165 412643213.28065014 0 412643213.28065014 -359663.52398681641 0 0 0 0 -440252125.5174551 207131719.57218552 0 207131719.57218552 -7720553.4158706665 0 0 0 0 -1374346726.7517948 46901579.385379791 0 46901579.385379791 86966395.704593658 0 0 0 0 190001080.60368347 81339200.228027344 0 81339200.228027344 89395.805938720703 0 0 0 0 104745668.20008469 144295152.06161499 0 144295152.06161499 -27167795.379348755 0 0 0 0 380421.3421096094 -1582643.203209497 0 -1582643.203209497 -2246788.7376606762 0 0 0 0 298844527.38438416 114891539.92970276 0 114891539.92970276 -44156122.997207642 0 0 0 0 171667995.1665802 95513521.840427399 0 95513521.840427399 20850253.814155579 0 0 0 0 169753445.79827023 55287721.680813193 0 55287721.680813193 -23759509.64151001 0 0 0 0 29595799.745536804 27340713.882102966 0 27340713.882102966 -16258091.344009399 0 0 0 0 227558168.12485504 113439733.45561981 0 113439733.45561981 -34260612.703399658 0 0 0 0 188027924.43177795 89389895.685443878 0 89389895.685443878 -4001801.8295288086 0 0 0 0 180912167.11999512 128566691.45042419 0 128566691.45042419 -36821598.440635681 0 0 0 0 208493131.81295013 63295608.634435654 0 63295608.634435654 -107325866.23219299 0 0 0 0 148775.74226598721 -1316058.5455929264 0 -1316058.5455929264 -185418.84954719245 0 0 0 0 78861937.741426468 -48943694.882802963 0 -48943694.882802963 94110352.230834961 0 0 0 0 335535474.96170044 88037549.579139709 0 88037549.579139709 -62744842.850906372 0 0 0 0 297047194.33815384 53000382.527099609 0 53000382.527099609 -32853667.776916504 0 0 0 0 203649997.01616669 67225554.448699951 0 67225554.448699951 16173750.016059875 0 0 0 0 48750078.423038483 79628127.983013153 0 79628127.983013153 66101053.212669373 0 0 0 0 -831850033.83268166 -11508910.319044113 0 -11508910.319044113 56167043.246047974 0 0 0 0 897843.82901886292 903441.58906956762 0 903441.58906956762 -4747873.3798229992 0 0 0 0 -624454.53685718961 -306364.86226394773 0 -306364.86226394773 177190.02935527265 0 0 0 0 38415731.358226776 35604351.089347839 0 35604351.089347839 -51519767.228805542 0 0 0 0 258417019.84999466 143227966.09518433 0 143227966.09518433 -56251574.421081543 0 0 0 0 212674237.96240616 175147015.51339722 0 175147015.51339722 29176932.961952209 0 0 0 0 107860382.06659508 151038278.37805748 0 151038278.37805748 111494159.62129211 0 0 0 0 -1000903.3526797071 2373780.1135961786 0 2373780.1135961786 82386.253691405058 0 0 0 0 238145569.10865402 352606.19790649414 0 352606.19790649414 -10913897.589752197 0 0 0 0 -6815703.13256073 9740379.9775810242 0 9740379.9775810242 39038091.46031189 0 0 0 0 -682336.33068440855 3930299.2041916437 0 3930299.2041916437 -386176.78098839521 0 0 0 0 -415727258.78256989 106475516.87343597 0 106475516.87343597 43819538.074637413 0 0 0 0 -397425515.96451473 99003349.553081512 0 99003349.553081512 1890239.0143280029 0 0 0 0 1430913.8342791703 2191675.9638774469 0 2191675.9638774469 -5562784.0156454295 0 0 0 0 -55458637.147979736 25149357.319572449 0 25149357.319572449 50463224.31671524 0 0 0 0 -81077298.996471405 95266553.837596893 0 95266553.837596893 91297591.937431335 0 0 0 0 236374472.13121033 125254793.17446899 0 125254793.17446899 18587065.45892334 0 0 0 0 81171043.427001953 191396728.4721756 0 191396728.4721756 124300416.03303528 0 0 0 0 206291712.06172943 3148638.2818603516 0 3148638.2818603516 -186243784.82889557 0 0 0 0 -205584811.39886475 109808700.01610565 0 109808700.01610565 191128880.395298 0 0 0 0 20647.929239198565 2133686.2940145433 0 2133686.2940145433 -780365.95885039866 0 0 0 0 -125331824.72416878 -91481321.140820503 0 -91481321.140820503 -26559490.835578918 0 0 0 0 -80786079.839168549 113495869.70147133 0 113495869.70147133 -86007960.249786377 0 0 0 0 -227480331.38816452 -23453882.311468124 0 -23453882.311468124 9251483.3840179443 0 0 0 0 24974497.76802063 46074771.328865051 0 46074771.328865051 22523243.906509399 0 0 0 0 -35033644.04693222 46073026.404705048 0 46073026.404705048 26401591.020744324 0 0 0 0 59827826.667045593 85537951.98210144 0 85537951.98210144 -107261.0766866812 0 0 0 0 -117572261.30264282 107952214.65493011 0 107952214.65493011 312338.04972839355 0 0 0 0 -130553232.20827484 111901389.37828827 0 111901389.37828827 52192362.574867249 0 0 0 0 3548833.164973855 3931316.6177457124 0 3931316.6177457124 -3464184.7037290931 0 0 0 0 -70195750.714981079 45411208.304538727 0 45411208.304538727 117789878.71495056 0 0 0 0 8946777.729888916 9508859.2230834961 0 9508859.2230834961 -456.92226658789264 0 0 0 0 11721527.680404663 -2421108.058921814 0 -2421108.058921814 72984099.188682556 0 0 0 0 -37627361.707336426 21258783.786247253 0 21258783.786247253 62964735.230865479 0 0 0 0 24297726.561897278 6062254.3601112366 0 6062254.3601112366 37443350.538833618 0 0 0 0 -39167336.846824646 42246873.078590393 0 42246873.078590393 28906036.041690826 0 0 0 0 -25509430.426544189 28146475.116073608 0 28146475.116073608 38215633.632957458 0 0 0 0 61068797.674510956 63689773.167022705 0 63689773.167022705 94498911.848770142 0 0 0 0 28664923.694396973 36944517.836179733 0 36944517.836179733 35646699.989067078 0 0 0 0 44188059.292967796 70024666.574810028 0 70024666.574810028 89417795.685287476 0 0 0 0 60668669.577598572 36353988.345352173 0 36353988.345352173 83644.749015808105 0 0 0 0 3105818.0628752857 3747616.7372889519 0 3747616.7372889519 -3262393.6813254058 0 0 0 0 -3119770.9018917084 36828299.204314232 0 36828299.204314232 84202283.82019043 0 0 0 0 12894833.791557312 10146454.765491486 0 10146454.765491486 42258358.223968506 0 0 0 0 1676859.8156174719 2000102.0628854111 0 2000102.0628854111 -1742401.9965903759 0 0 0 0 20591615.400672913 79758737.646148682 0 79758737.646148682 33082903.906906128 0 0 0 0 104703434.25534821 195687969.09498596 0 195687969.09498596 141326300.53631973 0 0 0 0 21806219.548301697 56283492.830013275 0 56283492.830013275 85515618.56980896 0 0 0 0 -462187.10305786133 29573434.851371765 0 29573434.851371765 -5343349.9529533386 0 0 0 0 -18064922.877308369 -22749247.222699165 0 -22749247.222699165 33740270.927703857 0 0 0 0 2593689.9986114502 29540624.712623596 0 29540624.712623596 28564977.430828094 0 0 0 0 -6296647.8570251465 21356963.90058136 0 21356963.90058136 7276241.0736503601 0 0 0 0 -1463670.9035564512 8805179.8449592888 0 8805179.8449592888 -368214.03857591003 0 0 0 0 11264286.97860527 841293.49962615967 0 841293.49962615967 -8542077.0366668701 0 0 0 0 -30556954.199935913 29053531.686023712 0 29053531.686023712 -67050410.676971436 0 0 0 0 152521939.63181305 -16838987.260498047 0 -16838987.260498047 -44723928.421981812 0 0 0 0 2584463.0025718212 1995392.8376357853 0 1995392.8376357853 -774270.51874826103 0 0 0 0 204828372.56037903 100451647.00708008 0 100451647.00708008 3539862.3894119263 0 0 0 0 -104421.54213292897 4180692.8964174353 0 4180692.8964174353 4289385.3776360154 0 0 0 0 5940264.0668945312 2399713.8280525208 0 2399713.8280525208 -14654896.978935242 0 0 0 0 -864902.8857300505 5251336.586043641 0 5251336.586043641 -980939.61890754104 0 0 0 0 -19910269.054412842 32734943.530696869 0 32734943.530696869 21665392.052970886 0 0 0 0 -3680411.588104248 18902586.983772278 0 18902586.983772278 7660347.7597198486 0 0 0 0 -13612175.391654968 7688836.8768615723 0 7688836.8768615723 22174823.35243988 0 0 0 0 -31037980.014686584 -2579975.9426345825 0 -2579975.9426345825 16518762.422798157 0 0 0 0 -40717781.332336426 5578130.0946006775 0 5578130.0946006775 33196512.679000854 0 0 0 0 -28834926.305732727 23583413.73714447 0 23583413.73714447 40052803.386543274 0 0 0 0 -42929015.835212708 6722736.5766906738 0 6722736.5766906738 64224204.3152771 0 0 0 0 -37611732.578445435 32513125.081092834 0 32513125.081092834 40853014.815643311 0 0 0 0 -21300059.003669739 42005841.884109497 0 42005841.884109497 15608275.259552002 0 0 0 0 -15773798.269199371 53975272.397068024 0 53975272.397068024 39589170.013671875 0 0 0 0 -21092423.064674377 41010541.342681885 0 41010541.342681885 4768454.3551635742 0 0 0 0 -29524804.091705322 18512031.727636337 0 18512031.727636337 16528908.678955078 0 0 0 0 -13865641.711322784 29969885.278406143 0 29969885.278406143 -8633119.0656890869 0 0 0 0 -9138494.2184371948 19283526.925788879 0 19283526.925788879 8479969.0453681946 0 0 0 0 -17786883.380729675 30837373.193206787 0 30837373.193206787 23947153.28818512 0 0 0 0 -108651605.71250916 105521799.82798767 0 105521799.82798767 29740309.7865448 0 0 0 0 -9830118.979578495 41873830.593429804 0 41873830.593429804 -2134181.5944976807 0 0 0 0 14785139.854772016 14016485.830464724 0 14016485.830464724 1227728.0975877643 0 0 0 0 -9009899.2668371201 54182211.222028732 0 54182211.222028732 -33501414.413543701 0 0 0 0 1049043.5793067813 1492922.5490507632 0 1492922.5490507632 396921.36898977309 0 0 0 0 -53321449.677062988 69144044.317474365 0 69144044.317474365 2363609.2893829346 0 0 0 0 -19626562.896240234 42032335.505187988 0 42032335.505187988 -4432444.3137054443 0 0 0 0 -4941050.3506317139 51351043.876159668 0 51351043.876159668 -21159097.611495972 0 0 0 0 -2783745.1966323853 50288880.029678345 0 50288880.029678345 -4292607.3331604004 0 0 0 0 -5755276.2608718872 52665272.23264122 0 52665272.23264122 -1882407.8489685059 0 0 0 0 -11276203.913909912 53126289.114059448 0 53126289.114059448 10194299.079986572 0 0 0 0 -22616296.211158752 45629336.037200928 0 45629336.037200928 8855167.4330749512 0 0 0 0 14042573.40990448 -6264527.8538780212 0 -6264527.8538780212 -90996093.511566162 0 0 0 0 -91139889.61832428 26861619.12909317 0 26861619.12909317 -58450092.182296753 0 0 0 0 -46583335.634651184 -24660326.377300262 0 -24660326.377300262 -77505591.381912231 0 0 0 0 10136741.898813099 10055902.691287909 0 10055902.691287909 2295517.0069435835 0 0 0 0 -8287178.9814376831 22178998.246681213 0 22178998.246681213 7944460.9251670837 0 0 0 0 34314426.691815376 72301723.449540138 0 72301723.449540138 -109917587.53410339 0 0 0 0 191751500.41209412 76925467.396697998 0 76925467.396697998 -112290173.07299042 0 0 0 0 -101842135.75446415 149502143.78462315 0 149502143.78462315 217760053.5381012 0 0 0 0 -110544232.00753784 -62634574.927894592 0 -62634574.927894592 212992679.79275322 0 0 0 0 135042921.728302 -56751971.491924286 0 -56751971.491924286 -72112602.591554642 0 0 0 0 -18376090.082389832 -26408967.649642944 0 -26408967.649642944 207962121.75494385 0 0 0 0 1049172.0280050039 1121080.9964371771 0 1121080.9964371771 394524.68923589587 0 0 0 0 28380763.051712036 8826798.8867416382 0 8826798.8867416382 -24694362.04611969 0 0 0 0 19388231.432518005 158542880.0713501 0 158542880.0713501 115851873.11066055 0 0 0 0 33191005.314189911 74151182.889194489 0 74151182.889194489 -135733954.38240051 0 0 0 0 442864.09751501679 -1229982.876653187 0 -1229982.876653187 -1829185.5347514637 0 0 0 0 8651788.9649429321 13503022.209320068 0 13503022.209320068 -16616002.476890564 0 0 0 0 14336953.47644797 15445773.459632181 0 15445773.459632181 -2753139.848880399 0 0 0 0 4037530.9698996246 12673607.979342468 0 12673607.979342468 6388492.8524473459 0 0 0 0 219161624.26781464 -114349936.71444893 0 -114349936.71444893 -192513836.48439026 0 0 0 0 25662858.97605896 54569663.534637451 0 54569663.534637451 -46069086.427410126 0 0 0 0 19648747.64025405 15969750.024526447 0 15969750.024526447 -6096888.2955826446 0 0 0 0 42304988.654083252 49885364.051738739 0 49885364.051738739 -128302747.19319153 0 0 0 0 25821838.8724823 51503259.293058395 0 51503259.293058395 -56569708.466468811 0 0 0 0 -16091408.801773071 54203821.225799561 0 54203821.225799561 537849.07689476013 0 0 0 0 4270478.324716568 14426895.848536491 0 14426895.848536491 -15243750.731536865 0 0 0 0 6937664.4178200588 18082236.103423025 0 18082236.103423025 6019475.0268184841 0 0 0 0 -543321.58726501465 53121054.520088196 0 53121054.520088196 -3954961.0159912109 0 0 0 0 2820435.9791488647 59334647.613540649 0 59334647.613540649 -9565005.7565612793 0 0 0 0 358361.59052276611 15797441.255874634 0 15797441.255874634 -291835.78791809082 0 0 0 0 1725338.5907953382 15576727.842120133 0 15576727.842120133 5342910.7433766574 0 0 0 0 -102375631.27931213 -78979070.001525879 0 -78979070.001525879 -76608448.80739975 0 0 0 0 12493826.135593414 51113170.190395355 0 51113170.190395355 -16537039.079330444 0 0 0 0 7037216.7504272461 49335547.724967957 0 49335547.724967957 4173374.9657335281 0 0 0 0 10417538.125854954 23871449.940852575 0 23871449.940852575 8749571.1748694256 0 0 0 0 -18382376.29070282 25079536.347518921 0 25079536.347518921 -10606835.730733871 0 0 0 0 1266968.0695770755 23761532.438967258 0 23761532.438967258 12093043.875121724 0 0 0 0 10761865.058172189 21755644.01540295 0 21755644.01540295 4175767.1766740531 0 0 0 0 11813620.05090332 47290428.648025513 0 47290428.648025513 -16935974.977386475 0 0 0 0 17873830.900268555 52655723.322242737 0 52655723.322242737 -12176066.125267029 0 0 0 0 -1241340.8316273689 47679107.131592751 0 47679107.131592751 -13157779.133460999 0 0 0 0 3257892.5808181763 54415011.71434021 0 54415011.71434021 -7123238.3117523193 0 0 0 0 36438215.448730469 27164444.695091248 0 27164444.695091248 -22120490.618614197 0 0 0 0 22366115.691688538 55841633.762451172 0 55841633.762451172 -10885312.844818115 0 0 0 0 1457766.6369904578 19669065.690388359 0 19669065.690388359 5560589.0762453005 0 0 0 0 13123755.159166336 26359184.94982481 0 26359184.94982481 -22945881.656188965 0 0 0 0 15722725.692779541 22031945.308105469 0 22031945.308105469 9095912.1095428467 0 0 0 0 -11257649.498016357 13885707.201564789 0 13885707.201564789 3531044.4961395264 0 0 0 0 -6188522.2215194702 22342547.108325958 0 22342547.108325958 14270793.271347046 0 0 0 0 -14928082.668945312 -153726.08648681641 0 -153726.08648681641 18449719.585617065 0 0 0 0 6096275.7835235596 16165887.042572021 0 16165887.042572021 6939305.2295627594 0 0 0 0 14108446.579864502 10815341.324951172 0 10815341.324951172 -3768690.4870071411 0 0 0 0 18349248.25630188 23351210.049064636 0 23351210.049064636 13101715.955917358 0 0 0 0 6677488.2619856521 8303315.8936271071 0 8303315.8936271071 6695294.9030815363 0 0 0 0 -188841.08271563053 1435391.7784271389 0 1435391.7784271389 510050.08783881832 0 0 0 0 12599168.176677532 17974419.906310573 0 17974419.906310573 7058675.5272944719 0 0 0 0 16657070.980669022 24679594.61545372 0 24679594.61545372 27534621.794006348 0 0 0 0 -8651710.8602379113 25221845.772095867 0 25221845.772095867 21423792.047406539 0 0 0 0 29920040.46522522 9945667.134552002 0 9945667.134552002 26547740.152069092 0 0 0 0 14261922.284698486 29702602.648193359 0 29702602.648193359 31575349.605438232 0 0 0 0 9891473.3568389565 22134477.162830986 0 22134477.162830986 -8738749.1582266651 0 0 0 0 -127922.02620235831 314177.15871343017 0 314177.15871343017 638489.87632858753 0 0 0 0 10949246.763595581 22452317.873306274 0 22452317.873306274 20624843.171844482 0 0 0 0 -13871914.11227417 36385779.162536621 0 36385779.162536621 9913046.5009613037 0 0 0 0 -16661742.432695091 14877764.541895986 0 14877764.541895986 9114733.2557412721 0 0 0 0 -38401598.718353271 43337637.710929871 0 43337637.710929871 17558851.076927185 0 0 0 0 4941564.1504516602 35788934.706329346 0 35788934.706329346 13186923.916946411 0 0 0 0 21770722.22618103 2617723.0305633545 0 2617723.0305633545 32991181.281951904 0 0 0 0 -5501334.8107452393 38235955.441986084 0 38235955.441986084 15755380.259124756 0 0 0 0 14787618.177398682 26985685.40057373 0 26985685.40057373 14300366.469146729 0 0 0 0 -2779359.0942382812 27785409.634155273 0 27785409.634155273 16405272.01739502 0 0 0 0 -4044847.7942199707 27882178.02746582 0 27882178.02746582 16622905.975982666 0 0 0 0 -4784918.8259353638 26755085.14831543 0 26755085.14831543 16936607.760345459 0 0 0 0 -15174408.864318848 34343404.290206909 0 34343404.290206909 19365312.724830627 0 0 0 0 -13283091.319179535 31594616.878974915 0 31594616.878974915 19853788.7784729 0 0 0 0 10331111.175140381 23054072.498283386 0 23054072.498283386 -77665.814559936523 0 0 0 0 -1562789.9835978905 -24157.172120559961 0 -24157.172120559961 20748.784514725208 0 0 0 0 -40182140.178321362 33259230.198987484 0 33259230.198987484 25837807.996856689 0 0 0 0 -18645882.337371826 25647099.682922363 0 25647099.682922363 25902977.005304337 0 0 0 0 -17115920.175540924 28763058.316047668 0 28763058.316047668 19397645.92791748 0 0 0 0 -3694839.7052307129 26774727.56362915 0 26774727.56362915 16741985.007797241 0 0 0 0 -6742890.0920562744 23431843.698120117 0 23431843.698120117 20224169.571228027 0 0 0 0 -6309051.4883308411 28319050.611595154 0 28319050.611595154 20314681.531829834 0 0 0 0 -10596885.570465088 21589534.525222778 0 21589534.525222778 9873871.4876861572 0 0 0 0 -11735369.48361969 17625941.248138428 0 17625941.248138428 8980801.3595581055 0 0 0 0 -22852619.690567017 22946869.607208252 0 22946869.607208252 25539776.38892746 0 0 0 0 -35093575.477640152 11312204.522638321 0 11312204.522638321 14847281.65322876 0 0 0 0 59291122.397574425 10771063.306674004 0 10771063.306674004 -9452999.9733886719 0 0 0 0 60635632.398040771 26866588.668327332 0 26866588.668327332 8872873.9482421875 0 0 0 0 -56946210.93157959 10921089.728401184 0 10921089.728401184 11936334.378377914 0 0 0 0 3118855.7725484092 11161427.386747025 0 11161427.386747025 -9358756.4704504311 0 0 0 0 4636055.4882499203 7666264.4250061363 0 7666264.4250061363 1584064.185477227 0 0 0 0 18229359.544879913 29735281.653594971 0 29735281.653594971 -21124984.833030701 0 0 0 0 10708458.711334229 12755767.901435852 0 12755767.901435852 11609988.273040771 0 0 0 0 -21594343.574577332 3805866.1542205811 0 3805866.1542205811 13355108.97869873 0 0 0 0 43329678.866943359 17073439.862751007 0 17073439.862751007 5105449.4486083984 0 0 0 0 6212404.7453021612 3167086.7008414492 0 3167086.7008414492 -7337044.2028638124 0 0 0 0 69518637.254852295 33410099.14156723 0 33410099.14156723 -21676702.29536438 0 0 0 0 26274243.994213104 1518112.5242958069 0 1518112.5242958069 -3690626.4714508057 0 0 0 0 -23231810.596389771 24506718.723014832 0 24506718.723014832 -14940037.629806519 0 0 0 0 -6363422.0775288455 5008255.0443988144 0 5008255.0443988144 4525699.303000778 0 0 0 0 -14989108.031776428 10995930.59173584 0 10995930.59173584 -8777203.0285186768 0 0 0 0 -20489039.196205139 27674043.707740784 0 27674043.707740784 -11857016.249277115 0 0 0 0 3961407.0707244873 8492410.8750610352 0 8492410.8750610352 -7981765.8644104004 0 0 0 0 -23169566.210983276 25152091.842254639 0 25152091.842254639 -13323984.717895508 0 0 0 0 -35105629.324012756 9458369.5980682373 0 9458369.5980682373 9763912.2364044189 0 0 0 0 -10222.238688964397 9925973.7198180631 0 9925973.7198180631 -2781109.9936482757 0 0 0 0 1014878.0199715979 -460520.93971136957 0 -460520.93971136957 -406600.40032273531 0 0 0 0 -314963766.29165268 156828519.4537034 0 156828519.4537034 -36545484.895828247 0 0 0 0 848906.28506851196 773848.89149856567 0 773848.89149856567 -159355.33203125 0 0 0 0 43200459.211296082 8290450.2633514404 0 8290450.2633514404 228612.3017578125 0 0 0 0 -7316297.1182932109 8354541.0244150274 0 8354541.0244150274 -4190400.9805122167 0 0 0 0 -379672779.72574615 122042348.42344666 0 122042348.42344666 -44821963.421823502 0 0 0 0 102684870.30971527 -16323611.925804138 0 -16323611.925804138 -9690427.4345855713 0 0 0 0 129130719.93807125 67558225.020607948 0 67558225.020607948 -11410133.977172852 0 0 0 0 56471446.331512451 90136478.626029968 0 90136478.626029968 12874235.944801331 0 0 0 0 56506125.720425114 98191521.799106106 0 98191521.799106106 34885003.832122803 0 0 0 0 -4079798.8380966187 54981515.668312073 0 54981515.668312073 12281183.169921875 0 0 0 0 3478926.6550521851 72477838.568321228 0 72477838.568321228 22439057.404342651 0 0 0 0 -604195.79110717773 56870498.199203491 0 56870498.199203491 12897967.711475372 0 0 0 0 19881344.170269966 58860241.166496277 0 58860241.166496277 -6070017.3694610596 0 0 0 0 19080845.129778862 53968029.161231041 0 53968029.161231041 -8271995.2320251465 0 0 0 0 44575094.946838379 44699638.934135437 0 44699638.934135437 -17571331.124141693 0 0 0 0 55329292.986450195 65821121.551017761 0 65821121.551017761 -4615151.2953033447 0 0 0 0 386850798.442379 1691315897.0725651 0 1691315897.0725651 350474221.48952103 0 0 0 0 1821842.0089319127 1015178025.8195703 0 1015178025.8195703 941636248.51755524 0 0 0 0 727155212.52289391 950041600.05107403 0 950041600.05107403 582400277.82073975 0 0 0 0 -1154403.9024249464 3638036.7754958868 0 3638036.7754958868 1288399.6228810847 0 0 0 0 1345865798.6509895 1927639347.3637486 0 1927639347.3637486 -465464.98822784424 0 0 0 0 1754281286.0579071 1608556764.1811829 0 1608556764.1811829 -369951593.59472084 0 0 0 0 3018744920.4506607 1298074704.919548 0 1298074704.919548 -301349300.54069519 0 0 0 0 7390646.6867581382 5012006.8617312945 0 5012006.8617312945 1413671.5240578949 0 0 0 0 3549089426.6963959 -453215781.4274416 0 -453215781.4274416 -128173369.39196014 0 0 0 0 1443361931.6144085 -265863714.14896154 0 -265863714.14896154 -110425558.28754425 0 0 0 0 864504097.85092545 422355594.48174763 0 422355594.48174763 -339038074.1711731 0 0 0 0 -793356.50214913487 1872084.649004519 0 1872084.649004519 455473.02666130662 0 0 0 0 845625476.56422424 1010517684.9477463 0 1010517684.9477463 -743413480.06154633 0 0 0 0 718686631.35533905 370584676.39044571 0 370584676.39044571 402146508.6796627 0 0 0 0 1064722949.669342 1256256609.5577888 0 1256256609.5577888 695211567.19707489 0 0 0 0 511982010.24711609 471074318.85490417 0 471074318.85490417 -95017974.217203617 0 0 0 0 233452696.77429962 -143827449.70354462 0 -143827449.70354462 -154232326.18387651 0 0 0 0 -7859534.6856422424 111604668.46956253 0 111604668.46956253 -188098763.66577148 0 0 0 0 7705902.4210064933 19852789.87783381 0 19852789.87783381 18704094.528245941 0 0 0 0 -206584076.91614914 301496058.4990387 0 301496058.4990387 48919440.236968994 0 0 0 0 -174696059.03835678 129648610.56433296 0 129648610.56433296 124512502.45332336 0 0 0 0 172457978.42812729 -80498225.61000824 0 -80498225.61000824 -121731965.39673615 0 0 0 0 681273961.2556076 258723642.86912155 0 258723642.86912155 -435254540.3677063 0 0 0 0 698518590.69321442 139849322.17230606 0 139849322.17230606 -187361961.06098354 0 0 0 0 10342767.67861367 13325402.547080398 0 13325402.547080398 10085318.173036292 0 0 0 0 -95366332.156352997 71418007.27579689 0 71418007.27579689 -44315.942176818848 0 0 0 0 67493837.470672607 79559060.791021347 0 79559060.791021347 34985.571830749512 0 0 0 0 -27972424.592880249 -3027723.3930492401 0 -3027723.3930492401 -15936514.521247864 0 0 0 0 51473232.348899841 71606508.444469452 0 71606508.444469452 -65047841.072357178 0 0 0 0 49902387.003870487 53706627.388031483 0 53706627.388031483 13484402.24798584 0 0 0 0 48691045.056488037 63143510.623283386 0 63143510.623283386 -212685704.45062637 0 0 0 0 -432832269.27976894 -123902296.25277042 0 -123902296.25277042 83155240.007644653 0 0 0 0 194919654.57945251 33398450.79227829 0 33398450.79227829 -50599914.712734222 0 0 0 0 2580859.8968098499 -2788387.9473914281 0 -2788387.9473914281 -291769.20344845951 0 0 0 0 -107060442.2366333 47958504.289428711 0 47958504.289428711 -214238.60477132833 0 0 0 0 94450354.551115036 7150900.8412227631 0 7150900.8412227631 -44403996.568435669 0 0 0 0 296776605.66500854 142190811.67672729 0 142190811.67672729 -97682788.441307068 0 0 0 0 41084468.293228149 87640339.432449341 0 87640339.432449341 -4635290.7979202271 0 0 0 0 -110082222.68611145 -212878514.49006653 0 -212878514.49006653 -71674171.533233643 0 0 0 0 38145578.431404114 2424529.5343818665 0 2424529.5343818665 272891122.54885864 0 0 0 0 702576835.34002686 -415137682.44832611 0 -415137682.44832611 531147771.52526855 0 0 0 0 92546379.533172607 333324100.29400635 0 333324100.29400635 355152565.39092255 0 0 0 0 -15627647.225342751 5052301.0315494537 0 5052301.0315494537 228912745.56608582 0 0 0 0 -314431.49635075778 1291590.1396442391 0 1291590.1396442391 1798804.2135717869 0 0 0 0 24614512.371780396 44168588.263839722 0 44168588.263839722 -12179135.664290428 0 0 0 0 354465701.2591095 -172554660.9043045 0 -172554660.9043045 2371968.0772094727 0 0 0 0 138678988.41168976 410147475.73139572 0 410147475.73139572 233482420.29296875 0 0 0 0 53318809.933349609 46184304.59513855 0 46184304.59513855 24643559.039970398 0 0 0 0 3646566.4306277381 562390.91175492108 0 562390.91175492108 -1426270.1974824667 0 0 0 0 -497053782.49028015 126804211.66896439 0 126804211.66896439 362903310.77285004 0 0 0 0 1386702.0546031892 639195.22219502926 0 639195.22219502926 -1603443.5392925739 0 0 0 0 -64671312.270547867 -21949231.619329453 0 -21949231.619329453 -79369650.91104126 0 0 0 0 -4016514.1481246948 73479917.870941162 0 73479917.870941162 -43792108.783584595 0 0 0 0 11260697.899563368 9519632.9025796503 0 9519632.9025796503 -7923311.538387835 0 0 0 0 -10718853.844985962 8302126.5741424561 0 8302126.5741424561 -2941217.4867858887 0 0 0 0 397034.79956775904 4797897.4590723924 0 4797897.4590723924 3700106.1761094928 0 0 0 0 -144029666.58839798 -69114634.960891724 0 -69114634.960891724 -730666.8180847168 0 0 0 0 -111085316.195755 254462589.07382202 0 254462589.07382202 -189685855.782341 0 0 0 0 77155191.549514771 -177569911.07243347 0 -177569911.07243347 -286678495.03835869 0 0 0 0 -8114596.7342071533 19733651.570426941 0 19733651.570426941 13422033.095558167 0 0 0 0 -5693808.0917205811 7788370.3918075562 0 7788370.3918075562 24865558.670623779 0 0 0 0 218427622.50941467 298845843.94023132 0 298845843.94023132 -162757122.01699829 0 0 0 0 1886698.1669695154 3281478.4374810122 0 3281478.4374810122 1856556.4042128772 0 0 0 0 -5736919.1211919188 4940034.1859475374 0 4940034.1859475374 -1615084.4980163574 0 0 0 0 -4094906.3128890917 -734051.15033065528 0 -734051.15033065528 3346335.6665036678 0 0 0 0 3527296.992003249 18058198.326686725 0 18058198.326686725 19939366.08397685 0 0 0 0 -33258441.821938038 -9082046.4975531101 0 -9082046.4975531101 48467758.271476746 0 0 0 0 -7646452.5675201416 23531619.336936951 0 23531619.336936951 31339905.269899368 0 0 0 0 -19899346.184103012 8170237.7581266165 0 8170237.7581266165 73503456.209609985 0 0 0 0 29204745.67469883 92071567.416423321 0 92071567.416423321 2614489.862487793 0 0 0 0 351109.45536804199 36635257.151473999 0 36635257.151473999 19637898.797889709 0 0 0 0 885063.89157867432 30326038.795158386 0 30326038.795158386 87225469.66583252 0 0 0 0 14528744.095779419 18869930.822639465 0 18869930.822639465 -31318677.431728363 0 0 0 0 14257193.678586006 21456675.115923882 0 21456675.115923882 6817641.4627304077 0 0 0 0 20400896.31580542 10244128.274161533 0 10244128.274161533 -8523166.0922301561 0 0 0 0 48865684.331542969 81094424.019115448 0 81094424.019115448 -413072373.05343628 0 0 0 0 712979.68847857416 2497642.6457646862 0 2497642.6457646862 227077.99386460334 0 0 0 0 -113664313.11446381 501967166.05631638 0 501967166.05631638 -1481464950.6533203 0 0 0 0 860380.58934849501 1858035.1323044449 0 1858035.1323044449 58679.252303913236 0 0 0 0 -9193707.9268722534 30355927.538440704 0 30355927.538440704 15912191.639793396 0 0 0 0 -3582562.9999959739 12695616.750811636 0 12695616.750811636 24158398.005241752 0 0 0 0 -348104774.58019257 -38646037.324605942 0 -38646037.324605942 23649164.465789795 0 0 0 0 -615113315.5025878 136124790.02303147 0 136124790.02303147 18170356.700706482 0 0 0 0 -152234579.50714111 205200582.64278412 0 205200582.64278412 -214887800.44700623 0 0 0 0 -164919147.53077698 107104903.35024261 0 107104903.35024261 -680412124.50570679 0 0 0 0 -1262206423.2869873 114337640.45697021 0 114337640.45697021 162365704.84373474 0 0 0 0 122318926.19922638 -23884717.952640533 0 -23884717.952640533 -157128345.76196957 0 0 0 0 -28070311.987731934 283547866.26358986 0 283547866.26358986 -78596392.895172119 0 0 0 0 -15930236.626670837 98032184.249530792 0 98032184.249530792 279051258.29774475 0 0 0 0 -468488624.95020533 77358555.574195623 0 77358555.574195623 190350246.38537598 0 0 0 0 -44809269.580871582 194986990.36546707 0 194986990.36546707 4598499.721268177 0 0 0 0 81051229.098442078 135694789.73618317 0 135694789.73618317 -115283513.01725388 0 0 0 0 -893579.06179878116 119139.45979490876 0 119139.45979490876 1347643.5944307372 0 0 0 0 179155932.6965313 540705306.19737101 0 540705306.19737101 388104825.92516327 0 0 0 0 464568584.25525093 569063556.93441391 0 569063556.93441391 248365102.24156189 0 0 0 0 633085978.65291595 309160034.40262604 0 309160034.40262604 132351178.39993858 0 0 0 0 -623929.59672135115 770132.53310938179 0 770132.53310938179 1298761.4814669043 0 0 0 0 278904772.85869598 381497579.77177811 0 381497579.77177811 293044177.73835754 0 0 0 0 330142629.19250488 253043839.24017906 0 253043839.24017906 45021329.278907776 0 0 0 0 138539100.57200623 102022461.03186035 0 102022461.03186035 79690526.08902359 0 0 0 0 258168971.53089142 207154136.26016045 0 207154136.26016045 24393733.859107971 0 0 0 0 146741801.56732178 69354797.938516617 0 69354797.938516617 114342514.73744965 0 0 0 0 217026558.71020508 58541535.3893013 0 58541535.3893013 24437542.524857678 0 0 0 0 180951785.59389496 127692639.26446342 0 127692639.26446342 309862889.0196991 0 0 0 0 236244156.86577606 167669158.30145645 0 167669158.30145645 145858264.53219604 0 0 0 0 -345169.27824452519 552653.25747607648 0 552653.25747607648 696012.0847562477 0 0 0 0 242686207.44780445 183729495.59636784 0 183729495.59636784 127567759.82885742 0 0 0 0 122732321.32375336 224750963.51766396 0 224750963.51766396 148775978.09380436 0 0 0 0 -26037752.24407196 303586540.83264732 0 303586540.83264732 1449554607.1013947 0 0 0 0 53068.729821130182 700732907.51992357 0 700732907.51992357 491185961.54547119 0 0 0 0 1019609.557144165 701986777.04192734 0 701986777.04192734 491749220.42070007 0 0 0 0 592117213.92390442 396261592.64547348 0 396261592.64547348 74843550.538301468 0 0 0 0 430760829.68339539 1014485966.6567097 0 1014485966.6567097 345872554.45797729 0 0 0 0 594983610.42233849 504442320.84437561 0 504442320.84437561 334529665.67261505 0 0 0 0 853773049.02410889 711147177.47251129 0 711147177.47251129 373374601.37194061 0 0 0 0 -147779.54699325562 2850650.7938145697 0 2850650.7938145697 3011389.6906128004 0 0 0 0 -4400220.4947433472 46913147.927179337 0 46913147.927179337 -170249316.5811882 0 0 0 0 -22351435.178405762 78760776.966732025 0 78760776.966732025 -137562440.23196411 0 0 0 0 13734.163024902344 92881247.370868683 0 92881247.370868683 -226841589.96339226 0 0 0 0 -44212.93052316676 86421474.169850335 0 86421474.169850335 -283715996.0009079 0 0 0 0 3364955.0161272883 -632941.94046497717 0 -632941.94046497717 73803.545629497617 0 0 0 0 -11881870.394676208 64445362.14179039 0 64445362.14179039 -249795362.99104691 0 0 0 0 -11347508.872875899 116876374.91198643 0 116876374.91198643 -324941486.80186081 0 0 0 0 6605234.4797056913 2148813.141556602 0 2148813.141556602 1238071.0665996596 0 0 0 0 157560791.91114044 -134926487.91244507 0 -134926487.91244507 474638027.37568855 0 0 0 0 170375152.63507462 -82860763.515171528 0 -82860763.515171528 50509244.569969177 0 0 0 0 -27692233.561923981 147237270.18698895 0 147237270.18698895 -423776231.03665161 0 0 0 0 -24710147.046943665 70928020.910945892 0 70928020.910945892 -252507273.24950409 0 0 0 0 3779287.4346084595 56482308.167877197 0 56482308.167877197 -255257484.15834284 0 0 0 0 -65020483.063232422 66532392.167175293 0 66532392.167175293 -155628238.33836746 0 0 0 0 -6847779.2173614502 47424296.607376099 0 47424296.607376099 -152766440.86863899 0 0 0 0 -12126123.334663391 26971862.007036209 0 26971862.007036209 -162549734.40508938 0 0 0 0 91710687.640075684 69864458.90483284 0 69864458.90483284 -730109054.97907257 0 0 0 0 12589031.266917795 10690125.514253018 0 10690125.514253018 5412396.8668225408 0 0 0 0 -14795567.617134094 7444391.7237205505 0 7444391.7237205505 -315041615.37016296 0 0 0 0 -83446462.855979919 45524793.26994133 0 45524793.26994133 -159212422.13929653 0 0 0 0 49688742.491996765 -341707382.68798828 0 -341707382.68798828 457359562.97362137 0 0 0 0 9327643.3365008533 5684412.4601592459 0 5684412.4601592459 2955746.0564679578 0 0 0 0 -344638223.47068787 -214676309.16766357 0 -214676309.16766357 39743879.66317749 0 0 0 0 -168946398.241745 -207975906.01402283 0 -207975906.01402283 -367646825.96786499 0 0 0 0 -872343934.07761574 -196658343.4527154 0 -196658343.4527154 -307275122.432724 0 0 0 0 -1014962836.6525879 836947739.36826324 0 836947739.36826324 -1183755457.4285583 0 0 0 0 -526790569.09745789 379418005.51873398 0 379418005.51873398 -249396968.54690552 0 0 0 0 -384500368.41508484 92720678.036087036 0 92720678.036087036 462875460.2401123 0 0 0 0 195515363.90814972 -124800140.40688419 0 -124800140.40688419 29238943.411384583 0 0 0 0 -75537485.961654663 -262730741.3524971 0 -262730741.3524971 637361240.45263672 0 0 0 0 54091226.662078857 68977020.454483032 0 68977020.454483032 168128534.54692173 0 0 0 0 -144866736.99964905 189327500.60511398 0 189327500.60511398 142933180.08389282 0 0 0 0 -539774207.41549683 334750065.87188721 0 334750065.87188721 -134113127.55612183 0 0 0 0 -39731078.400466919 25750055.35452652 0 25750055.35452652 34881883.488739014 0 0 0 0 -487519873.35778809 167361970.69947052 0 167361970.69947052 -156620326.70332336 0 0 0 0 232407483.83071136 -76682410.137037277 0 -76682410.137037277 -1068914519.8546295 0 0 0 0 -486732440.94732666 178952497.2996521 0 178952497.2996521 -373391102.7043457 0 0 0 0 21043038.857009888 15937349.479045868 0 15937349.479045868 -181772235.84236145 0 0 0 0 -7372263.799571991 235478634.86280823 0 235478634.86280823 -196276855.02098083 0 0 0 0 -59826888.285377502 174184893.09569359 0 174184893.09569359 181442724.52336884 0 0 0 0 19220630.417037964 94599331.043216705 0 94599331.043216705 63736182.113021851 0 0 0 0 16096111.442496791 16516732.249538913 0 16516732.249538913 7845254.600417912 0 0 0 0 -7107494.9055633545 -16795272.555454254 0 -16795272.555454254 313864347.46121216 0 0 0 0 58220463.462127686 -162411964.10186386 0 -162411964.10186386 -44084038.449825287 0 0 0 0 402009987.65330315 390490877.21421576 0 390490877.21421576 -800270712.57863998 0 0 0 0 -307518412.45085144 265668036.88042068 0 265668036.88042068 407745428.97203064 0 0 0 0 123853.33235931396 -230134973.75632477 0 -230134973.75632477 402413019.7703476 0 0 0 0 -123931783.46282196 45421514.597295761 0 45421514.597295761 332596008.14812469 0 0 0 0 202813216.94288635 326014008.41615582 0 326014008.41615582 202456097.64067841 0 0 0 0 197751891.9732666 236534912.03792048 0 236534912.03792048 73756448.041000366 0 0 0 0 129664381.23535156 16822794.309059143 0 16822794.309059143 -29806873.168652534 0 0 0 0 469500866.38869858 71372098.78587532 0 71372098.78587532 -23881755.644142151 0 0 0 0 685472.24196645617 3752634.1968906298 0 3752634.1968906298 367808.17422892153 0 0 0 0 45824565.673614502 26595152.856434345 0 26595152.856434345 7071011.7957687378 0 0 0 0 102149735.1015625 27452070.342247009 0 27452070.342247009 -7532945.1699829102 0 0 0 0 51511777.944244385 32898560.868591309 0 32898560.868591309 487157.36726379395 0 0 0 0 70612394.664001465 31163866.563224792 0 31163866.563224792 -9036920.7815132141 0 0 0 0 38058780.484893799 35255315.290279388 0 35255315.290279388 2173068.7912902832 0 0 0 0 26246000.372564316 106992569.53869987 0 106992569.53869987 46726201.177436829 0 0 0 0 46898549.298339844 38879959.672687531 0 38879959.672687531 10952655.785770416 0 0 0 0 33037802.919189453 48002658.159305573 0 48002658.159305573 5185299.2205581665 0 0 0 0 63440868.785467148 61049239.141566753 0 61049239.141566753 8803278.9036483765 0 0 0 0 89119105.273513794 143240347.76559305 0 143240347.76559305 38355077.314498901 0 0 0 0 107882141.09861755 66038992.086547852 0 66038992.086547852 -6558918.0183525085 0 0 0 0 236262690.88442993 73758796.363746643 0 73758796.363746643 -33578625.531066895 0 0 0 0 100245632.786273 64628212.275375605 0 64628212.275375605 -5927331.3101654053 0 0 0 0 41274071.571411133 155647235.25963593 0 155647235.25963593 35518571.810256958 0 0 0 0 4395242.8433189392 154835560.71838188 0 154835560.71838188 64393055.607391357 0 0 0 0 41345056.829025269 171586091.85036469 0 171586091.85036469 70048078.232952118 0 0 0 0 28056693.541137695 119615384.20347595 0 119615384.20347595 33330190.030471802 0 0 0 0 -35936170.967193604 90079428.178077698 0 90079428.178077698 42501846.471855164 0 0 0 0 -6495012.0184631348 122526854.9572525 0 122526854.9572525 78679317.733528137 0 0 0 0 -6358100.7146453857 149405896.93562317 0 149405896.93562317 75755381.013271332 0 0 0 0 2930416.7338676453 134535913.98745918 0 134535913.98745918 90417313.040699005 0 0 0 0 -22865400.721961975 119596203.11586666 0 119596203.11586666 48453074.518444061 0 0 0 0 -35663641.796813965 128439414.31024742 0 128439414.31024742 42522141.473864555 0 0 0 0 4449610.4674224854 208067541.95507812 0 208067541.95507812 135615699.52204895 0 0 0 0 -48163410.523254395 151977053.55889702 0 151977053.55889702 122462911.18276215 0 0 0 0 -85726536.626815796 40801283.66427803 0 40801283.66427803 10657361.541149139 0 0 0 0 -27295893.859592438 95202494.001350403 0 95202494.001350403 -42427750.564907074 0 0 0 0 -58286917.055595398 70625558.583953857 0 70625558.583953857 19009204.506443024 0 0 0 0 -30650650.091346741 146049999.952631 0 146049999.952631 86519167.042163849 0 0 0 0 -3307188.3095626831 109471010.21286201 0 109471010.21286201 28991530.697925568 0 0 0 0 2370399.3194961548 142299991.42774963 0 142299991.42774963 103646432.84444809 0 0 0 0 15150357.965507507 92020332.373792648 0 92020332.373792648 109963035.17963982 0 0 0 0 -10334149.881698608 127932685.09887886 0 127932685.09887886 82592283.217147827 0 0 0 0 -5546235.1425933838 66023414.23388052 0 66023414.23388052 63023127.977485657 0 0 0 0 5040052.4984817505 99750953.341449738 0 99750953.341449738 118807202.2650032 0 0 0 0 49981252.051383972 77896369.869049072 0 77896369.869049072 128578777.26732445 0 0 0 0 28512.234367370605 86098770.036706924 0 86098770.036706924 138916682.19685745 0 0 0 0 21412636.100013733 62748157.035784721 0 62748157.035784721 69898458.85848999 0 0 0 0 -46642.263725280762 99131704.66324234 0 99131704.66324234 55669544.570771217 0 0 0 0 27190817.498249054 84452808.71585083 0 84452808.71585083 -18076597.270273209 0 0 0 0 -35437321.768188477 56309608.878326416 0 56309608.878326416 -26429249.49783802 0 0 0 0 -9901713.4371070862 44460808.680058479 0 44460808.680058479 -109387014.83786774 0 0 0 0 25080.090546129606 95619015.763913587 0 95619015.763913587 -109819228.22799683 0 0 0 0 45829020.759902954 64533162.871833801 0 64533162.871833801 60876714.297151446 0 0 0 0 51317775.953933716 93877603.833675385 0 93877603.833675385 82985098.612747192 0 0 0 0 2769390.9715284631 21142543.764641047 0 21142543.764641047 6975130.535851419 0 0 0 0 -3594534.805089131 4988172.0949723385 0 4988172.0949723385 1781581.2894295156 0 0 0 0 74490117.95198822 111577623.70962143 0 111577623.70962143 41006174.903198242 0 0 0 0 156061164.82400513 51425.859313964844 0 51425.859313964844 -23288697.830108643 0 0 0 0 -1092113.0677719116 29054737.386631012 0 29054737.386631012 14857406.366546631 0 0 0 0 70911582.54347229 74217784.487228394 0 74217784.487228394 74886468.102855682 0 0 0 0 149469408.76123047 64806048.364044189 0 64806048.364044189 60861055.352241516 0 0 0 0 110940602.90007019 70915039.136207581 0 70915039.136207581 -45109590.30947876 0 0 0 0 113308393.45949268 67272625.55182457 0 67272625.55182457 -136534730.68167114 0 0 0 0 75911258.048798084 31688779.751512766 0 31688779.751512766 -77142647.907791138 0 0 0 0 156231537.5760763 84387727.959691256 0 84387727.959691256 -41825937.085464478 0 0 0 0 80197825.381912231 85609276.519248962 0 85609276.519248962 -32605763.874580383 0 0 0 0 108060995.28975677 71819443.524982452 0 71819443.524982452 -45017316.129638672 0 0 0 0 -7943938.5133628845 46761397.909576416 0 46761397.909576416 -24337030.20148468 0 0 0 0 49519093.603752136 28799009.349815369 0 28799009.349815369 -20366648.477813721 0 0 0 0 17342995.277934056 26800142.256070197 0 26800142.256070197 -23797479.503104687 0 0 0 0 -11402658.103052638 23112993.95457172 0 23112993.95457172 13272065.73234133 0 0 0 0 -5926490.8776893616 47430118.269586563 0 47430118.269586563 -28606856.125831604 0 0 0 0 -14779234.698196411 44432349.341892242 0 44432349.341892242 -22299060.073863983 0 0 0 0 -20440996.419998169 54293601.048307419 0 54293601.048307419 -22625561.030014038 0 0 0 0 -10949768.237979338 23522432.545034762 0 23522432.545034762 21570475.995346438 0 0 0 0 -21710220.259590149 54556374.545162201 0 54556374.545162201 -16726015.799304962 0 0 0 0 -26788691.869918823 38490295.38168335 0 38490295.38168335 -7888457.5461120605 0 0 0 0 8898463.1313216388 19306287.790539511 0 19306287.790539511 2106734.4279709756 0 0 0 0 -27222259.237094879 62941505.195808411 0 62941505.195808411 -16090951.452756882 0 0 0 0 -13058721.903288364 96210291.021676064 0 96210291.021676064 -20389898.047538757 0 0 0 0 -15832159.977851868 12335173.471870422 0 12335173.471870422 5031580.0171318054 0 0 0 0 -2753143.9121617973 22887635.75455676 0 22887635.75455676 14605787.736293703 0 0 0 0 -15081703.147445679 28920518.221260071 0 28920518.221260071 -3062902.5986995697 0 0 0 0 -47190921.36182642 68798591.414710045 0 68798591.414710045 13361770.776885986 0 0 0 0 -27694096.962505341 40057910.631206512 0 40057910.631206512 11733323.085678101 0 0 0 0 -1739942.5936261285 20169394.82271814 0 20169394.82271814 11336863.012505829 0 0 0 0 -50054877.470035553 61017383.082045555 0 61017383.082045555 39294471.944610596 0 0 0 0 -41867494.303310394 34069585.126068115 0 34069585.126068115 40240570.103237152 0 0 0 0 -26811227.186660767 15373661.02848053 0 15373661.02848053 29652402.994819641 0 0 0 0 -41166842.992080688 33628824.83731842 0 33628824.83731842 82352411.002243042 0 0 0 0 -41091140.162619591 34636569.239982605 0 34636569.239982605 40588467.451644897 0 0 0 0 -42589565.812896729 18326668.443023682 0 18326668.443023682 44135123.275543213 0 0 0 0 1118958.6062316895 6365467.9692230225 0 6365467.9692230225 3042793.2675018311 0 0 0 0 28420229.992584229 15064712.364456177 0 15064712.364456177 5812472.7463989258 0 0 0 0 20386834.243901312 12189359.074516177 0 12189359.074516177 6265915.107303977 0 0 0 0 -42183143.893047333 36299262.993984222 0 36299262.993984222 25697562.438781738 0 0 0 0 -42469152.168014526 16880015.1483078 0 16880015.1483078 24963644.700637817 0 0 0 0 3586396.2042538859 8853624.3285816088 0 8853624.3285816088 5220956.5333646089 0 0 0 0 11263358.512954712 15214597.423309326 0 15214597.423309326 6668143.9002075195 0 0 0 0 -3560802.7114207521 21731155.96617347 0 21731155.96617347 12095119.889935791 0 0 0 0 7313518.8871912621 10341513.525090247 0 10341513.525090247 736759.40150994062 0 0 0 0 21930097.89440918 15250059.71370697 0 15250059.71370697 -1669614.9642028809 0 0 0 0 12011621.04082489 21050333.222869873 0 21050333.222869873 18073210.401866674 0 0 0 0 13447323.342506409 21001864.781318665 0 21001864.781318665 -4815814.2536773682 0 0 0 0 12357455.16368103 32399808.480056763 0 32399808.480056763 2628966.7503356934 0 0 0 0 3214378.8544769287 21937106.066848755 0 21937106.066848755 -8916106.9730224609 0 0 0 0 -3961668.3924014568 32956010.449213743 0 32956010.449213743 -5825595.938369751 0 0 0 0 122411.42756682634 20682552.870805487 0 20682552.870805487 12928886.257046565 0 0 0 0 -4754742.8785476685 13739485.725860596 0 13739485.725860596 836691.14414978027 0 0 0 0 15462982.554569751 17349878.343690731 0 17349878.343690731 4500624.507814616 0 0 0 0 8291669.1583121307 8309929.7440364584 0 8309929.7440364584 4149733.2306189835 0 0 0 0 4897388.2575418353 3598786.7283439934 0 3598786.7283439934 1903707.5428379923 0 0 0 0 118824967.11708069 35947666.188804626 0 35947666.188804626 -5998609.008972168 0 0 0 0 1109592.5786895752 6373533.309753418 0 6373533.309753418 3424579.2289428711 0 0 0 0 14929233.255086288 10574311.459024601 0 10574311.459024601 -3224412.7268000245 0 0 0 0 1728097.7953109741 5533485.4729003906 0 5533485.4729003906 3467010.5463256836 0 0 0 0 58838714.039215088 27317363.837387085 0 27317363.837387085 25284686.71206665 0 0 0 0 -9584986.0746106729 22347012.306615911 0 22347012.306615911 9419064.797529012 0 0 0 0 -13147513.238104537 20622949.238086078 0 20622949.238086078 11702022.260745898 0 0 0 0 -20190821.697631836 32552266.604850769 0 32552266.604850769 20383837.053733826 0 0 0 0 -2834672.8617706299 29962117.849937439 0 29962117.849937439 17708828.860877991 0 0 0 0 -1612674.3379058838 30772491.452346802 0 30772491.452346802 16581336.604171753 0 0 0 0 -3396260.4818344116 27897326.41975975 0 27897326.41975975 15464829.415092468 0 0 0 0 11921975.835639954 29875323.930953979 0 29875323.930953979 16635740.170265198 0 0 0 0 2075448.1148338318 36152338.650251389 0 36152338.650251389 12888089.995025635 0 0 0 0 7803695.7570171356 47584812.865510464 0 47584812.865510464 6866781.7931976318 0 0 0 0 -13244817.421875 55492015.147151947 0 55492015.147151947 16949313.181064606 0 0 0 0 -8220616.2097244263 72413548.217010498 0 72413548.217010498 21100230.741851807 0 0 0 0 4755803.3530731201 79388867.008544922 0 79388867.008544922 -5156608.6875534058 0 0 0 0 -11379942.452533722 103759426.64498901 0 103759426.64498901 39570108.909431458 0 0 0 0 -36460133.171264648 77043894.365371704 0 77043894.365371704 21687075.458105564 0 0 0 0 -26409204.811729431 62384350.991771698 0 62384350.991771698 36965685.424919128 0 0 0 0 -26178240.03691864 56050006.73588562 0 56050006.73588562 23022227.294784546 0 0 0 0 36481732.164077759 95344494.702987671 0 95344494.702987671 -74530137.917264938 0 0 0 0 15219689.161193848 93387155.400854111 0 93387155.400854111 6409682.8862228394 0 0 0 0 6144296.6832962036 96537182.291053772 0 96537182.291053772 6903815.1185975075 0 0 0 0 -4654825.184715271 96207997.86946106 0 96207997.86946106 86961344.854118347 0 0 0 0 20361450.887374878 137032950.3169632 0 137032950.3169632 -1601034.0957489014 0 0 0 0 1213105.2469024658 64145955.65139389 0 64145955.65139389 67084204.053577423 0 0 0 0 42794482.659729004 443550592.75099564 0 443550592.75099564 -795636955.36215591 0 0 0 0 17005807.524349704 21505633.086935543 0 21505633.086935543 9308870.9737876914 0 0 0 0 21675764.029994965 22540663.029047966 0 22540663.029047966 109736463.0774231 0 0 0 0 -308268232.54044974 492025899.59390104 0 492025899.59390104 -100360767.51158905 0 0 0 0 -97472262.461727142 61795027.889595032 0 61795027.889595032 43572450.160881042 0 0 0 0 -45627585.1954422 6679342.529510498 0 6679342.529510498 10890554.882339478 0 0 0 0 -41621152.828689575 80566800.594863892 0 80566800.594863892 46348035.290962219 0 0 0 0 -42278942.80909729 83309769.575832367 0 83309769.575832367 35377927.809677124 0 0 0 0 -63116360.469619751 129192560.45598221 0 129192560.45598221 24042848.708831787 0 0 0 0 51606222.07541275 82028545.47053051 0 82028545.47053051 3099980.4793548584 0 0 0 0 -174701280.94839478 77544610.941146851 0 77544610.941146851 55723639.249599457 0 0 0 0 5431540.2807145715 2776736.6459509507 0 2776736.6459509507 -2711701.5800369829 0 0 0 0 165911964.56903076 156970287.72576904 0 156970287.72576904 -181882160.24205017 0 0 0 0 -163953189.47398376 -20673164.723266602 0 -20673164.723266602 26972734.301815033 0 0 0 0 161244666.64225006 281036429.41491318 0 281036429.41491318 -124483311.13348389 0 0 0 0 82072565.854522705 223466807.92210388 0 223466807.92210388 27706014.957077026 0 0 0 0 -129997501.8809967 443006180.88597488 0 443006180.88597488 -10033073.099063873 0 0 0 0 -39924296.220681667 -190555297.29326856 0 -190555297.29326856 95633347.345748901 0 0 0 0 -161539725.61753845 -190316182.92237854 0 -190316182.92237854 -38513675.329465866 0 0 0 0 515370.81206069887 6045287.1995515004 0 6045287.1995515004 1287578.8657804988 0 0 0 0 14178587.176150158 25488663.625760496 0 25488663.625760496 8648151.408125855 0 0 0 0 -63424539.015396118 96201142.217624664 0 96201142.217624664 -115054180.22106361 0 0 0 0 -123878225.10986328 96714637.821640015 0 96714637.821640015 -84717405.298410416 0 0 0 0 -170051848.65640259 131430676.5623703 0 131430676.5623703 -73148384.615844727 0 0 0 0 -177375649.73438644 161965634.30728912 0 161965634.30728912 -93088494.774841309 0 0 0 0 -93725785.154830933 94835767.241996765 0 94835767.241996765 -57946161.570373535 0 0 0 0 -95962910.392776489 97437517.797927856 0 97437517.797927856 -29696229.722442627 0 0 0 0 29156948.249420166 46321502.794189453 0 46321502.794189453 -42312865.84469986 0 0 0 0 49072171.025634766 17122675.522624969 0 17122675.522624969 -63230233.623291016 0 0 0 0 -15640951.969146729 89336974.154144287 0 89336974.154144287 -88287302.234695435 0 0 0 0 13478895.367950439 59172936.087539673 0 59172936.087539673 -100135313.45748901 0 0 0 0 -2478044.4543151855 48393197.70513916 0 48393197.70513916 -40366694.517173767 0 0 0 0 -200644525.98492432 20518684.087516785 0 20518684.087516785 163069372.28648758 0 0 0 0 -99099427.04699707 38754275.292495728 0 38754275.292495728 158543789.22545624 0 0 0 0 -211082938.39492798 296531774.94481277 0 296531774.94481277 329491076.00930786 0 0 0 0 -57740606.220245361 302114332.45942688 0 302114332.45942688 26850171.735832214 0 0 0 0 -288161347.25534058 191410858.6774292 0 191410858.6774292 194470081.74168682 0 0 0 0 -17018683.375366211 217975777.70267487 0 217975777.70267487 189421378.80334568 0 0 0 0 -81848379.207763672 -168114285.55970764 0 -168114285.55970764 -145400751.57144165 0 0 0 0 -64356857.837097168 509114285.25231934 0 509114285.25231934 180567462.7625351 0 0 0 0 -50343802.722503662 134808696.51081848 0 134808696.51081848 -165299109.43505859 0 0 0 0 80017907.955734253 196913717.20843124 0 196913717.20843124 94405643.343658447 0 0 0 0 -261252500.94194412 70934068.047701836 0 70934068.047701836 6596216.5568008423 0 0 0 0 -194913139.12065125 47508320.422355652 0 47508320.422355652 13456792.214637756 0 0 0 0 -3327809.3182559013 3132622.7199846804 0 3132622.7199846804 3853207.8157823235 0 0 0 0 85054461.432296753 64827232.894241333 0 64827232.894241333 220013970.69805908 0 0 0 0 925531.34782722592 1057467.3072295785 0 1057467.3072295785 -1966352.9767305553 0 0 0 0 -116271645.57354736 15769976.594963074 0 15769976.594963074 151002078.19750977 0 0 0 0 -13083253.484191895 42253145.919548035 0 42253145.919548035 122664174.34854174 0 0 0 0 13005999.635854721 61721716.259923458 0 61721716.259923458 125771740.03669739 0 0 0 0 -78767632.923408508 50633530.126374245 0 50633530.126374245 125144542.70750427 0 0 0 0 -94790778.085449219 137060477.89563751 0 137060477.89563751 133084699.52441406 0 0 0 0 23096502.579437256 140615381.7053299 0 140615381.7053299 133188251.3862257 0 0 0 0 -59083807.713653564 13990479.024482727 0 13990479.024482727 118950073.62765884 0 0 0 0 1993582.1061262637 12094095.955479734 0 12094095.955479734 -797753.46907929331 0 0 0 0 41994129.027519226 41950928.537575245 0 41950928.537575245 -6474028.150894165 0 0 0 0 -736450.93672943115 13598482.570461273 0 13598482.570461273 -18966955.484588623 0 0 0 0 53123885.695145607 21650166.846969604 0 21650166.846969604 -18850599.975669861 0 0 0 0 -2694148.5874389037 19875670.532202005 0 19875670.532202005 -6337044.9706073254 0 0 0 0 -4299031.8793282807 12520621.528450593 0 12520621.528450593 12479561.773603559 0 0 0 0 -17518813.658267975 33354181.977863312 0 33354181.977863312 -22009611.782558441 0 0 0 0 -94127906.788848877 39389292.745182037 0 39389292.745182037 11434389.693788528 0 0 0 0 6534490.1360867023 8837005.5349679887 0 8837005.5349679887 -11565188.097792976 0 0 0 0 20493532.265205383 32034556.741165161 0 32034556.741165161 -30312635.01373291 0 0 0 0 -3716523.4573440552 5183249.7251911163 0 5183249.7251911163 -20661024.55267334 0 0 0 0 28517104.453842163 9759566.272605896 0 9759566.272605896 -5501827.4570960999 0 0 0 0 -5206918.5667743683 -9942193.2323969603 0 -9942193.2323969603 117390462.3779335 0 0 0 0 -10102480.241616979 17253422.796205416 0 17253422.796205416 -7563046.8874523565 0 0 0 0 -41403677.401065826 76773907.117993355 0 76773907.117993355 -26258327.595352173 0 0 0 0 -45279420.177007675 67459972.679278374 0 67459972.679278374 -4360968.5037231445 0 0 0 0 -108271751.91928864 66580830.641136169 0 66580830.641136169 6478933.515247345 0 0 0 0 -5095773.7958867997 19885786.042525064 0 19885786.042525064 20832031.155145004 0 0 0 0 -90036414.734306335 94126551.737279892 0 94126551.737279892 -8476369.7104730606 0 0 0 0 -69987983.07283783 93099644.786148071 0 93099644.786148071 -39007477.492132187 0 0 0 0 -64258777.587234497 32042936.231212616 0 32042936.231212616 689730.23595809937 0 0 0 0 -7223530.095667243 31784339.728070877 0 31784339.728070877 554868.91783100367 0 0 0 0 42573448.289558411 80867440.492837906 0 80867440.492837906 14406052.35036087 0 0 0 0 -2621747.9262924194 72796847.506315231 0 72796847.506315231 -9256532.4366345406 0 0 0 0 25429950.178150177 71805880.939067841 0 71805880.939067841 21788600.312362671 0 0 0 0 3004708.4143486023 94768920.510335922 0 94768920.510335922 20766149.552909851 0 0 0 0 -19309036.758277893 47530519.738966465 0 47530519.738966465 13821966.017425537 0 0 0 0 -32760659.218250275 42363523.149431229 0 42363523.149431229 26331233.699131012 0 0 0 0 -7483665.8939208984 82099191.627912521 0 82099191.627912521 56146426.244842529 0 0 0 0 2832172.8683166504 28253432.689956665 0 28253432.689956665 1421935.9965305328 0 0 0 0 55944805.832511902 49213297.858978271 0 49213297.858978271 -20591672.425479889 0 0 0 0 -7007558.3135725185 31208305.88772507 0 31208305.88772507 -870022.66897904873 0 0 0 0 -137559.50239543617 25103524.263679501 0 25103524.263679501 6070601.9765626211 0 0 0 0 17636895.156906128 47026098.694478989 0 47026098.694478989 2523015.9315032959 0 0 0 0 20815997.12008667 14930358.685693741 0 14930358.685693741 10101266.580696106 0 0 0 0 -36773172.024658203 24538126.119125366 0 24538126.119125366 -19183374.61177063 0 0 0 0 -30359276.141895294 34453701.841135979 0 34453701.841135979 -4589433.3908615112 0 0 0 0 -43300357.594810486 59167517.145627975 0 59167517.145627975 42397686.605133057 0 0 0 0 9284905.6898651123 19071756.975759778 0 19071756.975759778 -1505440.4821686782 0 0 0 0 16779744.359695435 34413304.28894043 0 34413304.28894043 -14918171.683525085 0 0 0 0 -10490985.184448242 18677865.63269043 0 18677865.63269043 1764571.7680892944 0 0 0 0 -31539425.323631071 17340311.889514804 0 17340311.889514804 8641037.3742893673 0 0 0 0 10045883.994682603 29311604.663564697 0 29311604.663564697 6333086.4260740578 0 0 0 0 20678421.051310334 28507407.927164137 0 28507407.927164137 -27292074.535942644 0 0 0 0 28541179.627487183 41454268.940818787 0 41454268.940818787 -30432008.576778412 0 0 0 0 2543558.8069267273 46246310.681689262 0 46246310.681689262 -6372405.8594818115 0 0 0 0 5625064.2511005402 34166448.649616241 0 34166448.649616241 -16819138.005081177 0 0 0 0 27822893.151016235 96514895.780593872 0 96514895.780593872 79889248.816650391 0 0 0 0 -98295770.973314762 226605762.45992863 0 226605762.45992863 22885905.22102356 0 0 0 0 8607360.791385144 31205055.425506055 0 31205055.425506055 4202710.8204320222 0 0 0 0 84325783.213546753 106046423.88853455 0 106046423.88853455 -46070332.53465271 0 0 0 0 -18272556.152877808 54729959.433712006 0 54729959.433712006 -31272686.736776352 0 0 0 0 -18735958.508041382 59081322.252839088 0 59081322.252839088 -22321212.123199463 0 0 0 0 -19060715.533729553 55385890.012942314 0 55385890.012942314 -23264151.054328918 0 0 0 0 -1812563.1758060455 51167813.919584274 0 51167813.919584274 -27871096.590148926 0 0 0 0 16724639.651403308 39759478.276520133 0 39759478.276520133 -37581767.192352295 0 0 0 0 -988033.55416870117 42858815.301757812 0 42858815.301757812 -21415657.370834351 0 0 0 0 -5653809.3528366089 54200637.370113373 0 54200637.370113373 -42379679.621627808 0 0 0 0 1117700.521270752 36856721.134475708 0 36856721.134475708 -40543754.617604256 0 0 0 0 -8195785.2333598882 21200821.007773291 0 21200821.007773291 1050295.2367198616 0 0 0 0 2303478.6744384766 43462244.241867065 0 43462244.241867065 -30240372.375305176 0 0 0 0 -2979233.6712636277 7803629.0130598657 0 7803629.0130598657 164307.36189677007 0 0 0 0 7084075.5076675415 65467380.871393204 0 65467380.871393204 -101370028.87387466 0 0 0 0 -4529939.2600326538 78982039.044654846 0 78982039.044654846 -44568775.029615402 0 0 0 0 -41126174.798599243 84981077.520526886 0 84981077.520526886 174167944.76491737 0 0 0 0 -32624409.007545471 105657887.24733353 0 105657887.24733353 82891768.270210266 0 0 0 0 -11101728.716339111 100548585.86742783 0 100548585.86742783 70643149.1951828 0 0 0 0 -18316507.410663605 94928722.155311584 0 94928722.155311584 41276378.377853394 0 0 0 0 -24424661.460891724 59436088.340278625 0 59436088.340278625 78444100.998474121 0 0 0 0 -24548886.978553772 53632805.925518036 0 53632805.925518036 34985697.07194519 0 0 0 0 -23373323.074127197 108228717.81156921 0 108228717.81156921 87825700.570465088 0 0 0 0 12422819.230377197 110800162.64122772 0 110800162.64122772 44910654.6420784 0 0 0 0 -14735757.828807831 136362754.84436798 0 136362754.84436798 23696888.631385803 0 0 0 0 -58619361.593215942 131261107.28808212 0 131261107.28808212 77453497.960990906 0 0 0 0 -42695302.022209167 114523992.11716461 0 114523992.11716461 66043370.906909943 0 0 0 0 -84514239.818763733 150238940.32148361 0 150238940.32148361 70827038.541439056 0 0 0 0 -29396605.100559235 129441045.29314041 0 129441045.29314041 -53964803.375831604 0 0 0 0 -34358897.609344482 133698922.94711304 0 133698922.94711304 84512140.44846344 0 0 0 0 52201604.745056152 146572639.82722855 0 146572639.82722855 24720025.286373138 0 0 0 0 41846651.635709763 107041594.7006588 0 107041594.7006588 -22207498.575492859 0 0 0 0 95030053.991333008 74339005.718219757 0 74339005.718219757 -120493064.54793549 0 0 0 0 81447942.253143311 96988617.723374367 0 96988617.723374367 -42418590.227172852 0 0 0 0 -53565190.373664856 74417817.088233948 0 74417817.088233948 -29742180.45472908 0 0 0 0 -6409743.5978317261 115591951.11811447 0 115591951.11811447 -45927417.090564728 0 0 0 0 -29995575.848709106 -1130593.1901473999 0 -1130593.1901473999 -128919989.9119606 0 0 0 0 6824279.7089996338 25625009.123878479 0 25625009.123878479 406986697.03607941 0 0 0 0 2702925.2105169967 4215105.4458036423 0 4215105.4458036423 3086146.7799063297 0 0 0 0 86710402.09777832 63278903.858535767 0 63278903.858535767 -259693688.24969864 0 0 0 0 -22710559.674186707 129059299.64639282 0 129059299.64639282 572394320.89580536 0 0 0 0 -125793573.31512451 348960080.68127441 0 348960080.68127441 627373085.18305969 0 0 0 0 128974570.77928925 47440303.324180603 0 47440303.324180603 177148736.66885376 0 0 0 0 12162582.347364634 28328373.720653277 0 28328373.720653277 -3555290.6861647964 0 0 0 0 8000599.7492988631 11277640.602602601 0 11277640.602602601 10105087.708596617 0 0 0 0 23086012.041168213 58864135.30607605 0 58864135.30607605 179414503.76409149 0 0 0 0 28715229.509872437 86478750.721481323 0 86478750.721481323 154392971.33014679 0 0 0 0 19333072.948421478 93933770.365242004 0 93933770.365242004 149517990.06678009 0 0 0 0 10349581.96091973 35888537.066827647 0 35888537.066827647 -3818990.6644848101 0 0 0 0 11505606.997322083 32451960.941427231 0 32451960.941427231 -23475403.190879822 0 0 0 0 26929813.792098999 65847217.905349731 0 65847217.905349731 137921856.34762383 0 0 0 0 -2391994.8104476929 44099603.254177094 0 44099603.254177094 8453561.3279476166 0 0 0 0 11240265.64969635 32132160.402509689 0 32132160.402509689 -14275857.785797119 0 0 0 0 8613014.739566803 32703496.666288376 0 32703496.666288376 -2840203.3753433228 0 0 0 0 6429295.4137878418 40725843.048316956 0 40725843.048316956 -12862960.208847046 0 0 0 0 -35053042.24041748 41898865.06055069 0 41898865.06055069 8485864.3704185486 0 0 0 0 -22785370.09601593 27987888.17593956 0 27987888.17593956 9269118.5439300537 0 0 0 0 -40604410.246337891 43634020.268611908 0 43634020.268611908 8124410.0842094421 0 0 0 0 -40663906.326279163 42284292.115497351 0 42284292.115497351 12313327.131721497 0 0 0 0 -29549008.739955902 55874346.008797646 0 55874346.008797646 -24666275.316902161 0 0 0 0 -37269508.170730591 40166492.628142357 0 40166492.628142357 7335188.2648391724 0 0 0 0 -43221156.951599121 54283770.890724182 0 54283770.890724182 -14083436.491882324 0 0 0 0 -43605225.020629883 38878806.819625854 0 38878806.819625854 12158790.964347839 0 0 0 0 -42513334.169952393 41130277.198867798 0 41130277.198867798 2012194.746131897 0 0 0 0 -51912414.863304138 37286826.330569267 0 37286826.330569267 13682815.517120361 0 0 0 0 771643.2011122182 33114632.660275064 0 33114632.660275064 26798266.572713315 0 0 0 0 -29771053.034301758 17502323.436487198 0 17502323.436487198 24409774.45111084 0 0 0 0 -37936133.099124908 22225063.844408035 0 22225063.844408035 35665769.593986511 0 0 0 0 -48743822.513519287 38564312.980453491 0 38564312.980453491 49900773.473678589 0 0 0 0 10426090.085096903 5649301.2865210623 0 5649301.2865210623 -13830449.690459833 0 0 0 0 9479642.5076944828 70655960.407588482 0 70655960.407588482 242315793.59249878 0 0 0 0 -97362419.977783203 28614496.478607178 0 28614496.478607178 -101192133.57885742 0 0 0 0 26669702.831469163 34696634.086094953 0 34696634.086094953 -110508.4340557307 0 0 0 0 9311939.3653259277 65511967.696655273 0 65511967.696655273 196605321.19189453 0 0 0 0 97382892.422348022 175972125.58715057 0 175972125.58715057 164215422.01540375 0 0 0 0 27815046.983921051 123304547.69699478 0 123304547.69699478 250713777.67630005 0 0 0 0 26047262.537139893 108676239.21060181 0 108676239.21060181 145553899.09475708 0 0 0 0 12062781.7605896 203330436.41562653 0 203330436.41562653 142257918.85913086 0 0 0 0 158418941.44134521 77027783.426902771 0 77027783.426902771 -116160177.76901245 0 0 0 0 -42398292.90625 -39255833.511672974 0 -39255833.511672974 20158195.038124084 0 0 0 0 51087379.89881897 -9060071.0481147766 0 -9060071.0481147766 16347341.411651611 0 0 0 0 -85554632.467422485 -14753768.83303833 0 -14753768.83303833 53064329.203323364 0 0 0 0 24805503.319076538 30650097.29523468 0 30650097.29523468 104236091.16880798 0 0 0 0 72921859.356567383 107079602.16686249 0 107079602.16686249 56489578.399520874 0 0 0 0 44628085.692131042 102518975.3032608 0 102518975.3032608 144492764.05978394 0 0 0 0 -8545554.1927032471 10139938.792854309 0 10139938.792854309 44417715.510345459 0 0 0 0 12014008.519735426 25034644.119559359 0 25034644.119559359 21479181.183405023 0 0 0 0 -50287213.337081909 13787344.370315552 0 13787344.370315552 47538848.259296417 0 0 0 0 -84669905.58267951 15445676.536038697 0 15445676.536038697 56559656.70287323 0 0 0 0 -13045845.677615799 22547229.478989117 0 22547229.478989117 26214090.600799527 0 0 0 0 -35401614.272655487 43799435.575587273 0 43799435.575587273 7325038.1636428833 0 0 0 0 -42775566.036117554 45010957.298793793 0 45010957.298793793 10196792.320934296 0 0 0 0 -47329295.884864807 25034495.214345932 0 25034495.214345932 -6379903.5303955078 0 0 0 0 -20963167.218861312 33964060.53587842 0 33964060.53587842 43489532.41779428 0 0 0 0 -19905161.12121582 18646530.615402222 0 18646530.615402222 9208150.5386257172 0 0 0 0 -8759992.4538972229 42929378.892263018 0 42929378.892263018 7050546.0560785681 0 0 0 0 -3063813.35206604 64497442.534395218 0 64497442.534395218 109005626.8551445 0 0 0 0 20675585.552778095 22857559.551184397 0 22857559.551184397 7529201.1255517229 0 0 0 0 83224017.991283417 64097393.951097488 0 64097393.951097488 29771619.99933815 0 0 0 0 6454731.6315337606 15873674.582719602 0 15873674.582719602 7643957.037034899 0 0 0 0 -15477211.907081179 33787598.057661057 0 33787598.057661057 24986049.954253547 0 0 0 0 5572837.7975148708 6380581.6983635724 0 6380581.6983635724 2866140.9307302721 0 0 0 0 -52971300.038650513 -9436531.2611656189 0 -9436531.2611656189 102184827.55275726 0 0 0 0 40986014.905847549 217900201.9481349 0 217900201.9481349 192177635.61151123 0 0 0 0 83030806.794540405 102222811.53548431 0 102222811.53548431 22904136.895684242 0 0 0 0 59651064.47354126 63997897.482948303 0 63997897.482948303 -53531186.720947266 0 0 0 0 31877817.271100998 79249585.02929306 0 79249585.02929306 19089574.434158325 0 0 0 0 66755663.270734787 43084538.282671928 0 43084538.282671928 2964129.8928222656 0 0 0 0 35452244.43321228 90353968.01197052 0 90353968.01197052 17946803.225738525 0 0 0 0 -72067816.164106369 75863457.777442455 0 75863457.777442455 -15322200.596618652 0 0 0 0 3497877.9406232834 3106735.4942387342 0 3106735.4942387342 -4750794.9376379512 0 0 0 0 189686855.12710571 55815302.584802628 0 55815302.584802628 -128698899.80218124 0 0 0 0 -214936953.32351685 65888697.906303406 0 65888697.906303406 258304577.41848755 0 0 0 0 158122439.66833496 139773463.88062096 0 139773463.88062096 71958866.358535767 0 0 0 0 110926573.60546875 156527927.73634911 0 156527927.73634911 100291206.23836136 0 0 0 0 179313692.03128052 178625606.10068703 0 178625606.10068703 106534458.33368874 0 0 0 0 -150262370.4151001 87373506.11819458 0 87373506.11819458 123331799.55319786 0 0 0 0 121532041.4403162 62811809.557485938 0 62811809.557485938 101480553.44940948 0 0 0 0 -197901530.56765747 145989566.95863342 0 145989566.95863342 91856440.270027161 0 0 0 0 -23022224.978299767 27063847.492380269 0 27063847.492380269 37030985.287458226 0 0 0 0 -150573534.67987061 -601113.31037521362 0 -601113.31037521362 18644417.706920624 0 0 0 0 -66572712.042480469 6884214.5725708008 0 6884214.5725708008 -21067714.526706696 0 0 0 0 -19278029.922421575 24790659.669131041 0 24790659.669131041 36234779.107538596 0 0 0 0 56294896.95475769 -153355046.46619225 0 -153355046.46619225 14968106.525260925 0 0 0 0 69822785.94152832 -72241140.434886932 0 -72241140.434886932 -155185637.94553375 0 0 0 0 -702509.08892822266 51213400.641464233 0 51213400.641464233 63323681.881809235 0 0 0 0 82417613.718032837 -24581038.366704941 0 -24581038.366704941 16228682.176021576 0 0 0 0 21455154.830108643 -44178065.262008667 0 -44178065.262008667 17078226.048784256 0 0 0 0 106729837.4569397 107126004.54641342 0 107126004.54641342 90231157.69691658 0 0 0 0 224734432.83520508 95525894.467674255 0 95525894.467674255 95629975.786034584 0 0 0 0 100131504.14691162 107511062.61348724 0 107511062.61348724 94683580.004314423 0 0 0 0 84308848.947113037 167226721.35187912 0 167226721.35187912 83299669.345825195 0 0 0 0 82250997.978286743 56381882.845258713 0 56381882.845258713 28653920.516792297 0 0 0 0 135935747.78930664 98267895.332871437 0 98267895.332871437 29792592.247585297 0 0 0 0 48185920.198745728 4680798.8211669922 0 4680798.8211669922 -8222803.9720954895 0 0 0 0 98965215.708808899 71806089.37555027 0 71806089.37555027 -104541447.44015884 0 0 0 0 -24500853.187774658 157930741.4081707 0 157930741.4081707 3068600.8044891357 0 0 0 0 -14766926.797982216 54868045.658226609 0 54868045.658226609 -20220911.043754578 0 0 0 0 67640764.026218414 47459518.058114052 0 47459518.058114052 -259509932.73685455 0 0 0 0 66013121.462661743 24963283.03732872 0 24963283.03732872 -64619837.959775925 0 0 0 0 -2922692.3447265625 133351401.24279881 0 133351401.24279881 232078632.3097496 0 0 0 0 35623293.447906494 93484992.569007874 0 93484992.569007874 68675294.8826828 0 0 0 0 56407809.597862244 194131735.39574242 0 194131735.39574242 211842942.46794891 0 0 0 0 107795736.96669006 177963065.78291512 0 177963065.78291512 77197050.541429996 0 0 0 0 -8423817.0865276158 11045864.613975883 0 11045864.613975883 13230380.462908015 0 0 0 0 123795393.13394165 181676137.33092213 0 181676137.33092213 177974659.57092476 0 0 0 0 127612662.65608215 168873431.27445984 0 168873431.27445984 220755933.4995079 0 0 0 0 99391035.355728149 136482113.15833473 0 136482113.15833473 113482302.41034126 0 0 0 0 209949694.34658813 210358511.3820343 0 210358511.3820343 186204251.25385094 0 0 0 0 97827040.79234314 145744991.3653928 0 145744991.3653928 265929223.42447662 0 0 0 0 -15515684.432006836 85763636.131239891 0 85763636.131239891 -24079821.097668171 0 0 0 0 24786634.110435486 61425604.546777248 0 61425604.546777248 -160007717.88860703 0 0 0 0 23102995.079154968 21864942.78542757 0 21864942.78542757 -49503533.917648315 0 0 0 0 199106552.2118988 267478007.77302265 0 267478007.77302265 202086171.62160039 0 0 0 0 38816990.992591858 -5893315.5492707491 0 -5893315.5492707491 -255970564.32214165 0 0 0 0 -7928920.3652624488 4695860.5781095475 0 4695860.5781095475 8053400.4729364095 0 0 0 0 59438466.507881165 291876592.06760883 0 291876592.06760883 480639134.91908455 0 0 0 0 -17157601.817232206 19741273.791468412 0 19741273.791468412 40422139.400468275 0 0 0 0 6065626.9789123535 30037338.156682968 0 30037338.156682968 13863482.522188187 0 0 0 0 -87005057.850814819 45608493.843812943 0 45608493.843812943 106430314.61052585 0 0 0 0 8557293.3993826881 35092503.256411456 0 35092503.256411456 10684451.786763661 0 0 0 0 5779370.8636932373 28319271.726715088 0 28319271.726715088 29193764.368021727 0 0 0 0 6106688.2477065921 31199687.433819763 0 31199687.433819763 17774797.271807626 0 0 0 0 8015408.1308898926 24668085.981927872 0 24668085.981927872 14710253.457992554 0 0 0 0 -1112250.2702240646 10950644.973924328 0 10950644.973924328 4821550.1182725532 0 0 0 0 23867980.784591675 16549647.557956696 0 16549647.557956696 84534467.070495605 0 0 0 0 -12198283.770889282 85770462.781396866 0 85770462.781396866 306800235.23145485 0 0 0 0 -5505586.9771956801 697426.31091076136 0 697426.31091076136 4943799.2883962467 0 0 0 0 -934560.76773071289 88393394.402918577 0 88393394.402918577 -69662392.459008217 0 0 0 0 3942054.9172417223 25058470.345387347 0 25058470.345387347 9895597.4673615806 0 0 0 0 -10338975.556987762 9210128.9136643261 0 9210128.9136643261 3713965.0645666122 0 0 0 0 920232.6199798584 26269109.581876755 0 26269109.581876755 12492433.620697975 0 0 0 0 14410821.699007176 34067441.784593396 0 34067441.784593396 4656335.7786390707 0 0 0 0 -12169604.390693665 38801121.60020256 0 38801121.60020256 -7945481.7359085083 0 0 0 0 -227485498.12528992 232545827.6689167 0 232545827.6689167 -114536311.37974501 0 0 0 0 61978414.63041687 31441300.946065426 0 31441300.946065426 -381766904.47581625 0 0 0 0 2375715.8423254155 10064763.253224447 0 10064763.253224447 2584558.8217996564 0 0 0 0 -166039661.91471863 127108411.4734807 0 127108411.4734807 11570065.895102262 0 0 0 0 -56884066.373626709 287916224.80321169 0 287916224.80321169 -371641758.81891513 0 0 0 0 51056189.870803833 116283450.93419456 0 116283450.93419456 -165871172.31450871 0 0 0 0 35958299.732891083 158088182.40728676 0 158088182.40728676 -243889723.08474922 0 0 0 0 112464918.10832024 108548369.774652 0 108548369.774652 -330736081.58697462 0 0 0 0 80247614.017654419 20524015.989495397 0 20524015.989495397 -499132836.59135479 0 0 0 0 -201992551.23099518 320788063.07677239 0 320788063.07677239 -320278232.7738595 0 0 0 0 27380626.105667114 246320835.37046957 0 246320835.37046957 -539344522.3127315 0 0 0 0 53168285.170581818 78741705.842099786 0 78741705.842099786 -233554093.76840448 0 0 0 0 10768946.453529358 51326542.855367184 0 51326542.855367184 -249957655.53254461 0 0 0 0 -29521614.375740051 -19585889.304020643 0 -19585889.304020643 -303776417.46129417 0 0 0 0 64720607.103775024 83861720.739345551 0 83861720.739345551 -290803673.68251896 0 0 0 0 105891688.62913513 64566309.443094254 0 64566309.443094254 -304327888.52099717 0 0 0 0 142711725.19888306 7428328.946867466 0 7428328.946867466 -245091606.94706678 0 0 0 0 91969873.184581757 33175177.616702795 0 33175177.616702795 -256211468.06665421 0 0 0 0 47676595.390472412 56224319.12357235 0 56224319.12357235 -215597605.40813613 0 0 0 0 45079629.677865505 18965472.683871344 0 18965472.683871344 -140828828.02548504 0 0 0 0 23965063.765167236 -24081781.035330325 0 -24081781.035330325 -56381383.696033314 0 0 0 0 93867426.667869568 -24792470.453067005 0 -24792470.453067005 -153684369.01724625 0 0 0 0 23958726.928489685 -23256362.225043058 0 -23256362.225043058 -59700415.218108654 0 0 0 0 25238404.172175646 -26717517.749176595 0 -26717517.749176595 -62206108.154584408 0 0 0 0 25235788.190522432 -26755279.894986786 0 -26755279.894986786 -57695137.909836054 0 0 0 0 141054732.72751617 -73700332.587119937 0 -73700332.587119937 -117446633.15422726 0 0 0 0 90304221.624824524 5629697.9568680525 0 5629697.9568680525 -221919899.52316403 0 0 0 0 18007492.129623413 -31967032.158675909 0 -31967032.158675909 -8985419.3570715189 0 0 0 0 165850850.3507843 -89405704.705464244 0 -89405704.705464244 -117831127.84325016 0 0 0 0 28523149.616249084 -72429717.416062832 0 -72429717.416062832 23507937.97003454 0 0 0 0 69977016.350189209 -124011009.4089191 0 -124011009.4089191 106204569.58535057 0 0 0 0 12566772.873947144 -40472982.022124782 0 -40472982.022124782 -39459028.83538723 0 0 0 0 14395917.767524719 -31192584.023783863 0 -31192584.023783863 -26751221.180029154 0 0 0 0 39030105.54284668 217032570.05035019 0 217032570.05035019 -281008229.3882184 0 0 0 0 79933519.698135376 217233609.83721647 0 217233609.83721647 -208114060.83106631 0 0 0 0 181082351.38171387 264205635.34619105 0 264205635.34619105 -271211482.22359347 0 0 0 0 271091209.25257874 7640514.0166966319 0 7640514.0166966319 -317397542.27139741 0 0 0 0 42694268.823303223 109473096.73101741 0 109473096.73101741 -176966011.51867938 0 0 0 0 328745699.36271667 20323012.060776569 0 20323012.060776569 -157247341.24796948 0 0 0 0 401875379.67565155 141245601.21031666 0 141245601.21031666 -10320944.668088004 0 0 0 0 352798514.30444336 -229072697.64419568 0 -229072697.64419568 -14485749.472291976 0 0 0 0 726174265.34991455 -208882302.04993528 0 -208882302.04993528 81482149.767532408 0 0 0 0 258559195.46146202 290357162.36538237 0 290357162.36538237 -183116415.09105647 0 0 0 0 389866330.51596069 120776515.46484581 0 120776515.46484581 -119670080.90263599 0 0 0 0 126126503.08795166 176881027.58423206 0 176881027.58423206 -15040619.652164549 0 0 0 0 -1449602.5263061523 203024298.39505723 0 203024298.39505723 -108897097.08184171 0 0 0 0 -11009539.843521118 318585745.47104621 0 318585745.47104621 -330451783.16613305 0 0 0 0 142502553.00297737 280750583.82817614 0 280750583.82817614 -239786639.13417074 0 0 0 0 -45397044.160293579 323829953.06977028 0 323829953.06977028 -170633664.81635946 0 0 0 0 100116466.65800858 305278849.20741957 0 305278849.20741957 -268623492.53300619 0 0 0 0 -139750515.14622498 379534616.89055789 0 379534616.89055789 -226527017.67411602 0 0 0 0 -46141287.422843933 303564695.52812171 0 303564695.52812171 -300142213.58776945 0 0 0 0 -30525079.942138672 340892650.10689265 0 340892650.10689265 -289202476.54734397 0 0 0 0 -22697375.288101196 358217372.86141396 0 358217372.86141396 -252652207.07129729 0 0 0 0 -196677662.56538391 294513174.17321217 0 294513174.17321217 -280738452.11876404 0 0 0 0 -430982056.31832886 320654657.44038171 0 320654657.44038171 -209803774.06910273 0 0 0 0 -157406896.51830292 386824245.40002251 0 386824245.40002251 -271595652.11724174 0 0 0 0 -200436668.27371216 277575059.78866005 0 277575059.78866005 -222441763.7835294 0 0 0 0 -343687698.04518127 457377452.11308455 0 457377452.11308455 -348263773.75810456 0 0 0 0 -482190969.51369858 426184435.99719572 0 426184435.99719572 -233937836.17168963 0 0 0 0 200327947.09565735 59030225.473054409 0 59030225.473054409 -169346004.8379631 0 0 0 0 -446828616.54850769 309752279.20038676 0 309752279.20038676 -327761279.15491325 0 0 0 0 -186511558.17980194 151449092.85375607 0 151449092.85375607 47088767.480108023 0 0 0 0 -43495366.157424927 -6122924.1408079863 0 -6122924.1408079863 -60920073.458648682 0 0 0 0 11747318.090503111 9681050.5619328991 0 9681050.5619328991 3325696.1477619759 0 0 0 0 -32784341.225723267 68236829.611754417 0 68236829.611754417 -7002574.5058794022 0 0 0 0 -12273103.205947876 71202170.887194633 0 71202170.887194633 -92257375.260221481 0 0 0 0 25124767.471243583 25425950.289741188 0 25425950.289741188 11754352.189325199 0 0 0 0 -87557253.336547852 90946530.254079819 0 90946530.254079819 -101216136.03657913 0 0 0 0 31134891.330688477 26957697.79211998 0 26957697.79211998 -14857810.176864624 0 0 0 0 -19682538.046798706 118462560.17455673 0 118462560.17455673 -94350212.443433166 0 0 0 0 -36573384.121063232 102964548.38137817 0 102964548.38137817 -68487320.692331314 0 0 0 0 -13336035.582588196 58116281.516717434 0 58116281.516717434 -139936726.69087124 0 0 0 0 -52346753.369445801 14391639.835329056 0 14391639.835329056 -142142720.80795276 0 0 0 0 13919490.246677108 4525748.3285708576 0 4525748.3285708576 -15180335.01075514 0 0 0 0 19283557.337234288 16425698.529454097 0 16425698.529454097 5070077.5520643964 0 0 0 0 -141226828.27023315 93852617.983726501 0 93852617.983726501 -17658169.337341309 0 0 0 0 56061748.703720093 -3494633.944978714 0 -3494633.944978714 -151177774.08937073 0 0 0 0 -120192429.69335938 -59540255.093235016 0 -59540255.093235016 -114952109.33436584 0 0 0 0 -149857606.13238525 -6623749.9033088684 0 -6623749.9033088684 -90210136.044776917 0 0 0 0 299862269.98492432 -49216614.527618408 0 -49216614.527618408 -237567393.77214622 0 0 0 0 161098092.89122391 317822980.6656363 0 317822980.6656363 124985434.9485054 0 0 0 0 -86675396.677093506 198578293.3591423 0 198578293.3591423 235118082.68066406 0 0 0 0 14938882.899276733 30644431.877967834 0 30644431.877967834 -10180172.494300842 0 0 0 0 9343313.8778686523 36273011.149929047 0 36273011.149929047 -14334386.065032959 0 0 0 0 23032522.269340515 32460200.154182434 0 32460200.154182434 -19168814.620445251 0 0 0 0 9766902.438293457 42426510.155464172 0 42426510.155464172 -20709058.957938194 0 0 0 0 17573346.402900696 38549675.148036957 0 38549675.148036957 -21102745.637252808 0 0 0 0 14566014.595046997 37831668.736507416 0 37831668.736507416 -19033503.112073302 0 0 0 0 15262876.88053894 36282673.421340942 0 36282673.421340942 -18217997.770446777 0 0 0 0 11274389.245285034 36928302.327152252 0 36928302.327152252 -18271022.233669996 0 0 0 0 13544486.003220081 38122679.097587526 0 38122679.097587526 -17889547.086654663 0 0 0 0 13545576.929414749 38168106.698012352 0 38168106.698012352 -16004830.822502136 0 0 0 0 11208543.435699463 37635693.493408203 0 37635693.493408203 -21198534.171394348 0 0 0 0 24497668.403718606 21796592.766338594 0 21796592.766338594 -5887716.5828320086 0 0 0 0 9059394.2738800049 38791558.658218384 0 38791558.658218384 -18599754.722900391 0 0 0 0 -10631711.915222168 54201991.99527359 0 54201991.99527359 64406630.31073761 0 0 0 0 124163651.96066284 185003891.11051559 0 185003891.11051559 102279733.93875885 0 0 0 0 14829996.951501653 4892987.5269695334 0 4892987.5269695334 -13292377.678043373 0 0 0 0 -63217859.677337646 139479682.61634827 0 139479682.61634827 206847165.30348206 0 0 0 0 -234269.09878921509 43476929.678842545 0 43476929.678842545 -99776959.134910583 0 0 0 0 -32719331.007110596 7450343.8416290283 0 7450343.8416290283 -48237301.730621338 0 0 0 0 8152871.8116989136 31672986.499629021 0 31672986.499629021 -181766934.8500824 0 0 0 0 -76392929.868164062 210943036.69174194 0 210943036.69174194 16959248.838207245 0 0 0 0 -25904957.0027771 82106558.356807709 0 82106558.356807709 -8315426.8342514038 0 0 0 0 -57543490.166381836 159336905.94049454 0 159336905.94049454 13072183.664104462 0 0 0 0 -50746966.594955444 130024834.46640205 0 130024834.46640205 76838964.759216309 0 0 0 0 -24234456.333465576 148942310.33016968 0 148942310.33016968 -79371758.598480225 0 0 0 0 1882709.1820983887 108048612.73118973 0 108048612.73118973 -105606051.44330597 0 0 0 0 -26356535.913708687 94336274.045423269 0 94336274.045423269 -106049336.81954956 0 0 0 0 32583832.981140137 122989845.42591095 0 122989845.42591095 -109204220.31169701 0 0 0 0 -53355922.222381592 61039288.59274292 0 61039288.59274292 49208341.535394669 0 0 0 0 64073217.465698242 30910056.170261383 0 30910056.170261383 -242483477.79342651 0 0 0 0 85554289.190582275 68666823.414669037 0 68666823.414669037 -245812688.65888214 0 0 0 0 145893172.86331177 128178594.92749405 0 128178594.92749405 -213206834.15293884 0 0 0 0 918671.91220363975 2322933.4723486081 0 2322933.4723486081 2837989.1938530318 0 0 0 0 37479554.87689209 76862170.17591095 0 76862170.17591095 -127175372.73390198 0 0 0 0 4539228.5679931641 97329081.007484436 0 97329081.007484436 -121952745.57653046 0 0 0 0 -69685486.81137085 91820406.124082565 0 91820406.124082565 -2496556.506280899 0 0 0 0 -60841925.702270508 77610848.172363281 0 77610848.172363281 12612818.17754364 0 0 0 0 -48063677.807983398 51182839.719295502 0 51182839.719295502 -15597598.754295349 0 0 0 0 33419587.839416504 3280066.4915854335 0 3280066.4915854335 -263020666.59323835 0 0 0 0 -39396501.843505859 69148720.481279373 0 69148720.481279373 -79226665.152786255 0 0 0 0 27018271.799044892 26461893.644020639 0 26461893.644020639 1233805.3814843819 0 0 0 0 -151820818.24156189 -30411062.543849945 0 -30411062.543849945 250336393.82271576 0 0 0 0 -83556468.062805176 -30381879.501091003 0 -30381879.501091003 -64516314.341162682 0 0 0 0 -39766374.173751831 67519160.874866486 0 67519160.874866486 -28407545.413835526 0 0 0 0 -80642465.530105591 99620148.117757797 0 99620148.117757797 117769538.83386993 0 0 0 0 -94323719.647232056 164819439.05294037 0 164819439.05294037 224915691.3602984 0 0 0 0 14470554.105773926 211733570.57954121 0 211733570.57954121 -211668532.0820756 0 0 0 0 -124384750.26166344 317386673.20084536 0 317386673.20084536 -291729395.4878459 0 0 0 0 186229930.31887054 10701072.360476494 0 10701072.360476494 -87175637.335571289 0 0 0 0 22687744.295871451 19568437.082252681 0 19568437.082252681 -127471.63810059754 0 0 0 0 -121115815.93222046 335137696.19282269 0 335137696.19282269 -270089968.55744135 0 0 0 0 13073297.280686006 6131895.7873172238 0 6131895.7873172238 -7532621.3846494481 0 0 0 0 -121136420.79701233 216634649.73549366 0 216634649.73549366 78164810.264469147 0 0 0 0 -92730035.874023438 219762734.79204178 0 219762734.79204178 161613127.47630119 0 0 0 0 70743.348899841309 52898300.375872612 0 52898300.375872612 -25418872.738737106 0 0 0 0 15567306.251822591 42726059.535682522 0 42726059.535682522 -22380483.634471893 0 0 0 0 13671266.554977417 71889890.901391983 0 71889890.901391983 -77347462.117473602 0 0 0 0 15731696.595077515 62797298.311191559 0 62797298.311191559 -62643491.316360474 0 0 0 0 -7226017.172668457 135491109.88499451 0 135491109.88499451 -116958040.840271 0 0 0 0 11471690.640491009 95505891.036705852 0 95505891.036705852 -56845092.747303009 0 0 0 0 -5466986.2204666138 110237893.88751602 0 110237893.88751602 48109221.925130844 0 0 0 0 -30657.063842773438 76698118.269371033 0 76698118.269371033 169399275.41740417 0 0 0 0 45812633.152679443 62607173.260484695 0 62607173.260484695 84234414.621887207 0 0 0 0 16966418.005203247 66367904.954303741 0 66367904.954303741 158830674.64086151 0 0 0 0 9262326.40366745 86811418.03275919 0 86811418.03275919 217945850.63046265 0 0 0 0 3293090.007106781 128242324.36679459 0 128242324.36679459 416108055.6548233 0 0 0 0 228944717.06163025 40263617.016407013 0 40263617.016407013 -238385127.73665428 0 0 0 0 73431075.467193604 134435743.47889709 0 134435743.47889709 190641212.04098797 0 0 0 0 -409348.69597697258 -1715212.3976464644 0 -1715212.3976464644 295779.46017271094 0 0 0 0 -142903090.42906189 2378758.7076702118 0 2378758.7076702118 -9214348.7722511292 0 0 0 0 17969205.215744019 105763841.98256302 0 105763841.98256302 207354255.20909119 0 0 0 0 40990065.507194519 66071926.716435432 0 66071926.716435432 184700244.64363861 0 0 0 0 29008578.277339935 121249526.01157665 0 121249526.01157665 150174249.47734833 0 0 0 0 34484189.664428711 47270275.061340332 0 47270275.061340332 221934386.73511505 0 0 0 0 26726831.584350586 52764513.437566757 0 52764513.437566757 127701251.98638916 0 0 0 0 2417922.9158172607 105617577.05173111 0 105617577.05173111 145982142.97595215 0 0 0 0 -838775.4632050246 -2605333.12354929 0 -2605333.12354929 117482.47735459358 0 0 0 0 -7964403.9609680176 -1041521.5034637451 0 -1041521.5034637451 -37090005.099113464 0 0 0 0 27415507.063446045 -1616185.9317531586 0 -1616185.9317531586 -61776753.688091278 0 0 0 0 6047166.7375183105 88142755.262897491 0 88142755.262897491 240002172.23006821 0 0 0 0 4818228.5423030853 33521506.581323624 0 33521506.581323624 -12008354.258872986 0 0 0 0 2093858.4643420875 -360434.61312174238 0 -360434.61312174238 -3216522.1001367345 0 0 0 0 -15597065.197753906 -31638213.183094025 0 -31638213.183094025 -6592376.9708824158 0 0 0 0 9748946.5581917763 77434724.711341262 0 77434724.711341262 -96357519.074790955 0 0 0 0 -13860389.415100098 47422254.354667664 0 47422254.354667664 -94533418.512589216 0 0 0 0 -32823883.754440308 45026157.9780159 0 45026157.9780159 -34721329.351280212 0 0 0 0 -32729728.248893738 43612460.174648285 0 43612460.174648285 -49090409.677230835 0 0 0 0 -21642137.477798462 32215609.425502777 0 32215609.425502777 -73986361.528945923 0 0 0 0 -10029106.114120483 10186141.868373871 0 10186141.868373871 13133578.715206146 0 0 0 0 3047971.6645717025 1691942.6830601469 0 1691942.6830601469 -7657031.2740253508 0 0 0 0 -33433873.462158203 40486498.251459122 0 40486498.251459122 -45530734.602363586 0 0 0 0 -4194871.751247406 11361334.535526276 0 11361334.535526276 3229121.0249023438 0 0 0 0 -8209302.7159835473 15903326.549356662 0 15903326.549356662 -11082456.276817076 0 0 0 0 -5098359.4847106822 10609682.658221126 0 10609682.658221126 3201124.8731735498 0 0 0 0 -16928309.090614319 8935036.9148864746 0 8935036.9148864746 10752589.264966965 0 0 0 0 -11720230.683215141 36939027.718762159 0 36939027.718762159 29349543.295833588 0 0 0 0 -2813669.6850957125 11483826.787293924 0 11483826.787293924 -20393181.9930165 0 0 0 0 -25296899.716293335 -15314438.553356171 0 -15314438.553356171 15952432.642211914 0 0 0 0 -6523310.7144165039 18331263.406967163 0 18331263.406967163 -3281399.378490448 0 0 0 0 -3017864.4769592285 10399092.375026703 0 10399092.375026703 -4912973.5780935287 0 0 0 0 -11270663.768829346 17138178.386203766 0 17138178.386203766 12880846.512312174 0 0 0 0 -802320.99867248535 14029420.77844429 0 14029420.77844429 -13683762.180755615 0 0 0 0 -863548.63276672363 65698794.771770477 0 65698794.771770477 102611480.10231018 0 0 0 0 -995607.8036429584 -1702262.5926989131 0 -1702262.5926989131 -905340.74022231251 0 0 0 0 2188126.821434021 10201268.908517838 0 10201268.908517838 -20213941.303733826 0 0 0 0 19229379.288581848 74093294.89379406 0 74093294.89379406 82367548.107009888 0 0 0 0 8799902.3888397217 81826089.923397064 0 81826089.923397064 96758969.156047821 0 0 0 0 1414038.1046886444 122585601.30461109 0 122585601.30461109 72553142.274162292 0 0 0 0 -2598020.0227661133 130024460.42009735 0 130024460.42009735 48902944.401290894 0 0 0 0 -54360983.687423706 100814250.55174637 0 100814250.55174637 53757490.698044777 0 0 0 0 36488891.935791016 7495515.1075592041 0 7495515.1075592041 38298781.823722363 0 0 0 0 -1993899.4539642334 110605938.72327042 0 110605938.72327042 30708933.862632751 0 0 0 0 -43663115.347263336 73640625.065349579 0 73640625.065349579 14241206.089805603 0 0 0 0 -2713650.4726967141 5688988.2216335759 0 5688988.2216335759 3458567.769690305 0 0 0 0 -59395357.120319366 85046566.665968895 0 85046566.665968895 -122322173.35075378 0 0 0 0 -66411963.505889893 -39656325.610256195 0 -39656325.610256195 -20263907.036361694 0 0 0 0 -551570.7193557471 -781791.74975844845 0 -781791.74975844845 659776.0216834927 0 0 0 0 -43399613.038505554 -8714617.3866548538 0 -8714617.3866548538 20823820.809593201 0 0 0 0 -565041.93006896973 7914751.168844223 0 7914751.168844223 -13087502.180130005 0 0 0 0 -409812.79015712813 861992.31572435051 0 861992.31572435051 237520.05767000467 0 0 0 0 59220911.156524658 113463954.29794312 0 113463954.29794312 -4781487.9895000458 0 0 0 0 -115082494.73017311 136194141.44051695 0 136194141.44051695 12827275.304203033 0 0 0 0 -11100963.628255457 16859612.096611299 0 16859612.096611299 -11519921.355253275 0 0 0 0 -107503473.64057922 18876720.040504456 0 18876720.040504456 15480499.35383606 0 0 0 0 -132486058.70378113 135961024.61804199 0 135961024.61804199 -28843365.52866745 0 0 0 0 47670336.007141113 -34618545.294694901 0 -34618545.294694901 -38564421.241550446 0 0 0 0 -59735657.699188232 95498423.206329346 0 95498423.206329346 42664698.902454376 0 0 0 0 -5658566.9127960205 12431302.423164368 0 12431302.423164368 15842963.108055115 0 0 0 0 -11587649.371023603 17198199.310770109 0 17198199.310770109 -10579463.825718556 0 0 0 0 101052595.15504456 58562507.317171097 0 58562507.317171097 -23916872.321651459 0 0 0 0 -263517889.554245 471808146.88846397 0 471808146.88846397 -458792533.52049255 0 0 0 0 48132489.43221283 37768534.007696152 0 37768534.007696152 1933828.6237945557 0 0 0 0 122036318.68367004 -116999753.72974777 0 -116999753.72974777 -276379996.33376694 0 0 0 0 -332503208.34881592 224226840.32303619 0 224226840.32303619 -114618274.35531235 0 0 0 0 -373713900.83472347 -90314737.434745312 0 -90314737.434745312 46997647.740549088 0 0 0 0 188955673.62483978 -219593696.47099972 0 -219593696.47099972 306462610.77970886 0 0 0 0 -59903819.989929199 184646376.46021271 0 184646376.46021271 -392400904.77958488 0 0 0 0 -1609378.3039810359 3275013.9694167525 0 3275013.9694167525 195426.56421453506 0 0 0 0 -255477474.63323975 131239399.40177155 0 131239399.40177155 -32906664.408464432 0 0 0 0 -166209028.64050293 95722802.587680817 0 95722802.587680817 78651722.758987427 0 0 0 0 77850823.224029541 75610284.849504471 0 75610284.849504471 28907874.201189041 0 0 0 0 -61206855.12449646 96904452.866152763 0 96904452.866152763 199923598.04208183 0 0 0 0 84569467.814941406 34251396.97600174 0 34251396.97600174 -104463128.67812347 0 0 0 0 -115882940.18454552 -159406179.57856572 0 -159406179.57856572 -50324478.097820282 0 0 0 0 -19816405.993347168 244727397.1133709 0 244727397.1133709 -52260479.907440186 0 0 0 0 4493985.6570583358 4257369.9185382947 0 4257369.9185382947 -9368473.6570464708 0 0 0 0 -167472783.1953125 43162477.586537361 0 43162477.586537361 155579124.11436081 0 0 0 0 13445472.813171387 -6964578.6931438446 0 -6964578.6931438446 -1745494.2429237366 0 0 0 0 35967692.490875244 -11981090.623188019 0 -11981090.623188019 132453495.37428415 0 0 0 0 -121159267.93156433 17259974.298672676 0 17259974.298672676 -42855849.199180603 0 0 0 0 125387884.80873108 -66148644.987060547 0 -66148644.987060547 -251362.69708251953 0 0 0 0 187443313.21838379 446471398.07228851 0 446471398.07228851 91588912.840316772 0 0 0 0 -24540211.342849731 313917661.07524204 0 313917661.07524204 13479373.310964584 0 0 0 0 287674855.08319092 497048175.74500275 0 497048175.74500275 -2687685.0712146759 0 0 0 0 16158215.687042236 504105205.06708431 0 504105205.06708431 693621484.96499395 0 0 0 0 186245548.97726202 69509576.590245306 0 69509576.590245306 190071725.18740845 0 0 0 0 -22271500.587463379 138549810.95676994 0 138549810.95676994 566467527.23702431 0 0 0 0 11917641.356750488 -72305966.684560776 0 -72305966.684560776 -500390023.5897522 0 0 0 0 -3789844.4229143262 797759.86311122775 0 797759.86311122775 3290630.0825856631 0 0 0 0 152689503.79252625 56529980.862330437 0 56529980.862330437 -973792766.02970695 0 0 0 0 56875788.406555176 -101363348.12125397 0 -101363348.12125397 -84785963.32965982 0 0 0 0 -8556203.299407959 105815261.34443402 0 105815261.34443402 -251533940.71208763 0 0 0 0 -301580524.3989563 802484319.27851295 0 802484319.27851295 106087330.30275917 0 0 0 0 155261383.74497986 92806167.789027095 0 92806167.789027095 -244227.01985561848 0 0 0 0 310579254.61556053 325745703.9311856 0 325745703.9311856 -316012658.33204842 0 0 0 0 613182129.04412842 -575079710.69896317 0 -575079710.69896317 -203846294.69380927 0 0 0 0 414023.81827375293 1474521.0599384978 0 1474521.0599384978 -1775180.4539093105 0 0 0 0 3071289.5353024155 -4374686.5754777119 0 -4374686.5754777119 -1676592.7360577174 0 0 0 0 -34647446.747467041 -56193665.808060646 0 -56193665.808060646 -3267453.4134178162 0 0 0 0 8696889.1270325184 11318292.314439628 0 11318292.314439628 -30056620.496886641 0 0 0 0 204889931.79716492 65717015.42079401 0 65717015.42079401 -122043667.28618145 0 0 0 0 -712267.15709901974 16789779.637486346 0 16789779.637486346 -23397954.084942378 0 0 0 0 74724130.722122192 -25398502.462846637 0 -25398502.462846637 -22880903.311909556 0 0 0 0 -34362526.485748291 36029174.156222582 0 36029174.156222582 -85089784.515818119 0 0 0 0 3628343.7519836426 94657851.815250874 0 94657851.815250874 -238739212.37916684 0 0 0 0 14926912.230545044 25507178.15250206 0 25507178.15250206 -118474975.63861918 0 0 0 0 38810383.56439209 -21791533.111452579 0 -21791533.111452579 -101741944.73951948 0 0 0 0 58037897.087997437 6956360.8259354234 0 6956360.8259354234 -60991084.165661573 0 0 0 0 35996221.053699493 -34352390.290337563 0 -34352390.290337563 -43979781.252057791 0 0 0 0 22461898.932769775 -16157071.890255898 0 -16157071.890255898 -28415825.654822469 0 0 0 0 24805717.551925659 -31021549.150712192 0 -31021549.150712192 -34359593.795083702 0 0 0 0 26445934.84135437 -20331328.421522502 0 -20331328.421522502 -25789877.148238719 0 0 0 0 52423814.473388672 32387383.406343248 0 32387383.406343248 -44721374.91140908 0 0 0 0 -13821035.052658081 9161267.3960763216 0 9161267.3960763216 -45533257.20623982 0 0 0 0 66288548.501541138 -15842486.013976693 0 -15842486.013976693 -44570309.721121341 0 0 0 0 89067605.939422607 -3090701.2412617207 0 -3090701.2412617207 -33566923.102903724 0 0 0 0 92998481.219135284 -21491095.195025004 0 -21491095.195025004 -22496448.398320764 0 0 0 0 1577096.0038006604 4626559.1921263793 0 4626559.1921263793 -5240140.1884250147 0 0 0 0 118829228.44458008 -16769439.410740592 0 -16769439.410740592 -56349692.166214436 0 0 0 0 614256.13850542158 13301439.963769816 0 13301439.963769816 -28498353.631100126 0 0 0 0 134307168.41503906 65488774.857276917 0 65488774.857276917 -48047190.392349243 0 0 0 0 156773649.37439728 77934359.721345901 0 77934359.721345901 -126407806.09500885 0 0 0 0 127343553.81182861 -31361636.634700775 0 -31361636.634700775 -157149672.57273102 0 0 0 0 -71918879.189422607 17031986.227054596 0 17031986.227054596 53353219.162994385 0 0 0 0 -54529168.930480957 -76387622.804901123 0 -76387622.804901123 -52843558.217193604 0 0 0 0 14883347.832321167 -124772243.74523544 0 -124772243.74523544 -232186545.98640823 0 0 0 0 123837475.78416443 130133369.98453808 0 130133369.98453808 180785974.31032562 0 0 0 0 234943666.97930908 126541196.90604782 0 126541196.90604782 -293706885.09892273 0 0 0 0 -5704787.7084204853 7640492.160769362 0 7640492.160769362 -11453703.756484758 0 0 0 0 3963030.1141815186 -23802515.253768921 0 -23802515.253768921 47104787.123064041 0 0 0 0 -559020.54553283751 2294732.1976917274 0 2294732.1976917274 -11213436.375445686 0 0 0 0 2146018.9785614014 2410281.0328731537 0 2410281.0328731537 -5979435.5995807648 0 0 0 0 4784251.7839988656 9917851.020121038 0 9917851.020121038 -19774011.887490992 0 0 0 0 -300539681.29071808 -283772263.332201 0 -283772263.332201 -50219377.588970184 0 0 0 0 -8618746.7023257762 1702186.6595447026 0 1702186.6595447026 -6590165.3400884401 0 0 0 0 -67697232.216262817 53091048.676312447 0 53091048.676312447 -79468927.190197468 0 0 0 0 432660.41545848548 2337250.372223869 0 2337250.372223869 -4394352.1085003056 0 0 0 0 -21164747.487876892 25542888.776079178 0 25542888.776079178 -17551494.441299438 0 0 0 0 -163958647.81518555 -108095578.74673271 0 -108095578.74673271 -45303546.959621429 0 0 0 0 349052.38941796869 1068105.451913029 0 1068105.451913029 -1240958.0926006809 0 0 0 0 -239778103.13813782 214748149.28261948 0 214748149.28261948 114956767.7625885 0 0 0 0 -457605027.83361816 46458437.829898834 0 46458437.829898834 93578161.412521362 0 0 0 0 -82273556.608295441 57544990.149702072 0 57544990.149702072 -38088626.608325958 0 0 0 0 -152804176.68640518 14413616.490449667 0 14413616.490449667 -11330768.020706177 0 0 0 0 -86661580.225639343 66765552.910484314 0 66765552.910484314 -48905956.730667114 0 0 0 0 1684411.3412985876 2316905.8849386126 0 2316905.8849386126 -4386791.6556105539 0 0 0 0 -67646251.709197998 79567878.532060623 0 79567878.532060623 -30433230.498126984 0 0 0 0 -92649631.035324097 65021233.330649853 0 65021233.330649853 -28513363.299030304 0 0 0 0 -90812214.315704346 41626063.731018066 0 41626063.731018066 -20259655.720077515 0 0 0 0 -150399451.50471497 64596947.18289566 0 64596947.18289566 -18908435.90921402 0 0 0 0 -96842874.5587883 76419418.172521591 0 76419418.172521591 -46021359.213867188 0 0 0 0 -13229073.474243164 -85726626.911994934 0 -85726626.911994934 6453155.5421104431 0 0 0 0 84011536.833900452 -4932176.1425185204 0 -4932176.1425185204 -39856703.003578186 0 0 0 0 84172465.62247467 3327202.5759000778 0 3327202.5759000778 -59766188.804704666 0 0 0 0 2143289.7083850503 -640022.71059571952 0 -640022.71059571952 -980876.77496790886 0 0 0 0 8217995.7757263184 4163946.1819343567 0 4163946.1819343567 5692000.7611122131 0 0 0 0 33898203.511322021 -63221454.521011353 0 -63221454.521011353 -59444409.836688995 0 0 0 0 13289828.112701416 -24386016.559520721 0 -24386016.559520721 48868180.141197205 0 0 0 0 -13740647.285552979 -60799169.771244049 0 -60799169.771244049 21160285.757081985 0 0 0 0 21857709.596679688 -4057609.7612113953 0 -4057609.7612113953 -10426521.08165741 0 0 0 0 7665938.9699151665 -2653528.7032676786 0 -2653528.7032676786 -4032092.7912918292 0 0 0 0 26148326.371520996 1628536.2247447968 0 1628536.2247447968 8665766.2603721619 0 0 0 0 23337816.146621704 5303981.6332683563 0 5303981.6332683563 -10592697.414955139 0 0 0 0 5102172.6218260974 15682933.306644663 0 15682933.306644663 -30784524.687668227 0 0 0 0 11924397.621795654 6384599.5855140686 0 6384599.5855140686 -7682767.5632476807 0 0 0 0 4617945.2073456869 -1703891.762744382 0 -1703891.762744382 -5241212.5188955776 0 0 0 0 2248768.1543470174 4599844.7408187985 0 4599844.7408187985 -5503284.5162671581 0 0 0 0 11106872.158355713 -3891276.6300163269 0 -3891276.6300163269 -8122452.7560119629 0 0 0 0 6114468.1583862305 1791086.0472946167 0 1791086.0472946167 -3310345.3249206543 0 0 0 0 -17040242.896781921 23602964.530807972 0 23602964.530807972 -31709051.492034912 0 0 0 0 -54497363.307579041 48679628.557881355 0 48679628.557881355 -33799656.823570251 0 0 0 0 -50791102.507919312 38895891.516973495 0 38895891.516973495 -9202547.6077728271 0 0 0 0 -74954542.943969727 52187116.639518738 0 52187116.639518738 -14262319.587608337 0 0 0 0 -66051440.625671387 19556401.715080261 0 19556401.715080261 8908287.0274200439 0 0 0 0 -108367804.27044678 32959596.370059967 0 32959596.370059967 11424312.535240173 0 0 0 0 958088.74129015207 -335214.59646965563 0 -335214.59646965563 -777910.57040099055 0 0 0 0 -32186822.208724976 56555248.43954277 0 56555248.43954277 -23024576.603390694 0 0 0 0 -38598444.391891479 61690505.270874023 0 61690505.270874023 -28281207.920883179 0 0 0 0 -30417285.845504761 58292300.50967598 0 58292300.50967598 -30292028.267010689 0 0 0 0 -28678530.049880981 56092506.432291031 0 56092506.432291031 -40841314.159957886 0 0 0 0 -23305468.229686737 64875311.227140427 0 64875311.227140427 -28219923.158737183 0 0 0 0 596916.59053039551 56615221.928750992 0 56615221.928750992 -59095944.795807838 0 0 0 0 -1479799.7830257416 52783237.803321838 0 52783237.803321838 9732333.3519325256 0 0 0 0 10492972.110908508 17862942.715619087 0 17862942.715619087 -14087904.707984924 0 0 0 0 43986552.082778931 42248623.214424133 0 42248623.214424133 -49408155.564823151 0 0 0 0 -38827978.096260071 84826300.171264648 0 84826300.171264648 -49890877.606807709 0 0 0 0 203118243.32336426 61040566.846767426 0 61040566.846767426 -54546916.774842739 0 0 0 0 15449861.600845337 3052100.6699533463 0 3052100.6699533463 4215252.901594162 0 0 0 0 -9927992.2923316956 2813259.8768029213 0 2813259.8768029213 6687251.865776062 0 0 0 0 -6544538.8790670186 -752097.47169308364 0 -752097.47169308364 -3649109.6075361222 0 0 0 0 1267243.9785804749 16399547.884282589 0 16399547.884282589 22900688.072271347 0 0 0 0 13466726.122833252 19298786.62933445 0 19298786.62933445 4301887.0885343552 0 0 0 0 12176562.832641602 10663739.178138733 0 10663739.178138733 -12710916.257184029 0 0 0 0 13324581.850784302 21281107.762542725 0 21281107.762542725 -13354995.363424301 0 0 0 0 4827224.6232452393 20307958.318501949 0 20307958.318501949 26683882.836015701 0 0 0 0 -27341.94100764611 46028529.530016206 0 46028529.530016206 59699166.379257202 0 0 0 0 31678.129234313965 49016577.325717926 0 49016577.325717926 -9178833.0648536682 0 0 0 0 -4581696.377355963 -324272.22368986905 0 -324272.22368986905 4506781.3969077058 0 0 0 0 27101680.909393311 19499109.738732338 0 19499109.738732338 -60038025.252468109 0 0 0 0 17355869.763500214 7028967.5075616837 0 7028967.5075616837 -5737387.9793243408 0 0 0 0 27645296.362213135 14300576.631923676 0 14300576.631923676 -11099611.615823746 0 0 0 0 -2547881.2000650465 -147270.11588229984 0 -147270.11588229984 2437270.3597183451 0 0 0 0 28704097.269927979 23223516.294216156 0 23223516.294216156 -65561368.307844162 0 0 0 0 11849.93701171875 37911016.724572182 0 37911016.724572182 32666400.159503937 0 0 0 0 19838895.548238754 8931220.5317316055 0 8931220.5317316055 -5953067.8791007996 0 0 0 0 -12253305.506072998 59038548.924537659 0 59038548.924537659 -24314148.838068962 0 0 0 0 -816464.0368347168 79024986.236403465 0 79024986.236403465 -32257004.230031967 0 0 0 0 3810841.637878418 53942267.948121071 0 53942267.948121071 -13004507.328922272 0 0 0 0 10240517.659851074 45511812.644100189 0 45511812.644100189 -19626944.245057583 0 0 0 0 -19431580.607208252 152129592.42332554 0 152129592.42332554 -609809.2564201355 0 0 0 0 -24295844.423522949 -57179637.629764557 0 -57179637.629764557 -195295886.87672043 0 0 0 0 25702189.696395874 55881774.157571793 0 55881774.157571793 -57209494.234218597 0 0 0 0 845451.48547363281 16118667.43596077 0 16118667.43596077 -37806581.964753151 0 0 0 0 18503238.375335693 65251834.602956772 0 65251834.602956772 -68131079.752105713 0 0 0 0 2340534.3681945801 12631824.467939377 0 12631824.467939377 -99959894.160106659 0 0 0 0 20604597.467590332 58810780.501680374 0 58810780.501680374 -128775932.54642868 0 0 0 0 30443200.935302734 110543327.66755104 0 110543327.66755104 -85623100.290065765 0 0 0 0 -66790.941162109375 104230964.28017426 0 104230964.28017426 -79277393.508975983 0 0 0 0 -1631520.415222168 86558021.464645386 0 86558021.464645386 -46238804.774583817 0 0 0 0 6677758.7175511718 1440542.8313647471 0 1440542.8313647471 -6758559.2990842629 0 0 0 0 -188241652.2361908 391946840.04219055 0 391946840.04219055 -571186319.96142197 0 0 0 0 -45391236.395385742 57351920.519158363 0 57351920.519158363 -41223226.380052567 0 0 0 0 -40386735.108268738 80549982.107850075 0 80549982.107850075 15023539.228805542 0 0 0 0 -13244643.663505554 40270702.770069122 0 40270702.770069122 -74747423.83801651 0 0 0 0 -172.00119381824129 61646232.234866776 0 61646232.234866776 -50309130.177602768 0 0 0 0 -269103601.62902832 504158202.34611988 0 504158202.34611988 -1049501336.4434845 0 0 0 0 -69995.537195289202 54643303.73306869 0 54643303.73306869 -85260883.208023071 0 0 0 0 4850965.9324957579 762690.15553744882 0 762690.15553744882 -6825994.9320128057 0 0 0 0 -3202563.5544165201 798755129.53086591 0 798755129.53086591 -1053759505.8715057 0 0 0 0 -37010594.823554993 344095865.98217678 0 344095865.98217678 -1499183520.3300066 0 0 0 0 -2854072.356004253 -1974642.4293266274 0 -1974642.4293266274 -2937070.5850599734 0 0 0 0 36643165.701820374 29420956.930250645 0 29420956.930250645 -890078810.39644432 0 0 0 0 -125397148.68789673 307376357.91690159 0 307376357.91690159 -587116314.44617939 0 0 0 0 -304691718.76313019 455428734.58225727 0 455428734.58225727 -703296980.63575554 0 0 0 0 -113147614.58050251 218184748.93844682 0 218184748.93844682 -475471013.60136032 0 0 0 0 -71235525.902496338 104471012.17433548 0 104471012.17433548 -391873975.01817608 0 0 0 0 2256392.6239128113 21704841.831967115 0 21704841.831967115 -214470149.68767166 0 0 0 0 32674528.552398682 81071112.993879318 0 81071112.993879318 -491101092.58618927 0 0 0 0 -64309407.415542603 247077287.43190289 0 247077287.43190289 -469491725.15540242 0 0 0 0 -13750404.348838806 178523699.39851761 0 178523699.39851761 -432873987.50121689 0 0 0 0 3081196.7985458374 199877633.16225958 0 199877633.16225958 -487600216.63678551 0 0 0 0 -77751097.26348877 242093370.8028965 0 242093370.8028965 -460532829.37003756 0 0 0 0 -105979789.23801804 221057963.75252724 0 221057963.75252724 -402356836.47117043 0 0 0 0 -35388783.055938721 193628274.65680218 0 193628274.65680218 -407695879.96296692 0 0 0 0 -217647347.90893555 316844428.31074142 0 316844428.31074142 -468766993.51477849 0 0 0 0 -287556549.36262512 168597381.1801281 0 168597381.1801281 8770702.7176018953 0 0 0 0 -3228475.0367701203 -819926.22889307514 0 -819926.22889307514 2023194.3825694704 0 0 0 0 58688655.328582764 24763043.85651207 0 24763043.85651207 -253046478.73269141 0 0 0 0 -219489117.2399292 -225893008.25344849 0 -225893008.25344849 -73929878.641744614 0 0 0 0 56290645.338981628 193510112.11641693 0 193510112.11641693 -162917466.46438885 0 0 0 0 59486173.418109894 99898397.372173786 0 99898397.372173786 -249310717.67100143 0 0 0 0 8670012.1593803763 2502119.1353148259 0 2502119.1353148259 -6756107.0263798647 0 0 0 0 -94323895.667953491 229169595.20978117 0 229169595.20978117 -403443775.23862702 0 0 0 0 -96814715.826229095 224614651.62436724 0 224614651.62436724 -377082590.22668457 0 0 0 0 -40677676.205352783 173404029.4208622 0 173404029.4208622 -396958651.53434372 0 0 0 0 -88488672.922744751 167548406.68742085 0 167548406.68742085 -234897570.46685755 0 0 0 0 -16266501.902740479 178283958.12347889 0 178283958.12347889 -445361671.76452923 0 0 0 0 -47916925.701690674 129975487.47446823 0 129975487.47446823 -292293027.05323887 0 0 0 0 -124739402.68972778 239613985.77665901 0 239613985.77665901 -404969104.90255928 0 0 0 0 -59406516.992668152 193911989.32672215 0 193911989.32672215 -405905908.48070335 0 0 0 0 -196735310.54194641 119371414.27474785 0 119371414.27474785 -430046213.82411957 0 0 0 0 -158963804.60479736 145680409.93277168 0 145680409.93277168 -418709056.8226409 0 0 0 0 -20785416.021854401 172837843.40664983 0 172837843.40664983 -518651221.21641159 0 0 0 0 -69865605.454963684 182512549.4163785 0 182512549.4163785 -388571928.96901321 0 0 0 0 -33626307.269195557 186575738.01313591 0 186575738.01313591 -458590162.53710032 0 0 0 0 -4481829.536529541 186687284.33626938 0 186687284.33626938 -460145558.85853291 0 0 0 0 -4606177.2886352539 189449159.26990128 0 189449159.26990128 -450194263.02236557 0 0 0 0 -22507389.24256897 176901303.62451363 0 176901303.62451363 -452447020.28473663 0 0 0 0 -44837222.140365601 187269052.80511284 0 187269052.80511284 -369577978.79535294 0 0 0 0 -48601892.966278076 182789420.04977703 0 182789420.04977703 -370988036.95788193 0 0 0 0 -14208422.273635864 198527478.67655182 0 198527478.67655182 -400582981.02914619 0 0 0 0 -44308517.796188354 111674365.23183346 0 111674365.23183346 -197053185.68659592 0 0 0 0 -10304220.955718994 46956523.421255112 0 46956523.421255112 -136819311.80904007 0 0 0 0 3441803.3841247559 110413278.27859688 0 110413278.27859688 -410758910.60532951 0 0 0 0 -82650941.705871582 131670918.05046272 0 131670918.05046272 -169159460.00426102 0 0 0 0 -46586193.625061035 78427181.046332359 0 78427181.046332359 -140265868.80561829 0 0 0 0 70928900.842330933 4579170.608587265 0 4579170.608587265 -97735960.55689621 0 0 0 0 559093.01185644791 1895199.9067180976 0 1895199.9067180976 -4456257.4265174344 0 0 0 0 14670030.957061768 -25996092.535785198 0 -25996092.535785198 -78778217.626502991 0 0 0 0 21346933.131332397 -29264722.646853447 0 -29264722.646853447 -45983542.957969666 0 0 0 0 -86852141.776641846 71567196.995508194 0 71567196.995508194 -59718647.332052231 0 0 0 0 -118741200.55154419 204213674.44411469 0 204213674.44411469 -171253700.56344414 0 0 0 0 -246206409.62399292 91555845.592578888 0 91555845.592578888 80562691.706029892 0 0 0 0 -343209860.50675964 282334418.33481216 0 282334418.33481216 -130181244.92237663 0 0 0 0 -81962.457981407642 -327401.77696831524 0 -327401.77696831524 -968636.90206060186 0 0 0 0 82291058.153526306 -147975709.10754776 0 -147975709.10754776 -288461339.59525681 0 0 0 0 -104338107.66897583 172750536.74596786 0 172750536.74596786 -202372855.6255188 0 0 0 0 -210830347.54724121 369147282.81372452 0 369147282.81372452 -357292650.25023842 0 0 0 0 -79493970.607650757 154372929.56519794 0 154372929.56519794 -686351986.85173035 0 0 0 0 -62329827.736862183 217798285.21519279 0 217798285.21519279 -452683836.3915596 0 0 0 0 -165423081.7517128 243909281.14862132 0 243909281.14862132 -398066951.5573349 0 0 0 0 -34304015.76014328 93257262.185839653 0 93257262.185839653 -145457568.29545021 0 0 0 0 47176469.10546875 96262390.11306572 0 96262390.11306572 -501708535.65476131 0 0 0 0 -104804127.78982544 -4857778.0922336578 0 -4857778.0922336578 -24935264.577147484 0 0 0 0 9412044.323564291 -2872927.3718856163 0 -2872927.3718856163 -14417048.493020333 0 0 0 0 436508.28460606933 -1014635.5778708197 0 -1014635.5778708197 -3558141.389755487 0 0 0 0 444919.68904018402 1281361.342330277 0 1281361.342330277 -3408931.5332813263 0 0 0 0 36944335.074584961 15056639.511079192 0 15056639.511079192 -47629475.183561444 0 0 0 0 20015029.792259216 -21593876.623658568 0 -21593876.623658568 -48808970.907308578 0 0 0 0 10561265.39299503 -11218352.199390363 0 -11218352.199390363 -8133597.9299480664 0 0 0 0 10267393.9790802 -7282726.0088083744 0 -7282726.0088083744 -44061577.610894375 0 0 0 0 1692222.6157910228 -1238049.5818943903 0 -1238049.5818943903 -120962.43013867363 0 0 0 0 -22312080.462930679 12351050.273086905 0 12351050.273086905 -133456908.06827545 0 0 0 0 21530014.537582397 95492577.839095592 0 95492577.839095592 -283402547.10383606 0 0 0 0 -98622213.847732544 214457644.66588688 0 214457644.66588688 -322884526.79098272 0 0 0 0 -63159767.17908287 115790127.86464715 0 115790127.86464715 -232864316.34704018 0 0 0 0 -73797869.72203064 130839174.90612316 0 130839174.90612316 -241956460.82556915 0 0 0 0 -129697454.9004364 243603401.00302792 0 243603401.00302792 -357195908.97313476 0 0 0 0 -51492572.300445557 193391328.29333591 0 193391328.29333591 -387269259.44999218 0 0 0 0 -207908401.91529846 392886670.32935095 0 392886670.32935095 -439040569.33025622 0 0 0 0 -78656463.854187012 200410665.84779692 0 200410665.84779692 -371804137.05198193 0 0 0 0 -147723211.87650299 216872094.48190594 0 216872094.48190594 -249637799.39699554 0 0 0 0 -74433312.478797913 250254959.60251904 0 250254959.60251904 -285067445.83837223 0 0 0 0 -134339686.09119415 340553302.88311219 0 340553302.88311219 57834265.237960339 0 0 0 0 -85017225.919570923 392023079.11510825 0 392023079.11510825 -276785380.08707941 0 0 0 0 -110215845.98794556 265743127.78510833 0 265743127.78510833 708914689.91953278 0 0 0 0 6313616.9946060181 182053690.33379936 0 182053690.33379936 -919263651.18835783 0 0 0 0 -928511.01952442527 77839.508803699166 0 77839.508803699166 -60713.522113706451 0 0 0 0 76183661.288406372 99116882.577176094 0 99116882.577176094 321705216.30489969 0 0 0 0 -128126571.567276 399688388.16336823 0 399688388.16336823 312467858.04946327 0 0 0 0 56487312.477563143 115401064.54559897 0 115401064.54559897 124402292.85623646 0 0 0 0 55658569.328660965 151329268.12416598 0 151329268.12416598 277664172.56116104 0 0 0 0 -34630982.969825745 168638170.75385869 0 168638170.75385869 104482961.69243979 0 0 0 0 -20257529.478313446 226970163.05655849 0 226970163.05655849 -14280782.932195187 0 0 0 0 -7220845.170627594 261983371.4777059 0 261983371.4777059 167639727.66958392 0 0 0 0 -12790464.588237762 103067332.48124558 0 103067332.48124558 255375580.84476078 0 0 0 0 114816907.28556442 166230154.71516109 0 166230154.71516109 2962706.254638195 0 0 0 0 117586690.36494446 180271688.09207261 0 180271688.09207261 73868237.205214381 0 0 0 0 124215346.30858612 -6212829.2008475065 0 -6212829.2008475065 -314804618.38490611 0 0 0 0 14314663.318332672 282882458.28080392 0 282882458.28080392 563710572.08759952 0 0 0 0 1278117.8233569115 -670057.97031825222 0 -670057.97031825222 -88026.815709385482 0 0 0 0 2362999.6391447186 -798085.00746707991 0 -798085.00746707991 -164711.58512493764 0 0 0 0 -55126297.17137146 173686349.78805131 0 173686349.78805131 121267100.39433932 0 0 0 0 73299305.594551086 153271685.57486373 0 153271685.57486373 -63540262.759394884 0 0 0 0 64867851.742202759 124906485.51268339 0 124906485.51268339 127527793.097624 0 0 0 0 -23195886.672599792 117871999.97821438 0 117871999.97821438 279567835.82672334 0 0 0 0 -5081505.4986572266 21140272.163538456 0 21140272.163538456 573504162.82389736 0 0 0 0 132356372.50840759 63166646.682075977 0 63166646.682075977 31570456.24610281 0 0 0 0 112409713.20062256 234064246.12853098 0 234064246.12853098 262826841.28998995 0 0 0 0 41861183.090766907 25559425.6800313 0 25559425.6800313 309211559.28619528 0 0 0 0 -1530711.7437258065 1408198.1581034288 0 1408198.1581034288 -855792.59705739026 0 0 0 0 155468887.24636841 246017402.1263504 0 246017402.1263504 356745938.69341755 0 0 0 0 -42536962.620361328 126216238.84998798 0 126216238.84998798 -279112594.76781464 0 0 0 0 17453.067999213934 395071.6485485062 0 395071.6485485062 -289461.66272305837 0 0 0 0 71544158.669937134 208467692.97309303 0 208467692.97309303 445144559.49743319 0 0 0 0 19800295.671014786 93935547.506209254 0 93935547.506209254 -343541235.00675011 0 0 0 0 -10923258.2322478 1492449.1271107867 0 1492449.1271107867 3281199.0877273241 0 0 0 0 8985246.3434877694 5248139.9015509114 0 5248139.9015509114 -4657604.8674033545 0 0 0 0 -43900570.888565063 63941710.190960884 0 63941710.190960884 -234793847.03382933 0 0 0 0 -11713570.018615723 112726257.76739597 0 112726257.76739597 -318077361.90730906 0 0 0 0 43706909.60962677 55852067.377284527 0 55852067.377284527 24015340.587213993 0 0 0 0 33091258.13822937 70154171.888235092 0 70154171.888235092 27267584.61336875 0 0 0 0 -169469786.33088684 -27590395.497144222 0 -27590395.497144222 120260101.00880241 0 0 0 0 -124475738.96114349 -118043393.28750002 0 -118043393.28750002 32822564.105367661 0 0 0 0 -90588333.739578247 -57350816.653980255 0 -57350816.653980255 54429476.040557861 0 0 0 0 -4523657.0628224462 -909693.12665310688 0 -909693.12665310688 1661378.880000304 0 0 0 0 -109471116.10777283 11645486.369059086 0 11645486.369059086 135835984.31602395 0 0 0 0 63642252.835968018 133773640.19789946 0 133773640.19789946 -83777438.893946171 0 0 0 0 -37529719.051757812 135464619.61819148 0 135464619.61819148 286873236.54689002 0 0 0 0 21806975.650253296 109321968.25610566 0 109321968.25610566 138523986.75658441 0 0 0 0 9441192.0944061279 89151146.478028297 0 89151146.478028297 135017646.47290325 0 0 0 0 9767378.2808837891 210861583.28549382 0 210861583.28549382 24199258.11548543 0 0 0 0 243567832.23077393 173804870.33828205 0 173804870.33828205 -402657523.45808369 0 0 0 0 161926650.55050659 50242833.480056703 0 50242833.480056703 -320874150.5023663 0 0 0 0 -52190994.388496399 34173782.633184373 0 34173782.633184373 -8772562.5224276483 0 0 0 0 1192880.8701650798 -734843.55998319341 0 -734843.55998319341 -139310.02799932077 0 0 0 0 -49301926.198162079 64317580.373913527 0 64317580.373913527 308572647.65937114 0 0 0 0 -70647631.582565308 256618082.06655771 0 256618082.06655771 517952605.07488328 0 0 0 0 224493665.70872498 -67340321.194526792 0 -67340321.194526792 258700170.47152853 0 0 0 0 -2054880.8044152372 6357861.66014871 0 6357861.66014871 -1605956.0177761186 0 0 0 0 246208407.48710632 103999679.94425583 0 103999679.94425583 205252398.12629175 0 0 0 0 122016519.72894287 213314094.49492979 0 213314094.49492979 -142739640.7405481 0 0 0 0 248158330.02020264 130572386.96823719 0 130572386.96823719 -211028031.19646215 0 0 0 0 158623514.73852539 128760471.5111078 0 128760471.5111078 -45455875.986924097 0 0 0 0 243891901.12226868 160301028.17636743 0 160301028.17636743 -66481684.063476384 0 0 0 0 -1633533.1661307476 5256880.9765948355 0 5256880.9765948355 -663753.67669859016 0 0 0 0 -8965.0798492431641 8478486.5569708347 0 8478486.5569708347 1207991.226998806 0 0 0 0 -4126.2568740844727 11004676.375653028 0 11004676.375653028 405067.97185850143 0 0 0 0 6835190.6219520569 11176016.807754636 0 11176016.807754636 -1705932.1087665558 0 0 0 0 5180514.3282775879 8927567.1793341637 0 8927567.1793341637 874298.29275393486 0 0 0 0 3170035.1439323425 13601977.501276255 0 13601977.501276255 -2065266.6185312271 0 0 0 0 -71155167.673110962 425059303.66160989 0 425059303.66160989 151298399.76761961 0 0 0 0 -596787063.37243652 -287640542.53263307 0 -287640542.53263307 500059586.71912193 0 0 0 0 -40563212.851928711 16672900.293833733 0 16672900.293833733 56894224.104892731 0 0 0 0 17129516.201141357 163968267.2090044 0 163968267.2090044 -114711677.04961395 0 0 0 0 -330847164.59539795 597526478.89138317 0 597526478.89138317 -568099942.67129517 0 0 0 0 -32102813.771591187 -55983272.125869751 0 -55983272.125869751 42993764.647929192 0 0 0 0 56463656.611938477 103222559.3024292 0 103222559.3024292 -78106209.571651459 0 0 0 0 -2268504.6870727763 6465834.5091800243 0 6465834.5091800243 -979024.01965575479 0 0 0 0 -43842897.111450195 -21763671.76691246 0 -21763671.76691246 74114256.713514328 0 0 0 0 32110496.751205444 -27934957.915291786 0 -27934957.915291786 32808908.807472229 0 0 0 0 -75921263.835578918 24333542.749464035 0 24333542.749464035 8951185.1152839661 0 0 0 0 -202091.73208749294 351475.92396200448 0 351475.92396200448 154898.05183573253 0 0 0 0 16417151.194580078 6624082.0606937408 0 6624082.0606937408 12590439.445969582 0 0 0 0 106158057.19317627 39800232.422637939 0 39800232.422637939 -43020886.958015442 0 0 0 0 58726.728645324707 63806515.243716717 0 63806515.243716717 6631780.3513507843 0 0 0 0 -2693709.4645644873 -2929228.3520455137 0 -2929228.3520455137 279041.09209467936 0 0 0 0 9058480.040019989 1402520.9303209186 0 1402520.9303209186 -19434751.300160408 0 0 0 0 -9371336.3434066772 56425193.595841408 0 56425193.595841408 47185329.434878826 0 0 0 0 201605215.45816803 -26344574.556225888 0 -26344574.556225888 -93848502.873630881 0 0 0 0 -65643660.492996216 79093779.552495241 0 79093779.552495241 -174257303.62757963 0 0 0 0 237082354.1750946 -23501155.26248835 0 -23501155.26248835 -188502261.88946936 0 0 0 0 323148542.82154846 -164517990.01856592 0 -164517990.01856592 -108629201.45035294 0 0 0 0 318040582.0683136 -41055711.615139365 0 -41055711.615139365 -164445266.90386736 0 0 0 0 328198659.35951233 -145831400.6037305 0 -145831400.6037305 -29038636.688595772 0 0 0 0 287903381.71490479 83673225.398070335 0 83673225.398070335 -32046286.084543586 0 0 0 0 217057632.18345261 141150540.9027403 0 141150540.9027403 -184142060.09647948 0 0 0 0 137714371.39105225 757749.59207288176 0 757749.59207288176 -75451750.758512944 0 0 0 0 67894178.698348999 271192364.88152385 0 271192364.88152385 -92236357.902249604 0 0 0 0 88870770.183685303 278222932.69345427 0 278222932.69345427 -121527145.82320201 0 0 0 0 178349790.34054565 169142802.51168895 0 169142802.51168895 -28512703.858086109 0 0 0 0 70518249.148178101 304512858.16451395 0 304512858.16451395 18854228.061208725 0 0 0 0 114219567.32488251 272054476.51113337 0 272054476.51113337 -264211376.1798563 0 0 0 0 -23062624.781158447 312484818.77003431 0 312484818.77003431 -121934666.33126605 0 0 0 0 -26594053.232345581 337238269.40172958 0 337238269.40172958 -257287239.95814854 0 0 0 0 -92565129.133956909 436759260.39959979 0 436759260.39959979 -377556230.26707244 0 0 0 0 5806797.6393585205 73642676.867159843 0 73642676.867159843 -94077844.679099485 0 0 0 0 56641822.778503418 232816903.92305619 0 232816903.92305619 -225054782.90469366 0 0 0 0 -30517939.831970215 202724712.94333982 0 202724712.94333982 -229367409.58521587 0 0 0 0 -5908662.8028259277 79361261.300887704 0 79361261.300887704 -366441670.34369135 0 0 0 0 -206223198.35726166 345591209.4227587 0 345591209.4227587 -321643143.32434344 0 0 0 0 -191498329.41139221 387611344.81592357 0 387611344.81592357 -823656935.02186322 0 0 0 0 -336841849.41339111 276647147.88359541 0 276647147.88359541 -360299859.55374241 0 0 0 0 -43175614.774048805 463295131.69698524 0 463295131.69698524 -363792935.33893514 0 0 0 0 -308683936.88931274 205148662.77638531 0 205148662.77638531 -463463901.16809857 0 0 0 0 -355714054.54972839 501468443.76128125 0 501468443.76128125 -333031594.33034229 0 0 0 0 -167774640.74801636 603103783.75219822 0 603103783.75219822 -378719789.08791113 0 0 0 0 272700626.23098755 -66583197.618351579 0 -66583197.618351579 -267088994.77593136 0 0 0 0 -173240213.70921326 280861798.06368089 0 280861798.06368089 -511025436.45144939 0 0 0 0 2592690.2462537959 386653.84734545648 0 386653.84734545648 -3544670.939204935 0 0 0 0 -977868760.56977844 809180316.60052502 0 809180316.60052502 -430500134.18794394 0 0 0 0 -665237517.72579956 751888749.8162744 0 751888749.8162744 -714712871.32374895 0 0 0 0 -317492874.04277039 387379869.33446985 0 387379869.33446985 -507421769.94996119 0 0 0 0 -919324742.20651627 480577674.56208891 0 480577674.56208891 -290789022.46180058 0 0 0 0 -129114604.46864319 237692255.46369731 0 237692255.46369731 -389796085.37350607 0 0 0 0 -145982682.37105179 225495650.28321624 0 225495650.28321624 -217491125.12336814 0 0 0 0 87542378.957702637 144591851.74291015 0 144591851.74291015 -346709388.64944112 0 0 0 0 -352751068.03160095 370600203.18880105 0 370600203.18880105 -393631047.39624643 0 0 0 0 -81372439.152694702 147662154.33222532 0 147662154.33222532 -454550785.61719233 0 0 0 0 168112780.91608429 26214591.512478948 0 26214591.512478948 -311650751.99922025 0 0 0 0 -114345454.25705719 139776555.36762181 0 139776555.36762181 -217125457.41754782 0 0 0 0 134758516.74020386 -68400348.587455451 0 -68400348.587455451 -102480734.92602861 0 0 0 0 272458574.49482727 29074828.259494305 0 29074828.259494305 -228580923.27973056 0 0 0 0 63178741.132965088 76730757.51280725 0 76730757.51280725 -94065438.50032115 0 0 0 0 214693505.32512474 146036645.85388067 0 146036645.85388067 -246377952.04980981 0 0 0 0 194272157.41138077 77768350.942991704 0 77768350.942991704 39783852.479566693 0 0 0 0 438300639.82589722 -28763266.118949354 0 -28763266.118949354 -127062671.23504156 0 0 0 0 454434640.31791687 15851821.428305686 0 15851821.428305686 -13222001.945282459 0 0 0 0 635067989.63555908 -136114895.0579474 0 -136114895.0579474 68118747.351495683 0 0 0 0 745179734.21765137 -11113189.247614741 0 -11113189.247614741 -31659154.651482105 0 0 0 0 368147429.82361984 82525964.228584602 0 82525964.228584602 107618566.35231221 0 0 0 0 1086217646.9248352 -44474600.170476258 0 -44474600.170476258 -81013153.399312854 0 0 0 0 1187833192.4541016 -141017954.19154978 0 -141017954.19154978 10711189.924766541 0 0 0 0 777344444.3865509 93736966.104631722 0 93736966.104631722 148577564.68492556 0 0 0 0 355900.77813684475 -3207635.4475130588 0 -3207635.4475130588 629878.37932734634 0 0 0 0 -47944743.535712242 -11700838.846042711 0 -11700838.846042711 28233570.068400979 0 0 0 0 132087.97853969038 -85964.183251962066 0 -85964.183251962066 -306921.58798091451 0 0 0 0 628866531.32070923 -59699637.618742943 0 -59699637.618742943 189848537.48953336 0 0 0 0 1137613337.309082 178461680.96269488 0 178461680.96269488 -4772691.3651633412 0 0 0 0 5888824.5574960802 2468114.053607285 0 2468114.053607285 -17319997.189703796 0 0 0 0 770685881.4688797 -25757590.823503673 0 -25757590.823503673 -88689257.611797944 0 0 0 0 694818520.60646439 41089057.867688701 0 41089057.867688701 -72167944.350947767 0 0 0 0 52255265.19417572 -12448272.827721119 0 -12448272.827721119 -45841016.946993828 0 0 0 0 331729401.29071426 -134015396.72356242 0 -134015396.72356242 -43862938.106252849 0 0 0 0 271899497.36725235 -57087926.106199458 0 -57087926.106199458 -32013891.975346208 0 0 0 0 454174747.77598572 -25733623.977518857 0 -25733623.977518857 -121408409.45774603 0 0 0 0 535914146.53842163 -139624105.48585853 0 -139624105.48585853 -48173705.27878356 0 0 0 0 884464.66561889648 -11415787.660529613 0 -11415787.660529613 -29958854.511850506 0 0 0 0 38002146.578842163 -34046869.862371087 0 -34046869.862371087 -28905901.473483622 0 0 0 0 9736442.9355565161 -11418236.686012965 0 -11418236.686012965 -5693181.5116832564 0 0 0 0 15931401.328598022 -11927587.955814362 0 -11927587.955814362 -7473799.0102627277 0 0 0 0 1323283.9560983181 -31289790.740535103 0 -31289790.740535103 -6754640.5267789364 0 0 0 0 2561021.5065002441 -10607579.635245323 0 -10607579.635245323 7019604.715708971 0 0 0 0 7815168.454750061 -29023549.492650986 0 -29023549.492650986 -32651576.240709305 0 0 0 0 -51551823.057876587 130890235.88515663 0 130890235.88515663 -213274768.83964777 0 0 0 0 -9090376.5334472656 46926890.529382229 0 46926890.529382229 -81660469.972204208 0 0 0 0 -10773159.291252136 43590307.045022488 0 43590307.045022488 -87549173.546416283 0 0 0 0 24395850.526260376 64959692.330534935 0 64959692.330534935 -96657736.294583321 0 0 0 0 3379308.5092716217 -3305313.4883077145 0 -3305313.4883077145 1741655.460483551 0 0 0 0 -66321879.691192627 69052600.872748852 0 69052600.872748852 -10151146.175614834 0 0 0 0 -108709348.94831848 191586113.83579469 0 191586113.83579469 -171018009.17063165 0 0 0 0 -69618457.350830078 224543608.39229119 0 224543608.39229119 -156750177.04448318 0 0 0 0 463435031.71570587 -117788835.3227125 0 -117788835.3227125 -104439566.97697046 0 0 0 0 514702915.35245991 -80540366.155498073 0 -80540366.155498073 -60118146.917123616 0 0 0 0 2929839.8798708525 3560633.7613242865 0 3560633.7613242865 -12396114.003189087 0 0 0 0 463736480.22183228 -71043912.264168322 0 -71043912.264168322 6621147.1259688288 0 0 0 0 377983268.57491302 -73585922.538161814 0 -73585922.538161814 -22104883.680316687 0 0 0 0 372802724.1914978 -132487518.64904445 0 -132487518.64904445 -25988865.08991003 0 0 0 0 331209806.41880035 -136574289.22816873 0 -136574289.22816873 -22194832.206702948 0 0 0 0 1133976.8948088055 2997567.9941996858 0 2997567.9941996858 -6827516.1875342457 0 0 0 0 230152179.40804291 -87234080.016877294 0 -87234080.016877294 66692065.489432096 0 0 0 0 253275612.76205063 15226194.372791231 0 15226194.372791231 -35767466.914763927 0 0 0 0 195900722.07398987 104386596.88482571 0 104386596.88482571 175146711.39805496 0 0 0 0 159074.47546871379 1389022.9678588584 0 1389022.9678588584 -1975778.8472427726 0 0 0 0 284778939.36287689 -80042288.961675107 0 -80042288.961675107 249083844.86216688 0 0 0 0 324789954.74692917 -45277736.490507364 0 -45277736.490507364 147325362.52124882 0 0 0 0 -138922466.38116455 303811430.83787465 0 303811430.83787465 -136627141.07027948 0 0 0 0 -226576080.58488035 164235064.34952638 0 164235064.34952638 -66684099.613046646 0 0 0 0 -864951616.10744476 214742032.70226204 0 214742032.70226204 152325525.94556201 0 0 0 0 -348148063.29576111 129333210.21236348 0 129333210.21236348 -58551694.79336071 0 0 0 0 -251577905.32171631 352940757.76394403 0 352940757.76394403 6974669.7675256729 0 0 0 0 -124450970.52703094 205141264.39838094 0 205141264.39838094 140257558.99291003 0 0 0 0 -113287693.78102112 223224659.60386091 0 223224659.60386091 -77549743.135790646 0 0 0 0 -427544951.78255463 404876582.93727839 0 404876582.93727839 33083978.424346447 0 0 0 0 -109604762.29672623 181309386.6618264 0 181309386.6618264 109032608.27681899 0 0 0 0 -324012849.00084686 298354825.89542574 0 298354825.89542574 446307525.84787834 0 0 0 0 -168929017.978508 196349999.45459479 0 196349999.45459479 399144711.04172951 0 0 0 0 204072570.77650452 35202036.187853217 0 35202036.187853217 515472913.84899473 0 0 0 0 174884394.49981689 139574188.1127001 0 139574188.1127001 205523502.66975456 0 0 0 0 177418068.85337067 244884201.69991446 0 244884201.69991446 337623915.78038406 0 0 0 0 187193414.67047119 136999226.41459948 0 136999226.41459948 116094356.46655321 0 0 0 0 -45905501.764919281 582692935.56273341 0 582692935.56273341 190989142.87974215 0 0 0 0 15989916.833393097 408230397.67730784 0 408230397.67730784 681100734.03302503 0 0 0 0 3405930.9048662186 409367259.38285065 0 409367259.38285065 890685337.45381641 0 0 0 0 264235258.9414978 345453400.20495844 0 345453400.20495844 667396780.11076951 0 0 0 0 366770480.5436554 96656563.14936924 0 96656563.14936924 1271086967.1081004 0 0 0 0 470738192.45676422 655487400.17308962 0 655487400.17308962 855681200.92479372 0 0 0 0 642603247.71694946 222783974.35484576 0 222783974.35484576 1016338938.0162749 0 0 0 0 519495994.40663147 29075248.453592658 0 29075248.453592658 514680325.39394855 0 0 0 0 603461159.31502533 -212857371.20890546 0 -212857371.20890546 1130647563.8549047 0 0 0 0 236130329.11650085 54825945.353785515 0 54825945.353785515 941619587.35394001 0 0 0 0 384706765.83847046 -139566380.2722919 0 -139566380.2722919 277474415.58141816 0 0 0 0 394582069.46160126 -35537748.815621495 0 -35537748.815621495 296093879.41769361 0 0 0 0 527280583.70857239 -214375426.87285256 0 -214375426.87285256 521554069.15620553 0 0 0 0 646760502.11500549 57198934.217674494 0 57198934.217674494 305254846.65159225 0 0 0 0 558046207.99841309 -60919545.909918785 0 -60919545.909918785 214325026.35566378 0 0 0 0 450304448.98124647 51997002.42194517 0 51997002.42194517 104206448.11864519 0 0 0 0 454224885.0067867 -184418091.03525361 0 -184418091.03525361 171018348.49761868 0 0 0 0 367117873.07309723 -71741543.24241364 0 -71741543.24241364 54056479.176781058 0 0 0 0 361594747.20679474 -182446972.72710425 0 -182446972.72710425 70484722.18347609 0 0 0 0 195531893.03845978 341498667.42455411 0 341498667.42455411 261325156.50524235 0 0 0 0 324114585.92720032 225656119.91285753 0 225656119.91285753 137552361.42731613 0 0 0 0 193123629.05058289 309892556.5478065 0 309892556.5478065 158473928.25847626 0 0 0 0 58160332.245674133 324609314.0903163 0 324609314.0903163 161278177.88246155 0 0 0 0 179241591.69358826 256737901.85742211 0 256737901.85742211 136117701.58992052 0 0 0 0 197802936.41600037 247239360.85357457 0 247239360.85357457 29239098.030923367 0 0 0 0 311889665.91210938 217807224.70038891 0 217807224.70038891 -11116421.777187586 0 0 0 0 423417843.98474121 -19683271.233521461 0 -19683271.233521461 18104910.280208945 0 0 0 0 241368481.08055115 149805386.64383757 0 149805386.64383757 108608572.5934782 0 0 0 0 309454963.13082123 251569320.06947768 0 251569320.06947768 274876513.83763552 0 0 0 0 492183377.66604614 105765752.512146 0 105765752.512146 115876026.32138693 0 0 0 0 508226468.57991028 206224404.7217629 0 206224404.7217629 275363119.36371708 0 0 0 0 513029670.32989502 158487914.98804951 0 158487914.98804951 212874631.49740791 0 0 0 0 705859984.87615967 32726828.791566372 0 32726828.791566372 292294740.73125601 0 0 0 0 599188547.03085327 2043855.825748682 0 2043855.825748682 519261340.99471378 0 0 0 0 589913451.66261292 330348483.33507824 0 330348483.33507824 462584276.5460968 0 0 0 0 429907207.31889343 441577782.01509094 0 441577782.01509094 446576193.41697407 0 0 0 0 223910200.00631714 437429759.3864336 0 437429759.3864336 611421201.04026031 0 0 0 0 308964558.25126648 289488156.03048873 0 289488156.03048873 272626439.11146927 0 0 0 0 146077411.24636078 354449313.43341231 0 354449313.43341231 355840726.81735325 0 0 0 0 144626790.38764954 364839997.18467474 0 364839997.18467474 545323703.40132618 0 0 0 0 508346038.93058777 610023188.57209492 0 610023188.57209492 1006456086.9822893 0 0 0 0 399072158.18403625 378171517.35911894 0 378171517.35911894 599035583.40710878 0 0 0 0 63516710.905441284 345396121.83861446 0 345396121.83861446 1009122649.2778292 0 0 0 0 1080491175.4476166 710127.30535650253 0 710127.30535650253 519033689.18428862 0 0 0 0 986088450.91734314 253863309.71146917 0 253863309.71146917 477156558.89316869 0 0 0 0 1828547909.8081665 -81624245.387068748 0 -81624245.387068748 770714336.15604162 0 0 0 0 846444498.96808624 151815017.51837087 0 151815017.51837087 739205097.67877674 0 0 0 0 -198206831.81861877 158397354.81191635 0 158397354.81191635 1359093668.2459145 0 0 0 0 746990624.00972748 -175934832.84620023 0 -175934832.84620023 2301696640.3487015 0 0 0 0 782590412.97666168 800004200.99144793 0 800004200.99144793 1753711599.3110132 0 0 0 0 1557322097.7726593 939269725.35997629 0 939269725.35997629 1267864324.0300999 0 0 0 0 -2259592.0938720703 274888735.5692606 0 274888735.5692606 1240968201.8473597 0 0 0 0 359193325.55015564 221106757.00281096 0 221106757.00281096 1115539784.9103496 0 0 0 0 338251753.16377258 310322850.26241398 0 310322850.26241398 883915887.15914297 0 0 0 0 -69388116.890258789 -214847366.71202564 0 -214847366.71202564 1222531042.9355259 0 0 0 0 -37861104.534576416 -77436940.4495821 0 -77436940.4495821 742552435.3871603 0 0 0 0 -165757211.63214111 68667635.413071632 0 68667635.413071632 881411812.98337269 0 0 0 0 -69491533.333328247 -145148760.9165802 0 -145148760.9165802 706692880.12522888 0 0 0 0 -42141158.327234268 98235711.686653256 0 98235711.686653256 790174549.68982124 0 0 0 0 -209249443.81541443 209925040.57428932 0 209925040.57428932 671965425.91784215 0 0 0 0 -155566226.37218857 69876890.111549854 0 69876890.111549854 612192547.69983673 0 0 0 0 -218196976.17467499 113550307.02458096 0 113550307.02458096 497800585.2831583 0 0 0 0 -221111465.29846191 108398811.87233639 0 108398811.87233639 488814118.04741955 0 0 0 0 -273391221.3640213 216985072.79679108 0 216985072.79679108 503618916.10237789 0 0 0 0 -214996713.11386871 45349134.508802891 0 45349134.508802891 650313334.15231133 0 0 0 0 -244235087.37759399 162094268.98918223 0 162094268.98918223 606955692.97853851 0 0 0 0 -275659202.23695374 277189827.27802801 0 277189827.27802801 576990549.04491329 0 0 0 0 -236620512.35214233 298172209.30354357 0 298172209.30354357 584364522.66014385 0 0 0 0 -162052617.95666504 259345712.8520236 0 259345712.8520236 538008027.64774895 0 0 0 0 -125243725.32095337 341456124.70382452 0 341456124.70382452 720740196.80795288 0 0 0 0 -49727018.794723511 260104697.0694828 0 260104697.0694828 646131663.32880211 0 0 0 0 63698245.600183964 345349093.55405521 0 345349093.55405521 691320790.4428196 0 0 0 0 -125925407.95600891 261050942.54156303 0 261050942.54156303 942000812.43513441 0 0 0 0 -153834258.80073547 172601270.50756836 0 172601270.50756836 662752636.30549431 0 0 0 0 -54475422.444641113 266072804.64793217 0 266072804.64793217 360169462.6833353 0 0 0 0 -195233074.63720703 304949777.93908119 0 304949777.93908119 358604353.48770958 0 0 0 0 -303485588.41665649 213025162.6631999 0 213025162.6631999 523104914.57267332 0 0 0 0 -317144408.03676414 302485711.52644479 0 302485711.52644479 476118876.99647903 0 0 0 0 -270281207.02165222 291171919.05203342 0 291171919.05203342 439481779.47508335 0 0 0 0 -258726040.2465744 360160664.33260393 0 360160664.33260393 526582014.37170506 0 0 0 0 -118664465.8525238 370617919.22157574 0 370617919.22157574 412870700.10415745 0 0 0 0 -120077429.86472869 407822409.6330173 0 407822409.6330173 285616863.31834984 0 0 0 0 -330362622.48617554 533581690.72493851 0 533581690.72493851 614770205.12864399 0 0 0 0 -460593504.1978302 242884228.60971999 0 242884228.60971999 489864563.71362197 0 0 0 0 -302470743.55921936 366844075.9518261 0 366844075.9518261 245948834.6540966 0 0 0 0 -289206922.47633362 261183147.248384 0 261183147.248384 235698939.945333 0 0 0 0 -317896593.76582336 272621677.20258546 0 272621677.20258546 433142388.29995823 0 0 0 0 -257623254.41181183 333199123.40155423 0 333199123.40155423 146603874.24398661 0 0 0 0 -264204049.27120972 434597421.41275907 0 434597421.41275907 101000044.42548084 0 0 0 0 -232776436.49111938 383088507.59881222 0 383088507.59881222 8368316.2992940545 0 0 0 0 -249528809.18112183 404265948.82101417 0 404265948.82101417 62187321.374533631 0 0 0 0 -321384769.81454551 272837911.91752332 0 272837911.91752332 -7106425.871078968 0 0 0 0 -321739441.29235077 280772536.28606677 0 280772536.28606677 77076168.173677921 0 0 0 0 -118160480.44354248 377613883.37547565 0 377613883.37547565 396065739.57209134 0 0 0 0 -102156568.29948425 389195606.1068995 0 389195606.1068995 269382413.31581759 0 0 0 0 -16596327.231735229 422862519.59683275 0 422862519.59683275 605657582.57915974 0 0 0 0 -55654330.261581421 326920051.01600075 0 326920051.01600075 370021443.97671223 0 0 0 0 -178008798.1611557 362048972.04741144 0 362048972.04741144 603482816.76612377 0 0 0 0 -189713235.23160553 298725378.81238794 0 298725378.81238794 398839261.26320839 0 0 0 0 -205295412.07539368 340065050.95713091 0 340065050.95713091 299056733.15922308 0 0 0 0 -248799977.23577881 347690259.30744314 0 347690259.30744314 437809374.91263223 0 0 0 0 -195331092.47386599 336449412.4446373 0 336449412.4446373 240336010.97644711 0 0 0 0 -190221454.90438843 416903692.98032725 0 416903692.98032725 159217979.55863523 0 0 0 0 -282957726.28601074 354080706.33493257 0 354080706.33493257 310051826.78146923 0 0 0 0 -273744105.85928345 445094464.38386416 0 445094464.38386416 59513690.797079563 0 0 0 0 -234497973.64772034 360897244.24577808 0 360897244.24577808 107837591.63369131 0 0 0 0 -120351982.47323608 408279059.85773087 0 408279059.85773087 105642846.40880609 0 0 0 0 -82063561.717418671 315962986.31369495 0 315962986.31369495 66384157.599831104 0 0 0 0 13749536.410919189 364757882.63415384 0 364757882.63415384 374206265.60235703 0 0 0 0 13803197.778892517 330424507.79139602 0 330424507.79139602 206111922.19183636 0 0 0 0 68252525.906044006 299595798.64618874 0 299595798.64618874 36014145.265446186 0 0 0 0 -61426984.639801025 377911525.85020375 0 377911525.85020375 209767480.12693346 0 0 0 0 -44730029.289123535 328856355.34550142 0 328856355.34550142 37747948.733653985 0 0 0 0 -28550639.374488831 319303466.60117757 0 319303466.60117757 -100428224.39190441 0 0 0 0 -146051165.94125366 364214152.15704435 0 364214152.15704435 55617747.71749118 0 0 0 0 -129553794.71819305 376486417.6852262 0 376486417.6852262 -52743913.632991314 0 0 0 0 -117812004.2093277 335985296.69603276 0 335985296.69603276 -240104907.72427601 0 0 0 0 -1509310.554473877 318321485.78875041 0 318321485.78875041 -293909563.19395506 0 0 0 0 -142528174.47695923 326186481.45075834 0 326186481.45075834 -100044244.15735124 0 0 0 0 -7910034.9095287323 426619610.29412091 0 426619610.29412091 -476159819.21748257 0 0 0 0 -66645542.033294678 325633697.32599151 0 325633697.32599151 -286627137.34641635 0 0 0 0 -59698047.067405701 320065500.40188032 0 320065500.40188032 -462703674.49879837 0 0 0 0 -284108783.48779297 309963406.22240102 0 309963406.22240102 -243667735.03351706 0 0 0 0 43835755.634613037 384077813.79870749 0 384077813.79870749 -664615956.93769002 0 0 0 0 -146212415.95544434 278480791.9637661 0 278480791.9637661 -481098302.54772758 0 0 0 0 -176233561.13464355 176401837.97716331 0 176401837.97716331 -680210704.59821272 0 0 0 0 -38716356.120422363 273227512.33937931 0 273227512.33937931 -683337120.7935425 0 0 0 0 -39127330.413665771 279610362.69192553 0 279610362.69192553 -764043927.2132926 0 0 0 0 47128055.960601807 434503380.99013281 0 434503380.99013281 -484494348.03102255 0 0 0 0 -429908645.21342087 365329337.80005765 0 365329337.80005765 -564787411.44412565 0 0 0 0 -480292059.92959213 508282626.75051278 0 508282626.75051278 -461888871.22176075 0 0 0 0 -206018657.14654541 478785592.94038486 0 478785592.94038486 -748059383.48358917 0 0 0 0 -270876416.65228271 470401459.01414108 0 470401459.01414108 -749118515.43059802 0 0 0 0 -1006777978.7760315 634376718.12322903 0 634376718.12322903 -652734086.82086861 0 0 0 0 -389344792.46896362 459391871.76186252 0 459391871.76186252 -479097102.84815526 0 0 0 0 -246524512.20800781 299327134.65070307 0 299327134.65070307 -361535364.79754877 0 0 0 0 -562726165.69404602 271604034.19602883 0 271604034.19602883 -362862712.0735476 0 0 0 0 -423616776.97814941 388341413.29732484 0 388341413.29732484 -200486865.69904649 0 0 0 0 -307665136.13265991 466176715.41425693 0 466176715.41425693 -315136552.88795125 0 0 0 0 -444613602.88023376 406883656.64452684 0 406883656.64452684 -335268730.09021139 0 0 0 0 -286916748.65890503 471190121.43890882 0 471190121.43890882 -457544074.55893326 0 0 0 0 -306398607.95950317 393752279.85033751 0 393752279.85033751 -212968063.80844009 0 0 0 0 -260162573.00606918 439099164.85788608 0 439099164.85788608 -118795930.83028603 0 0 0 0 -317655082.44927216 464614667.67249364 0 464614667.67249364 -126391532.35427886 0 0 0 0 -257036391.9723053 317281457.48162723 0 317281457.48162723 -78582741.135582566 0 0 0 0 -247038270.52420044 416603545.15445274 0 416603545.15445274 -122269113.72662532 0 0 0 0 -295328557.76374054 351842695.21081823 0 351842695.21081823 -191662528.60162282 0 0 0 0 -220435570.24908447 348888472.51777625 0 348888472.51777625 72219686.749337852 0 0 0 0 -192350838.56311798 402318940.68140793 0 402318940.68140793 1787559.5719270706 0 0 0 0 -280333929.7199707 368643882.68952465 0 368643882.68952465 -8743928.4405033588 0 0 0 0 -256624569.90066528 386163257.05280298 0 386163257.05280298 -1602156.5513076186 0 0 0 0 -256062214.64315796 465385441.95285702 0 465385441.95285702 -57895161.763914496 0 0 0 0 -180654400.35153198 389735438.5197674 0 389735438.5197674 -141675123.81949449 0 0 0 0 -167051174.17698669 395277423.08883077 0 395277423.08883077 -213309910.22185016 0 0 0 0 -286483554.37419128 327943902.01966655 0 327943902.01966655 -71131640.284959912 0 0 0 0 -130459186.33629608 320321026.69156897 0 320321026.69156897 -75129210.417722672 0 0 0 0 -7527987.8418526649 61679058.391847029 0 61679058.391847029 -21872297.698592186 0 0 0 0 -25293127.235977173 227222980.32460451 0 227222980.32460451 -325981932.26933694 0 0 0 0 -48358993.006977081 186211892.46273875 0 186211892.46273875 -284481332.54298115 0 0 0 0 -241237503.35054779 475381977.88598585 0 475381977.88598585 -317424789.30737925 0 0 0 0 -108381499.39530945 385195804.31158972 0 385195804.31158972 -373748977.49155903 0 0 0 0 -245557028.3685379 463956129.62929869 0 463956129.62929869 -208096586.00783348 0 0 0 0 -296402293.17202759 458448392.0623641 0 458448392.0623641 -302388943.41656494 0 0 0 0 -121898887.30049133 346180086.43302345 0 346180086.43302345 -197697238.85929978 0 0 0 0 -158931523.19837952 455098958.73806381 0 455098958.73806381 -468388452.61813736 0 0 0 0 -206479621.57171631 438528315.04379272 0 438528315.04379272 -460840285.5592618 0 0 0 0 7844909.7239990234 225273018.56171989 0 225273018.56171989 -606418179.52782536 0 0 0 0 107412401.02252197 175037041.18737125 0 175037041.18737125 -746856789.82129288 0 0 0 0 -127498878.30241394 488876943.47628212 0 488876943.47628212 -1074829309.7225704 0 0 0 0 -14432235.787231445 266190585.96382427 0 266190585.96382427 -638042667.91430855 0 0 0 0 112535749.98661804 243507205.36208677 0 243507205.36208677 -1078368889.9588604 0 0 0 0 122333182.27035522 227733854.20149422 0 227733854.20149422 -1073689937.4718361 0 0 0 0 42124810.640686534 30358200.15717417 0 30358200.15717417 6503185.034117898 0 0 0 0 35862691.101802826 36289722.209859848 0 36289722.209859848 36249667.741592407 0 0 0 0 41881487.047325134 36983771.38759613 0 36983771.38759613 23192103.657081604 0 0 0 0 38571838.902641296 43524766.307128906 0 43524766.307128906 23986536.395774841 0 0 0 0 66615454.584499359 46955100.928938389 0 46955100.928938389 -64134748.119430542 0 0 0 0 67321006.331008911 39544167.724308014 0 39544167.724308014 6854740.5029067993 0 0 0 0 6702407.6014518738 106078934.70612621 0 106078934.70612621 12059495.85225296 0 0 0 0 41494505.620803833 66818890.668159485 0 66818890.668159485 -15643372.069452286 0 0 0 0 46203419.184469223 168275910.5783987 0 168275910.5783987 48904547.58990097 0 0 0 0 30944282.156108856 37093249.360555649 0 37093249.360555649 30951655.800773621 0 0 0 0 22267565.888275146 46333195.738311768 0 46333195.738311768 27776612.635442734 0 0 0 0 13657024.874610901 51441069.832618713 0 51441069.832618713 24218797.673172951 0 0 0 0 8370384.4722595215 32345106.059711456 0 32345106.059711456 49084295.358394623 0 0 0 0 33872716.796068192 20901056.638866901 0 20901056.638866901 34967395.658668518 0 0 0 0 74050242.586242676 -351014406.33683658 0 -351014406.33683658 -243598055.81326419 0 0 0 0 147653482.68926239 243126257.29319108 0 243126257.29319108 -175156645.31946468 0 0 0 0 -150333989.44187927 384019443.39159942 0 384019443.39159942 -71882494.052059174 0 0 0 0 4045114.4003551006 3164092.609187752 0 3164092.609187752 935625.57957582967 0 0 0 0 -150537104.55118561 579196426.93666971 0 579196426.93666971 -350508092.79813433 0 0 0 0 -9285631.2633056641 828052253.79920506 0 828052253.79920506 54163825.298111558 0 0 0 0 139791362.97799683 736704899.07553053 0 736704899.07553053 -405912444.66275084 0 0 0 0 -39541173.434295177 555144639.83863282 0 555144639.83863282 -566545927.63831139 0 0 0 0 509911683.16833496 1045810021.7016816 0 1045810021.7016816 -431036595.50120735 0 0 0 0 199416820.22267532 598991960.36146998 0 598991960.36146998 -963226329.54029512 0 0 0 0 782790589.44646454 370643955.43026733 0 370643955.43026733 -1558265104.9120855 0 0 0 0 -815416426.88571167 -226260475.92847013 0 -226260475.92847013 -913677919.06130123 0 0 0 0 28860609.809614167 36242951.249317408 0 36242951.249317408 31854957.292530254 0 0 0 0 -233308318.6129837 586920623.49920177 0 586920623.49920177 380740408.96212673 0 0 0 0 -920307556.4024353 -213923503.70462036 0 -213923503.70462036 -189832430.07814932 0 0 0 0 -447951921.01425171 743801355.31518269 0 743801355.31518269 -1158568887.5231037 0 0 0 0 -128869911.28814697 578635984.32081795 0 578635984.32081795 -1383203611.3392484 0 0 0 0 -5909662.7660899609 12189209.590426411 0 12189209.590426411 7668342.7759879073 0 0 0 0 420008185.45039368 -53088439.56072998 0 -53088439.56072998 258328949.47749138 0 0 0 0 193448786.04379272 249211539.06282043 0 249211539.06282043 37715780.011245728 0 0 0 0 70442155.154212952 -949248941.5695591 0 -949248941.5695591 -369196304.81584644 0 0 0 0 1204314109.7307739 -8842588.2615089417 0 -8842588.2615089417 -760181774.83685231 0 0 0 0 1339210047.3519135 303004372.72790909 0 303004372.72790909 -596435602.99358797 0 0 0 0 775584358.4861145 82409142.936300278 0 82409142.936300278 -302709810.0210228 0 0 0 0 846423959.3197937 14085528.704849243 0 14085528.704849243 -585509666.94066286 0 0 0 0 772586848.68730164 -273867140.55127716 0 -273867140.55127716 -712861593.36061525 0 0 0 0 443661218.50643158 -142021677.87153435 0 -142021677.87153435 -175273843.29908371 0 0 0 0 745290334.66573334 42119463.647651672 0 42119463.647651672 -211631748.93457794 0 0 0 0 698689920.17986298 -109495109.49138641 0 -109495109.49138641 -221407451.84913635 0 0 0 0 485821374.7991333 78569103.194768906 0 78569103.194768906 -289922751.49475861 0 0 0 0 909952615.57739258 -79618064.057411194 0 -79618064.057411194 -155817458.55426788 0 0 0 0 1610480699.7381973 499571354.56655121 0 499571354.56655121 -363411137.49397278 0 0 0 0 750007371.16159678 315157056.82428765 0 315157056.82428765 -304182773.61203003 0 0 0 0 748895293.64764404 -1691045.4268684387 0 -1691045.4268684387 -260800311.05307007 0 0 0 0 -138875277.63873672 771162235.52747726 0 771162235.52747726 -6360383.26978302 0 0 0 0 622684868.16966248 371216642.10528564 0 371216642.10528564 -324948589.45503235 0 0 0 0 848653541.01686096 1003568584.3169327 0 1003568584.3169327 -295715692.44371033 0 0 0 0 1032060665.6428375 916675982.14568329 0 916675982.14568329 -267116779.04041672 0 0 0 0 977374023.76436615 860709672.46652603 0 860709672.46652603 -304986633.38619232 0 0 0 0 2156256075.2487946 1108996327.2405853 0 1108996327.2405853 -253779393.72511292 0 0 0 0 6231254.0427981913 4500120.6044180728 0 4500120.6044180728 -820324.44170169532 0 0 0 0 216189045.35282898 611042690.2954483 0 611042690.2954483 -11822587.674240112 0 0 0 0 200403039.44146729 -489680260.36597443 0 -489680260.36597443 -1141797431.5282135 0 0 0 0 221198373.79616547 1324691539.2266884 0 1324691539.2266884 -618105452.12506104 0 0 0 0 127406135.32734299 1352892024.7446671 0 1352892024.7446671 -146236650.9332428 0 0 0 0 676434885.7960968 1127805904.3849258 0 1127805904.3849258 -717641511.27464294 0 0 0 0 794200862.54764938 1414884939.4682217 0 1414884939.4682217 -27137989.835647583 0 0 0 0 106414620.26887512 126544719.66150665 0 126544719.66150665 -1522782229.3592987 0 0 0 0 157861626.23770142 224450245.26333237 0 224450245.26333237 -179603062.01843262 0 0 0 0 165825431.49334717 203117719.62094498 0 203117719.62094498 -546916300.26769447 0 0 0 0 -39318545.155948162 1771247596.9761376 0 1771247596.9761376 152997316.27864075 0 0 0 0 100194117.48934937 50186596.580734253 0 50186596.580734253 -354811615.62966537 0 0 0 0 95711707.792419434 31457085.761501312 0 31457085.761501312 -81606915.045703888 0 0 0 0 41078832.14453125 -332349.30210876465 0 -332349.30210876465 31575919.822742462 0 0 0 0 9898594.1479514949 12082682.601783041 0 12082682.601783041 -5999718.5406618118 0 0 0 0 38866070.885888346 27133562.575726025 0 27133562.575726025 6303864.2584410617 0 0 0 0 78688606.283191681 -361659.14326095581 0 -361659.14326095581 -148391250.94382095 0 0 0 0 495756360.89124298 1120125593.0571117 0 1120125593.0571117 -854750044.88131714 0 0 0 0 -659414009.22872162 -12551381.144170761 0 -12551381.144170761 564229150.78457642 0 0 0 0 215253561.30581665 115920494.36461449 0 115920494.36461449 90818106.7328825 0 0 0 0 72107640.793136597 115968647.90371037 0 115968647.90371037 222965899.2149353 0 0 0 0 27040312.507730894 7594713.5228421828 0 7594713.5228421828 1779832.7089120052 0 0 0 0 -39872251.976974487 123498464.57958156 0 123498464.57958156 -79502508.308106273 0 0 0 0 9660564.3794073444 13340958.64957992 0 13340958.64957992 19606295.012490388 0 0 0 0 -495064610.50380707 225415452.70884514 0 225415452.70884514 32265501.779891849 0 0 0 0 -238938977.3654747 189004664.82018322 0 189004664.82018322 15983708.054644108 0 0 0 0 545505129.89251709 310268345.99153996 0 310268345.99153996 48624742.9960289 0 0 0 0 702441660.46555328 409446174.49043036 0 409446174.49043036 106747195.11240673 0 0 0 0 386584757.64242554 445952216.42523432 0 445952216.42523432 173268814.96947098 0 0 0 0 614883495.16714478 556489988.89820862 0 556489988.89820862 52382874.035539627 0 0 0 0 500323567.86154175 476684375.37823582 0 476684375.37823582 126111127.34537888 0 0 0 0 625732567.89889526 636071404.69424248 0 636071404.69424248 252185721.56949425 0 0 0 0 458843448.42134476 581373268.72026443 0 581373268.72026443 312305885.80761528 0 0 0 0 1020408236.7457962 -437694506.09705257 0 -437694506.09705257 -1395803666.8584442 0 0 0 0 -1513499.1570129395 225359812.8223505 0 225359812.8223505 935982403.53316307 0 0 0 0 11543737.628302664 18804.274710875005 0 18804.274710875005 151754.8224076801 0 0 0 0 578431099.96734619 733668104.87086105 0 733668104.87086105 383263576.36200333 0 0 0 0 143097911.09966278 899767941.5232296 0 899767941.5232296 2233610083.173007 0 0 0 0 624214176.10622406 623180390.63796639 0 623180390.63796639 266588627.89809418 0 0 0 0 -2531458.9644546509 927150965.46063232 0 927150965.46063232 3165661730.2389793 0 0 0 0 1069836549.5863495 1710967916.2242527 0 1710967916.2242527 1366291764.241478 0 0 0 0 2576060195.675293 1655625892.2899647 0 1655625892.2899647 -1249514568.7967815 0 0 0 0 -331852700.71190166 -331470231.11556721 0 -331470231.11556721 -128078407.83734131 0 0 0 0 -40608780.86874035 31008938.893684536 0 31008938.893684536 18147902.420885071 0 0 0 0 373527592.81352234 11303375.889233589 0 11303375.889233589 -80246659.692661285 0 0 0 0 -431185379.66793716 -175346337.95430571 0 -175346337.95430571 -49357996.716903687 0 0 0 0 1214778722.4824371 32732563.150388718 0 32732563.150388718 -632597603.32282639 0 0 0 0 -7661364.1956272125 -142850932.74114037 0 -142850932.74114037 -198651164.68094254 0 0 0 0 -826221702.14911652 -323182184.81472874 0 -323182184.81472874 -161139522.30881977 0 0 0 0 52961601.096589088 146830980.43237591 0 146830980.43237591 -236210494.39331818 0 0 0 0 31789013.383029699 -350054142.99477601 0 -350054142.99477601 -369719854.98744202 0 0 0 0 545226573.4172554 446299676.28612208 0 446299676.28612208 97871133.045377731 0 0 0 0 548027359.91689301 527372695.8266468 0 527372695.8266468 157150065.57980728 0 0 0 0 469162324.13131714 477835049.61880398 0 477835049.61880398 273870291.42647362 0 0 0 0 379364148.10391808 457073064.64322972 0 457073064.64322972 282001226.80733871 0 0 0 0 412584728.95233154 345438861.70196438 0 345438861.70196438 105340846.81936789 0 0 0 0 227754369.14468384 354103712.00129318 0 354103712.00129318 288797100.11265373 0 0 0 0 -573970402.09640694 -586472486.77096558 0 -586472486.77096558 -182134248.19192505 0 0 0 0 -289706079.16545677 -389224521.15606308 0 -389224521.15606308 99680753.840103149 0 0 0 0 497559.10327063873 -404374.45516502671 0 -404374.45516502671 -771726.17962408066 0 0 0 0 -42021543.326397382 28238091.591271453 0 28238091.591271453 20824292.244586669 0 0 0 0 149703513.91798401 514757533.70767689 0 514757533.70767689 329962089.29454422 0 0 0 0 203801353.5340271 462242948.6758976 0 462242948.6758976 368171482.57666397 0 0 0 0 225721505.6572876 653548697.29639912 0 653548697.29639912 139385265.70161057 0 0 0 0 -481347826.18854332 -10205479.651123047 0 -10205479.651123047 41244355.089347839 0 0 0 0 -482858097.85216713 -59170032.819824219 0 -59170032.819824219 -538685354.2916832 0 0 0 0 -316468979.93346596 -84530639.270019531 0 -84530639.270019531 -116464466.26353073 0 0 0 0 -254648056.38022518 -197569220.38431549 0 -197569220.38431549 74211228.323997498 0 0 0 0 -289727970.94585609 -445131709.37945557 0 -445131709.37945557 310468101.76652527 0 0 0 0 -244632966.12754822 -165290882.22864914 0 -165290882.22864914 117896110.1362896 0 0 0 0 -208528456.18876743 -323970152.91079903 0 -323970152.91079903 623739228.39614868 0 0 0 0 191461448.51486397 -461731020.42020273 0 -461731020.42020273 268459842.47618866 0 0 0 0 -378659754.68132019 -143283997.67599678 0 -143283997.67599678 101753139.44763947 0 0 0 0 5210663.1860855967 4362042.7068341151 0 4362042.7068341151 11702941.439286884 0 0 0 0 -309104248.40582657 319017874.40887868 0 319017874.40887868 14931266.991937399 0 0 0 0 588030848.20943451 423665288.52446556 0 423665288.52446556 195342637.26956654 0 0 0 0 1040274904.4187927 347755236.62126541 0 347755236.62126541 200453424.74270874 0 0 0 0 615077178.85978699 448578839.82416916 0 448578839.82416916 169189882.07590985 0 0 0 0 403820851.59356689 523787631.58542633 0 523787631.58542633 452553998.63977051 0 0 0 0 541998708.21086121 680854617.31607294 0 680854617.31607294 356130378.48817253 0 0 0 0 412432855.07913208 520295604.03058243 0 520295604.03058243 229566524.92230225 0 0 0 0 508485764.02035522 75776565.113048553 0 75776565.113048553 -155559943.26374865 0 0 0 0 706494923.74002075 356470210.59845066 0 356470210.59845066 261630692.09181976 0 0 0 0 455004905.00256348 450891079.5283432 0 450891079.5283432 -211274705.07236481 0 0 0 0 448103235.75323868 445713231.64967585 0 445713231.64967585 269364629.13337708 0 0 0 0 467172115.29379272 4884315.9383354187 0 4884315.9383354187 134628329.27116442 0 0 0 0 705245994.27243805 1029618633.3113642 0 1029618633.3113642 949147843.97746277 0 0 0 0 1022116238.4802704 625993505.73483467 0 625993505.73483467 311701642.86756802 0 0 0 0 2125752226.51651 895656419.80570078 0 895656419.80570078 87613892.707313538 0 0 0 0 -1031700925.6436615 101126032.12773895 0 101126032.12773895 348219597.4643054 0 0 0 0 1803529.1195042711 781021.72982244939 0 781021.72982244939 3910090.1029293723 0 0 0 0 277502204.57507324 672691763.79093933 0 672691763.79093933 444899978.82596588 0 0 0 0 287113283.6516571 318551676.12357044 0 318551676.12357044 1147903617.307214 0 0 0 0 325739652.85116577 488594492.90456009 0 488594492.90456009 66840830.514484406 0 0 0 0 465632897.50200653 288565708.85276747 0 288565708.85276747 287708545.52490997 0 0 0 0 -557374668.59886742 3503003.6184005737 0 3503003.6184005737 82611309.607070923 0 0 0 0 114282627.6031723 -106777400.54283524 0 -106777400.54283524 262445520.54421234 0 0 0 0 -15148788.166183472 174768261.85091114 0 174768261.85091114 296693023.00255966 0 0 0 0 -48561740.497499548 29386263.19660785 0 29386263.19660785 21834736.462736182 0 0 0 0 -1529017.83543396 224146109.67466164 0 224146109.67466164 398311534.42212486 0 0 0 0 127147235.58532715 338525476.23890495 0 338525476.23890495 459421476.40038586 0 0 0 0 464534861.6222229 278477955.38151169 0 278477955.38151169 380225905.21659088 0 0 0 0 92748682.220855713 31465436.257161617 0 31465436.257161617 470281200.34666061 0 0 0 0 426483303.92120361 251503755.14503288 0 251503755.14503288 665027308.90755653 0 0 0 0 353262104.93312073 41865985.152752876 0 41865985.152752876 421941938.68296051 0 0 0 0 -507401142.15402603 863296.9388961792 0 863296.9388961792 34506865.389545441 0 0 0 0 -454668178.1388216 77526798.206970215 0 77526798.206970215 -57715017.062446594 0 0 0 0 6709314.4782142639 327399847.06116676 0 327399847.06116676 -514788384.1209259 0 0 0 0 168849920.18780518 123120287.73221684 0 123120287.73221684 33292328.294437408 0 0 0 0 -7131920.3776424304 288456.17571316659 0 288456.17571316659 4621553.1048267353 0 0 0 0 -22928221.93519884 40680586.009215057 0 40680586.009215057 2617363.3756342977 0 0 0 0 74825553.925476074 138023828.07575798 0 138023828.07575798 52413539.861255646 0 0 0 0 110831635.97825623 199934994.53993225 0 199934994.53993225 -67299347.72892952 0 0 0 0 -61710587.616502285 201628483.16660893 0 201628483.16660893 129726297.37332153 0 0 0 0 200258656.30979156 382669189.21824265 0 382669189.21824265 240055254.28043365 0 0 0 0 -318071454.05777073 66905525.676246643 0 66905525.676246643 220528743.56324005 0 0 0 0 -18824943.994142294 153908341.49906063 0 153908341.49906063 307052770.0085907 0 0 0 0 -210571223.44988251 -19783039.578414917 0 -19783039.578414917 173767381.33689117 0 0 0 0 -418334316.68414688 74184526.44997406 0 74184526.44997406 169482588.07703018 0 0 0 0 -230817145.41956806 62758771.299034119 0 62758771.299034119 83395844.74786377 0 0 0 0 -414438416.02869749 90492516.130308151 0 90492516.130308151 -31188549.242446899 0 0 0 0 -573640482.08486843 88078449.250349045 0 88078449.250349045 14002697.150154114 0 0 0 0 -546545055.342659 24772031.129640579 0 24772031.129640579 153324794.55283356 0 0 0 0 -415565423.00689507 52784371.379419327 0 52784371.379419327 85211265.635601044 0 0 0 0 -501546117.2312355 81287488.716003418 0 81287488.716003418 129890823.19634247 0 0 0 0 -378863888.39870167 142989325.09222984 0 142989325.09222984 162768539.90118408 0 0 0 0 -401090413.39223051 202862979.60969973 0 202862979.60969973 29460253.175262451 0 0 0 0 -410557087.2755518 180254309.17802429 0 180254309.17802429 -12851256.853034973 0 0 0 0 -378050068.72451711 121742638.04051256 0 121742638.04051256 121196722.25447464 0 0 0 0 -449359664.04941463 121675038.67281342 0 121675038.67281342 149261141.87690926 0 0 0 0 -167863506.21555042 177842577.97868538 0 177842577.97868538 83751265.122968674 0 0 0 0 -119475911.91239929 -34705088.010155916 0 -34705088.010155916 288179576.9303627 0 0 0 0 -7968810.174448967 -18283822.520406723 0 -18283822.520406723 214633364.85645294 0 0 0 0 184811182.51151943 -179018140.50971794 0 -179018140.50971794 279278514.19834518 0 0 0 0 229339171.72226429 38305573.831988335 0 38305573.831988335 456922934.44157028 0 0 0 0 404742352.24499321 312785433.6884346 0 312785433.6884346 299294774.39638519 0 0 0 0 -86298726.792277813 39722893.412243366 0 39722893.412243366 611373632.7285347 0 0 0 0 1017562970.9645758 1077144600.5152674 0 1077144600.5152674 1010241237.721611 0 0 0 0 269910527.07804537 414977033.58399868 0 414977033.58399868 440202507.45018387 0 0 0 0 2061292591.2145157 467711350.24184608 0 467711350.24184608 -14373311.160616636 0 0 0 0 464134073.63253784 137226050.78427696 0 137226050.78427696 31096084.999874115 0 0 0 0 489104.2667197315 3354621.6697993027 0 3354621.6697993027 6144341.864575915 0 0 0 0 -35033898.388834 -337911402.3140316 0 -337911402.3140316 1486539631.551506 0 0 0 0 46434624.519914627 913862909.35698891 0 913862909.35698891 1885484141.3629346 0 0 0 0 2003238136.1136136 243758142.8116312 0 243758142.8116312 345876524.09292793 0 0 0 0 -143068498.85059357 96215618.075031281 0 96215618.075031281 1654305666.2148323 0 0 0 0 765816316.18960476 -365587734.4134388 0 -365587734.4134388 -676261288.64357376 0 0 0 0 9572793.1802086178 1266920.8597400561 0 1266920.8597400561 -2030236.4157358706 0 0 0 0 -174799242.74731636 216633436.65186596 0 216633436.65186596 404612334.08783722 0 0 0 0 24545111.180186868 54232913.741138458 0 54232913.741138458 -55263157.067834854 0 0 0 0 1480237.5927877426 63464902.264061928 0 63464902.264061928 61610449.934010506 0 0 0 0 25438173.8322649 -66756489.470687866 0 -66756489.470687866 -47811934.755786896 0 0 0 0 70940525.645905435 5270761.3440012932 0 5270761.3440012932 -97463821.734333038 0 0 0 0 -10354803.192091942 -235009787.59001827 0 -235009787.59001827 -329167742.06391716 0 0 0 0 -86975258.761187077 -33129841.242562294 0 -33129841.242562294 -47397039.770036697 0 0 0 0 353335456.45347285 -15504560.620502472 0 -15504560.620502472 -154388883.1760788 0 0 0 0 67633223.721082687 193772950.00873804 0 193772950.00873804 239730087.05335617 0 0 0 0 -27075092.85478878 -359067624.37618828 0 -359067624.37618828 133330185.14831734 0 0 0 0 3840938.7790776733 41909.382373191416 0 41909.382373191416 -479251.15489365719 0 0 0 0 -443518656.28953171 -38278528.055330276 0 -38278528.055330276 564063485.57195091 0 0 0 0 -135773521.8126235 72573630.495763779 0 72573630.495763779 315212643.84838867 0 0 0 0 -336524840.70254135 136165971.41349411 0 136165971.41349411 125923730.39084816 0 0 0 0 19552630.175872326 152939444.13018417 0 152939444.13018417 49128590.049596786 0 0 0 0 1203191.9218039289 4483672.8814410195 0 4483672.8814410195 33311.258865617216 0 0 0 0 -185394817.67478049 -178285334.9463973 0 -178285334.9463973 -62543124.088523865 0 0 0 0 -106377369.75438499 356220678.13529968 0 356220678.13529968 382630964.48923492 0 0 0 0 150217917.97731662 454499767.25305176 0 454499767.25305176 395667515.51869297 0 0 0 0 -34134596.429657459 186450195.47413445 0 186450195.47413445 469652574.37168169 0 0 0 0 -5384650.4542101622 153530508.5435276 0 153530508.5435276 249323982.4176445 0 0 0 0 -42685795.877511621 128959249.38576508 0 128959249.38576508 96963013.548522949 0 0 0 0 66959836.535349846 -148021853.61985779 0 -148021853.61985779 183643198.24801636 0 0 0 0 -5755403.9707770348 610741585.7532959 0 610741585.7532959 743224671.85674286 0 0 0 0 -83883935.557860136 31963344.40137291 0 31963344.40137291 1067401817.8769684 0 0 0 0 194773730.6156646 584601947.02458334 0 584601947.02458334 551497755.99899673 0 0 0 0 9913606.9999693651 3248419.8719099835 0 3248419.8719099835 -3024419.1116437986 0 0 0 0 595144488.46357632 328846453.94286537 0 328846453.94286537 -250279535.2698307 0 0 0 0 4504812.1388204489 2486364.5491605569 0 2486364.5491605569 -1794067.0153934136 0 0 0 0 173604917.63878727 662065252.70847988 0 662065252.70847988 758429383.79870415 0 0 0 0 36316947.044795036 535694607.38840771 0 535694607.38840771 589490185.08465195 0 0 0 0 -15810379.442727566 282947299.31779623 0 282947299.31779623 427513913.08878136 0 0 0 0 413862935.43042564 459625164.57860756 0 459625164.57860756 417427527.44942302 0 0 0 0 -13974958.787643433 285325902.95858955 0 285325902.95858955 419707960.28277969 0 0 0 0 73407715.118335009 160623935.3152895 0 160623935.3152895 482795914.91177368 0 0 0 0 300632871.84893417 252495545.68771887 0 252495545.68771887 23593665.010101318 0 0 0 0 -32819065.376338959 272368199.81797409 0 272368199.81797409 235017192.16118479 0 0 0 0 -291243733.30281138 142078718.04505014 0 142078718.04505014 193310087.24377823 0 0 0 0 -30968457.112118006 320221329.56805134 0 320221329.56805134 468045973.27255249 0 0 0 0 238711647.62835979 -18868680.110752106 0 -18868680.110752106 -176182203.55419254 0 0 0 0 127204172.43063462 43607397.986447692 0 43607397.986447692 -164999599.29350471 0 0 0 0 90942851.643939018 -55639155.579442024 0 -55639155.579442024 -143343555.07541275 0 0 0 0 33467201.089454591 29630718.867145061 0 29630718.867145061 -100666550.66352844 0 0 0 0 55698986.040922403 38062024.182840347 0 38062024.182840347 -109390850.43587685 0 0 0 0 123552467.88895416 30534237.010444641 0 30534237.010444641 -150294979.85271454 0 0 0 0 79629983.541047812 43827516.892375946 0 43827516.892375946 -152693811.20142746 0 0 0 0 91908810.438704491 89118305.40823555 0 89118305.40823555 -106267744.69816971 0 0 0 0 93807490.171358585 79755002.565396309 0 79755002.565396309 -181255325.37336349 0 0 0 0 153911371.37230587 148373965.77503705 0 148373965.77503705 -118201243.04258919 0 0 0 0 128641605.20974493 92755448.199848175 0 92755448.199848175 -166833963.75377464 0 0 0 0 125482046.54187012 54802367.139760971 0 54802367.139760971 -168310520.83917236 0 0 0 0 139423568.36315155 37873099.32252121 0 37873099.32252121 -165791899.93122292 0 0 0 0 168960106.60129452 13867191.693078518 0 13867191.693078518 -344326498.59234047 0 0 0 0 -11092537.484940529 -12050571.217522621 0 -12050571.217522621 -179675128.50916386 0 0 0 0 70634350.709226608 183922847.73031139 0 183922847.73031139 -285889990.62356877 0 0 0 0 -314470746.12122822 420107945.06525064 0 420107945.06525064 -645189745.59205437 0 0 0 0 21231175.52421093 143837958.24831104 0 143837958.24831104 -69059494.881709099 0 0 0 0 -349773186.08712649 -178997263.52314305 0 -178997263.52314305 -349674726.48994446 0 0 0 0 3449530.2539978027 -65135367.950809479 0 -65135367.950809479 -53049140.460874557 0 0 0 0 -77856073.349289179 -59208412.571073532 0 -59208412.571073532 -116276405.32672691 0 0 0 0 1722256.6659144717 -183772.62510184012 0 -183772.62510184012 -2067634.0754856728 0 0 0 0 46085134.558547974 -116789826.00810242 0 -116789826.00810242 -124427150.44511414 0 0 0 0 -316117359.63898659 19189482.863941193 0 19189482.863941193 -112206104.7063446 0 0 0 0 -81998321.262975693 -48877007.038951874 0 -48877007.038951874 -160147680.0254097 0 0 0 0 16210934.488605499 -114555698.03580856 0 -114555698.03580856 -165404472.52005005 0 0 0 0 -145970152.93015146 -9353444.3612918854 0 -9353444.3612918854 -84906741.585601807 0 0 0 0 2084788.2870058417 -519687.13920450397 0 -519687.13920450397 -2583994.31910377 0 0 0 0 -335169608.3155365 -83839237.783828735 0 -83839237.783828735 17449189.107345581 0 0 0 0 -130530716.13738251 -149230756.17679596 0 -149230756.17679596 -11103621.175743103 0 0 0 0 -426252429.63454491 -14314643.701700091 0 -14314643.701700091 22029352.709838867 0 0 0 0 -4550649.7705500126 24184018.928639412 0 24184018.928639412 -89939370.022945404 0 0 0 0 44097126.253097117 34249843.097942352 0 34249843.097942352 -87290021.704977036 0 0 0 0 -15959529.723187387 37419929.728755951 0 37419929.728755951 -87255400.899924994 0 0 0 0 40918084.930739403 63683166.204214573 0 63683166.204214573 -137509158.1323452 0 0 0 0 -29087667.876417667 55268751.814404726 0 55268751.814404726 -109010587.51401901 0 0 0 0 -111891286.23108053 48497662.448688507 0 48497662.448688507 -108088925.02056694 0 0 0 0 -783683.4256041944 89878633.962686539 0 89878633.962686539 -195822652.92692375 0 0 0 0 -12954878.827969074 2378201.4343338013 0 2378201.4343338013 -187233536.7648387 0 0 0 0 22211351.967373624 45885363.380705833 0 45885363.380705833 -132901469.3388989 0 0 0 0 74962900.340785995 59970784.741621733 0 59970784.741621733 -160963796.63828278 0 0 0 0 -6625794.9596304893 58986069.206277847 0 58986069.206277847 -18466965.988998413 0 0 0 0 38779320.324814677 39141289.11728096 0 39141289.11728096 -149210760.57497692 0 0 0 0 23653236.797257125 57056434.69440794 0 57056434.69440794 -107852231.6467514 0 0 0 0 -45945990.629211783 4820101.9178695679 0 4820101.9178695679 -90235353.146136284 0 0 0 0 -52105326.891600132 -5672099.7540798187 0 -5672099.7540798187 -110465674.50195694 0 0 0 0 -22349958.823325589 -3318187.8560854122 0 -3318187.8560854122 15327783.739027033 0 0 0 0 -45031085.829791546 2549022.161365509 0 2549022.161365509 -106204214.31196976 0 0 0 0 8355769.9393730164 122729714.6994462 0 122729714.6994462 -63606336.261520386 0 0 0 0 -47457836.596264556 56228685.386554919 0 56228685.386554919 -7913223.5622358359 0 0 0 0 -29449628.169910789 11982633.295422554 0 11982633.295422554 -499838646.66893005 0 0 0 0 -331373890.7682209 505189369.38507462 0 505189369.38507462 -420633115.15997505 0 0 0 0 37258551.644440651 -58685921.129072189 0 -58685921.129072189 -53678872.639429092 0 0 0 0 -5630621.6065325541 -419756.39439279959 0 -419756.39439279959 3249193.6919936575 0 0 0 0 -288479234.64163494 -25666282.639287949 0 -25666282.639287949 -54276002.127770424 0 0 0 0 -495725760.46990776 364714981.03450012 0 364714981.03450012 -240299180.65897179 0 0 0 0 -804892437.32809925 -208409325.24468327 0 -208409325.24468327 687546195.31549072 0 0 0 0 -36093489.714410782 -207134347.1476326 0 -207134347.1476326 -15505337.861579895 0 0 0 0 -117595325.14717889 41400922.791221619 0 41400922.791221619 -40441609.737754822 0 0 0 0 -45226489.09339349 41703572.898736216 0 41703572.898736216 9531982.7431562617 0 0 0 0 -33700473.993393898 -130865402.05773762 0 -130865402.05773762 465267604.72657776 0 0 0 0 67290092.77069664 -148245115.8679657 0 -148245115.8679657 -83645023.165298462 0 0 0 0 90884268.20100975 -288249393.45987892 0 -288249393.45987892 35106975.213069916 0 0 0 0 529000290.10966492 405888161.42923355 0 405888161.42923355 -141551222.38402176 0 0 0 0 -15179294.476753235 269737754.75498009 0 269737754.75498009 -83264321.121318817 0 0 0 0 168141552.07565308 116034250.47434235 0 116034250.47434235 -90778033.058324814 0 0 0 0 234150081.88903809 197826714.62864685 0 197826714.62864685 -129346609.77404499 0 0 0 0 338383242.74794006 63049059.891349792 0 63049059.891349792 -77382700.315460205 0 0 0 0 332865365.61628723 171688228.44487 0 171688228.44487 -134163698.38946533 0 0 0 0 110485982.14913177 137264321.3913784 0 137264321.3913784 -146548868.41703796 0 0 0 0 35957787.651043452 23616298.685873222 0 23616298.685873222 -13331379.594714649 0 0 0 0 -277048934.01269531 167958761.23860931 0 167958761.23860931 672981373.71976852 0 0 0 0 23551764.679489136 46854820.76215744 0 46854820.76215744 575388130.03641987 0 0 0 0 -149105737.3469696 83835534.688034058 0 83835534.688034058 315834719.19566345 0 0 0 0 184641040.67002106 230628003.59109497 0 230628003.59109497 262881878.0859375 0 0 0 0 -11872776.268753052 290562324.37509918 0 290562324.37509918 509820516.09786224 0 0 0 0 -753801195.94274902 152957419.2600441 0 152957419.2600441 565778771.46098137 0 0 0 0 951648.02007887885 1306912.8553533591 0 1306912.8553533591 429526.26817769557 0 0 0 0 163297139.30729294 501990542.3510437 0 501990542.3510437 697144163.53272247 0 0 0 0 130074172.74768829 254863077.49574471 0 254863077.49574471 554892472.57390594 0 0 0 0 469457913.88513565 612948193.6654892 0 612948193.6654892 589902259.19229126 0 0 0 0 -47016809.091682434 101757673.65695572 0 101757673.65695572 7286773.6911711693 0 0 0 0 -55547090.209661961 -77874325.307296276 0 -77874325.307296276 169136488.63131905 0 0 0 0 -55717912.656326599 51948884.15274632 0 51948884.15274632 -12686182.774060892 0 0 0 0 -2289727.4663258512 14974404.089264011 0 14974404.089264011 -5142475.7007026523 0 0 0 0 95234600.866933823 133083754.86208248 0 133083754.86208248 -50958722.490479469 0 0 0 0 -32716918.730547905 42890335.699273586 0 42890335.699273586 170731104.77574921 0 0 0 0 -49323580.694916502 39170229.134223141 0 39170229.134223141 -21376175.156648584 0 0 0 0 221347055.49453735 170606327.44862175 0 170606327.44862175 147511463.45588684 0 0 0 0 -142070110.08406448 231123472.46878052 0 231123472.46878052 645905402.4668808 0 0 0 0 -13220943.098470565 8224084.8693498001 0 8224084.8693498001 16075732.654655039 0 0 0 0 340670836.47463226 704657317.70002747 0 704657317.70002747 878343516.57144165 0 0 0 0 653167496.41854858 617784740.0107193 0 617784740.0107193 557121024.04212189 0 0 0 0 -294411205.26122284 -18820004.466381073 0 -18820004.466381073 238627225.24389648 0 0 0 0 181646316.30723572 -48812989.306724548 0 -48812989.306724548 -65804905.589508057 0 0 0 0 395731487.04456329 311465444.60741615 0 311465444.60741615 178605993.85961914 0 0 0 0 -37459337.728103638 33848632.843040466 0 33848632.843040466 55063001.513671875 0 0 0 0 8482001.2711334229 354104930.06550598 0 354104930.06550598 612343521.52583313 0 0 0 0 159636274.1437149 195164628.01881409 0 195164628.01881409 76147502.466854095 0 0 0 0 -86307166.51171875 132255220.10924911 0 132255220.10924911 348127364.64073181 0 0 0 0 -71168083.672549009 326588414.36602426 0 326588414.36602426 1176862691.3869781 0 0 0 0 829721.45752371848 4991389.1144060791 0 4991389.1144060791 3421486.0937320944 0 0 0 0 -4725824.4262375832 210176492.16726208 0 210176492.16726208 -182299086.17567444 0 0 0 0 66032893.291152954 186733078.63563538 0 186733078.63563538 -178271007.14129734 0 0 0 0 8210883.5453806743 1454191.9884983338 0 1454191.9884983338 -3590873.7412129715 0 0 0 0 48794793.993040085 68635508.435279846 0 68635508.435279846 -312040170.20217896 0 0 0 0 -521976.55051517487 10208564.643303871 0 10208564.643303871 -10620070.274124146 0 0 0 0 1941040.3876239881 4350412.4285894483 0 4350412.4285894483 1816107.5721131451 0 0 0 0 64757685.665189743 -25392321.320808411 0 -25392321.320808411 -97881448.175876617 0 0 0 0 -844820.28851318359 8219034.9223632812 0 8219034.9223632812 -21682841.837112427 0 0 0 0 8943224.0156120434 7594369.2003670037 0 7594369.2003670037 814463.82850558311 0 0 0 0 -1257478.3771820068 9299015.6696777344 0 9299015.6696777344 -10523425.988169193 0 0 0 0 -213437739.71364594 182273530.78603363 0 182273530.78603363 -293574401.17186737 0 0 0 0 8981872.8216927834 9119347.5664469227 0 9119347.5664469227 -2444609.1239501089 0 0 0 0 19455583.073188782 303259989.95501709 0 303259989.95501709 -416640019.36239624 0 0 0 0 -14642904.18913269 3459710.6698455811 0 3459710.6698455811 18963094.903442383 0 0 0 0 71663.995254144073 2188141.7993804291 0 2188141.7993804291 1304591.6541931778 0 0 0 0 -124340915.14634705 252503833.62787628 0 252503833.62787628 -227291773.91777802 0 0 0 0 -9948069.9149742126 355922645.71655083 0 355922645.71655083 -149612485.84785461 0 0 0 0 -123005766.1973877 184009088.57901764 0 184009088.57901764 -23700015.092914581 0 0 0 0 178058701.83498192 121837555.16657257 0 121837555.16657257 -202036305.63989258 0 0 0 0 111421046.78795528 268958146.94235897 0 268958146.94235897 268352123.53703308 0 0 0 0 119996543.62938499 289157506.59049606 0 289157506.59049606 21798209.649307251 0 0 0 0 3524421.7757201232 4277375.7991418689 0 4277375.7991418689 -1436267.520048283 0 0 0 0 -79541149.295036316 -37835212.125545502 0 -37835212.125545502 28878685.382247925 0 0 0 0 -149737113.01277375 149712383.62792528 0 149712383.62792528 -54401975.713302612 0 0 0 0 -193113647.65515137 386247429.05853271 0 386247429.05853271 -129735141.53265762 0 0 0 0 -440734388.59642601 333825877.68066597 0 333825877.68066597 -97852518.221588135 0 0 0 0 -261943906.83078396 254623583.08915997 0 254623583.08915997 93735162.212188721 0 0 0 0 56769205.960587502 169502770.49367714 0 169502770.49367714 -218183445.63704681 0 0 0 0 -87796332.241343021 85684359.398999691 0 85684359.398999691 -174812618.96640968 0 0 0 0 24411710.1717062 200677024.36556172 0 200677024.36556172 15661695.0141716 0 0 0 0 201824425.85469723 196773042.91019917 0 196773042.91019917 -1823519.5888552666 0 0 0 0 122780125.77026463 322329942.37756681 0 322329942.37756681 148749333.41606951 0 0 0 0 -117698465.59195328 277117455.01095009 0 277117455.01095009 211512234.46179962 0 0 0 0 -46268123.127579875 42517839.738813072 0 42517839.738813072 -28744638.915711384 0 0 0 0 98649564.822100282 167824756.56617928 0 167824756.56617928 116938787.87511444 0 0 0 0 143064184.3646245 167893769.22722435 0 167893769.22722435 -165946898.11075974 0 0 0 0 97312808.688587666 76345681.214298248 0 76345681.214298248 -85659936.824277401 0 0 0 0 42243890.097702026 74898213.589576721 0 74898213.589576721 152942623.90174103 0 0 0 0 1149535030.9717865 564018211.64864349 0 564018211.64864349 222952692.35483456 0 0 0 0 719974231.24441528 -175305389.06705666 0 -175305389.06705666 -465840096.60186768 0 0 0 0 816553370.65432739 1439849748.5565376 0 1439849748.5565376 511478777.83016205 0 0 0 0 2743914.0080058277 1776957.3470198475 0 1776957.3470198475 113315.86249574274 0 0 0 0 -39531069.357345581 1163705.9446105957 0 1163705.9446105957 -262197496.44269562 0 0 0 0 -579555105.14434433 635153312.41720963 0 635153312.41720963 188239434.20845795 0 0 0 0 344713318.71509933 286462268.81262589 0 286462268.81262589 -213893713.21031189 0 0 0 0 -18161942.188316345 291334098.02339935 0 291334098.02339935 -212739228.85136461 0 0 0 0 3128678.1438473687 6303273.6674148589 0 6303273.6674148589 -4001259.8935042247 0 0 0 0 -973611667.83439255 47691553.054616928 0 47691553.054616928 133038348.53371429 0 0 0 0 -1954589196.0811768 372941781.18437195 0 372941781.18437195 293596953.58720398 0 0 0 0 408827978.8757019 36846908.585464478 0 36846908.585464478 227129381.56525874 0 0 0 0 -44628169.403491177 43675962.075372167 0 43675962.075372167 -28703773.917392999 0 0 0 0 21630071.937215805 323817038.3595407 0 323817038.3595407 362632774.81752539 0 0 0 0 447764523.4949379 288517461.49538994 0 288517461.49538994 111193145.08918762 0 0 0 0 -26508101.333621979 11440469.81572628 0 11440469.81572628 154561713.58393288 0 0 0 0 121770424.72891521 238552971.48369169 0 238552971.48369169 58700531.459572792 0 0 0 0 252077586.64706421 136517056.33914566 0 136517056.33914566 628217.14744758606 0 0 0 0 208304241.79556656 203701511.72084618 0 203701511.72084618 54780651.534790039 0 0 0 0 182770403.62348175 103627773.71183777 0 103627773.71183777 20087534.450786591 0 0 0 0 148377721.26544189 135132888.95335579 0 135132888.95335579 23134812.601196289 0 0 0 0 128123155.18331909 99565967.367650986 0 99565967.367650986 30945784.274703979 0 0 0 0 141249034.60049629 163379127.06874585 0 163379127.06874585 60456592.678188324 0 0 0 0 214589557.76539564 184911562.05529833 0 184911562.05529833 29670132.558261871 0 0 0 0 11522613.641387019 23188587.359951623 0 23188587.359951623 -9759670.7626108229 0 0 0 0 289133451.70032883 155829646.96787834 0 155829646.96787834 6705964.9479179382 0 0 0 0 -141961196.00840378 11220233.523597717 0 11220233.523597717 34050480.194190979 0 0 0 0 173167189.36344147 149051953.35821533 0 149051953.35821533 17554886.278102875 0 0 0 0 -58260382.467102051 10707792.172485352 0 10707792.172485352 -9196798.7343521118 0 0 0 0 -54377464.69317627 26032491.267440796 0 26032491.267440796 -4111509.8247146606 0 0 0 0 -42328757.883056641 41559195.145141602 0 41559195.145141602 9394936.0689315796 0 0 0 0 -77550772.417114258 17985774.537475586 0 17985774.537475586 20827157.888839722 0 0 0 0 -76401096.51272583 1566014.0358581543 0 1566014.0358581543 490458.87991333008 0 0 0 0 -88175193.695678711 7493206.5957336426 0 7493206.5957336426 11982784.19342041 0 0 0 0 -34978630.712195635 70877178.52432251 0 70877178.52432251 54770961.639572144 0 0 0 0 -96296972.897750854 48603982.146057129 0 48603982.146057129 36246782.168258667 0 0 0 0 -35685767.389678955 47304429.932342529 0 47304429.932342529 20517854.139862061 0 0 0 0 -55201190.94102478 56033513.270553589 0 56033513.270553589 42243562.759628296 0 0 0 0 45728904.143703461 107380150.1329155 0 107380150.1329155 26727110.626571655 0 0 0 0 -4335968.1763000488 47555924.313949585 0 47555924.313949585 28298093.943061829 0 0 0 0 -61042148.94698143 94024271.680166245 0 94024271.680166245 26516311.407546997 0 0 0 0 -44968682.137298584 68654018.238021851 0 68654018.238021851 18615801.043701172 0 0 0 0 -38475946.929710388 49466464.465587616 0 49466464.465587616 18448517.754694939 0 0 0 0 -86531905.39087677 144707245.638237 0 144707245.638237 -38454048.091342926 0 0 0 0 -166767017.75623989 129215904.88136959 0 129215904.88136959 -12384770.107208252 0 0 0 0 81320680.196723938 200826676.0812912 0 200826676.0812912 -109148939.60051727 0 0 0 0 -45151262.852882385 228126261.6910553 0 228126261.6910553 -66337259.92219162 0 0 0 0 -170148663.36065674 236220666.52762604 0 236220666.52762604 -55795604.207550049 0 0 0 0 -60564980.235836983 303096175.0868454 0 303096175.0868454 4617700.3069076538 0 0 0 0 2785507.1268322654 2752673.3470101207 0 2752673.3470101207 -2734081.9826285392 0 0 0 0 232260576.84058428 174295715.0017662 0 174295715.0017662 66372702.111938477 0 0 0 0 220647356.71357346 81813818.945766449 0 81813818.945766449 -40456248.932525635 0 0 0 0 82959814.036094666 65793041.225784302 0 65793041.225784302 72321433.83430481 0 0 0 0 87504064.646888733 -48942176.207208633 0 -48942176.207208633 -242959800.09620667 0 0 0 0 315215221.81612778 51146294.76883316 0 51146294.76883316 -29131545.410125732 0 0 0 0 2209585.933041621 3578467.6441532876 0 3578467.6441532876 -1004386.3033824712 0 0 0 0 141311147.46643066 147215795.1791153 0 147215795.1791153 60117934.398111343 0 0 0 0 140106836.88949585 -2086362.4897689819 0 -2086362.4897689819 10018261.473960876 0 0 0 0 104931459.06041527 18996927.215551376 0 18996927.215551376 -30284179.034240723 0 0 0 0 46131339.484138489 45511430.224937439 0 45511430.224937439 8656623.2005462646 0 0 0 0 75173094.939182281 53277518.180919647 0 53277518.180919647 -51752208.027786255 0 0 0 0 -34799412.312957764 70701320.543838501 0 70701320.543838501 21250835.637428284 0 0 0 0 -17135607.924476624 92210359.902999878 0 92210359.902999878 42034895.612747192 0 0 0 0 69621270.786190033 114404234.88661194 0 114404234.88661194 47337780.439575195 0 0 0 0 23178177.731620789 70233086.326622009 0 70233086.326622009 16128149.347415924 0 0 0 0 7027128.4475402832 96095501.719116211 0 96095501.719116211 46253695.557260513 0 0 0 0 52658102.033657074 60859926.115123749 0 60859926.115123749 41043536.305526733 0 0 0 0 -19257285.891357422 60954000.041603088 0 60954000.041603088 35079191.570632935 0 0 0 0 -39278470.960479736 58104764.007583618 0 58104764.007583618 39900409.686688423 0 0 0 0 16087846.201759338 19567183.214363098 0 19567183.214363098 8677726.0158691406 0 0 0 0 1327883.3493663482 33293562.907231312 0 33293562.907231312 19140310.834796786 0 0 0 0 -28941219.29209137 56074776.390583038 0 56074776.390583038 16911762.022155762 0 0 0 0 -32895149.725189209 51055389.599594116 0 51055389.599594116 23680502.958831787 0 0 0 0 15531579.658452764 16158305.809461258 0 16158305.809461258 -18802110.03019049 0 0 0 0 97920457.453842163 109933961.84051514 0 109933961.84051514 67705278.832206726 0 0 0 0 27378928.431984987 50971052.920196362 0 50971052.920196362 -16296625.155755386 0 0 0 0 -24845127.481544495 70358914.933013916 0 70358914.933013916 -3361461.7212524414 0 0 0 0 46180716.854928017 25679659.312427521 0 25679659.312427521 -349611442.16967773 0 0 0 0 49753526.145519257 43404107.438529968 0 43404107.438529968 -262088231.03781128 0 0 0 0 -21872461.922273636 103076241.05037498 0 103076241.05037498 5843314.6185913086 0 0 0 0 30985263.575527363 48966409.73919414 0 48966409.73919414 26145223.882754624 0 0 0 0 -140981064.3723526 103896749.96379852 0 103896749.96379852 203763934.87963867 0 0 0 0 -236853.38183289208 23382353.77819917 0 23382353.77819917 11374591.592070669 0 0 0 0 46012058.782107025 25206576.071297534 0 25206576.071297534 -69897292.823194265 0 0 0 0 355108039.95902061 410334129.04588318 0 410334129.04588318 -105509490.9356308 0 0 0 0 49721969.791520938 25510024.883322604 0 25510024.883322604 -72707941.696080059 0 0 0 0 133191008.54013062 122986922.70302582 0 122986922.70302582 -48788286.18686676 0 0 0 0 212390471.95435333 150466993.47584534 0 150466993.47584534 -41316286.368627548 0 0 0 0 128931779.81361198 79405318.057195663 0 79405318.057195663 61887473.695968628 0 0 0 0 295045608.26026154 25780583.056732178 0 25780583.056732178 -95869061.210960388 0 0 0 0 134672404.8557415 119663383.38124084 0 119663383.38124084 -3748517.4122619629 0 0 0 0 138577776.93727899 29541301.412715077 0 29541301.412715077 -72746601.988006592 0 0 0 0 91597443.567213535 173089751.93769312 0 173089751.93769312 129065604.82766724 0 0 0 0 10225116.646761581 736232.05673637986 0 736232.05673637986 -13106650.850515112 0 0 0 0 -9872540.257183075 20662439.745948792 0 20662439.745948792 -41449601.94165802 0 0 0 0 12788988.678665558 17701371.760231908 0 17701371.760231908 4441460.261315614 0 0 0 0 -25499312.149253845 -29016286.310539246 0 -29016286.310539246 68518651.493623734 0 0 0 0 -91121164.586273193 49318143.756484985 0 49318143.756484985 41915514.011119843 0 0 0 0 -11420665.783721924 -42746348.958023071 0 -42746348.958023071 3386151.2985305786 0 0 0 0 44861979.70552063 -17338113.415790558 0 -17338113.415790558 -18322114.35218811 0 0 0 0 -47841045.244034767 35985074.255043507 0 35985074.255043507 5231790.6834716797 0 0 0 0 -75023825.777755737 -718546.38179779053 0 -718546.38179779053 19126624.198181152 0 0 0 0 -5687514.1744027957 1095594.0911233574 0 1095594.0911233574 2065724.9798209183 0 0 0 0 -64690706.992202759 18036761.732841492 0 18036761.732841492 5408482.929145813 0 0 0 0 -63118707.959396362 155365921.04897308 0 155365921.04897308 -91314375.639614105 0 0 0 0 33712986.652454376 -104835484.80810547 0 -104835484.80810547 134035491.25728703 0 0 0 0 -123316133.07884884 61133301.280670166 0 61133301.280670166 150686430.44561005 0 0 0 0 -297876583.39049911 395913154.05094528 0 395913154.05094528 -29687742.372089386 0 0 0 0 55320315.170696259 184640433.75782394 0 184640433.75782394 -71804516.643844604 0 0 0 0 2061386.1917150766 806084.97213397548 0 806084.97213397548 -2196515.7565397471 0 0 0 0 -264594328.97939301 269652406.96495819 0 269652406.96495819 -212024130.51748657 0 0 0 0 -285319168.66977119 413215994.42647171 0 413215994.42647171 -338385444.75336456 0 0 0 0 -47256511.389087677 42029413.436676025 0 42029413.436676025 38423177.406280518 0 0 0 0 -228339123.93596649 218094335.05323792 0 218094335.05323792 -335799778.17705745 0 0 0 0 2084503.2347166985 2204503.7514567561 0 2204503.7514567561 -2789461.2290704995 0 0 0 0 -149678558.71448326 252425698.17067719 0 252425698.17067719 -295789064.83621979 0 0 0 0 -378846656.7820797 351002789.46935463 0 351002789.46935463 -240045030.19630432 0 0 0 0 -306938541.5464859 103563893.27967834 0 103563893.27967834 -26356367.748672485 0 0 0 0 -266269030.6030426 263208489.59271622 0 263208489.59271622 -136145952.47715759 0 0 0 0 62743809.00963974 66393675.095287323 0 66393675.095287323 -131902525.19548798 0 0 0 0 4169924.911781542 4131899.0087513048 0 4131899.0087513048 -4040746.7115698159 0 0 0 0 -26792188.974983215 47532645.289096832 0 47532645.289096832 -141184808.25961304 0 0 0 0 -205107807.06489563 106582085.70529556 0 106582085.70529556 149924410.41767883 0 0 0 0 5301451.7938843723 7976170.9624627922 0 7976170.9624627922 -916064.68434181809 0 0 0 0 -116049280.59561539 184916427.33081436 0 184916427.33081436 -55082857.785583496 0 0 0 0 -233166254.33567429 158117930.37871933 0 158117930.37871933 -204868541.15338516 0 0 0 0 -88859415.350231171 215547121.8853054 0 215547121.8853054 -191288038.39692688 0 0 0 0 -93028891.201522827 99962427.263713837 0 99962427.263713837 -111581282.63323975 0 0 0 0 -3242194.9729898907 3431027.5704428647 0 3431027.5704428647 791434.52136769146 0 0 0 0 -331111443.95819378 347618836.02785587 0 347618836.02785587 -213541540.8208847 0 0 0 0 -196416476.05387878 211918813.37321281 0 211918813.37321281 -225007281.76329041 0 0 0 0 -57838344.733272552 15141991.121574402 0 15141991.121574402 22298148.83877182 0 0 0 0 -133004920.03848267 84902310.482798576 0 84902310.482798576 83859794.792388916 0 0 0 0 14179947.107536655 19538805.013178371 0 19538805.013178371 2091008.0079859495 0 0 0 0 385352725.53493881 29760159.840270996 0 29760159.840270996 -47861217.037811279 0 0 0 0 534039980.48816776 284053602.11862469 0 284053602.11862469 -7925761.9843444824 0 0 0 0 716783343.93480301 301033213.51243973 0 301033213.51243973 -192251441.44859695 0 0 0 0 381952068.37939644 225830749.80423164 0 225830749.80423164 -14825963.756309509 0 0 0 0 -3288856.3467102051 -18348307.906486511 0 -18348307.906486511 44255793.034297943 0 0 0 0 372549278.66983032 193785361.56172752 0 193785361.56172752 110037016.30609894 0 0 0 0 -477433.59807023406 -525652.87196242437 0 -525652.87196242437 -614305.83313833177 0 0 0 0 89874681.6822052 -30020165.380088806 0 -30020165.380088806 156773441.64684963 0 0 0 0 13666290.70765686 11421816.476078987 0 11421816.476078987 26340052.184913635 0 0 0 0 72771156.023433685 40111747.17216301 0 40111747.17216301 10631309.97454071 0 0 0 0 364420124.71099472 98984905.117937088 0 98984905.117937088 -86560950.665771484 0 0 0 0 490371277.08325195 -241806327.92814255 0 -241806327.92814255 30269240.789233208 0 0 0 0 654241663.13481712 -125298159.57556915 0 -125298159.57556915 -151947070.11542511 0 0 0 0 56608535.07585144 41982112.855934143 0 41982112.855934143 140406464.41791534 0 0 0 0 155790429.15550232 83972798.235122681 0 83972798.235122681 -66488395.853713989 0 0 0 0 196868745.33521271 149058074.47402573 0 149058074.47402573 30434110.579109192 0 0 0 0 1049621.9066821784 -310141.16451337188 0 -310141.16451337188 -250601.91893739998 0 0 0 0 -21584272.116749763 -54781504.479521751 0 -54781504.479521751 21224678.454978943 0 0 0 0 272898361.1092453 48058611.213283539 0 48058611.213283539 -97128661.076749802 0 0 0 0 919446819.61946106 143209354.20981407 0 143209354.20981407 -88037074.423716545 0 0 0 0 808925855.26263809 -299436920.94285965 0 -299436920.94285965 32690224.873538971 0 0 0 0 460940522.8264637 -160299285.9669466 0 -160299285.9669466 607085929.93655396 0 0 0 0 410636444.76688766 452498114.3427124 0 452498114.3427124 368980968.16365051 0 0 0 0 3371508.6667024046 2987389.0855479687 0 2987389.0855479687 2099674.7640340775 0 0 0 0 240397262.69535828 -276963924.89840889 0 -276963924.89840889 953727556.18001938 0 0 0 0 828836884.77687836 474198593.98831749 0 474198593.98831749 -231816113.92138672 0 0 0 0 538264189.79143143 516131497.35219955 0 516131497.35219955 483988878.2095747 0 0 0 0 676512788.31171989 212905995.11746693 0 212905995.11746693 -291475176.53016663 0 0 0 0 6253290.761164479 8057137.6484957822 0 8057137.6484957822 7987129.0577511638 0 0 0 0 149700457.35106468 -287072337.98861122 0 -287072337.98861122 283098436.35974503 0 0 0 0 -257835241.95714378 -202637167.67986298 0 -202637167.67986298 32048660.950504303 0 0 0 0 197494743.3898468 -63590018.973680496 0 -63590018.973680496 107120189.61460114 0 0 0 0 -115684331.93407059 -14180950.103500366 0 -14180950.103500366 278010018.76163447 0 0 0 0 -134716958.65460396 228799772.56641388 0 228799772.56641388 -36351447.600349426 0 0 0 0 -117293266.06993484 34289619.398097992 0 34289619.398097992 177899821.51402283 0 0 0 0 -261058149.10250092 134024449.8744545 0 134024449.8744545 188532106.93431473 0 0 0 0 -205316285.17259216 71018427.512229919 0 71018427.512229919 217959342.80597687 0 0 0 0 -680215847.09532547 243037676.04718399 0 243037676.04718399 156475504.43576431 0 0 0 0 -174320943.16315174 477570455.90680695 0 477570455.90680695 -150126828.04877472 0 0 0 0 -611446.82508087158 216001546.84421539 0 216001546.84421539 -40234575.985733032 0 0 0 0 187512870.63785553 356854261.44558716 0 356854261.44558716 -236648806.54000854 0 0 0 0 -88218098.497665405 292491518.93921661 0 292491518.93921661 -106841224.88269043 0 0 0 0 190000064.12195587 157906749.28700256 0 157906749.28700256 -173264248.37360954 0 0 0 0 -19797014.220344543 155802557.70317841 0 155802557.70317841 -166663698.32540131 0 0 0 0 183748427.32766724 379376247.29653931 0 379376247.29653931 196763801.09720039 0 0 0 0 3583150.5183637366 871527.79499724321 0 871527.79499724321 -4374616.4722667262 0 0 0 0 92438625.890563965 894720204.14559174 0 894720204.14559174 300081234.64749146 0 0 0 0 4266589.581741333 -106359437.41455841 0 -106359437.41455841 661403402.74182129 0 0 0 0 -710314180.48826313 202821773.97141171 0 202821773.97141171 69397374.260223389 0 0 0 0 353523.78363156319 5345485.263173148 0 5345485.263173148 2942973.4392231181 0 0 0 0 17380473.131790161 109274180.02485847 0 109274180.02485847 -271019502.3870697 0 0 0 0 -605790902.64246368 -21909469.264305115 0 -21909469.264305115 32940578.411869049 0 0 0 0 5748422.239435181 23731659.575331777 0 23731659.575331777 23005166.05949245 0 0 0 0 -416919879.0818634 -4262924.4885139465 0 -4262924.4885139465 22790432.927536011 0 0 0 0 -368798738.70928192 248688984.76393127 0 248688984.76393127 63874954.123939514 0 0 0 0 -3816434.9242973328 48393128.918361664 0 48393128.918361664 -3441486.769859314 0 0 0 0 -4401574.9455080032 45680455.051073074 0 45680455.051073074 -8561705.8280029297 0 0 0 0 6355950.4497470856 42295147.09606719 0 42295147.09606719 -14369715.293121338 0 0 0 0 -66091414.944705963 386758398.83753967 0 386758398.83753967 181315990.20582581 0 0 0 0 -144416754.61301422 3199139.7077827454 0 3199139.7077827454 406814570.05839539 0 0 0 0 -175014676.2001152 188285323.48022079 0 188285323.48022079 -198666522.10819626 0 0 0 0 -536283295.5090332 386612005.06569672 0 386612005.06569672 81801117.742832184 0 0 0 0 -442866046.08685303 327376901.71780777 0 327376901.71780777 66142191.535163879 0 0 0 0 -157638825.53466415 246149903.67835617 0 246149903.67835617 7720251.2746810913 0 0 0 0 -368225949.31051636 364701731.75335503 0 364701731.75335503 -177188955.4031601 0 0 0 0 46668802.901657104 303328895.65365982 0 303328895.65365982 -6736473.2244997025 0 0 0 0 224404238.12503624 154139539.86888313 0 154139539.86888313 24712315.535575867 0 0 0 0 -79755113.496952057 182313507.64047623 0 182313507.64047623 -98935755.437332153 0 0 0 0 -59874516.808982849 297748423.89032745 0 297748423.89032745 -110594710.69969034 0 0 0 0 1695370.0425848737 -68095.226320883259 0 -68095.226320883259 -2187919.8552059308 0 0 0 0 -488244346.41902375 517231158.02479088 0 517231158.02479088 -100326636.40271759 0 0 0 0 6293407.1072789431 19572987.669907309 0 19572987.669907309 23030027.6303031 0 0 0 0 -36105764.215423584 82093788.919078827 0 82093788.919078827 -36963065.764781952 0 0 0 0 -68333977.889640808 59239759.313383102 0 59239759.313383102 -20393959.626686096 0 0 0 0 -25489787.96282196 55293306.568098068 0 55293306.568098068 -48357340.247825623 0 0 0 0 -506611268.58409643 186135657.97776085 0 186135657.97776085 -302096299.53710175 0 0 0 0 -502035925.93279266 688293209.31395912 0 688293209.31395912 -228241366.0401392 0 0 0 0 7859178.8357200623 42132203.25384903 0 42132203.25384903 -14390576.501792908 0 0 0 0 11563922.496162415 44067068.358596802 0 44067068.358596802 -24923392.413153648 0 0 0 0 -1635430.5925865173 52678947.879583359 0 52678947.879583359 -22482610.678787231 0 0 0 0 -41583246.821311951 64722219.873152733 0 64722219.873152733 -15306645.317577362 0 0 0 0 -16963561.493743896 43500708.431624413 0 43500708.431624413 -8411974.7888145447 0 0 0 0 492920.69230651855 54096824.779960632 0 54096824.779960632 -36404837.344467163 0 0 0 0 -24879599.246505737 60744399.454532623 0 60744399.454532623 -23032045.527412415 0 0 0 0 -6615866.3180351257 51113951.194336891 0 51113951.194336891 -21511709.906455994 0 0 0 0 -2988914.7305755615 54207204.648025513 0 54207204.648025513 -34025879.087600708 0 0 0 0 18360103.960739136 45497645.963960648 0 45497645.963960648 -26904613.176855087 0 0 0 0 13950198.63533783 37368509.507396698 0 37368509.507396698 -14995588.772609711 0 0 0 0 9743854.020149231 43058474.922292709 0 43058474.922292709 -20098009.226734161 0 0 0 0 22340414.909614563 41485851.675402522 0 41485851.675402522 -23195326.099975586 0 0 0 0 33648920.431604862 46430444.80671823 0 46430444.80671823 -10995711.79535675 0 0 0 0 10104083.759220123 36358132.923963547 0 36358132.923963547 21900371.614849091 0 0 0 0 16388036.694549561 32765417.62969017 0 32765417.62969017 -14193405.895903587 0 0 0 0 -2364576.7733383179 46411982.888484955 0 46411982.888484955 -9102641.9776039124 0 0 0 0 -11808900.648910522 39143182.759592056 0 39143182.759592056 -14101096.037220001 0 0 0 0 1130280.650226593 49288244.791999817 0 49288244.791999817 -6619220.5400657654 0 0 0 0 27942493.214118958 45231747.469617844 0 45231747.469617844 17740021.753980637 0 0 0 0 7244878.3685073853 27218413.815101624 0 27218413.815101624 3209667.3986244202 0 0 0 0 28246943.393257856 31076455.933079384 0 31076455.933079384 22953543.299989976 0 0 0 0 33057213.214550018 12481709.427324295 0 12481709.427324295 13438323.110279083 0 0 0 0 -144731679.66957092 235247390.36688834 0 235247390.36688834 -93538111.268726617 0 0 0 0 7102053.1674369499 16217749.64108422 0 16217749.64108422 18581902.316655107 0 0 0 0 -69448740.106323242 112838143.94913673 0 112838143.94913673 -51365012.618099213 0 0 0 0 -15969737.174224854 67376820.437898636 0 67376820.437898636 -72605191.584722519 0 0 0 0 -16845672.431358337 67069764.615474701 0 67069764.615474701 -35747141.289901733 0 0 0 0 -32444732.242492676 39075341.1126194 0 39075341.1126194 -1584573.6664142609 0 0 0 0 -4387416.9754867554 42616845.992097855 0 42616845.992097855 22105562.753292084 0 0 0 0 -6825018.0044393539 58704977.835299492 0 58704977.835299492 12227342.889766693 0 0 0 0 -74387508.955490112 13347123.863143921 0 13347123.863143921 36620809.678356171 0 0 0 0 -30043295.377334595 84850683.764890671 0 84850683.764890671 40918195.373186111 0 0 0 0 -12565148.903423309 109121383.12364578 0 109121383.12364578 74575606.902187347 0 0 0 0 -81549717.612289429 155240230.05144119 0 155240230.05144119 48063760.050926685 0 0 0 0 7836373.8188105635 11335422.113912782 0 11335422.113912782 9055265.7184199989 0 0 0 0 -157514571.93731689 267839842.48197556 0 267839842.48197556 493229577.27220535 0 0 0 0 -73882596.798545837 25456085.023672104 0 25456085.023672104 283053169.26241302 0 0 0 0 -1274272646.2715225 740477889.21930313 0 740477889.21930313 -77919851.208465576 0 0 0 0 -56538097.337898254 840853579.71657181 0 840853579.71657181 -278363570.71326971 0 0 0 0 5162077.7498935983 60953.713031655177 0 60953.713031655177 -4813252.9308595061 0 0 0 0 -419136688.69910598 -144647769.4045912 0 -144647769.4045912 -155983275.32893753 0 0 0 0 1987306080.160965 -381239179.05640411 0 -381239179.05640411 -659629333.65480804 0 0 0 0 554594426.89815521 -867021843.42910385 0 -867021843.42910385 -405103467.02460098 0 0 0 0 2945214229.5126648 2180421320.6502228 0 2180421320.6502228 2775520019.1103821 0 0 0 0 5199495.5278548077 -11785.766522094607 0 -11785.766522094607 -4261230.0707367584 0 0 0 0 9437520.1852502823 -529391030.3068887 0 -529391030.3068887 -371416444.2290802 0 0 0 0 -81111278.73916626 -441578715.74791908 0 -441578715.74791908 574087909.87966919 0 0 0 0 -669789648.42745209 -457233945.12302017 0 -457233945.12302017 234849241.97065735 0 0 0 0 -716684689.1721077 -645116546.51698685 0 -645116546.51698685 -453791370.79653931 0 0 0 0 242718578.81612396 504698026.73041534 0 504698026.73041534 -667922974.53302002 0 0 0 0 242739522.65856934 678468270.93952942 0 678468270.93952942 159384359.33647346 0 0 0 0 -962425473.12091064 -2346562194.3533592 0 -2346562194.3533592 -1046590340.001152 0 0 0 0 721730201.20396423 1234387414.8344727 0 1234387414.8344727 765455840.51119232 0 0 0 0 1763798648.8449459 -181909164.95298338 0 -181909164.95298338 -175221605.94799042 0 0 0 0 13427024.808962181 362222.01827285439 0 362222.01827285439 -4003221.9339266969 0 0 0 0 343102405.50844574 744265838.47817993 0 744265838.47817993 2014514810.6678462 0 0 0 0 141931675.99691772 -585071743.12766266 0 -585071743.12766266 542437863.71802902 0 0 0 0 247715709.66080093 -105606719.49025917 0 -105606719.49025917 -57332406.979515076 0 0 0 0 976388459.0941658 402272103.46327972 0 402272103.46327972 56834248.157546997 0 0 0 0 19197329.442041874 69404497.085265398 0 69404497.085265398 980762644.94084167 0 0 0 0 373528722.763237 545800747.3159256 0 545800747.3159256 784075721.76066017 0 0 0 0 2104350002.1189117 1129038462.8839722 0 1129038462.8839722 458356095.50466156 0 0 0 0 861860429.50217438 127268684.16465759 0 127268684.16465759 -78908574.882019043 0 0 0 0 779932568.58922577 -40825542.546504974 0 -40825542.546504974 -414015242.41043091 0 0 0 0 1283262742.4350777 33061858.9780159 0 33061858.9780159 -392972320.32870483 0 0 0 0 648838065.40584373 -177113095.29316902 0 -177113095.29316902 -387671127.48181152 0 0 0 0 547152286.60961914 270161011.34838104 0 270161011.34838104 -137042336.20742798 0 0 0 0 502383456.98693848 82775785.102996826 0 82775785.102996826 -151396595.58104706 0 0 0 0 355064720.47523499 63397245.622169495 0 63397245.622169495 -141054823.70303345 0 0 0 0 379159144.4082489 244501219.08600616 0 244501219.08600616 -132171504.45144176 0 0 0 0 407836821.97777557 -109587931.24685669 0 -109587931.24685669 -502861710.76826668 0 0 0 0 514136485.27589417 3835927.1211853027 0 3835927.1211853027 -386860417.93238831 0 0 0 0 538253708.5787735 -93476921.466934204 0 -93476921.466934204 -150760720.58126545 0 0 0 0 540499816.38527679 -38308704.339267969 0 -38308704.339267969 -207563102.51577759 0 0 0 0 520471828.5103569 -178577604.20661926 0 -178577604.20661926 -302873810.39510345 0 0 0 0 82334158.203872681 -95122778.622314453 0 -95122778.622314453 -191946632.59914017 0 0 0 0 -101991292.25782394 115228077.15569973 0 115228077.15569973 -94481610.58808136 0 0 0 0 332393123.65893555 137020777.35898399 0 137020777.35898399 -121148761.09708405 0 0 0 0 -192857177.72291565 110471463.16801453 0 110471463.16801453 -205545080.21466827 0 0 0 0 150440823.71951294 -11308996.602525711 0 -11308996.602525711 -187895019.4653244 0 0 0 0 -294689869.50213623 -351344494.62295914 0 -351344494.62295914 -109308211.09837341 0 0 0 0 483787570.03619003 -333527078.29011154 0 -333527078.29011154 -188250085.75862885 0 0 0 0 617334799.62155151 -180196272.25527573 0 -180196272.25527573 -303310932.99616098 0 0 0 0 
</DataArray>
<DataArray type="Float64" Name="cross_section_updated" format="ascii">
1 1 1 1 1 0.047776816113501257 1 1 1 1 1 1 1 0.048834802833519771 1 1 1 1 0.047168577657437774 1 1 0.05334353541087325 1 1 1 1 0.039447360096650619 1 1 1 1 0.044252241482528293 1 1 1 1 1 1 1 1 1 1 1 1 1 0.049664931215925162 1 1 0.049993877883805528 1 1 1 1 1 0.05124238197217431 1 1 1 1 1 1 1 0.039336113054761562 1 1 1 1 0.048412142898216777 1 1 1 1 1 1 1 1 1 0.047271077602307546 1 1 0.05053219256809572 1 1 0.054269669993792589 1 1 1 1 0.05104255654845101 1 1 1 1 1 1 1 0.049289890324703163 0.049989710973852214 0.048977012371418091 1 1 0.048788089525462104 1 1 1 1 1 0.049815045710400623 1 1 1 1 1 1 1 1 1 1 1 1 1 0.05011227861250625 1 1 1 0.050222785756148136 1 1 1 1 1 1 0.050185177926522981 1 1 1 1 1 1 1 1 1 1 1 1 1 1 1 1 1 1 1 1 1 1 1 1 1 0.049814823436860133 1 1 1 0.047961907880679201 1 1 0.049832339665390496 1 1 1 1 1 1 1 1 1 1 1 0.050194465318103065 1 1 1 1 1 1 1 1 0.050615995431869211 1 1 1 1 1 1 1 1 0.05155344894275448 1 1 1 1 1 1 1 1 1 0.04929639095386687 1 1 1 1 1 1 1 1 1 1 1 1 1 1 1 1 1 1 1 1 1 1 1 0.04999620360353782 1 1 1 0.03962054518714575 1 0.050146699470580133 1 0.045569173285525018 1 1 0.056117252778023811 1 1 1 0.052973506442978935 1 0.046700819075247826 1 0.050044532913453177 1 0.046499927349723795 0.046364852675809712 1 0.048488112155273613 1 1 0.047723247983958474 1 0.052359849669367853 1 1 1 0.048477432207298582 1 0.047384086205213567 0.049739768298128331 1 1 0.051574822175812093 1 1 1 0.04844958251977715 1 0.054868382944276456 0.053461882771990807 0.048587508073073001 1 0.050093330637153793 1 1 1 0.05003449155440351 1 0.052768238055024994 0.046680394939710317 0.04945092747220628 1 1 0.053589690459486916 0.053383790958013239 1 1 1 1 0.055498849846411742 1 0.04997097277221911 1 1 0.051956479461929335 1 1 1 0.048386069002583604 1 0.049389074959266852 0.047603459804228282 0.04936324167866623 1 1 1 0.050825447979158292 1 0.048030223281573053 0.054468246352728421 0.050444754184746504 0.053310827947246654 1 1 1 0.049253620891232489 0.049997150144922092 1 1 0.045928003049678465 0.05275016751373808 0.052376971523696227 1 0.051319478887667781 1 1 1 1 0.049984086385979613 1 1 1 1 1 1 1 0.051292336649101752 1 1 1 1 1 1 0.049606291507956264 0.049989085167842215 1 1 1 0.051567389247579622 1 1 1 0.049990721182336752 1 0.052966286427404585 1 0.046272089007628539 0.056128450752162377 1 1 1 1 0.049815369405342709 1 1 0.056599626415416687 1 1 1 1 0.049924013017872276 1 0.049992443080352431 1 1 1 1 1 0.046156908542149599 0.055213806548859413 1 1 1 1 1 1 1 1 0.050057755349693075 1 1 1 0.049324267869518656 1 1 0.048276147762734277 1 0.049996656080830419 1 1 1 1 1 1 1 1 1 1 1 0.056506463779564198 1 0.049074268086114703 1 0.055265229922047597 1 1 1 0.04989481903026801 1 0.050029726364521993 1 0.047493219654716881 1 1 1 1 1 1 0.052479255348917925 1 0.047231015771774451 1 1 1 0.051841729797536873 1 1 1 0.054618371734894998 1 0.047268709797921027 0.058734334724889675 1 1 1 1 0.04882544006852764 1 1 1 1 0.043195549657817446 0.057841910696759556 1 1 0.052586106825457141 1 0.051250072329612484 1 0.050698547667952523 0.051836487413451322 1 1 1 0.04996712692850154 1 1 1 1 0.044553972923220081 1 1 1 1 1 1 1 1 1 1 1 0.049974311835876917 1 1 1 1 0.053988472345608773 1 1 1 0.046627206879145199 1 0.051742770299893881 0.049678374745624886 0.049999308913196309 1 1 1 0.056633979831320416 0.043539607344788914 1 0.041814346752730269 1 1 0.048239556529801955 1 1 1 1 0.043497475352692327 1 1 1 1 1 1 1 1 1 1 1 0.042020065614449272 0.061267018373915766 1 1 0.045265203526977785 1 1 1 0.050032029215921446 1 1 1 1 1 1 0.055823872081291651 1 1 1 0.050254658771312043 1 1 1 0.048919917248611125 1 1 1 1 1 1 1 1 1 1 1 0.055406486264292155 1 1 1 0.054874436362923933 1 1 1 1 1 1 1 0.049104941524645465 1 1 1 1 1 0.047529407954188585 1 1 1 1 1 1 1 1 1 1 1 1 1 1 1 1 1 1 1 0.050735189155969418 1 1 1 1 0.050698653385744717 1 1 0.050335121038134222 1 1 1 1 1 1 1 0.050416682396496632 1 1 1 1 1 1 1 1 0.049970046988492042 1 0.051279629936624882 1 1 0.048499392106261911 1 1 1 0.049177595171975022 1 1 0.050757224949914206 1 1 1 0.047503889092578862 1 0.048479665646535094 1 1 0.050006763262003352 1 0.048473176419302516 1 1 1 1 1 1 1 1 1 1 1 1 1 1 1 1 1 1 1 1 1 1 0.049797739823932007 1 0.048951355591611297 1 0.049650616905630884 1 1 1 1 1 1 1 1 1 1 1 1 1 1 1 0.049882118904071814 1 1 1 1 1 1 1 1 1 0.049915620919860196 1 1 1 1 1 1 1 1 1 1 1 1 1 1 1 1 1 1 1 1 1 1 1 1 1 1 1 1 1 0.049919131885215962 1 1 0.05002763974460394 1 1 1 0.047917634299117648 0.054224420925135242 1 0.053960302941155364 1 1 1 1 1 0.048089174917390988 1 1 1 1 1 0.048394122130675413 1 1 1 1 1 1 1 1 1 1 1 1 1 1 1 1 1 1 1 1 1 1 1 1 1 1 1 1 1 1 1 1 1 1 1 1 1 1 1 1 1 1 1 1 1 1 1 1 1 0.0506396041479917 1 1 1 1 1 1 1 1 1 1 1 1 1 1 1 0.05326798692359469 1 1 1 1 0.051377338026897645 1 1 1 1 1 1 1 1 1 1 1 1 1 1 1 1 1 1 1 1 1 1 1 1 1 1 1 0.051885082187055391 1 1 0.048800313741332979 1 0.044853749907837637 0.051181651885718243 0.051528600376847228 0.059023090689005152 1 1 0.049942037845581128 1 1 1 1 1 1 1 1 1 1 1 1 1 1 1 1 1 0.043978967042097562 1 1 0.049738833694994891 1 0.052906958801296415 1 1 1 1 0.04127184761654374 1 0.048905301619436133 1 1 1 1 0.049749916348983278 1 1 1 0.05029472565459258 1 1 1 1 1 0.046490436611617753 1 0.051478038557623916 1 1 0.050294042216439523 0.053027231743533083 1 0.049234828707748056 1 1 1 1 1 1 1 1 1 1 1 0.041007731488806834 1 1 1 0.041604300216876104 1 1 1 0.052605208308715304 1 1 0.040131803148436465 0.049934868990444137 0.049964294052525497 1 1 1 1 1 1 1 1 1 1 1 0.049902007564458936 1 1 1 1 1 1 1 1 0.040378837727827417 0.034624771212086874 0.040643638061378239 1 1 1 1 1 1 1 1 0.037422035159141574 0.049869602712214522 1 1 1 0.05122569200514622 1 1 0.048649947088573925 1 1 1 1 1 1 1 1 1 1 1 0.049569408247833804 1 1 1 1 1 1 1 1 0.049311253021138479 1 1 1 1 1 1 1 1 1 1 0.050026511285091765 1 0.049130824346371879 0.046691773667666622 0.047816452899814427 1 1 1 1 1 1 1 0.039341692828943869 0.036948696942753642 1 0.051563303051666835 1 1 1 1 1 0.051206850170518015 1 0.049864136376912477 0.046860907057513689 1 1 1 0.046834618321984309 1 0.046634484598287139 1 1 1 1 0.049937224519316786 1 1 1 1 1 1 1 1 1 1 1 1 1 1 1 1 1 0.051546873178791135 1 1 1 0.049058746057696057 1 1 1 1 1 0.050703574137345157 1 1 1 1 1 1 0.049475462411847929 1 0.0498212144267145 1 1 1 1 1 1 1 1 0.048063603367830533 1 1 1 0.051363467399839713 1 1 1 1 1 1 1 1 1 1 1 1 1 1 1 1 1 1 1 1 1 1 1 1 1 0.047039714457897452 0.051089565441973878 0.058350498179480008 1 1 1 1 0.0475808737719196 1 1 1 1 0.046704294417864611 1 1 1 1 1 1 1 0.05103372051073788 1 1 1 1 1 1 1 1 0.051779603203105477 1 1 1 1 1 1 1 1 1 1 1 1 0.052448651397894855 1 1 1 1 1 1 0.050596948635440266 1 1 1 1 1 1 1 1 0.049074936092003169 1 1 1 0.056280638667187403 1 1 1 1 1 1 1 1 1 1 1 1 0.0507458826923676 1 1 1 1 1 1 1 1 1 1 1 1 1 1 1 1 1 1 1 1 1 1 1 1 1 1 1 1 1 1 1 1 1 1 1 1 1 1 1 1 1 1 1 1 1 1 1 0.049666199850478238 1 1 1 1 1 1 1 1 1 1 1 1 1 1 1 1 1 1 1 1 1 1 1 1 0.050949123395621458 1 1 1 1 1 1 1 1 1 1 0.049898195086165401 1 1 0.052574490547479327 1 1 1 1 1 1 1 1 1 0.049545479676612214 1 0.049102905016416343 1 1 1 1 0.053790125058281325 1 1 0.049364645832376833 1 0.048015413303237164 1 1 1 1 1 0.048667444148445094 1 1 1 1 1 1 1 1 0.051528734355418722 1 1 1 1 1 1 1 1 1 1 1 1 1 1 0.048654251197266206 1 0.051368921222638191 0.049891173970470562 1 1 1 1 1 0.049967184515234235 1 1 1 1 1 1 1 1 1 1 1 1 1 1 1 0.04984351394489421 1 1 1 1 1 1 1 1 1 1 1 1 1 1 1 1 0.050008072217553892 1 1 1 1 1 0.047217419393951646 0.049460446341060421 1 1 0.048876041622238305 1 1 1 1 1 1 1 1 1 1 0.049246533988462564 1 1 1 1 1 1 1 1 1 0.046934279288384312 1 0.068960800459310731 1 1 1 1 1 0.04891815787108654 1 1 1 1 0.068852825136554524 1 1 1 0.045967585622381867 1 1 1 0.065593729835738135 1 1 0.048545283160875009 1 1 1 1 1 1 1 1 1 1 1 1 1 1 1 1 0.048203934104575324 1 1 1 1 1 1 1 0.049216977316198868 1 1 1 1 1 1 1 1 1 1 1 1 1 1 1 1 1 1 1 1 1 1 1 1 1 1 1 0.064800733295850871 1 1 1 1 0.049510743261402181 1 1 1 0.034366506991828499 1 1 1 1 1 1 1 1 1 0.034940881726790947 1 0.050007265348092064 1 1 1 1 1 1 1 1 1 1 1 1 1 1 1 1 1 1 0.050035726382204854 0.061153204322390464 1 1 1 0.047418562498657654 1 1 0.056542526485033745 1 1 0.051199082318563627 1 1 1 0.04991861226026445 1 1 0.050427172419181994 1 1 1 1 1 1 1 1 1 1 1 1 1 1 1 1 1 1 1 1 0.049926684477818339 1 0.05198957734863828 1 1 1 1 1 1 1 1 1 1 1 0.054781509870076503 1 0.056000617102385963 1 1 1 0.036081896887118561 1 1 1 1 1 0.049996593741209586 1 1 1 1 1 1 0.044639519023772237 1 1 1 1 1 1 1 1 1 1 1 0.047357296147937336 1 1 1 1 1 1 1 1 0.03435855701680203 1 1 1 0.042508864725319069 1 1 0.049937751948742615 1 1 1 1 1 0.052072463389907758 1 1 1 1 1 1 1 1 1 0.050024326343360785 1 1 0.058944722327295258 1 0.054188892552329719 1 0.04641140814069572 0.052998578360871372 0.050727592421628276 1 0.049826772008216197 1 1 1 1 1 1 0.043067444989060261 1 1 1 1 1 1 0.050659061839920874 1 1 1 1 1 1 1 0.043598746502609372 1 1 1 1 0.044292284040987756 1 1 1 1 1 0.052110933146952351 1 0.049939142868345013 1 1 1 1 1 1 1 1 1 1 0.051777531135706469 1 1 1 1 1 1 1 0.045634945641304263 1 1 1 1 1 1 1 0.050012992838711398 1 0.052662184491153001 1 1 1 1 1 1 1 1 0.059537562967298299 1 1 1 0.058571163276530086 0.05005139544419817 1 1 1 1 1 0.058661620737960926 0.050010172287344265 1 0.058465892840752688 1 1 0.043649363873310865 1 1 0.043937168643586384 1 1 1 1 1 1 1 1 0.035649798039916247 1 1 1 1 1 0.069073313938668904 1 1 1 1 0.061053470401462924 1 1 0.060009019409866665 1 1 1 1 1 1 1 1 1 1 1 1 1 1 1 1 1 1 1 1 1 1 1 1 1 1 1 1 1 1 1 1 1 1 1 1 1 1 1 1 1 0.048903859579288445 1 1 0.050212466239249548 1 1 1 1 1 0.05128780027952419 1 1 1 1 0.049002728721917951 1 1 1 1 1 1 1 1 1 1 1 1 1 1 1 1 1 1 1 1 1 1 1 1 0.051296271307148526 1 1 1 0.050607024976000378 1 1 1 1 1 1 0.050273189424735708 1 1 1 1 1 1 1 1 1 1 1 0.056477971124970702 1 0.047248029521650081 0.054443685425711125 1 1 0.052568220179344524 1 1 1 1 1 1 1 1 1 1 1 0.058900137806271027 1 1 0.053092510796588999 1 1 1 1 1 1 1 1 1 1 1 1 1 1 1 0.056055137574247779 1 1 1 1 1 1 1 0.049959824839793388 1 0.051798064202287247 1 1 1 1 0.04808724206686836 1 0.04873034518380899 1 1 1 1 1 1 1 1 1 0.047433386290039597 1 1 1 1 1 1 1 1 1 1 1 1 1 1 1 1 1 0.048307390018023602 1 1 1 1 1 1 1 1 1 1 1 1 1 1 1 1 1 1 1 1 1 1 1 1 1 0.04818911449026099 0.049795328512784051 1 1 1 1 1 1 1 1 1 1 1 0.048131491299135444 1 1 1 1 0.043927216652304327 1 1 1 1 0.045429858449336426 1 1 1 1 1 1 1 1 0.051768177630550638 1 1 1 1 1 1 1 1 1 0.05018025266757422 1 1 1 1 1 1 1 1 1 1 1 1 1 1 1 1 1 1 1 1 0.031401603501638543 1 1 1 1 1 1 1 1 1 1 1 1 1 1 0.057819592647082134 1 0.050286389963893008 1 1 1 1 1 1 1 1 0.057100809673350343 1 1 0.050559579388628713 1 1 1 1 1 1 1 1 1 1 1 1 1 1 1 1 1 1 1 1 1 1 1 1 1 1 1 1 1 1 1 1 1 1 1 1 0.050271306435311011 1 1 0.050224227942558639 1 1 1 1 0.047054321028292934 1 0.051902391624019502 1 1 0.051109574886567533 1 0.051924225055533541 1 1 1 1 1 0.050867511018913972 1 1 1 1 1 1 1 1 1 1 1 1 0.042161367061574584 1 1 1 0.046645486118985349 1 1 1 1 1 1 1 1 1 0.054374562465911255 1 1 1 1 0.053470971545049373 0.047921220288344099 1 1 1 1 1 1 1 1 0.049896822838695898 1 1 1 1 1 0.063727756613968414 1 1 1 0.059855322849255835 1 1 1 0.033492811125583118 1 1 1 1 0.058135612712195479 1 1 1 1 1 1 1 1 1 1 1 1 1 1 0.04118562063323758 1 1 1 1 1 1 0.047831542218485845 1 0.041053115493578027 0.050002710885946558 1 0.049582594113712825 1 0.052472036113938497 1 1 1 1 0.049721196032473464 1 1 1 1 0.049246952729032741 1 1 1 1 1 1 1 1 1 0.050886468011320601 1 1 1 1 1 1 1 1 1 1 1 1 1 1 0.05194318204794017 1 1 1 0.050038777730435351 1 1 1 0.050066821278736705 1 0.050106331254843706 1 1 1 1 1 1 1 1 1 1 1 1 1 1 1 1 0.051192336274506089 1 1 1 1 1 1 0.053861107309696836 1 1 1 1 1 1 1 1 1 1 1 1 1 1 1 1 1 1 0.060730377367896174 1 1 1 1 1 1 1 1 1 1 1 1 1 1 1 1 1 1 1 1 1 1 1 1 1 1 1 1 1 1 1 1 1 1 0.048849490518936313 1 1 1 1 0.050023733840268807 1 1 1 1 1 1 1 0.057911095674298398 1 1 1 1 1 1 1 1 1 0.040992359333277044 1 1 0.063253017456776667 1 1 1 1 1 0.049989879897352409 1 1 1 0.047545006622203026 1 1 0.050323299296749079 1 1 1 1 1 1 1 1 1 1 1 1 1 1 1 1 1 1 1 1 0.039927177619158233 1 1 1 1 1 1 1 1 1 1 0.055853481313066305 0.039277922186742482 1 0.062063834945621385 1 1 1 1 1 0.063884885571982714 1 1 1 1 0.052922517048554552 1 1 1 1 1 0.049765477059688451 1 0.049800979680190843 1 1 0.046215202755774731 1 1 1 1 1 1 1 1 0.048728059516786944 1 1 1 1 1 1 0.05023772496769445 1 1 1 1 1 1 0.050435116250410368 1 1 1 1 0.051240758730403006 1 1 0.050029153039446383 1 0.051876464312259132 1 1 0.049878858887192359 1 1 1 1 1 1 0.050749176827096627 1 1 1 1 0.049947370032569632 1 1 1 1 1 1 1 1 0.050229959157996412 0.052576262697343938 1 1 1 1 1 1 1 1 0.049437248353432293 1 1 1 1 1 1 0.049862769101791646 1 1 1 1 1 1 1 0.051063946446530659 1 1 1 0.053707743404265568 1 1 1 1 1 1 1 1 1 1 1 1 0.045948501477361403 1 1 1 1 0.044495273052383433 1 1 0.051541334112193526 1 1 1 1 0.050394762876293797 1 1 1 0.050069505578504148 0.051734812749602802 1 1 1 0.049751425111059518 1 1 1 0.044159490279267563 1 1 1 1 1 1 1 1 1 0.052374178902336165 1 1 1 0.050039059965446171 1 1 1 1 1 1 1 1 1 1 1 1 0.049783123794682235 1 0.049919978902588098 1 1 0.041311632962110927 1 1 0.045004315505151132 1 1 1 1 1 1 1 0.050039378178086277 1 1 1 1 1 0.049934596321401306 1 0.04080452504974727 1 1 1 0.049361144773812565 0.051417011444868155 1 0.053765005591957009 0.046184578761022325 1 0.045359506190983279 1 1 1 1 1 1 0.050564826753600509 1 0.060961746056303077 1 1 1 1 1 1 1 1 1 1 1 1 1 0.049962957840748813 1 1 0.054150767603733531 1 0.051763781489638228 1 1 0.057096673194830139 1 1 1 0.051384719058209197 0.047321330185816815 1 1 0.059138474924591469 1 1 1 1 1 1 1 1 1 1 1 1 1 1 1 1 1 1 1 1 1 1 1 0.048887442725079965 0.049972060094882108 1 0.050096108622516955 1 0.049933751736588435 1 1 0.050002314132970141 0.050235586543415325 1 1 0.049996869838713556 1 1 0.050811000090451391 1 1 0.049264517001801969 1 0.04998438540045725 1 1 1 1 0.050035393044859412 1 1 1 1 0.049685142447056088 1 0.048760672575954511 0.051187048327945697 1 0.051444132197825031 1 1 0.049679448250932699 0.048653466599041982 1 1 1 0.050402959750945608 1 1 1 1 0.054095726646023995 0.049006391850743285 1 1 1 1 1 0.050103759890040893 1 1 1 1 1 1 1 1 1 1 1 0.05330027489333479 1 0.046944745471353203 1 0.04312103900929852 1 1 0.049999945915609544 1 0.042727978547815848 1 1 1 1 1 1 1 1 0.04934015027969342 1 1 0.051708800657294191 1 1 1 1 0.050001638548234494 1 1 1 1 1 1 1 1 1 1 1 1 0.04889404143270238 1 1 1 1 1 1 1 1 1 1 1 0.050211868045993639 1 1 1 1 1 1 0.050218323668481453 1 0.051775723743578139 1 1 0.050605530450998262 1 1 1 1 1 1 1 1 1 1 1 1 1 1 1 1 1 0.049047795180356839 0.048200833808237427 1 1 1 0.04979762529632932 1 1 0.047351093876312839 1 1 1 1 1 1 1 1 1 1 1 1 1 1 1 1 1 1 1 1 1 1 1 1 1 0.050010549744600966 0.041320366219041213 1 1 1 1 1 1 1 1 1 1 1 0.040326575870416367 1 1 1 1 1 1 1 1 1 1 1 1 1 1 1 1 1 1 1 1 1 1 1 1 1 1 1 1 1 1 1 1 1 0.049705736166288796 1 1 1 1 1 0.049771360884431175 1 1 0.050685716876387267 1 1 0.046236112126331497 0.064068711348839097 1 1 1 1 1 1 1 1 1 1 1 1 1 0.062735852515753948 1 1 0.050250378778476816 1 1 1 1 1 1 0.049988312504552865 1 1 0.061020797055772916 1 1 1 1 1 1 1 1 1 1 1 1 1 0.060269594915896528 1 1 1 1 1 1 1 0.049983537119544882 1 1 1 1 1 1 1 1 1 1 1 1 0.050344570171802674 1 1 0.050126246503321231 1 1 1 1 1 1 1 1 1 1 1 1 1 1 1 1 1 1 1 1 0.05794663580745784 1 1 0.050179504761571452 1 0.05298731355650687 1 1 1 0.049935066487195083 1 1 0.046463614170690677 1 0.055515714854119595 1 1 1 0.046234922528209058 1 1 1 1 0.049939617835274397 1 1 1 1 1 1 1 0.049866906836949471 1 1 1 0.048906261916523044 1 1 1 1 1 1 1 1 1 1 1 1 0.051035586258674409 1 1 1 1 1 1 1 1 0.05064484185047663 1 1 1 1 1 1 1 1 1 1 1 0.048773939943429434 1 1 1 1 1 1 1 1 1 1 1 1 1 1 1 1 1 1 1 0.051779071742824478 0.047729206203543817 1 1 1 0.049245028171812984 1 1 1 1 1 1 1 1 1 1 1 1 0.050516863364832382 1 1 1 1 1 1 1 1 1 0.051426998117102676 1 1 1 1 1 1 1 1 1 1 1 1 1 1 1 1 0.047337466780976473 1 0.049295251822689033 1 1 1 1 1 0.047845111061411108 1 1 1 1 0.050248933925838367 1 1 1 0.050028778639283726 1 1 1 0.048289180544557039 1 1 1 1 1 1 1 1 1 0.049393779759593033 1 1 1 0.048436390303625461 1 1 0.049795655660260452 1 1 1 1 1 1 0.049851351684134994 1 1 1 1 1 1 1 1 0.049697305233241701 1 1 1 0.049775648926922704 1 1 1 1 1 1 1 1 1 1 1 1 1 1 1 1 1 1 1 1 1 1 1 1 1 1 1 0.048932712094298454 1 1 1 1 1 1 1 0.049544896161752991 1 1 1 1 1 1 1 1 1 1 1 1 1 1 1 1 1 1 1 1 1 1 1 1 1 0.05007847417496359 1 0.050069042494076121 1 1 1 1 1 1 0.049671435265649141 1 1 1 0.05012898856944132 1 1 0.050292194574597854 1 1 1 1 1 1 1 1 1 1 1 1 0.028979026161800925 1 1 1 1 1 0.029633307888295553 1 1 1 1 1 1 1 1 1 1 1 1 1 0.049662003584761673 1 1 1 0.049142533663659296 1 1 1 1 1 1 1 1 1 1 1 1 0.047614801109862 0.058202274131225633 1 1 1 1 0.058216227205837502 1 1 1 1 1 1 1 1 1 0.049970614255470738 0.045751230625363265 1 1 1 1 1 0.043987151260577624 1 1 1 1 1 0.049839568152239472 1 1 1 1 1 0.050053515030036591 1 0.042298668944939138 1 1 1 1 0.049416871370638007 1 0.048479994467263698 1 0.056229708159818897 0.050011187433538239 1 1 1 1 1 1 1 0.050187303707574557 0.049219457345268156 1 1 1 1 1 1 0.050009005342159164 0.053625041354016037 0.051202439745120606 1 0.048021718188365994 0.04853390639825847 1 1 1 0.051792861212695974 1 1 1 1 1 0.057132337591439111 0.049632660662282974 0.05000062085960022 1 0.054265015777598694 1 1 1 0.049916713192406759 1 0.050706423777871892 0.050610411994542186 1 1 1 1 1 1 1 0.049333028414551242 0.050341112472503585 1 1 0.050972346030406943 0.047198407973490508 0.052719265639880289 1 1 1 1 1 1 1 1 1 1 1 1 1 1 1 1 1 1 1 1 1 1 1 1 1 1 1 1 1 1 1 1 1 1 1 1 1 1 1 1 0.049979737439093688 1 1 1 1 1 1 1 1 1 1 0.049409299590643316 1 1 1 1 1 1 0.048172154486605202 1 1 0.046412354823285512 1 1 1 1 1 1 1 1 1 1 1 1 1 0.051144732868518915 1 0.053465454700435608 1 1 1 1 0.051168156381488951 1 1 1 0.056978981816922417 1 1 0.057822149050898684 1 1 1 0.049976216406791681 1 1 0.049848894234950675 1 1 1 1 1 0.049853060058255433 1 1 1 1 1 1 1 0.049937010477759142 1 1 1 1 1 1 1 0.05758555090871563 1 1 0.057085469541540632 1 1 1 1 0.049058271428894448 1 0.050500772866347847 1 1 1 1 1 0.046842236932712576 1 1 1 1 0.051166787006466402 1 1 1 1 1 1 0.053600385867091434 0.04001600151405154 1 1 1 1 1 0.059074227956693766 1 1 0.050458278488061281 1 1 1 1 1 1 1 1 1 1 0.050108233451416476 1 1 1 1 1 1 1 1 1 1 1 1 1 1 1 1 1 1 0.050046633785855436 1 1 1 1 1 1 0.050012055799306801 1 1 1 1 1 1 1 0.04843164250150904 0.049984495102776555 1 1 1 1 0.049959464513073967 1 1 1 1 1 1 1 0.050241295915800788 1 1 0.041564162186050371 1 0.050033944503050445 0.057017203078456154 0.042820710940832819 1 1 1 1 1 1 0.043530690493077673 1 1 1 1 1 0.050000419135625251 1 1 1 1 0.043898679846036896 1 1 1 0.054097417741144196 1 1 1 0.053328955976678284 1 1 1 1 1 1 1 1 1 1 1 1 1 1 1 1 1 1 1 1 1 1 1 1 1 0.051406658531478661 1 1 1 1 1 1 1 0.051884823464172183 1 0.052073427869652522 1 1 1 1 1 1 0.058240959141129894 1 1 0.051123870432049662 1 1 1 0.049962391021859301 1 1 0.048572513481080867 1 1 1 1 1 0.049765898040472725 1 1 1 0.049929403477939671 0.049622590173952756 1 1 1 1 1 1 1 1 1 1 1 1 0.050856003027211938 1 1 1 1 1 1 1 1 1 0.052547181395881826 1 1 1 1 1 0.050003873590892388 0.043956822292566596 1 1 1 1 1 1 1 1 1 0.049235737648381149 1 1 1 1 1 1 1 1 0.046101691688445273 1 1 1 1 1 1 1 1 1 1 1 1 1 1 1 1 1 1 0.049093080280194927 1 1 1 1 0.047999342196717955 1 0.048671648675910374 1 0.049749877300138259 1 1 1 1 1 1 1 1 1 1 1 1 1 1 1 1 1 0.049988088118226415 1 1 1 1 1 0.04667834904291799 1 1 1 0.05148646952773564 0.045118361121355047 1 1 1 1 1 0.047467025259916439 1 1 1 1 0.04910708525784814 1 1 1 1 1 1 1 1 0.045913819735471532 1 1 1 1 1 1 1 0.04728158743817306 1 1 1 1 1 1 1 1 1 0.050284646981579487 1 1 1 1 1 1 1 1 1 1 1 1 1 1 1 1 1 1 0.049785591193555287 1 1 1 1 1 1 1 1 1 1 1 1 1 0.050437425219537181 1 1 1 1 1 1 0.049964185394253915 1 1 0.049921656306319 1 1 0.049967129937709631 1 1 1 1 1 1 1 1 1 1 1 1 1 1 1 1 1 1 1 1 1 1 1 1 1 1 0.050106288547360968 1 0.049099285320634005 1 0.050003931527224904 0.050337370404492127 1 1 1 0.05241540292528131 1 1 1 1 1 1 1 1 1 0.049451279512963742 0.051305938193290337 1 0.062742308012712911 1 1 1 1 1 1 1 1 1 1 1 1 1 1 0.049997056373936616 1 0.047442010550628085 0.046723108893112868 1 0.055143993393579546 1 1 1 1 1 1 1 1 1 0.046969448010290141 0.049632910402522407 1 1 1 1 1 1 1 1 1 1 1 1 1 1 1 1 1 1 1 1 1 1 0.050815015306874031 1 1 1 1 1 0.049582219167162461 1 1 1 1 1 0.048591912133685501 1 1 1 0.053317820490642848 1 1 1 1 1 1 1 1 1 0.052003742831373774 1 1 1 1 0.062581963838658494 1 1 1 1 1 1 0.048037932396044522 1 1 1 1 1 1 1 0.048999443796720145 1 1 1 1 0.047823489097717539 1 1 1 1 1 1 1 1 1 1 0.050704743134094545 1 1 1 1 0.049026893843794841 1 1 1 0.0577526171277572 1 1 1 1 1 0.041881650645881521 1 1 1 1 1 1 1 1 1 1 1 1 1 1 0.046492100641711102 0.062741136949949275 1 1 0.057661873548950207 1 1 1 1 1 1 1 0.048743314481060708 1 1 1 1 1 1 0.047995607456728762 1 1 1 1 1 1 1 1 1 1 1 1 1 1 1 1 1 1 1 1 1 1 1 0.045053735708397692 1 1 1 1 1 1 1 1 0.049820664698677936 1 1 1 1 0.049755784706729388 1 1 1 1 1 0.04359994605555749 1 0.05004999649456747 1 0.051485053989124618 1 1 1 1 1 1 1 0.050008703850967902 1 1 1 0.050507464612579323 1 1 1 1 1 0.052446852629631571 1 1 1 1 1 0.050015400163474624 1 0.04999565517575115 1 1 0.050241849587817619 1 0.050791235232198799 1 1 1 1 1 0.04813961442592702 1 1 1 0.044610779615340102 1 1 1 1 1 1 1 1 1 1 0.050176669657200676 1 1 1 1 1 1 1 1 1 1 1 1 1 1 1 1 1 1 1 1 1 1 0.04750880868818573 1 1 1 1 1 1 1 1 1 1 1 1 1 1 1 1 1 1 0.043418733122140916 1 1 1 0.040444942350125974 1 1 1 1 1 1 0.05795599694542327 1 1 1 0.05235319744085852 0.051838847062259615 1 0.044986704835572121 1 0.050759958129827809 0.055062965161369243 1 0.055402688349824154 1 1 0.049987503823349856 1 1 0.050545118433898972 0.049948255591431658 1 1 1 1 1 1 1 1 0.049949530311988517 1 0.049996074097903576 1 1 1 1 1 1 1 1 1 1 1 1 1 1 1 1 1 1 1 1 1 1 0.053185061467708329 1 1 1 1 1 1 1 1 0.054834368213584561 1 1 0.050204403738140328 1 1 0.056253221682406387 0.050256676284685359 1 1 0.050080927373840969 1 1 1 1 1 1 1 1 1 1 1 1 1 1 1 1 1 1 1 1 1 1 1 1 1 1 1 1 1 1 1 1 1 1 1 1 1 1 1 0.057036921073577662 1 0.057327338376074816 1 1 1 1 1 1 1 1 1 1 1 1 1 1 1 1 1 1 1 1 1 1 1 1 1 1 1 1 1 1 1 1 1 1 1 1 1 1 1 1 0.047390228991700811 1 1 0.046121004537882072 1 1 1 1 1 0.05058834059936107 1 0.050537133311227347 1 1 0.048909373339690906 1 1 1 1 1 1 0.04959009084876078 1 1 1 1 1 1 1 1 1 1 1 0.049826634849364421 1 1 0.062926184380645511 0.055283182303551913 1 0.057497625128570679 1 1 0.043010164654336172 1 1 1 1 0.057162485265285445 1 1 1 1 1 1 1 1 1 0.049951795995484535 1 0.061437796215712361 1 1 1 1 1 1 1 0.050102403568838022 1 0.046204675379286415 1 1 1 1 1 1 1 1 1 0.05045106960463254 1 0.046880019249253994 1 1 1 1 1 1 1 1 1 1 0.051488614158076783 1 1 1 0.060491481593430235 1 1 0.049992384638212803 1 1 0.053025204233972542 1 1 1 1 0.051731727047946194 1 1 1 0.050002944543455725 1 1 1 1 1 1 1 1 1 1 1 1 1 1 0.050557642636389594 1 1 1 1 1 1 0.050125133222168425 1 0.049631334837682062 1 0.060879086669444832 1 1 1 0.049512107386101262 1 1 1 1 1 1 1 1 0.062014483347953474 1 1 1 1 1 0.04999720189016002 1 1 0.062555071897760453 1 1 1 1 1 1 1 1 1 0.055706088896711747 1 1 1 0.052100244171189164 1 1 1 1 1 1 0.058582771813926043 1 1 1 1 1 1 1 1 1 1 1 1 1 1 1 1 1 1 1 1 1 1 1 1 1 1 1 1 1 1 1 0.048427134982093945 1 1 1 1 1 0.049547751106116297 1 1 0.050443231094844068 0.047924897981215561 1 1 1 1 0.045782377025816709 1 1 1 1 1 0.051032701565427441 1 1 1 1 1 1 1 1 1 1 1 1 1 1 1 1 0.049259027758368309 1 1 1 1 1 1 1 1 0.048257728489053235 0.046701486304143947 1 1 1 1 1 1 0.048387332908559448 1 1 1 1 0.051039217096621223 1 1 1 1 1 1 1 1 1 1 1 1 1 1 1 1 1 1 1 1 1 1 1 1 0.04889695266578474 1 1 0.049728845442059119 1 1 1 1 1 1 1 1 1 1 1 1 1 1 1 1 1 1 1 1 1 1 1 1 1 1 1 0.049029415425396426 1 0.047841167189693876 1 1 1 1 1 0.045714487892715802 1 1 1 1 1 1 1 1 1 1 1 1 1 1 1 1 1 1 1 1 0.05201510327533878 0.046802094290990782 1 0.051018441205946376 1 1 1 1 1 1 1 1 1 1 1 1 1 1 1 1 0.050426792848475524 1 1 1 0.050113022380538934 1 1 1 1 1 1 1 1 1 1 1 1 1 0.047873320703021943 1 1 1 1 1 1 1 1 1 1 1 1 1 1 1 1 1 1 1 1 1 1 0.062580137041226724 1 1 1 1 1 1 1 1 1 1 1 1 1 0.060841991501765488 1 0.03576559765145422 1 1 0.052867116380811124 0.043306655679866135 1 1 1 1 1 1 1 1 1 1 1 1 1 1 1 1 1 1 1 1 0.050805805437686834 1 1 0.068790321781798877 1 1 1 0.050825067328873617 1 1 1 1 1 1 0.067959666053523743 1 1 1 0.05055540671927463 1 1 1 1 1 1 1 1 0.050048512506651627 1 1 0.045900126609446507 1 1 0.06082061002269671 1 0.059145987046683716 1 1 1 1 0.05400028424886455 0.060235206528466617 1 1 0.051569859588655849 0.059680408725803505 1 1 0.042997656411584727 1 1 1 1 0.050560958168647474 1 1 0.04405737392156172 0.040341123269124486 1 0.049994746930272949 1 1 1 1 1 1 1 1 1 1 1 1 1 1 1 1 1 1 1 1 0.043453018385548478 1 1 1 1 0.044613806461649287 1 1 1 1 0.049604935972605339 0.050521263216078825 1 1 1 1 1 1 1 1 1 1 1 1 0.050272741103127613 1 1 1 0.030116076209553845 1 1 1 1 1 1 1 0.0324520407806137 1 1 1 0.050164562646812558 1 1 0.050269282774040351 0.049788628430173204 1 1 1 0.03426948085526231 1 1 1 0.049930543172357601 1 1 1 1 1 1 1 1 1 1 1 1 1 1 1 1 1 1 0.049836712171308646 1 1 1 1 1 1 1 1 1 1 1 1 1 1 1 1 1 1 0.050054551963896257 0.049652772013453098 1 1 1 1 1 0.049681232550638055 0.050099945532366685 1 0.049854186221502769 1 1 1 1 1 1 1 1 1 0.059287934603147102 1 1 1 0.057670357743093779 1 1 1 1 1 1 1 1 1 1 1 1 1 1 0.061192000835724611 1 1 1 1 1 1 1 0.054440585147065679 1 1 0.056044080127001877 1 1 1 1 1 1 0.04151352270415759 1 1 1 1 0.042276378885847281 1 1 1 1 1 1 0.048461079434733823 1 1 1 1 1 1 1 1 0.050141392291251682 0.04090243747493473 1 1 1 0.0495079547387373 0.044117798082452038 1 1 1 1 1 0.049921656514998532 1 1 1 1 1 1 0.051849999258636169 1 1 1 1 0.04964370755515838 1 1 1 1 1 0.050621471081855773 1 1 1 1 0.047783774598274563 1 1 1 1 1 1 1 1 1 1 1 1 1 1 1 1 1 1 1 1 1 1 1 1 1 0.050262561284276655 1 1 1 1 0.054368565469793489 1 0.056105351061661091 1 0.054938453477282705 1 1 0.057245140347568266 1 1 0.044898554759920495 1 1 0.048508908247281463 1 1 1 1 1 1 0.05158294768431939 1 1 0.051169982807266867 1 0.051330454325404104 0.044124013872519824 0.051782848532282988 1 1 0.040887124466031849 1 0.050331454169911055 0.043833545797494579 1 1 1 0.047497474466084558 1 0.050063838324462484 1 1 1 1 1 1 0.051451153506543806 1 1 1 0.049962289736988477 1 1 1 1 1 1 1 0.053766829586439725 1 1 1 0.050663096575466866 1 0.052175640371823657 0.052224069686410725 1 1 1 1 1 1 1 0.048759944835873786 1 1 1 1 1 1 1 1 0.049599428046215255 0.052316912362712478 1 1 1 1 0.052573290455264952 1 1 0.05248367365671474 1 1 1 0.049998771825788331 1 1 1 0.05195758038747951 0.050287557277747329 1 1 1 1 0.049960606600539983 1 1 1 1 1 0.050300934541841411 0.051458938546310791 1 1 1 1 1 1 1 1 1 1 1 1 1 1 1 1 1 1 1 1 1 1 1 1 1 1 1 1 1 1 1 0.049018734783834852 1 1 1 0.050080231798308894 1 1 1 1 1 1 1 1 1 1 1 1 1 1 1 0.051066805443666159 1 0.049979754793390826 0.048154415054199318 1 1 0.051717728382274009 1 1 1 1 1 1 1 1 1 1 1 1 1 1 1 1 1 1 1 1 1 1 1 0.04986791774377549 1 1 0.051416546509316666 0.049983839773000638 1 1 1 1 1 1 1 0.051165520929367048 1 1 1 0.048935712675948484 1 1 1 1 0.049794187172541998 0.049928477704697292 1 1 1 1 1 1 1 0.051719634146587444 1 1 1 1 0.051083799667900803 1 1 1 1 0.050326738507731922 1 1 1 1 1 1 1 1 1 1 1 1 1 1 1 1 1 1 1 0.049402546934369233 1 1 1 1 1 1 1 1 1 1 1 1 1 1 1 1 0.050347180203206471 1 1 1 0.050045596490051254 1 1 1 1 1 1 1 1 1 0.050392888061482108 1 1 1 1 1 1 1 1 1 1 1 1 1 1 1 1 1 1 1 1 1 0.04989493317464911 1 1 1 1 1 1 1 1 1 1 1 1 1 1 1 1 1 0.049516126161564228 1 1 1 1 1 0.049911342159595008 1 1 1 1 1 1 1 1 1 1 1 1 1 1 1 1 1 1 1 1 1 1 1 1 1 1 1 0.050028269485634304 1 1 0.03736824338860055 1 1 1 0.035761636897997988 1 1 1 1 1 1 1 1 1 1 1 1 1 1 1 0.041595203876986953 1 0.048575059137425901 1 1 1 1 1 1 1 1 1 0.042994187749364983 1 1 1 1 1 1 1 1 1 0.048453041522985914 0.045451726076082909 1 1 1 1 1 1 1 1 1 1 1 1 1 1 1 1 1 1 1 1 1 1 1 1 1 1 1 1 1 1 1 1 1 1 1 1 1 1 1 1 1 1 1 1 1 1 1 1 1 1 1 1 1 1 1 1 1 1 1 1 1 1 1 1 1 1 1 1 1 1 1 0.048506985996207945 1 1 1 1 1 1 0.045947435315352683 1 1 1 1 1 1 1 1 1 0.04849820271488138 1 0.045893490842130659 1 1 1 1 1 1 1 1 1 1 1 1 1 1 1 1 1 1 1 1 1 1 1 1 1 1 1 1 1 1 1 1 1 1 0.052657599209084756 1 1 1 0.049506625369969311 0.049371802427181491 1 1 1 1 1 1 1 1 1 1 1 1 1 1 1 1 1 1 1 1 1 1 0.050920020925665874 0.0495733678900869 1 1 1 1 1 1 1 1 0.04721284259461158 1 1 1 1 1 1 0.046306952908052076 1 1 1 1 1 0.048989691858253165 1 1 1 1 0.049590093734644264 1 1 1 0.052229316028681902 1 1 1 0.051205752446791111 1 1 0.049496791201663809 1 1 1 1 1 1 1 1 1 1 1 1 1 0.049745999940761385 1 1 1 1 1 1 1 1 0.047779675668572393 1 1 1 1 1 1 1 1 1 1 1 0.050977297767108645 1 1 1 0.050294599079047451 1 1 1 1 0.049222708233762763 1 1 1 1 1 1 1 1 0.048688013847605766 1 0.053698604457769791 1 1 0.045419333109259441 1 1 1 1 1 0.052423647867503198 1 1 1 1 1 1 1 1 1 1 1 1 0.049598586557314125 1 1 1 1 1 1 1 1 1 0.048218371539230934 1 1 1 1 1 1 0.049312827386042909 1 1 1 1 1 1 1 0.049217853543605465 1 1 1 1 1 0.048816440100919567 1 1 1 1 1 1 1 1 1 1 1 1 1 1 1 1 1 1 1 1 1 1 1 1 1 1 1 1 1 1 1 1 1 1 1 1 1 1 1 1 1 1 1 1 1 1 1 0.050682922213939149 1 0.051666826470413985 1 1 1 1 1 1 1 1 1 1 1 1 1 1 0.049958131627794888 1 1 1 1 1 1 1 1 1 1 1 1 1 1 1 0.045644991603169892 1 1 0.05124487722940918 1 0.053387363827826467 1 1 1 1 1 0.053171517556998504 1 1 1 1 1 1 1 1 1 1 1 1 1 1 1 1 1 1 1 1 0.043756953254558674 1 1 1 1 1 1 1 1 1 1 1 0.042739867846308816 1 0.050246686343931937 1 1 0.042033541962062659 1 0.059570419327105772 1 1 1 1 1 1 1 0.049745436636837392 1 0.033610516712069813 1 1 1 1 0.027543533526739754 1 1 1 1 0.050787320783368936 0.044149810111058313 1 1 0.04590813569950479 1 1 1 1 1 1 1 1 1 1 1 1 1 1 1 1 0.048209976987031652 1 1 1 1 1 1 1 1 1 1 1 1 1 1 0.044849774617345059 1 0.049948057234510193 1 1 1 1 1 1 1 0.074847875886316834 1 0.069182192605460019 1 1 1 1 1 1 1 1 1 0.049732115271876709 0.027493592617625469 1 1 1 0.04297686670152228 1 1 1 1 0.060234656334123449 1 0.045961439387050843 1 1 0.049382885719563868 1 0.060048620067162439 0.057297097332815551 0.050611578045804115 1 1 0.050019039125847875 1 1 1 0.057270633985333233 0.043824062034291664 0.037430124524525807 1 1 1 1 1 1 1 1 1 1 1 0.041691383113008754 1 1 1 1 1 1 0.025745907390898021 1 1 1 0.050177843871430379 1 1 1 1 1 1 1 1 0.045389151256209348 1 1 1 0.048508939333298376 1 1 1 1 1 1 1 1 1 1 1 1 1 1 1 1 1 1 1 1 1 1 1 1 1 1 1 1 1 1 1 1 1 1 1 1 1 1 1 1 1 1 1 1 1 1 1 1 1 1 1 1 1 1 1 1 1 1 1 1 0.051314316579879199 1 1 1 1 1 0.053430756599642297 1 1 1 1 0.051086351379047851 1 1 1 0.056065901080094405 1 1 1 1 1 1 1 1 1 1 1 1 1 1 1 1 1 1 1 1 1 1 1 1 1 1 1 1 1 1 1 1 1 1 1 1 1 1 1 1 0.048610476609389823 1 1 0.045978095754073904 1 1 1 1 1 1 1 0.050737083092130188 1 1 1 1 1 1 1 1 1 1 1 0.05223797520846625 1 1 0.049994336886913543 1 0.053234341400627785 1 1 1 0.043508605469198325 1 1 1 1 1 1 1 1 0.049862095760127872 1 1 1 1 0.050743183543868746 1 1 1 1 0.041944732808473315 1 0.052835677734402342 1 1 1 1 1 1 1 1 1 1 1 1 0.043603524314469039 1 0.042614944593686539 1 1 1 1 1 1 1 1 1 1 1 1 1 0.050559290521944411 1 1 1 1 1 1 1 1 1 0.050961464585395612 1 1 1 0.050402174063451217 1 1 1 1 1 1 1 1 1 1 1 1 1 1 1 1 1 1 1 1 1 1 1 1 1 1 1 1 1 1 1 1 1 1 1 0.053672096436986116 1 1 0.049906129914756923 1 1 1 1 0.048344463039393708 1 1 1 1 1 1 1 1 1 1 1 1 1 1 1 0.052235657646017272 1 1 1 1 1 1 1 1 1 0.049019730832698616 1 0.050843695794904609 1 1 1 1 1 1 1 0.049740464721419936 1 1 1 1 1 1 1 1 1 1 1 1 1 1 0.049368362473952182 1 1 1 1 1 1 1 1 1 1 1 0.048793680922059775 1 1 1 1 1 1 1 1 1 1 1 1 1 1 1 1 1 1 1 1 1 1 1 0.049568346525107852 1 0.050630702154980986 1 1 1 1 1 1 0.043129049119861498 1 0.052101297978531622 1 1 1 0.04270825597410622 1 1 1 0.058531714110853381 1 1 1 0.042195267675919752 1 1 0.056151375803736907 1 1 1 1 1 1 1 0.052410871865681219 1 1 1 1 1 1 1 0.045566650195487592 1 1 1 1 1 1 1 1 1 1 1 1 1 0.047847695028021303 1 1 1 1 1 1 1 1 0.042760311203633203 1 1 1 1 1 1 1 1 1 1 1 1 1 1 1 1 1 1 1 1 0.048438378782128491 1 1 1 1 1 1 1 1 1 1 1 1 1 1 1 1 1 1 1 1 1 1 1 1 1 1 1 1 1 1 1 1 1 1 1 1 1 1 1 1 1 1 1 1 1 1 1 1 1 1 0.051005483040157028 1 0.044909153568995747 1 1 1 0.052675703382140678 1 1 0.049732980956970325 0.043412853350920891 1 0.052466222123290766 1 1 1 1 1 1 1 1 1 1 1 1 1 1 1 1 1 1 1 1 1 1 1 1 1 1 1 1 1 1 1 1 1 1 1 0.050127342724350307 1 1 1 1 0.050421241940617242 1 1 0.039475804648073487 1 1 1 0.049914043759499621 1 1 1 1 0.052070390378679346 1 0.049995083470207258 0.051557998776572092 1 1 1 1 0.052498128221744191 1 1 1 0.050519475548100878 1 1 1 0.050021505096518086 1 1 1 1 1 1 0.049747001591252463 1 1 1 1 1 1 1 1 1 1 1 1 1 1 1 1 1 1 1 1 0.050747221887879279 1 1 1 1 1 1 1 1 1 1 1 1 1 1 1 1 1 1 0.04878086415575518 1 1 0.04659481060563174 1 1 0.055305900797125163 1 1 1 1 1 1 1 1 1 1 1 0.044757656060299661 1 1 1 1 0.05109829361394861 1 1 1 1 0.049920904377641295 1 1 1 0.050932086977866796 1 1 1 1 1 1 1 1 1 1 1 1 1 1 1 1 1 1 1 1 1 1 1 1 1 0.048361818075484557 1 1 1 1 1 1 1 1 0.050931049082155865 1 1 1 0.054337218087739954 1 1 1 1 1 1 1 1 1 1 1 1 1 1 1 1 1 1 1 1 1 1 1 1 0.059385497028060279 1 1 1 0.0451504830345483 1 1 1 1 1 1 1 1 0.057762204791775837 1 1 0.046523788892997277 1 1 1 1 0.048785553396785218 1 1 1 1 1 1 1 0.061150638157994194 1 0.047632649218949899 1 1 0.047208353301045572 1 1 0.05911674607126613 0.049964877624219174 1 1 1 1 1 1 1 1 1 1 1 1 1 1 1 1 1 1 1 1 1 0.064840006692340663 1 1 1 1 0.063048953449341208 1 1 1 1 1 1 1 1 1 1 1 1 1 0.064493669535405876 1 1 0.050963205234067034 1 1 1 1 1 1 1 1 1 1 1 1 1 1 1 1 1 1 1 1 1 1 1 1 1 1 1 1 1 1 1 1 1 1 1 1 1 1 1 1 1 1 1 1 1 1 1 1 1 1 1 1 1 1 1 1 1 1 1 1 1 1 1 1 1 1 1 1 1 1 1 1 1 1 1 1 1 1 1 1 1 1 1 1 1 1 1 1 1 1 1 1 1 1 1 1 1 1 1 1 1 1 1 1 1 1 1 1 1 1 1 1 1 1 1 1 1 1 1 1 1 1 1 1 1 1 1 1 0.049160119102332124 1 1 1 1 1 1 1 0.052057923012537893 1 1 1 1 1 1 1 1 1 0.055927041565820346 1 0.041537390868587085 1 1 1 0.046543405779353744 1 1 0.046206721342166489 1 1 1 1 1 1 1 1 1 1 1 1 1 1 1 1 1 1 1 1 1 1 1 1 1 1 1 1 1 1 1 1 1 1 1 1 1 0.047189917014746126 1 1 0.045984426615331725 0.056899039554442719 1 1 0.050385107909638661 1 1 0.03983319237849639 1 1 1 0.042249259698315098 1 1 1 1 1 1 1 1 1 0.045668970931824843 1 1 1 1 1 1 0.048667634415084829 1 1 1 1 1 1 1 1 1 1 1 1 1 1 1 1 1 1 1 1 1 1 1 1 1 1 1 1 1 1 1 0.068027763362761506 1 1 1 1 1 1 1 1 1 1 1 1 1 1 1 1 1 1 1 1 1 1 1 1 1 1 1 1 1 1 1 1 1 1 1 1 1 1 1 1 1 1 1 1 1 1 0.038144344243425402 1 0.052149263066984544 1 1 1 1 0.050670279536492391 1 1 1 1 0.038443675400364453 1 1 1 1 0.050312884944685721 1 1 1 1 1 1 1 1 0.052865852947621146 1 1 0.05148418662240422 1 0.050116253625153581 1 1 1 1 0.053718152532450783 1 1 0.043771509226464826 0.056741721276999425 1 1 1 1 1 1 0.049775132230260317 1 1 1 1 1 1 1 1 1 1 0.043202063360799216 0.046832224899907293 1 1 1 1 1 0.044485649386776877 1 1 0.050988380080909099 1 1 1 1 0.058534187824447727 1 1 0.050067812835484872 1 1 1 1 1 1 1 1 1 1 1 1 1 1 1 1 1 1 1 1 1 1 1 1 1 1 1 1 1 0.049663501337430818 1 0.049888680053473522 1 1 1 1 1 1 1 1 1 1 1 1 1 0.050413212982250953 1 1 1 1 0.036484168072109913 0.035000533354116695 1 1 1 1 1 1 1 1 1 1 1 1 1 1 1 1 1 1 1 1 1 1 1 1 1 1 1 1 1 1 1 1 1 1 1 1 1 1 1 1 1 1 0.050827816775617596 1 1 1 0.050414603793366632 1 1 1 1 1 1 1 1 1 1 1 1 1 1 1 1 1 1 1 1 0.037988701886965667 1 1 0.039618900419062686 1 1 1 1 1 1 1 1 1 0.050039360462592067 1 1 1 1 1 0.038992179129192853 1 1 1 1 1 0.050124755888216077 1 0.049918461508423162 1 1 1 1 1 1 1 1 1 1 1 1 1 0.047649026794789745 1 1 1 0.053565382518750031 0.040450431599196257 1 1 1 1 1 1 1 1 0.050092404165366505 1 1 0.042533518375382662 1 1 0.050000991621786006 0.046422278233290752 1 1 1 1 1 0.050027037450949455 1 1 1 1 1 1 1 0.048696458205726087 1 1 0.046246738535414611 0.050481312241381228 1 1 1 1 1 1 0.04983220759956828 0.049977920800284889 1 1 1 0.049950563710905241 1 1 1 1 1 1 1 0.051274599506622047 1 1 1 1 1 1 1 1 1 1 1 1 1 1 1 1 1 1 1 1 1 1 1 1 1 1 0.018450718776751168 1 1 1 1 1 1 1 0.050375594879593602 1 1 1 1 1 1 1 1 1 1 1 0.025317051387193507 1 1 1 1 1 1 1 1 0.050278642345727029 1 1 1 1 1 1 1 1 1 1 1 1 1 1 1 1 0.050741816596585616 1 1 1 0.05010406418800803 1 1 1 1 1 0.052385353960104367 1 1 1 1 1 1 1 1 1 1 1 1 1 1 0.046859511978917912 1 1 1 1 0.040345245261382529 1 1 0.033400704273035958 1 1 1 1 1 0.050185245319991106 1 1 1 1 1 1 1 1 1 1 1 1 1 1 0.050493332490888575 1 0.061112862707095254 1 1 1 0.048152352019924592 1 0.036340934543662107 1 0.064761658420597543 1 1 1 1 1 1 0.050181974753950392 0.021277479144666153 1 1 1 1 1 1 0.021400205908721014 1 0.051057366224895213 1 1 1 1 1 1 1 1 1 1 1 1 1 1 1 1 1 0.060430765672826126 1 1 1 0.050199512146821473 0.058420145362018103 1 1 1 1 1 0.048679608492488743 1 1 0.050383228525515501 0.049417435856879188 1 1 1 1 1 1 1 1 1 1 1 1 1 1 1 1 1 1 1 1 1 1 1 1 1 1 1 1 1 1 1 1 1 1 1 1 1 1 1 1 1 1 1 1 0.061531983122691175 1 1 0.040387723005088055 0.044203058686524285 0.05187765541148831 1 1 1 1 1 1 0.050369150381305065 1 1 1 1 1 1 1 1 1 0.050529268588293458 1 1 1 0.05723397795133614 1 1 1 1 1 1 1 1 1 1 1 1 1 1 1 1 1 1 1 1 0.054055908102011635 1 1 1 1 0.051401134547208086 1 1 1 1 1 1 1 1 1 1 1 1 1 1 1 1 1 1 1 1 1 1 1 1 1 1 1 1 1 1 1 1 1 1 0.049718773849920017 1 0.049836114768719242 1 1 1 1 1 1 1 1 0.049875345549330333 1 1 1 0.048540147057026431 1 0.050039230780611073 1 1 1 1 1 1 1 1 0.033837572719437534 1 1 1 1 0.04427649645879575 1 1 1 1 0.045464894376461347 1 1 1 1 1 1 1 0.043576119048533826 1 1 1 1 0.046932597879178875 1 1 1 1 1 1 1 1 1 1 1 1 1 1 1 1 1 1 1 1 1 1 1 1 1 1 1 1 1 1 1 1 1 1 1 1 1 1 1 1 1 1 1 1 1 1 0.051340550281328716 1 1 1 1 0.050111543703932754 0.052591572547516785 1 1 0.055532706334721432 0.05073234919044891 1 1 1 1 1 1 1 1 1 1 1 1 1 1 1 1 1 1 1 0.050205705995032018 1 1 1 0.050695497745165088 0.050043769026257956 1 1 1 1 1 1 1 1 1 1 1 1 1 1 1 1 1 1 1 1 1 1 1 1 1 1 1 0.05032391727958014 1 1 1 1 1 1 1 0.048993554194579861 1 1 1 1 1 1 1 1 1 1 1 1 1 1 1 0.047403285538191564 1 1 1 1 1 1 1 1 0.050714514042972385 1 0.049165364216802981 0.051919956044027396 1 1 1 1 1 1 1 1 1 1 1 1 0.050174578157719016 1 1 1 1 1 1 1 1 1 1 1 1 1 1 1 1 1 1 0.053082323739200798 1 1 1 0.049056532977430421 1 1 1 1 1 1 1 1 0.049555302006556667 1 1 1 1 1 1 1 1 1 1 1 1 1 1 1 0.051690249296560659 1 1 1 0.050596077533098124 1 1 1 1 1 1 1 1 1 1 1 1 1 1 1 1 1 1 1 1 1 1 1 1 1 1 1 1 1 1 1 1 1 0.050593566381287917 1 0.050270088510439286 1 1 1 1 1 1 1 1 0.049944368380685049 1 1 1 1 1 1 1 1 1 0.049660892876979029 1 1 0.050719732838989985 1 1 1 1 1 0.050318794593526797 1 1 1 1 0.049904452438045102 1 1 1 1 0.049156807427477925 1 1 1 0.04927590938742972 1 0.048025696314617963 1 1 0.048705913184806479 1 1 1 1 1 1 1 1 1 1 1 1 1 1 0.049990443254778014 1 1 0.050016739901859231 1 0.050073270647035609 1 1 1 0.049987910101691721 1 1 0.04662386931102426 1 1 1 1 0.050795286581449564 1 0.051062506494870069 1 1 1 1 1 1 0.050390010197773387 1 0.050328659345621432 1 1 1 1 1 0.054464776575016638 1 1 1 1 0.051040391056892884 1 1 1 1 1 1 0.053423072058563441 1 1 1 1 1 1 1 1 1 1 1 1 1 1 1 1 1 1 1 1 1 1 1 1 1 1 1 1 1 1 1 1 1 0.050063058385301472 0.050043973772203418 1 1 1 1 1 1 1 1 1 1 0.05543353110395139 1 1 0.051237882957491404 0.052023666005072564 1 0.05000230360444409 1 1 1 1 1 1 1 0.054306997048741638 1 1 1 1 1 1 1 1 1 1 1 1 0.049955117061076165 1 1 1 1 0.049972189886447638 1 1 1 1 1 1 1 1 1 1 1 1 0.055225952336299136 1 1 1 1 1 1 1 1 1 1 1 1 1 1 1 1 1 0.054720499992781148 1 1 1 1 1 0.051496267648107712 1 1 1 0.05132804187443929 1 1 1 1 1 1 0.051673650846509961 1 0.056643583627023687 1 1 1 0.053473973183368079 1 1 1 1 1 1 1 1 1 0.05993885481647971 1 1 0.049978273466431786 1 1 1 1 1 1 1 0.050871552758931772 1 1 1 1 1 1 1 1 1 1 1 1 1 0.048666209586227166 1 1 0.051984480726203874 1 1 1 1 1 1 0.050054478475505745 1 1 1 1 1 1 0.062284470387520899 1 1 1 1 1 1 1 0.068784113536690061 1 1 1 1 1 1 1 1 1 1 1 1 1 1 1 1 1 1 1 1 1 1 0.051806601053948888 1 1 1 1 1 1 1 1 1 1 0.051231124224040789 1 1 1 1 0.050438831230355363 0.061518005340013976 1 1 1 1 0.059531579393095356 1 1 1 1 1 1 1 1 1 0.057284101972250624 1 1 1 1 1 1 1 1 1 1 1 0.057286867451370987 1 1 1 0.051632934595014883 1 1 1 0.052691273524269215 1 1 1 1 1 1 1 1 1 1 1 1 0.052489700250859909 1 1 1 1 1 0.050148850530144021 1 1 0.050362628904579862 1 1 1 1 1 1 1 1 1 1 1 1 1 1 0.049537647462049972 1 1 1 1 1 1 1 0.048548442017058969 1 1 1 0.047737980753825321 1 1 1 1 1 0.050399569997824793 1 1 1 1 1 1 1 1 1 0.050185791623388966 1 1 1 1 1 1 1 1 0.046846208858775808 1 1 1 1 1 0.05114536575276505 1 1 1 1 1 1 1 0.050402531561228717 1 1 1 1 1 1 1 1 1 1 1 1 1 1 1 1 1 1 1 1 1 1 1 1 1 1 1 1 1 1 1 1 1 1 1 1 1 1 1 1 1 1 1 1 1 1 1 1 0.050525943786861108 1 1 1 1 1 1 1 0.049257109190400536 1 1 1 1 1 1 1 1 1 1 1 1 1 1 1 1 1 1 1 1 1 1 0.051334908721808334 0.050230425534062303 1 1 0.048070785304780553 0.054333984639229699 1 1 1 1 1 1 1 0.054694631501572388 1 1 1 1 1 1 1 1 1 1 1 1 1 1 0.05052295043804747 1 1 1 1 1 1 1 1 0.050091868777363352 1 1 0.05017078853331839 1 1 1 0.050499297942949259 1 1 1 1 1 1 1 1 1 1 1 1 1 1 1 1 1 1 1 1 1 1 1 1 1 1 1 1 0.049538000827493073 1 1 1 1 1 1 1 1 0.050029584964282205 1 1 1 1 1 1 0.048455464579601731 0.050073760743181449 1 1 1 1 0.050626006418989171 1 1 0.049615719388612881 1 1 0.048044035886597933 1 1 1 1 1 1 0.049539098647189805 1 1 1 1 1 1 1 1 0.04992864990099613 1 1 1 1 1 1 1 1 1 1 1 0.049858505772208822 1 1 0.049929666179775081 1 1 1 1 1 1 1 0.047771439256608102 1 1 1 0.050285367196696101 1 0.052076915589363212 1 0.048644576503179 1 1 1 1 1 1 1 1 1 1 1 1 1 1 1 1 1 0.056641582797840408 1 0.049991927023962948 1 1 1 1 1 1 1 1 1 1 0.054957154955347719 1 1 1 1 1 1 1 0.050587054234794017 1 1 1 0.049990769522464118 1 0.056023421733436662 0.048702476351559214 1 1 0.051835975273207088 1 1 1 1 0.057718511052313848 1 1 1 0.047406823252508751 1 1 1 0.055804207183399637 1 0.052999820935507716 0.059059791139354917 1 1 1 1 1 1 0.052569401347973319 1 1 1 1 1 1 1 1 0.050451790709742622 0.050008376235293278 0.049912771547061877 1 0.052972088335747729 1 1 0.05414286008954388 0.050002493770813748 1 1 0.045450833913299772 1 1 1 1 1 1 1 1 1 1 1 0.050002643300034177 1 1 1 1 1 1 1 1 1 1 1 1 1 0.045717584648912353 0.049182258056172434 1 1 1 1 0.047447373910752211 1 1 1 0.05171252273020556 1 1 1 1 1 0.048468545961280224 0.049997375976836442 1 1 1 0.050859905408115538 1 1 1 1 1 1 1 1 1 1 1 1 1 1 1 0.048825983178256385 1 1 1 0.052586781534517305 1 1 1 0.049331457563926914 1 1 1 1 1 1 0.060717685293109343 1 1 1 1 1 0.057222750956643809 1 1 1 1 1 1 1 1 0.050001251660183856 1 1 1 1 1 1 1 1 1 0.050689035773882604 1 1 1 1 0.049533081049897953 1 0.050177920194773962 1 1 0.047188781412026079 1 0.052162747220540054 1 1 1 1 1 1 0.051635795511782302 1 0.050050670482783312 0.055723852132148338 1 1 1 1 1 1 1 1 0.053155110729060012 1 0.049679955109990653 1 0.049958379805842834 1 0.057229459411099554 1 1 1 1 1 1 1 1 1 1 1 0.049951287481830642 1 1 1 0.049797457382418017 1 1 1 1 1 1 1 1 0.049846169900587378 1 1 1 1 1 1 1 1 1 0.049492471791192136 1 1 1 1 0.050791347903488424 1 1 0.052333344760553499 1 1 1 1 1 1 1 1 1 0.056003329354972126 1 1 1 0.053919551149923459 1 1 1 1 1 1 1 1 1 1 1 1 1 1 1 1 1 1 1 0.058331186852897593 1 1 1 1 1 1 1 1 1 1 0.051289112998096999 1 1 1 1 1 1 1 1 1 1 1 1 1 1 1 1 1 1 1 1 1 1 1 1 1 1 1 1 1 1 1 1 1 1 1 1 1 1 1 1 1 1 1 1 1 0.049316599587639814 0.050055447731762445 1 1 1 1 1 1 1 1 1 1 1 1 1 0.039462536373466577 0.05191601287487857 1 1 1 0.052424052179038984 1 1 0.057661242325321438 1 1 1 0.059464402891931847 1 1 1 0.05069997929340922 1 1 1 1 1 1 1 1 0.050047048690858104 1 1 0.050445879207719604 1 0.044953905603929256 0.048524652533548193 1 1 1 1 1 1 0.058859311289520266 1 0.047450800986332656 0.049910356968780531 0.050030248308749387 1 1 0.04807573894456782 1 1 0.057423800254110403 0.05681036745126132 1 1 1 1 1 1 1 1 1 1 1 1 1 1 1 1 1 1 1 1 1 0.059722553966038011 1 1 1 1 1 1 1 1 1 0.049351093605940186 1 1 1 1 1 1 1 0.050923800238161815 0.059778641388689518 1 1 1 1 1 1 1 1 1 1 1 1 1 1 1 1 1 1 1 1 1 1 1 0.049711611353732719 1 0.050025918507127592 1 1 1 1 1 1 1 0.053721823804432529 1 1 1 0.042676878594558841 0.055867032637388514 1 1 0.051021190133210742 1 1 1 1 0.042492510799176701 1 1 1 0.059721195325381497 1 1 1 0.04579826341257278 1 1 1 1 1 1 1 1 1 0.045447542145270109 0.053151013494560327 1 1 1 1 1 0.05683890296735658 1 1 0.042647826322854993 0.04813494038377901 0.038225668486597489 1 1 1 1 1 0.059294242163651242 1 1 1 1 1 1 1 1 1 0.050146778330544164 1 0.050062642713470461 1 1 1 1 1 1 1 1 1 1 1 1 1 1 1 1 1 1 1 1 1 1 1 1 0.050976471771264416 1 1 1 1 0.046125891584010176 0.052857325576208113 1 1 1 0.043807595392535391 1 1 1 1 1 1 1 1 1 1 1 1 1 1 1 1 0.06562986313621734 1 1 1 0.050131199646398124 1 1 0.048570882721522747 1 1 1 1 1 1 1 1 1 1 1 1 1 0.054521639800347389 1 1 0.060725988909940173 1 1 1 0.044337111034328573 1 0.046269042814154566 1 0.050444748221745488 1 0.05020107100781987 0.063568016237566249 0.0501077906066104 1 1 1 1 1 1 1 1 0.050351506568439008 1 1 1 1 1 1 1 1 0.063186900567833923 1 1 0.040972664977845831 1 1 1 1 1 1 1 1 1 1 1 1 1 1 1 1 1 1 1 1 1 0.045859001605050929 1 1 1 1 1 1 1 1 1 1 0.047221908645398679 1 0.042941853838852018 1 1 0.048654335687217262 1 0.052820491549901587 1 0.04995756505656735 1 1 0.050112959159004974 1 0.060140013948517507 1 1 0.047054636253033369 1 1 1 0.049467694187540975 1 1 1 1 1 1 1 1 1 1 1 1 1 1 1 1 1 1 1 1 1 1 1 1 1 1 1 1 1 1 1 1 1 1 1 1 1 1 1 1 1 1 1 1 1 1 1 1 1 1 1 1 1 1 1 1 1 1 1 1 1 0.055481205383261026 1 1 0.063036915243635652 1 1 1 1 1 1 0.048140688591355667 0.059106008040372839 1 1 1 1 1 1 1 1 1 1 1 1 1 1 1 1 1 1 0.05828989908080584 1 1 1 0.050462273035383851 1 1 1 1 1 1 1 1 1 1 1 1 1 1 1 1 0.049836977971726371 1 1 1 1 1 1 1 0.062932012894314507 1 1 1 1 1 1 1 1 0.059834828078300005 1 0.050443418163973644 1 1 1 1 1 1 1 1 1 1 1 1 1 1 1 1 0.049989424138309153 1 1 1 1 1 1 1 0.049914625237588529 1 1 1 1 0.050230089876293529 1 1 1 1 1 1 1 0.05070933458666415 1 1 0.042228300785791553 0.04991185314150897 1 1 0.050906637097584265 1 1 1 1 1 1 0.049800157852568173 1 1 1 1 1 1 1 1 1 0.050492426882905769 1 1 0.049882596219894444 1 1 0.049985886339463846 1 1 0.041605179498633044 1 1 1 1 1 0.041683734895523523 1 1 1 1 1 1 1 1 0.049132569148273089 1 1 1 1 1 1 1 0.046806629199483113 1 1 1 1 1 1 1 1 1 1 1 1 0.04898610681251829 1 1 1 1 1 1 1 0.05036692494137688 0.049877438834918041 1 0.053152668054164673 1 0.041248581304544306 1 1 1 1 1 1 1 1 1 1 1 1 1 1 1 0.050033351038884732 1 0.039972157766121001 1 1 1 1 1 1 1 1 0.047454041649410812 1 0.049479919084160787 1 0.043008616017673147 1 0.047122283668501262 1 0.050359098303640298 1 1 0.049513677803577363 1 1 1 1 1 0.048427345837868729 1 1 1 1 1 1 1 1 0.050039362345768355 1 1 1 1 1 0.050097623014788033 1 1 0.053311467359953901 1 0.049676107343130008 0.047862158202257393 1 1 1 1 1 1 1 1 0.049998954308700688 1 1 1 1 1 1 1 1 1 1 1 1 1 0.048010282416451701 1 1 1 1 1 1 1 0.049953975373791044 1 1 1 0.049954050269925401 1 1 1 1 1 1 1 1 1 1 1 1 1 1 1 1 1 0.050886235375631375 1 1 1 1 1 1 1 0.050316060725548874 1 1 0.049273393258536746 1 1 1 1 1 1 1 1 1 1 1 1 1 1 1 0.049470346182906154 1 1 1 1 0.051599161499369571 1 1 1 1 1 1 1 1 1 1 1 1 1 1 1 1 1 1 1 1 1 1 1 1 1 0.048450854409183203 1 1 1 1 1 1 0.049726390006160845 1 1 1 1 1 1 1 1 1 0.049896101175077021 0.050184050754598059 1 1 1 0.053914279715159517 1 0.050005793711270535 1 1 1 1 1 1 1 1 1 1 1 1 1 1 1 0.049708864500759058 1 1 1 1 1 1 1 1 1 1 1 1 0.050364982070063645 0.050699373323873476 1 1 1 1 1 1 1 1 0.04932421679400497 1 1 0.050089720676255022 1 1 0.046560499926604278 0.052774223766485384 1 1 1 1 1 1 1 0.048799156485153483 1 1 1 1 1 1 1 1 1 0.050334391253809847 1 1 1 0.048747516483586162 1 1 1 1 1 0.049168658739530705 1 1 1 1 1 1 1 1 1 1 1 1 0.048924782461067337 1 1 1 0.050004470244380719 1 1 1 0.050023490366504886 1 1 1 1 1 1 1 1 1 1 1 1 1 1 1 1 1 1 1 1 1 1 1 1 1 1 1 1 1 1 1 1 0.049355629582333096 1 1 1 1 1 1 1 1 1 1 1 1 1 1 1 1 1 1 1 1 1 1 1 1 0.050310530412695335 1 0.050045553984797035 1 1 0.04443819575372325 1 1 1 1 1 1 1 1 1 0.053670725682975984 1 1 1 1 1 1 1 1 1 1 1 1 1 1 0.045956152739572584 1 1 1 1 0.047736472154352547 1 1 1 0.049326789294848218 1 1 1 1 1 1 1 1 1 1 1 1 1 1 1 1 1 1 1 1 1 1 1 1 1 1 1 1 1 1 1 1 1 1 1 1 1 1 1 1 1 1 1 1 1 1 1 1 1 1 1 1 1 1 1 1 1 1 1 1 1 1 1 1 1 1 1 1 1 1 1 1 1 1 1 1 1 1 1 1 1 1 1 1 1 1 1 1 1 1 1 1 1 1 1 1 1 1 1 1 1 1 1 1 1 1 1 1 1 1 1 1 1 1 1 1 1 1 1 1 1 1 1 1 1 1 1 1 1 1 1 1 1 1 1 1 1 1 1 1 1 1 1 1 1 1 1 1 1 1 1 1 1 1 1 1 1 1 1 1 1 1 1 1 1 1 1 1 1 1 1 1 1 1 1 1 1 1 1 1 1 1 1 1 1 1 1 1 1 0.065025979694501995 1 1 1 1 1 1 1 1 1 1 1 1 1 1 1 1 0.051800730635052333 1 1 1 1 1 1 1 1 0.070834116060768004 1 1 1 1 0.048860914089697283 1 1 1 1 1 1 1 1 1 1 1 1 1 1 1 1 1 1 1 1 1 1 0.052095044703604772 1 1 1 1 1 1 1 1 1 1 1 1 1 0.047559054654037938 0.063813971608106812 1 1 1 1 1 0.058954788176625514 1 0.055584713615587311 1 1 1 1 1 1 1 1 1 1 1 0.053635815455963201 1 1 1 1 1 1 1 0.042721108622142796 1 1 1 1 1 1 1 1 1 1 1 1 1 1 1 0.050076245614908615 0.04400932852413672 1 1 1 1 1 1 1 1 1 1 1 1 0.053500538528498856 1 1 1 1 1 1 1 1 1 1 1 1 1 1 1 1 0.051201233006059499 1 1 1 1 1 1 1 0.043429064915944976 1 1 1 1 1 1 1 1 1 1 0.049941157234753168 0.037733388422572692 1 1 1 1 1 1 1 1 1 1 1 1 1 1 1 1 1 1 1 1 1 1 1 1 1 1 1 1 1 1 0.052441089913600927 1 1 1 1 1 0.052476900613858131 1 1 1 1 1 1 1 1 1 1 0.051088190703122517 1 1 1 1 0.049205350196116215 1 1 1 1 1 1 1 1 1 1 0.052186741784091217 1 0.05079803187335559 1 1 1 1 1 1 1 1 1 1 1 1 1 1 1 1 1 1 1 1 1 1 1 1 1 1 1 1 1 1 1 0.049978103572155312 1 1 1 1 1 0.050054349187063918 1 1 1 1 1 1 1 1 1 1 1 1 1 1 1 1 1 1 0.047717469685363167 1 1 0.029054938446331939 1 1 1 0.049239436364360144 1 1 1 1 1 0.03737624236433338 1 1 1 1 1 1 1 1 1 1 0.062446129145738577 1 1 1 1 1 1 0.050331781806460786 1 1 1 1 1 0.034848625111707096 0.04997725389241002 1 1 0.025579434029192445 1 1 0.050577987053510826 1 1 1 1 1 1 1 1 1 1 0.051072977473500605 1 1 0.052184454332838914 1 1 0.051275546351499793 1 1 0.054263483313851085 1 1 0.050719521962239639 1 1 0.050379531785255574 1 1 1 1 1 1 0.050238776830371965 1 1 1 1 1 1 1 1 1 1 1 0.024498243519683483 1 1 1 1 1 1 1 0.051155195948951702 1 1 1 1 0.047721374222842228 1 1 1 0.024513263863257154 1 1 1 1 1 1 1 1 1 1 1 0.043016255242763146 1 1 1 1 1 1 1 1 1 1 1 1 1 1 1 1 1 1 1 1 1 1 1 1 0.050076540389362927 1 1 1 1 1 0.050213039780906465 1 1 1 1 1 1 1 1 1 1 1 1 1 1 0.048779210543505314 1 1 0.042761217762617737 1 0.068484119593661977 1 1 1 1 0.074620910971680901 1 0.048518098594518444 0.032242540541069925 1 0.031930789998706334 1 1 1 1 1 1 1 0.050098956330917481 1 0.05407852375786016 1 1 1 1 1 1 0.049002908798772185 1 1 1 1 1 1 0.05022879219898245 1 1 1 1 0.050581452760864454 1 1 1 1 1 0.050131018864868662 1 1 0.050880463542676196 1 1 1 1 0.050705519581045237 1 1 1 1 0.053658090213917944 1 1 1 1 1 1 0.049702589650816351 1 1 1 1 1 1 1 1 1 0.050260800020982169 1 1 1 1 1 1 0.051778645203722697 1 1 1 1 0.054831394267489168 1 1 1 1 1 1 1 1 1 1 1 1 1 1 1 1 0.049950277079133035 1 1 1 0.048963658532975282 1 1 0.062433388491623748 1 1 1 1 1 1 1 1 1 1 1 1 1 1 1 1 0.049933965533323368 1 0.061206943109088197 1 1 1 1 1 1 1 1 1 1 1 1 1 1 1 1 1 1 1 1 1 1 1 1 1 1 0.067386286684361391 1 1 0.059446796764621897 1 1 1 1 1 1 1 1 1 1 0.056265789224488848 1 1 1 1 0.050161343635716629 1 1 1 1 0.050227378102393264 1 1 1 1 1 1 1 1 1 0.054248739440583421 1 1 1 1 1 1 1 1 1 1 1 1 1 1 1 1 1 1 1 1 1 1 1 1 1 1 1 1 
</DataArray>
</CellData>
</Piece>
</UnstructuredGrid>
</VTKFile>
