<?xml version="1.0"?>
<VTKFile type="UnstructuredGrid" version="0.1" byte_order="LittleEndian">
<UnstructuredGrid>
<Piece NumberOfPoints="30881" NumberOfCells="10862">
<Points>
<DataArray type="Float64" NumberOfComponents="3" format="ascii">
-0.49999999999999828 -0.48677703703187492 0 -0.5 -0.5 0 -0.48129281494584059 -0.49338851851593718 0 -0.5 -0.5 0 -0.48129281494584059 -0.49338851851593718 0 -0.46258562989168328 -0.5 0 -0.49999999999999828 -0.48677703703187492 0 -0.48129281494584059 -0.49338851851593718 0 -0.49999999999999828 -0.48677703703187492 0 -0.4824545428279598 -0.47451624516148783 0 -0.48129281494584059 -0.49338851851593718 0 -0.49999999999999828 -0.48677703703187492 0 -0.4824545428279598 -0.47451624516148783 0 -0.5 -0.46599539173150673 0 -0.4824545428279598 -0.47451624516148783 0 -0.46853075243710779 -0.48354990242643758 0 -0.46411508256092049 -0.46598235294430129 0 -0.4824545428279598 -0.47451624516148783 0 -0.48129281494584059 -0.49338851851593718 0 -0.46853075243710779 -0.48354990242643758 0 -0.48129281494584059 -0.49338851851593718 0 -0.46258562989168328 -0.5 0 -0.48129281494584059 -0.49338851851593718 0 -0.46258562989168328 -0.5 0 -0.46853075243710779 -0.48354990242643758 0 -0.46258562989168328 -0.5 0 -0.46853075243710779 -0.48354990242643758 0 -0.45147378687733691 -0.48362213557840178 0 -0.46853075243710779 -0.48354990242643758 0 -0.45147378687733691 -0.48362213557840178 0 -0.46411508256092049 -0.46598235294430129 0 -0.4457251648104853 -0.47020164095208389 0 -0.45147378687733691 -0.48362213557840178 0 -0.46411508256092049 -0.46598235294430129 0 -0.4457251648104853 -0.47020164095208389 0 -0.45147378687733691 -0.48362213557840178 0 -0.43513446131126993 -0.48199891714758791 0 -0.45147378687733691 -0.48362213557840178 0 -0.43275163025255442 -0.5 0 -0.43513446131126993 -0.48199891714758791 0 -0.46258562989168328 -0.5 0 -0.45147378687733691 -0.48362213557840178 0 -0.43275163025255442 -0.5 0 -0.4467190029717853 -0.45478934699519452 0 -0.4422915115958943 -0.43555510214664611 0 -0.43246707723660932 -0.44794326854796312 0 -0.4457251648104853 -0.47020164095208389 0 -0.4467190029717853 -0.45478934699519452 0 -0.46411508256092049 -0.46598235294430129 0 -0.4457251648104853 -0.47020164095208389 0 -0.4467190029717853 -0.45478934699519452 0 -0.43016578207734568 -0.46313500011938619 0 -0.4467190029717853 -0.45478934699519452 0 -0.46411508256092049 -0.46598235294430129 0 -0.47114575579794699 -0.4403844242888923 0 -0.4467190029717853 -0.45478934699519452 0 -0.47114575579794699 -0.4403844242888923 0 -0.4422915115958943 -0.43555510214664611 0 -0.47114575579794699 -0.4403844242888923 0 -0.4422915115958943 -0.43555510214664611 0 -0.46411508256092049 -0.46598235294430129 0 -0.47114575579794699 -0.4403844242888923 0 -0.48354307623736548 -0.45841843211146538 0 -0.4824545428279598 -0.47451624516148783 0 -0.46411508256092049 -0.46598235294430129 0 -0.48354307623736548 -0.45841843211146538 0 -0.4824545428279598 -0.47451624516148783 0 -0.48354307623736548 -0.45841843211146538 0 -0.5 -0.46599539173150673 0 -0.48354307623736548 -0.45841843211146538 0 -0.5 -0.46599539173150673 0 -0.49999999999999972 -0.44521374643113848 0 -0.47114575579794699 -0.4403844242888923 0 -0.49999999999999972 -0.44521374643113848 0 -0.47114575579794699 -0.4403844242888923 0 -0.49999999999999972 -0.44521374643113848 0 -0.48704432221743971 -0.42935617662229603 0 -0.47114575579794699 -0.4403844242888923 0 -0.48354307623736548 -0.45841843211146538 0 -0.49999999999999972 -0.44521374643113848 0 -0.49999999999999972 -0.44521374643113848 0 -0.48704432221743971 -0.42935617662229603 0 -0.5 -0.41591957503128979 0 -0.48704432221743971 -0.42935617662229603 0 -0.5 -0.41591957503128979 0 -0.47703153307181151 -0.41590696073786332 0 -0.5 -0.41591957503128979 0 -0.47703153307181151 -0.41590696073786332 0 -0.48817838912021821 -0.4022119694541284 0 -0.47114575579794699 -0.4403844242888923 0 -0.48704432221743971 -0.42935617662229603 0 -0.47703153307181151 -0.41590696073786332 0 -0.5 -0.38662540363144121 0 -0.47568202340906118 -0.39039593841591919 0 -0.4947615751445838 -0.37332156409002909 0 -0.47568202340906118 -0.39039593841591919 0 -0.4947615751445838 -0.37332156409002909 0 -0.5 -0.38662540363144121 0 -0.48817838912021821 -0.4022119694541284 0 -0.47568202340906118 -0.39039593841591919 0 -0.5 -0.41591957503128979 0 -0.5 -0.38662540363144121 0 -0.48817838912021821 -0.4022119694541284 0 -0.47703153307181151 -0.41590696073786332 0 -0.48817838912021821 -0.4022119694541284 0 -0.47568202340906118 -0.39039593841591919 0 -0.47703153307181151 -0.41590696073786332 0 -0.47568202340906118 -0.39039593841591919 0 -0.45660247167353862 -0.40747031274180939 0 -0.47568202340906118 -0.39039593841591919 0 -0.48030931097003587 -0.37191064435083931 0 -0.46669490250066459 -0.37481721741951951 0 -0.47568202340906118 -0.39039593841591919 0 -0.4947615751445838 -0.37332156409002909 0 -0.48030931097003587 -0.37191064435083931 0 -0.45332061783919553 -0.38729481725706361 0 -0.46669490250066459 -0.37481721741951951 0 -0.45095991715087752 -0.36968037302039969 0 -0.47568202340906118 -0.39039593841591919 0 -0.45332061783919553 -0.38729481725706361 0 -0.46669490250066459 -0.37481721741951951 0 -0.47568202340906118 -0.39039593841591919 0 -0.45660247167353862 -0.40747031274180939 0 -0.47568202340906118 -0.39039593841591919 0 -0.45332061783919553 -0.38729481725706361 0 -0.45660247167353862 -0.40747031274180939 0 -0.44332653075004852 -0.401690115615219 0 -0.44646247228389868 -0.41654464256061052 0 -0.42870657106664078 -0.39987574649354879 0 -0.45332061783919553 -0.38729481725706361 0 -0.44332653075004852 -0.401690115615219 0 -0.43479631603355468 -0.39077639303142497 0 -0.45332061783919553 -0.38729481725706361 0 -0.44332653075004852 -0.401690115615219 0 -0.45660247167353862 -0.40747031274180939 0 -0.45332061783919553 -0.38729481725706361 0 -0.43421362475025049 -0.37527491429266319 0 -0.43479631603355468 -0.39077639303142497 0 -0.45332061783919553 -0.38729481725706361 0 -0.43421362475025049 -0.37527491429266319 0 -0.45095991715087752 -0.36968037302039969 0 -0.47114575579794699 -0.4403844242888923 0 -0.45663439814062529 -0.42533932462455271 0 -0.4422915115958943 -0.43555510214664611 0 -0.47114575579794699 -0.4403844242888923 0 -0.47703153307181151 -0.41590696073786332 0 -0.45663439814062529 -0.42533932462455271 0 -0.45663439814062529 -0.42533932462455271 0 -0.45660247167353862 -0.40747031274180939 0 -0.44646247228389868 -0.41654464256061052 0 -0.47703153307181151 -0.41590696073786332 0 -0.45663439814062529 -0.42533932462455271 0 -0.45660247167353862 -0.40747031274180939 0 -0.44332653075004852 -0.401690115615219 0 -0.45660247167353862 -0.40747031274180939 0 -0.44646247228389868 -0.41654464256061052 0 -0.45660247167353862 -0.40747031274180939 0 -0.44646247228389868 -0.41654464256061052 0 -0.44646247228389868 -0.41654464256061052 0 -0.4375229199380159 -0.42454468706769971 0 -0.45663439814062529 -0.42533932462455271 0 -0.4375229199380159 -0.42454468706769971 0 -0.4422915115958943 -0.43555510214664611 0 -0.45663439814062529 -0.42533932462455271 0 -0.44646247228389868 -0.41654464256061052 0 -0.4375229199380159 -0.42454468706769971 0 -0.4375229199380159 -0.42454468706769971 0 -0.4422915115958943 -0.43555510214664611 0 -0.43077617074680319 -0.43406335077952207 0 -0.43077617074680319 -0.43406335077952207 0 -0.42550232634077589 -0.42345940056268039 0 -0.41950844772475421 -0.43888456563633732 0 -0.4375229199380159 -0.42454468706769971 0 -0.43077617074680319 -0.43406335077952207 0 -0.42550232634077589 -0.42345940056268039 0 -0.44646247228389868 -0.41654464256061052 0 -0.41657232816672918 -0.41306671883907142 0 -0.42870657106664078 -0.39987574649354879 0 -0.44646247228389868 -0.41654464256061052 0 -0.4375229199380159 -0.42454468706769971 0 -0.42550232634077589 -0.42345940056268039 0 -0.44646247228389868 -0.41654464256061052 0 -0.42550232634077589 -0.42345940056268039 0 -0.41657232816672918 -0.41306671883907142 0 -0.44646247228389868 -0.41654464256061052 0 -0.41657232816672918 -0.41306671883907142 0 -0.42550232634077589 -0.42345940056268039 0 -0.41657232816672918 -0.41306671883907142 0 -0.41333489101611293 -0.42699700567040988 0 -0.41657232816672918 -0.41306671883907142 0 -0.41333489101611293 -0.42699700567040988 0 -0.39893236021425188 -0.42931692235905211 0 -0.41333489101611293 -0.42699700567040988 0 -0.39893236021425188 -0.42931692235905211 0 -0.41950844772475421 -0.43888456563633732 0 -0.42550232634077589 -0.42345940056268039 0 -0.41333489101611293 -0.42699700567040988 0 -0.41950844772475421 -0.43888456563633732 0 -0.43421362475025049 -0.37527491429266319 0 -0.42478231784314502 -0.38643128255249681 0 -0.41656514696884139 -0.37636588688318029 0 -0.43421362475025049 -0.37527491429266319 0 -0.42478231784314502 -0.38643128255249681 0 -0.43479631603355468 -0.39077639303142497 0 -0.42478231784314502 -0.38643128255249681 0 -0.43479631603355468 -0.39077639303142497 0 -0.42870657106664078 -0.39987574649354879 0 -0.44332653075004852 -0.401690115615219 0 -0.43479631603355468 -0.39077639303142497 0 -0.42870657106664078 -0.39987574649354879 0 -0.41657232816672918 -0.41306671883907142 0 -0.40962993039643741 -0.3898634720616666 0 -0.3946356370269814 -0.39577424904278191 0 -0.42478231784314502 -0.38643128255249681 0 -0.42870657106664078 -0.39987574649354879 0 -0.40962993039643741 -0.3898634720616666 0 -0.41657232816672918 -0.41306671883907142 0 -0.42870657106664078 -0.39987574649354879 0 -0.40962993039643741 -0.3898634720616666 0 -0.42478231784314502 -0.38643128255249681 0 -0.40962993039643741 -0.3898634720616666 0 -0.41656514696884139 -0.37636588688318029 0 -0.40962993039643741 -0.3898634720616666 0 -0.41656514696884139 -0.37636588688318029 0 -0.40465459864295228 -0.37650109000307358 0 -0.39431275766669582 -0.38061373190328529 0 -0.40465459864295228 -0.37650109000307358 0 -0.3968495855878465 -0.36923685638487008 0 -0.40962993039643741 -0.3898634720616666 0 -0.39431275766669582 -0.38061373190328529 0 -0.40465459864295228 -0.37650109000307358 0 -0.40962993039643741 -0.3898634720616666 0 -0.39431275766669582 -0.38061373190328529 0 -0.3946356370269814 -0.39577424904278191 0 -0.3946356370269814 -0.39577424904278191 0 -0.38704143117499401 -0.40999023144455299 0 -0.37464038230528551 -0.396492613407532 0 -0.3946356370269814 -0.39577424904278191 0 -0.37522403377147279 -0.38060127254172499 0 -0.37464038230528551 -0.396492613407532 0 -0.39431275766669582 -0.38061373190328529 0 -0.3946356370269814 -0.39577424904278191 0 -0.37522403377147279 -0.38060127254172499 0 -0.39431275766669582 -0.38061373190328529 0 -0.37522403377147279 -0.38060127254172499 0 -0.38569326772338258 -0.37053454129240582 0 -0.41657232816672918 -0.41306671883907142 0 -0.39893236021425188 -0.42931692235905211 0 -0.38704143117499401 -0.40999023144455299 0 -0.41657232816672918 -0.41306671883907142 0 -0.3946356370269814 -0.39577424904278191 0 -0.38704143117499401 -0.40999023144455299 0 -0.41657232816672918 -0.41306671883907142 0 -0.38704143117499401 -0.40999023144455299 0 -0.38704143117499401 -0.40999023144455299 0 -0.38131756488089769 -0.42670085612339947 0 -0.36377437909963828 -0.41972983174959272 0 -0.38131756488089769 -0.42670085612339947 0 -0.38339996822118783 -0.44368928783448319 0 -0.36866352395763108 -0.4313760290561211 0 -0.39893236021425188 -0.42931692235905211 0 -0.38131756488089769 -0.42670085612339947 0 -0.38339996822118783 -0.44368928783448319 0 -0.39893236021425188 -0.42931692235905211 0 -0.38704143117499401 -0.40999023144455299 0 -0.38131756488089769 -0.42670085612339947 0 -0.38339996822118783 -0.44368928783448319 0 -0.40446438048225181 -0.45117017211807442 0 -0.3895931593355052 -0.46351353191466821 0 -0.39893236021425188 -0.42931692235905211 0 -0.38339996822118783 -0.44368928783448319 0 -0.40446438048225181 -0.45117017211807442 0 -0.40446438048225181 -0.45117017211807442 0 -0.3895931593355052 -0.46351353191466821 0 -0.40280611050484572 -0.47090640128894168 0 -0.38339996822118783 -0.44368928783448319 0 -0.3895931593355052 -0.46351353191466821 0 -0.37415472949075129 -0.45946062715310632 0 -0.3895931593355052 -0.46351353191466821 0 -0.38039451612360919 -0.47713749807852829 0 -0.37415472949075129 -0.45946062715310632 0 -0.38039451612360919 -0.47713749807852829 0 -0.39198476482648659 -0.49312537606366408 0 -0.39366244928105898 -0.47747566409097131 0 -0.3895931593355052 -0.46351353191466821 0 -0.38039451612360919 -0.47713749807852829 0 -0.39366244928105898 -0.47747566409097131 0 -0.39198476482648659 -0.49312537606366408 0 -0.37055643484088358 -0.49425936316784103 0 -0.39198476482648659 -0.49312537606366408 0 -0.40291763061342539 -0.5 0 -0.37308363097429631 -0.50000000000000244 0 -0.39198476482648659 -0.49312537606366408 0 -0.37055643484088358 -0.49425936316784103 0 -0.37308363097429631 -0.50000000000000244 0 -0.38039451612360919 -0.47713749807852829 0 -0.39198476482648659 -0.49312537606366408 0 -0.37055643484088358 -0.49425936316784103 0 -0.39198476482648659 -0.49312537606366408 0 -0.41341309481208982 -0.49199138895948757 0 -0.39198476482648659 -0.49312537606366408 0 -0.39366244928105898 -0.47747566409097131 0 -0.40353369561484831 -0.48269551310905429 0 -0.39198476482648659 -0.49312537606366408 0 -0.40291763061342539 -0.5 0 -0.41341309481208982 -0.49199138895948757 0 -0.39198476482648659 -0.49312537606366408 0 -0.40353369561484831 -0.48269551310905429 0 -0.41341309481208982 -0.49199138895948757 0 -0.3895931593355052 -0.46351353191466821 0 -0.39366244928105898 -0.47747566409097131 0 -0.40280611050484572 -0.47090640128894168 0 -0.39366244928105898 -0.47747566409097131 0 -0.40353369561484831 -0.48269551310905429 0 -0.40280611050484572 -0.47090640128894168 0 -0.40280611050484572 -0.47090640128894168 0 -0.41792735015940108 -0.47619959015896091 0 -0.41524515795200517 -0.46243146669528151 0 -0.40353369561484831 -0.48269551310905429 0 -0.41792735015940108 -0.47619959015896091 0 -0.41341309481208982 -0.49199138895948757 0 -0.40353369561484831 -0.48269551310905429 0 -0.40280611050484572 -0.47090640128894168 0 -0.41792735015940108 -0.47619959015896091 0 -0.41792735015940108 -0.47619959015896091 0 -0.41341309481208982 -0.49199138895948757 0 -0.42480663413382869 -0.48754747406650911 0 -0.40291763061342539 -0.5 0 -0.41341309481208982 -0.49199138895948757 0 -0.43275163025255442 -0.5 0 -0.41341309481208982 -0.49199138895948757 0 -0.42480663413382869 -0.48754747406650911 0 -0.43275163025255442 -0.5 0 -0.42480663413382869 -0.48754747406650911 0 -0.43275163025255442 -0.5 0 -0.43513446131126993 -0.48199891714758791 0 -0.4457251648104853 -0.47020164095208389 0 -0.43513446131126993 -0.48199891714758791 0 -0.43016578207734568 -0.46313500011938619 0 -0.41792735015940108 -0.47619959015896091 0 -0.43513446131126993 -0.48199891714758791 0 -0.43016578207734568 -0.46313500011938619 0 -0.41792735015940108 -0.47619959015896091 0 -0.42480663413382869 -0.48754747406650911 0 -0.43513446131126993 -0.48199891714758791 0 -0.4467190029717853 -0.45478934699519452 0 -0.43016578207734568 -0.46313500011938619 0 -0.43246707723660932 -0.44794326854796312 0 -0.43016578207734568 -0.46313500011938619 0 -0.42051073979218989 -0.45215097324273301 0 -0.41524515795200517 -0.46243146669528151 0 -0.43016578207734568 -0.46313500011938619 0 -0.43246707723660932 -0.44794326854796312 0 -0.42051073979218989 -0.45215097324273301 0 -0.4422915115958943 -0.43555510214664611 0 -0.43077617074680319 -0.43406335077952207 0 -0.43246707723660932 -0.44794326854796312 0 -0.43077617074680319 -0.43406335077952207 0 -0.43246707723660932 -0.44794326854796312 0 -0.41950844772475421 -0.43888456563633732 0 -0.43246707723660932 -0.44794326854796312 0 -0.42051073979218989 -0.45215097324273301 0 -0.41950844772475421 -0.43888456563633732 0 -0.39893236021425188 -0.42931692235905211 0 -0.40446438048225181 -0.45117017211807442 0 -0.41950844772475421 -0.43888456563633732 0 -0.40446438048225181 -0.45117017211807442 0 -0.42051073979218989 -0.45215097324273301 0 -0.41950844772475421 -0.43888456563633732 0 -0.40446438048225181 -0.45117017211807442 0 -0.42051073979218989 -0.45215097324273301 0 -0.41524515795200517 -0.46243146669528151 0 -0.40446438048225181 -0.45117017211807442 0 -0.40280611050484572 -0.47090640128894168 0 -0.41524515795200517 -0.46243146669528151 0 -0.41792735015940108 -0.47619959015896091 0 -0.43016578207734568 -0.46313500011938619 0 -0.41524515795200517 -0.46243146669528151 0 -0.45018232007011222 -0.256765034028549 0 -0.429874989515865 -0.26165756953837482 0 -0.43598079583492633 -0.24721882136819351 0 -0.45018232007011222 -0.256765034028549 0 -0.43765198640052377 -0.27443700488157741 0 -0.429874989515865 -0.26165756953837482 0 -0.45018232007011222 -0.256765034028549 0 -0.43598079583492633 -0.24721882136819351 0 -0.45139902778349827 -0.24711062934306771 0 -0.45018232007011222 -0.256765034028549 0 -0.43765198640052377 -0.27443700488157741 0 -0.46196722525855399 -0.27174391220054139 0 -0.43765198640052377 -0.27443700488157741 0 -0.46196722525855399 -0.27174391220054139 0 -0.4476129789611048 -0.29283803371489903 0 -0.46196722525855399 -0.27174391220054139 0 -0.48050148842732221 -0.25523221810557922 0 -0.46267023581878858 -0.24817136713935201 0 -0.45018232007011222 -0.256765034028549 0 -0.46196722525855399 -0.27174391220054139 0 -0.46267023581878858 -0.24817136713935201 0 -0.45018232007011222 -0.256765034028549 0 -0.46267023581878858 -0.24817136713935201 0 -0.45139902778349827 -0.24711062934306771 0 -0.48050148842732221 -0.25523221810557922 0 -0.5 -0.26944871803204617 0 -0.5 -0.2401545466321974 0 -0.48050148842732221 -0.25523221810557922 0 -0.5 -0.26944871803204617 0 -0.48245797385404121 -0.28063059353633901 0 -0.46196722525855399 -0.27174391220054139 0 -0.48050148842732221 -0.25523221810557922 0 -0.48245797385404121 -0.28063059353633901 0 -0.46196722525855399 -0.27174391220054139 0 -0.48245797385404121 -0.28063059353633901 0 -0.46937090116945868 -0.29821258941183898 0 -0.48245797385404121 -0.28063059353633901 0 -0.5 -0.29874288943189498 0 -0.46937090116945868 -0.29821258941183898 0 -0.5 -0.26944871803204617 0 -0.48245797385404121 -0.28063059353633901 0 -0.5 -0.29874288943189498 0 -0.5 -0.29874288943189498 0 -0.46937090116945868 -0.29821258941183898 0 -0.47623524987602139 -0.32201367690444971 0 -0.46937090116945868 -0.29821258941183898 0 -0.4476129789611048 -0.29283803371489903 0 -0.45018982867155483 -0.32180400573951162 0 -0.46196722525855399 -0.27174391220054139 0 -0.46937090116945868 -0.29821258941183898 0 -0.4476129789611048 -0.29283803371489903 0 -0.43765198640052377 -0.27443700488157741 0 -0.4476129789611048 -0.29283803371489903 0 -0.43236213870239748 -0.29002705800971151 0 -0.4476129789611048 -0.29283803371489903 0 -0.45018982867155483 -0.32180400573951162 0 -0.4314578060398388 -0.3048790663939604 0 -0.45018982867155483 -0.32180400573951162 0 -0.4314578060398388 -0.3048790663939604 0 -0.45018982867155483 -0.32180400573951162 0 -0.46157657978994598 -0.34139555482026068 0 -0.43521386225128428 -0.33802231259611382 0 -0.46157657978994598 -0.34139555482026068 0 -0.43521386225128428 -0.33802231259611382 0 -0.45018982867155483 -0.32180400573951162 0 -0.46157657978994598 -0.34139555482026068 0 -0.47623524987602139 -0.32201367690444971 0 -0.46937090116945868 -0.29821258941183898 0 -0.45018982867155483 -0.32180400573951162 0 -0.47623524987602139 -0.32201367690444971 0 -0.5 -0.29874288943189498 0 -0.47623524987602139 -0.32201367690444971 0 -0.5 -0.32803706083174372 0 -0.47623524987602139 -0.32201367690444971 0 -0.5 -0.32803706083174372 0 -0.48561656391384522 -0.34384835974822991 0 -0.5 -0.32803706083174372 0 -0.5 -0.35733123223159241 0 -0.48561656391384522 -0.34384835974822991 0 -0.46157657978994598 -0.34139555482026068 0 -0.47623524987602139 -0.32201367690444971 0 -0.48561656391384522 -0.34384835974822991 0 -0.46157657978994598 -0.34139555482026068 0 -0.47568148196104371 -0.35852722048879659 0 -0.48561656391384522 -0.34384835974822991 0 -0.47568148196104371 -0.35852722048879659 0 -0.48561656391384522 -0.34384835974822991 0 -0.48768886795130861 -0.36141736908419309 0 -0.5 -0.35733123223159241 0 -0.48561656391384522 -0.34384835974822991 0 -0.48768886795130861 -0.36141736908419309 0 -0.5 -0.35733123223159241 0 -0.4947615751445838 -0.37332156409002909 0 -0.48768886795130861 -0.36141736908419309 0 -0.5 -0.38662540363144121 0 -0.5 -0.35733123223159241 0 -0.4947615751445838 -0.37332156409002909 0 -0.4947615751445838 -0.37332156409002909 0 -0.48768886795130861 -0.36141736908419309 0 -0.48030931097003587 -0.37191064435083931 0 -0.47568148196104371 -0.35852722048879659 0 -0.48030931097003587 -0.37191064435083931 0 -0.46669490250066459 -0.37481721741951951 0 -0.47568148196104371 -0.35852722048879659 0 -0.48768886795130861 -0.36141736908419309 0 -0.48030931097003587 -0.37191064435083931 0 -0.46669490250066459 -0.37481721741951951 0 -0.45985290530711531 -0.35919053618658509 0 -0.45095991715087752 -0.36968037302039969 0 -0.47568148196104371 -0.35852722048879659 0 -0.46669490250066459 -0.37481721741951951 0 -0.45985290530711531 -0.35919053618658509 0 -0.46157657978994598 -0.34139555482026068 0 -0.47568148196104371 -0.35852722048879659 0 -0.45985290530711531 -0.35919053618658509 0 -0.46157657978994598 -0.34139555482026068 0 -0.45985290530711531 -0.35919053618658509 0 -0.44091292170358748 -0.35617636658334351 0 -0.46157657978994598 -0.34139555482026068 0 -0.44091292170358748 -0.35617636658334351 0 -0.43521386225128428 -0.33802231259611382 0 -0.43421362475025049 -0.37527491429266319 0 -0.44091292170358748 -0.35617636658334351 0 -0.45095991715087752 -0.36968037302039969 0 -0.45985290530711531 -0.35919053618658509 0 -0.44091292170358748 -0.35617636658334351 0 -0.45095991715087752 -0.36968037302039969 0 -0.43421362475025049 -0.37527491429266319 0 -0.41656514696884139 -0.37636588688318029 0 -0.42218579342164808 -0.36334977441807748 0 -0.43421362475025049 -0.37527491429266319 0 -0.44091292170358748 -0.35617636658334351 0 -0.42218579342164808 -0.36334977441807748 0 -0.44091292170358748 -0.35617636658334351 0 -0.42218579342164808 -0.36334977441807748 0 -0.42066840753926321 -0.34864312644900147 0 -0.44091292170358748 -0.35617636658334351 0 -0.42066840753926321 -0.34864312644900147 0 -0.43521386225128428 -0.33802231259611382 0 -0.42218579342164808 -0.36334977441807748 0 -0.42066840753926321 -0.34864312644900147 0 -0.40690054455725883 -0.35815659477868023 0 -0.40690054455725883 -0.35815659477868023 0 -0.40885114471262263 -0.334649070371968 0 -0.42066840753926321 -0.34864312644900147 0 -0.40690054455725883 -0.35815659477868023 0 -0.40885114471262263 -0.334649070371968 0 -0.42218579342164808 -0.36334977441807748 0 -0.40690054455725883 -0.35815659477868023 0 -0.40625971269279348 -0.36587953617857771 0 -0.40690054455725883 -0.35815659477868023 0 -0.40625971269279348 -0.36587953617857771 0 -0.41656514696884139 -0.37636588688318029 0 -0.42218579342164808 -0.36334977441807748 0 -0.40625971269279348 -0.36587953617857771 0 -0.42218579342164808 -0.36334977441807748 0 -0.40690054455725883 -0.35815659477868023 0 -0.41656514696884139 -0.37636588688318029 0 -0.40465459864295228 -0.37650109000307358 0 -0.40625971269279348 -0.36587953617857771 0 -0.40465459864295228 -0.37650109000307358 0 -0.40625971269279348 -0.36587953617857771 0 -0.3968495855878465 -0.36923685638487008 0 -0.40690054455725883 -0.35815659477868023 0 -0.40029228617445223 -0.36350286704594809 0 -0.3911593018599101 -0.36073848084166482 0 -0.40625971269279348 -0.36587953617857771 0 -0.40029228617445223 -0.36350286704594809 0 -0.3968495855878465 -0.36923685638487008 0 -0.40690054455725883 -0.35815659477868023 0 -0.40625971269279348 -0.36587953617857771 0 -0.40029228617445223 -0.36350286704594809 0 -0.3911593018599101 -0.36073848084166482 0 -0.3968495855878465 -0.36923685638487008 0 -0.38569326772338258 -0.37053454129240582 0 -0.40029228617445223 -0.36350286704594809 0 -0.3911593018599101 -0.36073848084166482 0 -0.3968495855878465 -0.36923685638487008 0 -0.39431275766669582 -0.38061373190328529 0 -0.3968495855878465 -0.36923685638487008 0 -0.38569326772338258 -0.37053454129240582 0 -0.3911593018599101 -0.36073848084166482 0 -0.38569326772338258 -0.37053454129240582 0 -0.37568472164775779 -0.36524225821647011 0 -0.37522403377147279 -0.38060127254172499 0 -0.38569326772338258 -0.37053454129240582 0 -0.37568472164775779 -0.36524225821647011 0 -0.3911593018599101 -0.36073848084166482 0 -0.37568472164775779 -0.36524225821647011 0 -0.38024887903539811 -0.3491016629308506 0 -0.40690054455725883 -0.35815659477868023 0 -0.3911593018599101 -0.36073848084166482 0 -0.38024887903539811 -0.3491016629308506 0 -0.40690054455725883 -0.35815659477868023 0 -0.38024887903539811 -0.3491016629308506 0 -0.39533213247953691 -0.34338662223350158 0 -0.40690054455725883 -0.35815659477868023 0 -0.39533213247953691 -0.34338662223350158 0 -0.40885114471262263 -0.334649070371968 0 -0.40690054455725883 -0.35815659477868023 0 -0.38024887903539811 -0.3491016629308506 0 -0.39533213247953691 -0.34338662223350158 0 -0.38532796161286798 -0.33163916085250739 0 -0.40885114471262263 -0.334649070371968 0 -0.38532796161286798 -0.33163916085250739 0 -0.40885114471262263 -0.334649070371968 0 -0.38024887903539811 -0.3491016629308506 0 -0.39533213247953691 -0.34338662223350158 0 -0.38532796161286798 -0.33163916085250739 0 -0.38024887903539811 -0.3491016629308506 0 -0.38532796161286798 -0.33163916085250739 0 -0.37024470816872912 -0.33735420154985679 0 -0.38532796161286798 -0.33163916085250739 0 -0.37601492727600683 -0.3197696392392384 0 -0.39293033406270472 -0.31505081143976649 0 -0.37601492727600683 -0.3197696392392384 0 -0.39293033406270472 -0.31505081143976649 0 -0.37651642550459341 -0.307078797330949 0 -0.38532796161286798 -0.33163916085250739 0 -0.39293033406270472 -0.31505081143976649 0 -0.40885114471262263 -0.334649070371968 0 -0.39293033406270472 -0.31505081143976649 0 -0.40885114471262263 -0.334649070371968 0 -0.41078846406037228 -0.3113015987101887 0 -0.40885114471262263 -0.334649070371968 0 -0.42554877913925399 -0.3223331804902434 0 -0.41078846406037228 -0.3113015987101887 0 -0.40885114471262263 -0.334649070371968 0 -0.41078846406037228 -0.3113015987101887 0 -0.42066840753926321 -0.34864312644900147 0 -0.40885114471262263 -0.334649070371968 0 -0.43521386225128428 -0.33802231259611382 0 -0.40885114471262263 -0.334649070371968 0 -0.43521386225128428 -0.33802231259611382 0 -0.40885114471262263 -0.334649070371968 0 -0.43521386225128428 -0.33802231259611382 0 -0.42554877913925399 -0.3223331804902434 0 -0.42554877913925399 -0.3223331804902434 0 -0.4314578060398388 -0.3048790663939604 0 -0.41078846406037228 -0.3113015987101887 0 -0.45018982867155483 -0.32180400573951162 0 -0.43521386225128428 -0.33802231259611382 0 -0.42554877913925399 -0.3223331804902434 0 -0.45018982867155483 -0.32180400573951162 0 -0.42554877913925399 -0.3223331804902434 0 -0.4314578060398388 -0.3048790663939604 0 -0.4476129789611048 -0.29283803371489903 0 -0.4314578060398388 -0.3048790663939604 0 -0.43236213870239748 -0.29002705800971151 0 -0.4314578060398388 -0.3048790663939604 0 -0.43236213870239748 -0.29002705800971151 0 -0.41272578340812272 -0.2879541270484095 0 -0.4314578060398388 -0.3048790663939604 0 -0.41272578340812272 -0.2879541270484095 0 -0.43765198640052377 -0.27443700488157741 0 -0.43236213870239748 -0.29002705800971151 0 -0.41272578340812272 -0.2879541270484095 0 -0.4314578060398388 -0.3048790663939604 0 -0.41272578340812272 -0.2879541270484095 0 -0.41078846406037228 -0.3113015987101887 0 -0.41272578340812272 -0.2879541270484095 0 -0.41078846406037228 -0.3113015987101887 0 -0.41272578340812272 -0.2879541270484095 0 -0.41078846406037228 -0.3113015987101887 0 -0.39233272698174793 -0.29435547039456872 0 -0.39293033406270472 -0.31505081143976649 0 -0.41078846406037228 -0.3113015987101887 0 -0.39233272698174793 -0.29435547039456872 0 -0.39293033406270472 -0.31505081143976649 0 -0.37651642550459341 -0.307078797330949 0 -0.39233272698174793 -0.29435547039456872 0 -0.39233272698174793 -0.29435547039456872 0 -0.39278725088820249 -0.26993907014966689 0 -0.37040839911066209 -0.28171057629616708 0 -0.37651642550459341 -0.307078797330949 0 -0.39233272698174793 -0.29435547039456872 0 -0.37040839911066209 -0.28171057629616708 0 -0.41272578340812272 -0.2879541270484095 0 -0.39233272698174793 -0.29435547039456872 0 -0.39278725088820249 -0.26993907014966689 0 -0.41272578340812272 -0.2879541270484095 0 -0.39278725088820249 -0.26993907014966689 0 -0.39278725088820249 -0.26993907014966689 0 -0.37040839911066209 -0.28171057629616708 0 -0.39278725088820249 -0.26993907014966689 0 -0.37533687834285862 -0.25417213976024849 0 -0.37040839911066209 -0.28171057629616708 0 -0.39278725088820249 -0.26993907014966689 0 -0.37533687834285862 -0.25417213976024849 0 -0.39826986996263802 -0.25360934065352753 0 -0.39278725088820249 -0.26993907014966689 0 -0.37533687834285862 -0.25417213976024849 0 -0.39278725088820249 -0.26993907014966689 0 -0.39826986996263802 -0.25360934065352753 0 -0.41519883225968468 -0.25815034790020708 0 -0.39278725088820249 -0.26993907014966689 0 -0.41519883225968468 -0.25815034790020708 0 -0.39826986996263802 -0.25360934065352753 0 -0.41519883225968468 -0.25815034790020708 0 -0.41615383063077721 -0.2466412503256647 0 -0.41519883225968468 -0.25815034790020708 0 -0.41615383063077721 -0.2466412503256647 0 -0.41272578340812272 -0.2879541270484095 0 -0.41519883225968468 -0.25815034790020708 0 -0.41272578340812272 -0.2879541270484095 0 -0.41519883225968468 -0.25815034790020708 0 -0.429874989515865 -0.26165756953837482 0 -0.41272578340812272 -0.2879541270484095 0 -0.39278725088820249 -0.26993907014966689 0 -0.41519883225968468 -0.25815034790020708 0 -0.43765198640052377 -0.27443700488157741 0 -0.41272578340812272 -0.2879541270484095 0 -0.429874989515865 -0.26165756953837482 0 -0.41519883225968468 -0.25815034790020708 0 -0.43598079583492633 -0.24721882136819351 0 -0.41519883225968468 -0.25815034790020708 0 -0.429874989515865 -0.26165756953837482 0 -0.43598079583492633 -0.24721882136819351 0 -0.41519883225968468 -0.25815034790020708 0 -0.43598079583492633 -0.24721882136819351 0 -0.41615383063077721 -0.2466412503256647 0 -0.31968345090478489 -0.25798973640781447 0 -0.33623326073948312 -0.25365348176558788 0 -0.32213598881581812 -0.2442700999577708 0 -0.31968345090478489 -0.25798973640781447 0 -0.31319680135340772 -0.27337899374224139 0 -0.30564385326437488 -0.26015983685037081 0 -0.31968345090478489 -0.25798973640781447 0 -0.31319680135340772 -0.27337899374224139 0 -0.33256675641106698 -0.27199424518209242 0 -0.31319680135340772 -0.27337899374224139 0 -0.33256675641106698 -0.27199424518209242 0 -0.3219330120753135 -0.28752383142540722 0 -0.33256675641106698 -0.27199424518209242 0 -0.33623326073948312 -0.25365348176558788 0 -0.35329637777243872 -0.26495799818728782 0 -0.31968345090478489 -0.25798973640781447 0 -0.33256675641106698 -0.27199424518209242 0 -0.33623326073948312 -0.25365348176558788 0 -0.33623326073948312 -0.25365348176558788 0 -0.35329637777243872 -0.26495799818728782 0 -0.35305879752332059 -0.24486073726717009 0 -0.37533687834285862 -0.25417213976024849 0 -0.35329637777243872 -0.26495799818728782 0 -0.35305879752332059 -0.24486073726717009 0 -0.37533687834285862 -0.25417213976024849 0 -0.35329637777243872 -0.26495799818728782 0 -0.37040839911066209 -0.28171057629616708 0 -0.35329637777243872 -0.26495799818728782 0 -0.34802954733312141 -0.29348208244266671 0 -0.37040839911066209 -0.28171057629616708 0 -0.33256675641106698 -0.27199424518209242 0 -0.35329637777243872 -0.26495799818728782 0 -0.34802954733312141 -0.29348208244266671 0 -0.34802954733312141 -0.29348208244266671 0 -0.37040839911066209 -0.28171057629616708 0 -0.37651642550459341 -0.307078797330949 0 -0.37040839911066209 -0.28171057629616708 0 -0.36249180620921062 -0.30132401124355712 0 -0.34802954733312141 -0.29348208244266671 0 -0.37040839911066209 -0.28171057629616708 0 -0.36249180620921062 -0.30132401124355712 0 -0.37651642550459341 -0.307078797330949 0 -0.36249180620921062 -0.30132401124355712 0 -0.36514172279026702 -0.314674684486903 0 -0.36249180620921062 -0.30132401124355712 0 -0.35217384865543538 -0.31302074178168637 0 -0.36514172279026702 -0.314674684486903 0 -0.34802954733312141 -0.29348208244266671 0 -0.33894022777705518 -0.31261958861733652 0 -0.35217384865543538 -0.31302074178168637 0 -0.34802954733312141 -0.29348208244266671 0 -0.36249180620921062 -0.30132401124355712 0 -0.35217384865543538 -0.31302074178168637 0 -0.34802954733312141 -0.29348208244266671 0 -0.32565069555558063 -0.30525358858916618 0 -0.33894022777705518 -0.31261958861733652 0 -0.34802954733312141 -0.29348208244266671 0 -0.32565069555558063 -0.30525358858916618 0 -0.32565069555558063 -0.30525358858916618 0 -0.32940773276489932 -0.31652548782855527 0 -0.33894022777705518 -0.31261958861733652 0 -0.33256675641106698 -0.27199424518209242 0 -0.34802954733312141 -0.29348208244266671 0 -0.3219330120753135 -0.28752383142540722 0 -0.34802954733312141 -0.29348208244266671 0 -0.3219330120753135 -0.28752383142540722 0 -0.32565069555558063 -0.30525358858916618 0 -0.3219330120753135 -0.28752383142540722 0 -0.31228269981280887 -0.29918463989613459 0 -0.30483638085835207 -0.28788342401786787 0 -0.31319680135340772 -0.27337899374224139 0 -0.3219330120753135 -0.28752383142540722 0 -0.30483638085835207 -0.28788342401786787 0 -0.32565069555558063 -0.30525358858916618 0 -0.30327184377803978 -0.31702509473566581 0 -0.31228269981280887 -0.29918463989613459 0 -0.3219330120753135 -0.28752383142540722 0 -0.32565069555558063 -0.30525358858916618 0 -0.31228269981280887 -0.29918463989613459 0 -0.32565069555558063 -0.30525358858916618 0 -0.30327184377803978 -0.31702509473566581 0 -0.31475841231360341 -0.32260943229412947 0 -0.32694554799167658 -0.33099179923519167 0 -0.33828159541335823 -0.32561934181358893 0 -0.32565069555558063 -0.30525358858916618 0 -0.31475841231360341 -0.32260943229412947 0 -0.30327184377803978 -0.31702509473566581 0 -0.31475841231360341 -0.32260943229412947 0 -0.33828159541335823 -0.32561934181358893 0 -0.32940773276489932 -0.31652548782855527 0 -0.32565069555558063 -0.30525358858916618 0 -0.31475841231360341 -0.32260943229412947 0 -0.32940773276489932 -0.31652548782855527 0 -0.31475841231360341 -0.32260943229412947 0 -0.33828159541335823 -0.32561934181358893 0 -0.31475841231360341 -0.32260943229412947 0 -0.31372637242327511 -0.33497634201883658 0 -0.32694554799167658 -0.33099179923519167 0 -0.32694554799167658 -0.33099179923519167 0 -0.32737612656656928 -0.35021722948502532 0 -0.3170311031704231 -0.34491623006635341 0 -0.31372637242327511 -0.33497634201883658 0 -0.32694554799167658 -0.33099179923519167 0 -0.3170311031704231 -0.34491623006635341 0 -0.31372637242327511 -0.33497634201883658 0 -0.3170311031704231 -0.34491623006635341 0 -0.30849554643820359 -0.34481279163420842 0 -0.32694554799167658 -0.33099179923519167 0 -0.33828159541335823 -0.32561934181358893 0 -0.35359721351353718 -0.34004673108302108 0 -0.32694554799167658 -0.33099179923519167 0 -0.35359721351353718 -0.34004673108302108 0 -0.33765025977867152 -0.34480892108230998 0 -0.32694554799167658 -0.33099179923519167 0 -0.35359721351353718 -0.34004673108302108 0 -0.32694554799167658 -0.33099179923519167 0 -0.33765025977867152 -0.34480892108230998 0 -0.32737612656656928 -0.35021722948502532 0 -0.33828159541335823 -0.32561934181358893 0 -0.32940773276489932 -0.31652548782855527 0 -0.33894022777705518 -0.31261958861733652 0 -0.33828159541335823 -0.32561934181358893 0 -0.33894022777705518 -0.31261958861733652 0 -0.35217384865543538 -0.31302074178168637 0 -0.33828159541335823 -0.32561934181358893 0 -0.3618047785131131 -0.32862925133304821 0 -0.33828159541335823 -0.32561934181358893 0 -0.35217384865543538 -0.31302074178168637 0 -0.3618047785131131 -0.32862925133304821 0 -0.38532796161286798 -0.33163916085250739 0 -0.37601492727600683 -0.3197696392392384 0 -0.3618047785131131 -0.32862925133304821 0 -0.35217384865543538 -0.31302074178168637 0 -0.36514172279026702 -0.314674684486903 0 -0.3618047785131131 -0.32862925133304821 0 -0.37601492727600683 -0.3197696392392384 0 -0.36514172279026702 -0.314674684486903 0 -0.3618047785131131 -0.32862925133304821 0 -0.37601492727600683 -0.3197696392392384 0 -0.37651642550459341 -0.307078797330949 0 -0.36514172279026702 -0.314674684486903 0 -0.38532796161286798 -0.33163916085250739 0 -0.37024470816872912 -0.33735420154985679 0 -0.3618047785131131 -0.32862925133304821 0 -0.37024470816872912 -0.33735420154985679 0 -0.3618047785131131 -0.32862925133304821 0 -0.35359721351353718 -0.34004673108302108 0 -0.38532796161286798 -0.33163916085250739 0 -0.3618047785131131 -0.32862925133304821 0 -0.38024887903539811 -0.3491016629308506 0 -0.37024470816872912 -0.33735420154985679 0 -0.35359721351353718 -0.34004673108302108 0 -0.33828159541335823 -0.32561934181358893 0 -0.3618047785131131 -0.32862925133304821 0 -0.35359721351353718 -0.34004673108302108 0 -0.35359721351353718 -0.34004673108302108 0 -0.36247207576052709 -0.35740109745143939 0 -0.34268215104290278 -0.35797992452600158 0 -0.35359721351353718 -0.34004673108302108 0 -0.34268215104290278 -0.35797992452600158 0 -0.33765025977867152 -0.34480892108230998 0 -0.37568472164775779 -0.36524225821647011 0 -0.38024887903539811 -0.3491016629308506 0 -0.36247207576052709 -0.35740109745143939 0 -0.38024887903539811 -0.3491016629308506 0 -0.35359721351353718 -0.34004673108302108 0 -0.36247207576052709 -0.35740109745143939 0 -0.38024887903539811 -0.3491016629308506 0 -0.35359721351353718 -0.34004673108302108 0 -0.37522403377147279 -0.38060127254172499 0 -0.37568472164775779 -0.36524225821647011 0 -0.35964608014779109 -0.37334112637938882 0 -0.37568472164775779 -0.36524225821647011 0 -0.36247207576052709 -0.35740109745143939 0 -0.35964608014779109 -0.37334112637938882 0 -0.36247207576052709 -0.35740109745143939 0 -0.35964608014779109 -0.37334112637938882 0 -0.34268215104290278 -0.35797992452600158 0 -0.35964608014779109 -0.37334112637938882 0 -0.34268215104290278 -0.35797992452600158 0 -0.34254000635277743 -0.38197763020755832 0 -0.34268215104290278 -0.35797992452600158 0 -0.32737612656656928 -0.35021722948502532 0 -0.32270418411731933 -0.37181077970513959 0 -0.34268215104290278 -0.35797992452600158 0 -0.32270418411731933 -0.37181077970513959 0 -0.34254000635277743 -0.38197763020755832 0 -0.34268215104290278 -0.35797992452600158 0 -0.34254000635277743 -0.38197763020755832 0 -0.34268215104290278 -0.35797992452600158 0 -0.33765025977867152 -0.34480892108230998 0 -0.32737612656656928 -0.35021722948502532 0 -0.32737612656656928 -0.35021722948502532 0 -0.31662274924076123 -0.35606216629487569 0 -0.32270418411731933 -0.37181077970513959 0 -0.32737612656656928 -0.35021722948502532 0 -0.3170311031704231 -0.34491623006635341 0 -0.31662274924076123 -0.35606216629487569 0 -0.3170311031704231 -0.34491623006635341 0 -0.31662274924076123 -0.35606216629487569 0 -0.30902027636205309 -0.35243705172998302 0 -0.31662274924076123 -0.35606216629487569 0 -0.32270418411731933 -0.37181077970513959 0 -0.30796050174877349 -0.36016317053514468 0 -0.32270418411731933 -0.37181077970513959 0 -0.29719619905707523 -0.36594012765828582 0 -0.30796050174877349 -0.36016317053514468 0 -0.32270418411731933 -0.37181077970513959 0 -0.29719619905707523 -0.36594012765828582 0 -0.3103864423796594 -0.37828470113645102 0 -0.32270418411731933 -0.37181077970513959 0 -0.29719619905707523 -0.36594012765828582 0 -0.29719619905707523 -0.36594012765828582 0 -0.29943295026653399 -0.35953932364306618 0 -0.30796050174877349 -0.36016317053514468 0 -0.29719619905707523 -0.36594012765828582 0 -0.29584447723995128 -0.37444813956539807 0 -0.3103864423796594 -0.37828470113645102 0 -0.31662274924076123 -0.35606216629487569 0 -0.30796050174877349 -0.36016317053514468 0 -0.30902027636205309 -0.35243705172998302 0 -0.30796050174877349 -0.36016317053514468 0 -0.30902027636205309 -0.35243705172998302 0 -0.30278665144889838 -0.35518957417951802 0 -0.3170311031704231 -0.34491623006635341 0 -0.30902027636205309 -0.35243705172998302 0 -0.30849554643820359 -0.34481279163420842 0 -0.30902027636205309 -0.35243705172998302 0 -0.30849554643820359 -0.34481279163420842 0 -0.30076474035813339 -0.34759465108555682 0 -0.30849554643820359 -0.34481279163420842 0 -0.30076474035813339 -0.34759465108555682 0 -0.30398917998114899 -0.33934800480643368 0 -0.30902027636205309 -0.35243705172998302 0 -0.30076474035813339 -0.34759465108555682 0 -0.30278665144889838 -0.35518957417951802 0 -0.29943295026653399 -0.35953932364306618 0 -0.30796050174877349 -0.36016317053514468 0 -0.30278665144889838 -0.35518957417951802 0 -0.30076474035813339 -0.34759465108555682 0 -0.30278665144889838 -0.35518957417951802 0 -0.29719830368448108 -0.35301728683459582 0 -0.29943295026653399 -0.35953932364306618 0 -0.30278665144889838 -0.35518957417951802 0 -0.29719830368448108 -0.35301728683459582 0 -0.29943295026653399 -0.35953932364306618 0 -0.29719830368448108 -0.35301728683459582 0 -0.29016743694869812 -0.35649807524262711 0 -0.29016743694869812 -0.35649807524262711 0 -0.28284547851944208 -0.35047845284871731 0 -0.27168821399683141 -0.36006947561143121 0 -0.29719830368448108 -0.35301728683459582 0 -0.29016743694869812 -0.35649807524262711 0 -0.2925915294609488 -0.34919256188026188 0 -0.2925915294609488 -0.34919256188026188 0 -0.28611540962297188 -0.3426453659285974 0 -0.29619358151489988 -0.34015641309103278 0 -0.30076474035813339 -0.34759465108555682 0 -0.29719830368448108 -0.35301728683459582 0 -0.2925915294609488 -0.34919256188026188 0 -0.30076474035813339 -0.34759465108555682 0 -0.2925915294609488 -0.34919256188026188 0 -0.29619358151489988 -0.34015641309103278 0 -0.2925915294609488 -0.34919256188026188 0 -0.28284547851944208 -0.35047845284871731 0 -0.28611540962297188 -0.3426453659285974 0 -0.28284547851944208 -0.35047845284871731 0 -0.27676447355633299 -0.3457480812413124 0 -0.28611540962297188 -0.3426453659285974 0 -0.29016743694869812 -0.35649807524262711 0 -0.2925915294609488 -0.34919256188026188 0 -0.28284547851944208 -0.35047845284871731 0 -0.29202770366946113 -0.36668513997228358 0 -0.27168821399683141 -0.36006947561143121 0 -0.28307956849111848 -0.3828068929804474 0 -0.29719619905707523 -0.36594012765828582 0 -0.27168821399683141 -0.36006947561143121 0 -0.29202770366946113 -0.36668513997228358 0 -0.28307956849111848 -0.3828068929804474 0 -0.29202770366946113 -0.36668513997228358 0 -0.29584447723995128 -0.37444813956539807 0 -0.28307956849111848 -0.3828068929804474 0 -0.29719619905707523 -0.36594012765828582 0 -0.29016743694869812 -0.35649807524262711 0 -0.27168821399683141 -0.36006947561143121 0 -0.29719619905707523 -0.36594012765828582 0 -0.29202770366946113 -0.36668513997228358 0 -0.27168821399683141 -0.36006947561143121 0 -0.29719619905707523 -0.36594012765828582 0 -0.29943295026653399 -0.35953932364306618 0 -0.29016743694869812 -0.35649807524262711 0 -0.29719619905707523 -0.36594012765828582 0 -0.29202770366946113 -0.36668513997228358 0 -0.29584447723995128 -0.37444813956539807 0 -0.27168821399683141 -0.36006947561143121 0 -0.28307956849111848 -0.3828068929804474 0 -0.27168821399683141 -0.36006947561143121 0 -0.28307956849111848 -0.3828068929804474 0 -0.26050234447883253 -0.38027693877573482 0 -0.27168821399683141 -0.36006947561143121 0 -0.25721723303835431 -0.36623646057876708 0 -0.26050234447883253 -0.38027693877573482 0 -0.27168821399683141 -0.36006947561143121 0 -0.25721723303835431 -0.36623646057876708 0 -0.24850069890613241 -0.35473287875334369 0 -0.25721723303835431 -0.36623646057876708 0 -0.24817767477162081 -0.36986654917455902 0 -0.24850069890613241 -0.35473287875334369 0 -0.25721723303835431 -0.36623646057876708 0 -0.26050234447883253 -0.38027693877573482 0 -0.24817767477162081 -0.36986654917455902 0 -0.27168821399683141 -0.36006947561143121 0 -0.25445926970156468 -0.34270101061729968 0 -0.24850069890613241 -0.35473287875334369 0 -0.27168821399683141 -0.36006947561143121 0 -0.26120815563270988 -0.3391510272218049 0 -0.25445926970156468 -0.34270101061729968 0 -0.27168821399683141 -0.36006947561143121 0 -0.24850069890613241 -0.35473287875334369 0 -0.27168821399683141 -0.36006947561143121 0 -0.27676447355633299 -0.3457480812413124 0 -0.26120815563270988 -0.3391510272218049 0 -0.27168821399683141 -0.36006947561143121 0 -0.26120815563270988 -0.3391510272218049 0 -0.28284547851944208 -0.35047845284871731 0 -0.27168821399683141 -0.36006947561143121 0 -0.27676447355633299 -0.3457480812413124 0 -0.27676447355633299 -0.3457480812413124 0 -0.27858368134566353 -0.33798527866036399 0 -0.28611540962297188 -0.3426453659285974 0 -0.27676447355633299 -0.3457480812413124 0 -0.27858368134566353 -0.33798527866036399 0 -0.26120815563270988 -0.3391510272218049 0 -0.28089299200049878 -0.32879660088216478 0 -0.26120815563270988 -0.3391510272218049 0 -0.28089299200049878 -0.32879660088216478 0 -0.26120815563270988 -0.3391510272218049 0 -0.26730676106940449 -0.32685643845792262 0 -0.27858368134566353 -0.33798527866036399 0 -0.28089299200049878 -0.32879660088216478 0 -0.26120815563270988 -0.3391510272218049 0 -0.26120815563270988 -0.3391510272218049 0 -0.26057751607960811 -0.32279583566460812 0 -0.26730676106940449 -0.32685643845792262 0 -0.26120815563270988 -0.3391510272218049 0 -0.25273748935779161 -0.32224337373924072 0 -0.26120815563270988 -0.3391510272218049 0 -0.25207330520806498 -0.33378255792528982 0 -0.25273748935779161 -0.32224337373924072 0 -0.26120815563270988 -0.3391510272218049 0 -0.25445926970156468 -0.34270101061729968 0 -0.25207330520806498 -0.33378255792528982 0 -0.25445926970156468 -0.34270101061729968 0 -0.2460450098649074 -0.33743905859998191 0 -0.26120815563270988 -0.3391510272218049 0 -0.25207330520806498 -0.33378255792528982 0 -0.25445926970156468 -0.34270101061729968 0 -0.25273748935779161 -0.32224337373924072 0 -0.26050456352867191 -0.3149367065078193 0 -0.24426682308287331 -0.30533572025667649 0 -0.26120815563270988 -0.3391510272218049 0 -0.25273748935779161 -0.32224337373924072 0 -0.26057751607960811 -0.32279583566460812 0 -0.26057751607960811 -0.32279583566460812 0 -0.26050456352867191 -0.3149367065078193 0 -0.26730676106940449 -0.32685643845792262 0 -0.25273748935779161 -0.32224337373924072 0 -0.26057751607960811 -0.32279583566460812 0 -0.26050456352867191 -0.3149367065078193 0 -0.28089299200049878 -0.32879660088216478 0 -0.26050456352867191 -0.3149367065078193 0 -0.27445713665833338 -0.31633796571173628 0 -0.28089299200049878 -0.32879660088216478 0 -0.26050456352867191 -0.3149367065078193 0 -0.26050456352867191 -0.3149367065078193 0 -0.27445713665833338 -0.31633796571173628 0 -0.26793999894844561 -0.31004618489902153 0 -0.28089299200049878 -0.32879660088216478 0 -0.26050456352867191 -0.3149367065078193 0 -0.26730676106940449 -0.32685643845792262 0 -0.28089299200049878 -0.32879660088216478 0 -0.27445713665833338 -0.31633796571173628 0 -0.28125105682705043 -0.31976055402590231 0 -0.27445713665833338 -0.31633796571173628 0 -0.28252008875028978 -0.31254235777143202 0 -0.28125105682705043 -0.31976055402590231 0 -0.28252008875028978 -0.31254235777143202 0 -0.28823329624350208 -0.31711313423980658 0 -0.29327146190654751 -0.30876504511160502 0 -0.28089299200049878 -0.32879660088216478 0 -0.28823329624350208 -0.31711313423980658 0 -0.30327184377803978 -0.31702509473566581 0 -0.28089299200049878 -0.32879660088216478 0 -0.29457520052377689 -0.33013191680287202 0 -0.30327184377803978 -0.31702509473566581 0 -0.28089299200049878 -0.32879660088216478 0 -0.30327184377803978 -0.31702509473566581 0 -0.28252008875028978 -0.31254235777143202 0 -0.28125105682705043 -0.31976055402590231 0 -0.28823329624350208 -0.31711313423980658 0 -0.28823329624350208 -0.31711313423980658 0 -0.30327184377803978 -0.31702509473566581 0 -0.29327146190654751 -0.30876504511160502 0 -0.28089299200049878 -0.32879660088216478 0 -0.28125105682705043 -0.31976055402590231 0 -0.28823329624350208 -0.31711313423980658 0 -0.28089299200049878 -0.32879660088216478 0 -0.28793737591580382 -0.33358531802794061 0 -0.27858368134566353 -0.33798527866036399 0 -0.28089299200049878 -0.32879660088216478 0 -0.28793737591580382 -0.33358531802794061 0 -0.28089299200049878 -0.32879660088216478 0 -0.28793737591580382 -0.33358531802794061 0 -0.29457520052377689 -0.33013191680287202 0 -0.27858368134566353 -0.33798527866036399 0 -0.28793737591580382 -0.33358531802794061 0 -0.28611540962297188 -0.3426453659285974 0 -0.28793737591580382 -0.33358531802794061 0 -0.28611540962297188 -0.3426453659285974 0 -0.29619358151489988 -0.34015641309103278 0 -0.28793737591580382 -0.33358531802794061 0 -0.29619358151489988 -0.34015641309103278 0 -0.29457520052377689 -0.33013191680287202 0 -0.29619358151489988 -0.34015641309103278 0 -0.29457520052377689 -0.33013191680287202 0 -0.30458020940964259 -0.3310961572775562 0 -0.30076474035813339 -0.34759465108555682 0 -0.29619358151489988 -0.34015641309103278 0 -0.30398917998114899 -0.33934800480643368 0 -0.29619358151489988 -0.34015641309103278 0 -0.30458020940964259 -0.3310961572775562 0 -0.30398917998114899 -0.33934800480643368 0 -0.31372637242327511 -0.33497634201883658 0 -0.30849554643820359 -0.34481279163420842 0 -0.30398917998114899 -0.33934800480643368 0 -0.31475841231360341 -0.32260943229412947 0 -0.31372637242327511 -0.33497634201883658 0 -0.30458020940964259 -0.3310961572775562 0 -0.31372637242327511 -0.33497634201883658 0 -0.30458020940964259 -0.3310961572775562 0 -0.30398917998114899 -0.33934800480643368 0 -0.31475841231360341 -0.32260943229412947 0 -0.30458020940964259 -0.3310961572775562 0 -0.30327184377803978 -0.31702509473566581 0 -0.29457520052377689 -0.33013191680287202 0 -0.30458020940964259 -0.3310961572775562 0 -0.30327184377803978 -0.31702509473566581 0 -0.30327184377803978 -0.31702509473566581 0 -0.30068554560480582 -0.30112982209441241 0 -0.31228269981280887 -0.29918463989613459 0 -0.30327184377803978 -0.31702509473566581 0 -0.30068554560480582 -0.30112982209441241 0 -0.29327146190654751 -0.30876504511160502 0 -0.30068554560480582 -0.30112982209441241 0 -0.30483638085835207 -0.28788342401786787 0 -0.28888361246081401 -0.29493054457851903 0 -0.30068554560480582 -0.30112982209441241 0 -0.31228269981280887 -0.29918463989613459 0 -0.30483638085835207 -0.28788342401786787 0 -0.28888361246081401 -0.29493054457851903 0 -0.28078806465599399 -0.28300047521785149 0 -0.29451735460655398 -0.27472288856989607 0 -0.30483638085835207 -0.28788342401786787 0 -0.28888361246081401 -0.29493054457851903 0 -0.29451735460655398 -0.27472288856989607 0 -0.28888361246081401 -0.29493054457851903 0 -0.28295382644196537 -0.3038897035906043 0 -0.27388309143310768 -0.29511411685975181 0 -0.28888361246081401 -0.29493054457851903 0 -0.28295382644196537 -0.3038897035906043 0 -0.29327146190654751 -0.30876504511160502 0 -0.30068554560480582 -0.30112982209441241 0 -0.28888361246081401 -0.29493054457851903 0 -0.29327146190654751 -0.30876504511160502 0 -0.28252008875028978 -0.31254235777143202 0 -0.28295382644196537 -0.3038897035906043 0 -0.29327146190654751 -0.30876504511160502 0 -0.27445713665833338 -0.31633796571173628 0 -0.28252008875028978 -0.31254235777143202 0 -0.27524002690986649 -0.30828041126704497 0 -0.28252008875028978 -0.31254235777143202 0 -0.28295382644196537 -0.3038897035906043 0 -0.27524002690986649 -0.30828041126704497 0 -0.28295382644196537 -0.3038897035906043 0 -0.27524002690986649 -0.30828041126704497 0 -0.27388309143310768 -0.29511411685975181 0 -0.26808679199009749 -0.30362992927208171 0 -0.26252268864995981 -0.29761987486456531 0 -0.27388309143310768 -0.29511411685975181 0 -0.27524002690986649 -0.30828041126704497 0 -0.26808679199009749 -0.30362992927208171 0 -0.27388309143310768 -0.29511411685975181 0 -0.27445713665833338 -0.31633796571173628 0 -0.27524002690986649 -0.30828041126704497 0 -0.26793999894844561 -0.31004618489902153 0 -0.27524002690986649 -0.30828041126704497 0 -0.26808679199009749 -0.30362992927208171 0 -0.26793999894844561 -0.31004618489902153 0 -0.26808679199009749 -0.30362992927208171 0 -0.26793999894844561 -0.31004618489902153 0 -0.26278193746552841 -0.30551063084933561 0 -0.26050456352867191 -0.3149367065078193 0 -0.25485564421046719 -0.30132045870319019 0 -0.24011613505684479 -0.30107681213347393 0 -0.26050456352867191 -0.3149367065078193 0 -0.24011613505684479 -0.30107681213347393 0 -0.26050456352867191 -0.3149367065078193 0 -0.26278193746552841 -0.30551063084933561 0 -0.25485564421046719 -0.30132045870319019 0 -0.26050456352867191 -0.3149367065078193 0 -0.26793999894844561 -0.31004618489902153 0 -0.26278193746552841 -0.30551063084933561 0 -0.26278193746552841 -0.30551063084933561 0 -0.26252268864995981 -0.29761987486456531 0 -0.25485564421046719 -0.30132045870319019 0 -0.26252268864995981 -0.29761987486456531 0 -0.25485564421046719 -0.30132045870319019 0 -0.2567143935458242 -0.29223768812186002 0 -0.26808679199009749 -0.30362992927208171 0 -0.26278193746552841 -0.30551063084933561 0 -0.26252268864995981 -0.29761987486456531 0 -0.25608276685525683 -0.28295324223861612 0 -0.2567143935458242 -0.29223768812186002 0 -0.24732420154209239 -0.29033586459568173 0 -0.25485564421046719 -0.30132045870319019 0 -0.2567143935458242 -0.29223768812186002 0 -0.24732420154209239 -0.29033586459568173 0 -0.26252268864995981 -0.29761987486456531 0 -0.2567143935458242 -0.29223768812186002 0 -0.26350989061834318 -0.28909490770035701 0 -0.25608276685525683 -0.28295324223861612 0 -0.26350989061834318 -0.28909490770035701 0 -0.26907982973782107 -0.2804670883869903 0 -0.25608276685525683 -0.28295324223861612 0 -0.2567143935458242 -0.29223768812186002 0 -0.26350989061834318 -0.28909490770035701 0 -0.26350989061834318 -0.28909490770035701 0 -0.27388309143310768 -0.29511411685975181 0 -0.26907982973782107 -0.2804670883869903 0 -0.26252268864995981 -0.29761987486456531 0 -0.26350989061834318 -0.28909490770035701 0 -0.27388309143310768 -0.29511411685975181 0 -0.28888361246081401 -0.29493054457851903 0 -0.27388309143310768 -0.29511411685975181 0 -0.28078806465599399 -0.28300047521785149 0 -0.27388309143310768 -0.29511411685975181 0 -0.28078806465599399 -0.28300047521785149 0 -0.26907982973782107 -0.2804670883869903 0 -0.27772768471542669 -0.26767482265106679 0 -0.26907982973782107 -0.2804670883869903 0 -0.25958550566062261 -0.27102626557679149 0 -0.28078806465599399 -0.28300047521785149 0 -0.27772768471542669 -0.26767482265106679 0 -0.26907982973782107 -0.2804670883869903 0 -0.25608276685525683 -0.28295324223861612 0 -0.26907982973782107 -0.2804670883869903 0 -0.25958550566062261 -0.27102626557679149 0 -0.25608276685525683 -0.28295324223861612 0 -0.25958550566062261 -0.27102626557679149 0 -0.2444485511135471 -0.27534046621033159 0 -0.26398002587916253 -0.25656090854441049 0 -0.24465976002352091 -0.25387891845332877 0 -0.25992972331208369 -0.2410680052130979 0 -0.25958550566062261 -0.27102626557679149 0 -0.26398002587916253 -0.25656090854441049 0 -0.24465976002352091 -0.25387891845332877 0 -0.27772768471542669 -0.26767482265106679 0 -0.26398002587916253 -0.25656090854441049 0 -0.27722523139620658 -0.24922189107985179 0 -0.27772768471542669 -0.26767482265106679 0 -0.25958550566062261 -0.27102626557679149 0 -0.26398002587916253 -0.25656090854441049 0 -0.27772768471542669 -0.26767482265106679 0 -0.29131753467172561 -0.25675805269722002 0 -0.27722523139620658 -0.24922189107985179 0 -0.28078806465599399 -0.28300047521785149 0 -0.27772768471542669 -0.26767482265106679 0 -0.29451735460655398 -0.27472288856989607 0 -0.27772768471542669 -0.26767482265106679 0 -0.29131753467172561 -0.25675805269722002 0 -0.29451735460655398 -0.27472288856989607 0 -0.31319680135340772 -0.27337899374224139 0 -0.29451735460655398 -0.27472288856989607 0 -0.30564385326437488 -0.26015983685037081 0 -0.31319680135340772 -0.27337899374224139 0 -0.30483638085835207 -0.28788342401786787 0 -0.29451735460655398 -0.27472288856989607 0 -0.29131753467172561 -0.25675805269722002 0 -0.29451735460655398 -0.27472288856989607 0 -0.30564385326437488 -0.26015983685037081 0 -0.29131753467172561 -0.25675805269722002 0 -0.30564385326437488 -0.26015983685037081 0 -0.30769212114973271 -0.24578220261295139 0 -0.31968345090478489 -0.25798973640781447 0 -0.30564385326437488 -0.26015983685037081 0 -0.30769212114973271 -0.24578220261295139 0 -0.34207866423036198 -0.45986413066326443 0 -0.33141508850449702 -0.45187214799378478 0 -0.32594289259428999 -0.46085836632795257 0 -0.34207866423036198 -0.45986413066326443 0 -0.32594289259428999 -0.46085836632795257 0 -0.33264581849560632 -0.47431014716802089 0 -0.34207866423036198 -0.45986413066326443 0 -0.34225571697252682 -0.42997304157067162 0 -0.34207866423036198 -0.45986413066326443 0 -0.33358626016413989 -0.44229992863572659 0 -0.33141508850449702 -0.45187214799378478 0 -0.34207866423036198 -0.45986413066326443 0 -0.33358626016413989 -0.44229992863572659 0 -0.34225571697252682 -0.42997304157067162 0 -0.33358626016413989 -0.44229992863572659 0 -0.33141508850449702 -0.45187214799378478 0 -0.32300139100864811 -0.44723989508536771 0 -0.33358626016413989 -0.44229992863572659 0 -0.32300139100864811 -0.44723989508536771 0 -0.32413493920603592 -0.43586432580396972 0 -0.32300139100864811 -0.44723989508536771 0 -0.31385630152515048 -0.44199725430357722 0 -0.32413493920603592 -0.43586432580396972 0 -0.32300139100864811 -0.44723989508536771 0 -0.31385630152515048 -0.44199725430357722 0 -0.31044958537109257 -0.45255960714027171 0 -0.32594289259428999 -0.46085836632795257 0 -0.31333683559556219 -0.46686726284272168 0 -0.31044958537109257 -0.45255960714027171 0 -0.32594289259428999 -0.46085836632795257 0 -0.31333683559556219 -0.46686726284272168 0 -0.32224857144892449 -0.47649828689453749 0 -0.32300139100864811 -0.44723989508536771 0 -0.32594289259428999 -0.46085836632795257 0 -0.31044958537109257 -0.45255960714027171 0 -0.33141508850449702 -0.45187214799378478 0 -0.32300139100864811 -0.44723989508536771 0 -0.32594289259428999 -0.46085836632795257 0 -0.31333683559556219 -0.46686726284272168 0 -0.32224857144892449 -0.47649828689453749 0 -0.30503152439861497 -0.48190266549989857 0 -0.32224857144892449 -0.47649828689453749 0 -0.32279626626388608 -0.48781718170045291 0 -0.30503152439861497 -0.48190266549989857 0 -0.32594289259428999 -0.46085836632795257 0 -0.32224857144892449 -0.47649828689453749 0 -0.33264581849560632 -0.47431014716802089 0 -0.32224857144892449 -0.47649828689453749 0 -0.32279626626388608 -0.48781718170045291 0 -0.33105735271625752 -0.4845747321984929 0 -0.32006214434654462 -0.5 0 -0.32279626626388608 -0.48781718170045291 0 -0.30503152439861497 -0.48190266549989857 0 -0.32006214434654462 -0.5 0 -0.32279626626388608 -0.48781718170045291 0 -0.33558173840908911 -0.49611022390933512 0 -0.32006214434654462 -0.5 0 -0.33558173840908911 -0.49611022390933512 0 -0.34657288766042038 -0.5 0 -0.33558173840908911 -0.49611022390933512 0 -0.34190161148819742 -0.48975521975585701 0 -0.35306908662498632 -0.4951847935385878 0 -0.32279626626388608 -0.48781718170045291 0 -0.33558173840908911 -0.49611022390933512 0 -0.33105735271625752 -0.4845747321984929 0 -0.33558173840908911 -0.49611022390933512 0 -0.33105735271625752 -0.4845747321984929 0 -0.34190161148819742 -0.48975521975585701 0 -0.34207866423036198 -0.45986413066326443 0 -0.34190161148819742 -0.48975521975585701 0 -0.34207866423036198 -0.45986413066326443 0 -0.34190161148819742 -0.48975521975585701 0 -0.33264581849560632 -0.47431014716802089 0 -0.33105735271625752 -0.4845747321984929 0 -0.34190161148819742 -0.48975521975585701 0 -0.33264581849560632 -0.47431014716802089 0 -0.32224857144892449 -0.47649828689453749 0 -0.33105735271625752 -0.4845747321984929 0 -0.33264581849560632 -0.47431014716802089 0 -0.34190161148819742 -0.48975521975585701 0 -0.35001641252228072 -0.47142734906239081 0 -0.35328963507943428 -0.48328499015431992 0 -0.34207866423036198 -0.45986413066326443 0 -0.34190161148819742 -0.48975521975585701 0 -0.35001641252228072 -0.47142734906239081 0 -0.35328963507943428 -0.48328499015431992 0 -0.35950950469085041 -0.48638993404071668 0 -0.36112286221809747 -0.47283058930211808 0 -0.35001641252228072 -0.47142734906239081 0 -0.35328963507943428 -0.48328499015431992 0 -0.36112286221809747 -0.47283058930211808 0 -0.33558173840908911 -0.49611022390933512 0 -0.35306908662498632 -0.4951847935385878 0 -0.33558173840908911 -0.49611022390933512 0 -0.34657288766042038 -0.5 0 -0.35306908662498632 -0.4951847935385878 0 -0.34657288766042038 -0.5 0 -0.35306908662498632 -0.4951847935385878 0 -0.37308363097429631 -0.50000000000000244 0 -0.34190161148819742 -0.48975521975585701 0 -0.35328963507943428 -0.48328499015431992 0 -0.35306908662498632 -0.4951847935385878 0 -0.35328963507943428 -0.48328499015431992 0 -0.35306908662498632 -0.4951847935385878 0 -0.35950950469085041 -0.48638993404071668 0 -0.35306908662498632 -0.4951847935385878 0 -0.35950950469085041 -0.48638993404071668 0 -0.37055643484088358 -0.49425936316784103 0 -0.35306908662498632 -0.4951847935385878 0 -0.37055643484088358 -0.49425936316784103 0 -0.35950950469085041 -0.48638993404071668 0 -0.37055643484088358 -0.49425936316784103 0 -0.36112286221809747 -0.47283058930211808 0 -0.35306908662498632 -0.4951847935385878 0 -0.37055643484088358 -0.49425936316784103 0 -0.37308363097429631 -0.50000000000000244 0 -0.37055643484088358 -0.49425936316784103 0 -0.37308363097429631 -0.50000000000000244 0 -0.38039451612360919 -0.47713749807852829 0 -0.37055643484088358 -0.49425936316784103 0 -0.36112286221809747 -0.47283058930211808 0 -0.37055643484088358 -0.49425936316784103 0 -0.36112286221809747 -0.47283058930211808 0 -0.38039451612360919 -0.47713749807852829 0 -0.36112286221809747 -0.47283058930211808 0 -0.37415472949075129 -0.45946062715310632 0 -0.37415472949075129 -0.45946062715310632 0 -0.3629811744391212 -0.45722253899736259 0 -0.36406731613876331 -0.44506275929787698 0 -0.36112286221809747 -0.47283058930211808 0 -0.37415472949075129 -0.45946062715310632 0 -0.3629811744391212 -0.45722253899736259 0 -0.36112286221809747 -0.47283058930211808 0 -0.3629811744391212 -0.45722253899736259 0 -0.35168928959531232 -0.4514018154363949 0 -0.36112286221809747 -0.47283058930211808 0 -0.35168928959531232 -0.4514018154363949 0 -0.35001641252228072 -0.47142734906239081 0 -0.36112286221809747 -0.47283058930211808 0 -0.35168928959531232 -0.4514018154363949 0 -0.34207866423036198 -0.45986413066326443 0 -0.35001641252228072 -0.47142734906239081 0 -0.35168928959531232 -0.4514018154363949 0 -0.35168928959531232 -0.4514018154363949 0 -0.34225571697252682 -0.42997304157067162 0 -0.35168928959531232 -0.4514018154363949 0 -0.36406731613876331 -0.44506275929787698 0 -0.34225571697252682 -0.42997304157067162 0 -0.34207866423036198 -0.45986413066326443 0 -0.35168928959531232 -0.4514018154363949 0 -0.34225571697252682 -0.42997304157067162 0 -0.38339996822118783 -0.44368928783448319 0 -0.36406731613876331 -0.44506275929787698 0 -0.36866352395763108 -0.4313760290561211 0 -0.38339996822118783 -0.44368928783448319 0 -0.37415472949075129 -0.45946062715310632 0 -0.36406731613876331 -0.44506275929787698 0 -0.3629811744391212 -0.45722253899736259 0 -0.35168928959531232 -0.4514018154363949 0 -0.36406731613876331 -0.44506275929787698 0 -0.38131756488089769 -0.42670085612339947 0 -0.36866352395763108 -0.4313760290561211 0 -0.36377437909963828 -0.41972983174959272 0 -0.38704143117499401 -0.40999023144455299 0 -0.3575105341832589 -0.40691374405003478 0 -0.38704143117499401 -0.40999023144455299 0 -0.36377437909963828 -0.41972983174959272 0 -0.3575105341832589 -0.40691374405003478 0 -0.35062038894632092 -0.41624612172537079 0 -0.34239786166265201 -0.40597533588911489 0 -0.34225571697252682 -0.42997304157067162 0 -0.36377437909963828 -0.41972983174959272 0 -0.3575105341832589 -0.40691374405003478 0 -0.35062038894632092 -0.41624612172537079 0 -0.3575105341832589 -0.40691374405003478 0 -0.35062038894632092 -0.41624612172537079 0 -0.34239786166265201 -0.40597533588911489 0 -0.36406731613876331 -0.44506275929787698 0 -0.36866352395763108 -0.4313760290561211 0 -0.34225571697252682 -0.42997304157067162 0 -0.36866352395763108 -0.4313760290561211 0 -0.36377437909963828 -0.41972983174959272 0 -0.34225571697252682 -0.42997304157067162 0 -0.36377437909963828 -0.41972983174959272 0 -0.35062038894632092 -0.41624612172537079 0 -0.34225571697252682 -0.42997304157067162 0 -0.37522403377147279 -0.38060127254172499 0 -0.37464038230528551 -0.396492613407532 0 -0.35879027536972019 -0.3891835699585654 0 -0.37522403377147279 -0.38060127254172499 0 -0.35964608014779109 -0.37334112637938882 0 -0.35879027536972019 -0.3891835699585654 0 -0.38704143117499401 -0.40999023144455299 0 -0.3575105341832589 -0.40691374405003478 0 -0.37464038230528551 -0.396492613407532 0 -0.3575105341832589 -0.40691374405003478 0 -0.37464038230528551 -0.396492613407532 0 -0.35879027536972019 -0.3891835699585654 0 -0.3575105341832589 -0.40691374405003478 0 -0.35030966939210212 -0.39601257002631829 0 -0.35879027536972019 -0.3891835699585654 0 -0.35030966939210212 -0.39601257002631829 0 -0.34254000635277743 -0.38197763020755832 0 -0.34239786166265201 -0.40597533588911489 0 -0.3575105341832589 -0.40691374405003478 0 -0.35030966939210212 -0.39601257002631829 0 -0.34239786166265201 -0.40597533588911489 0 -0.35964608014779109 -0.37334112637938882 0 -0.35879027536972019 -0.3891835699585654 0 -0.34254000635277743 -0.38197763020755832 0 -0.35030966939210212 -0.39601257002631829 0 -0.35879027536972019 -0.3891835699585654 0 -0.34254000635277743 -0.38197763020755832 0 -0.32270418411731933 -0.37181077970513959 0 -0.34254000635277743 -0.38197763020755832 0 -0.32435131947256218 -0.38428518727128619 0 -0.34254000635277743 -0.38197763020755832 0 -0.33211028503505757 -0.39455092735479258 0 -0.32435131947256218 -0.38428518727128619 0 -0.34254000635277743 -0.38197763020755832 0 -0.33211028503505757 -0.39455092735479258 0 -0.34239786166265201 -0.40597533588911489 0 -0.34254000635277743 -0.38197763020755832 0 -0.34239786166265201 -0.40597533588911489 0 -0.33211028503505757 -0.39455092735479258 0 -0.32627218782356721 -0.40254155632103228 0 -0.33325599186729038 -0.40952977136485508 0 -0.33211028503505757 -0.39455092735479258 0 -0.34239786166265201 -0.40597533588911489 0 -0.33325599186729038 -0.40952977136485508 0 -0.32627218782356721 -0.40254155632103228 0 -0.31778611784491262 -0.39429551077659458 0 -0.31836523457261151 -0.40628576827473822 0 -0.31778611784491262 -0.39429551077659458 0 -0.31836523457261151 -0.40628576827473822 0 -0.30856762168503782 -0.40330407176644772 0 -0.33211028503505757 -0.39455092735479258 0 -0.32627218782356721 -0.40254155632103228 0 -0.31778611784491262 -0.39429551077659458 0 -0.33211028503505757 -0.39455092735479258 0 -0.31778611784491262 -0.39429551077659458 0 -0.32435131947256218 -0.38428518727128619 0 -0.31778611784491262 -0.39429551077659458 0 -0.32435131947256218 -0.38428518727128619 0 -0.3103864423796594 -0.37828470113645102 0 -0.32270418411731933 -0.37181077970513959 0 -0.32435131947256218 -0.38428518727128619 0 -0.3103864423796594 -0.37828470113645102 0 -0.34225571697252682 -0.42997304157067162 0 -0.32127707919304882 -0.42450406978857058 0 -0.32413493920603592 -0.43586432580396972 0 -0.33358626016413989 -0.44229992863572659 0 -0.34225571697252682 -0.42997304157067162 0 -0.32413493920603592 -0.43586432580396972 0 -0.34225571697252682 -0.42997304157067162 0 -0.32547848823970138 -0.41505510354763547 0 -0.32127707919304882 -0.42450406978857058 0 -0.34225571697252682 -0.42997304157067162 0 -0.33325599186729038 -0.40952977136485508 0 -0.34239786166265201 -0.40597533588911489 0 -0.34225571697252682 -0.42997304157067162 0 -0.34225571697252682 -0.42997304157067162 0 -0.33325599186729038 -0.40952977136485508 0 -0.32547848823970138 -0.41505510354763547 0 -0.34239786166265201 -0.40597533588911489 0 -0.34225571697252682 -0.42997304157067162 0 -0.33325599186729038 -0.40952977136485508 0 -0.32627218782356721 -0.40254155632103228 0 -0.33325599186729038 -0.40952977136485508 0 -0.32547848823970138 -0.41505510354763547 0 -0.32547848823970138 -0.41505510354763547 0 -0.3149711123139971 -0.41411215899080989 0 -0.32127707919304882 -0.42450406978857058 0 -0.32627218782356721 -0.40254155632103228 0 -0.32547848823970138 -0.41505510354763547 0 -0.31836523457261151 -0.40628576827473822 0 -0.32547848823970138 -0.41505510354763547 0 -0.31836523457261151 -0.40628576827473822 0 -0.3149711123139971 -0.41411215899080989 0 -0.31836523457261151 -0.40628576827473822 0 -0.3149711123139971 -0.41411215899080989 0 -0.30856762168503782 -0.40330407176644772 0 -0.3149711123139971 -0.41411215899080989 0 -0.32127707919304882 -0.42450406978857058 0 -0.31068047406536009 -0.42124040027518911 0 -0.32127707919304882 -0.42450406978857058 0 -0.31073004788055869 -0.43167813375356229 0 -0.31068047406536009 -0.42124040027518911 0 -0.32127707919304882 -0.42450406978857058 0 -0.32413493920603592 -0.43586432580396972 0 -0.31073004788055869 -0.43167813375356229 0 -0.31385630152515048 -0.44199725430357722 0 -0.32413493920603592 -0.43586432580396972 0 -0.31073004788055869 -0.43167813375356229 0 -0.31073004788055869 -0.43167813375356229 0 -0.29829421210859891 -0.43220714453990322 0 -0.30286215921622678 -0.44210958888768459 0 -0.31073004788055869 -0.43167813375356229 0 -0.29829421210859891 -0.43220714453990322 0 -0.30293836312512551 -0.42244552438862548 0 -0.29829421210859891 -0.43220714453990322 0 -0.30293836312512551 -0.42244552438862548 0 -0.29038846928103268 -0.42353273433611682 0 -0.31073004788055869 -0.43167813375356229 0 -0.30293836312512551 -0.42244552438862548 0 -0.31068047406536009 -0.42124040027518911 0 -0.3149711123139971 -0.41411215899080989 0 -0.31068047406536009 -0.42124040027518911 0 -0.30545777612822328 -0.41428354029227837 0 -0.30293836312512551 -0.42244552438862548 0 -0.31068047406536009 -0.42124040027518911 0 -0.30545777612822328 -0.41428354029227837 0 -0.3149711123139971 -0.41411215899080989 0 -0.30545777612822328 -0.41428354029227837 0 -0.30856762168503782 -0.40330407176644772 0 -0.30545777612822328 -0.41428354029227837 0 -0.30856762168503782 -0.40330407176644772 0 -0.30079847364115991 -0.40578130343003371 0 -0.30545777612822328 -0.41428354029227837 0 -0.2987732092282892 -0.41413177709842958 0 -0.30079847364115991 -0.40578130343003371 0 -0.30293836312512551 -0.42244552438862548 0 -0.2987732092282892 -0.41413177709842958 0 -0.29038846928103268 -0.42353273433611682 0 -0.30293836312512551 -0.42244552438862548 0 -0.2987732092282892 -0.41413177709842958 0 -0.30293836312512551 -0.42244552438862548 0 -0.30545777612822328 -0.41428354029227837 0 -0.2987732092282892 -0.41413177709842958 0 -0.30545777612822328 -0.41428354029227837 0 -0.2987732092282892 -0.41413177709842958 0 -0.2987732092282892 -0.41413177709842958 0 -0.29092638885970451 -0.39846933503943821 0 -0.2987732092282892 -0.41413177709842958 0 -0.28243901841779939 -0.41376093348156762 0 -0.29092638885970451 -0.39846933503943821 0 -0.2987732092282892 -0.41413177709842958 0 -0.28243901841779939 -0.41376093348156762 0 -0.29038846928103268 -0.42353273433611682 0 -0.2987732092282892 -0.41413177709842958 0 -0.28243901841779939 -0.41376093348156762 0 -0.28243901841779939 -0.41376093348156762 0 -0.29038846928103268 -0.42353273433611682 0 -0.27500508569675858 -0.42792788340523652 0 -0.29038846928103268 -0.42353273433611682 0 -0.27500508569675858 -0.42792788340523652 0 -0.28620792983366777 -0.44117103379144762 0 -0.29829421210859891 -0.43220714453990322 0 -0.29038846928103268 -0.42353273433611682 0 -0.28620792983366777 -0.44117103379144762 0 -0.31778611784491262 -0.39429551077659458 0 -0.3103864423796594 -0.37828470113645102 0 -0.30424293331838692 -0.39073887816822978 0 -0.29584447723995128 -0.37444813956539807 0 -0.29713407365637251 -0.38186722723828942 0 -0.3103864423796594 -0.37828470113645102 0 -0.29713407365637251 -0.38186722723828942 0 -0.30424293331838692 -0.39073887816822978 0 -0.29406976999373469 -0.38920344929064732 0 -0.29713407365637251 -0.38186722723828942 0 -0.3103864423796594 -0.37828470113645102 0 -0.30424293331838692 -0.39073887816822978 0 -0.29998863005712628 -0.39809616774203599 0 -0.30424293331838692 -0.39073887816822978 0 -0.30856762168503782 -0.40330407176644772 0 -0.29998863005712628 -0.39809616774203599 0 -0.30424293331838692 -0.39073887816822978 0 -0.29406976999373469 -0.38920344929064732 0 -0.31778611784491262 -0.39429551077659458 0 -0.30424293331838692 -0.39073887816822978 0 -0.30856762168503782 -0.40330407176644772 0 -0.29998863005712628 -0.39809616774203599 0 -0.30079847364115991 -0.40578130343003371 0 -0.29092638885970451 -0.39846933503943821 0 -0.29998863005712628 -0.39809616774203599 0 -0.30856762168503782 -0.40330407176644772 0 -0.30079847364115991 -0.40578130343003371 0 -0.2987732092282892 -0.41413177709842958 0 -0.30079847364115991 -0.40578130343003371 0 -0.29092638885970451 -0.39846933503943821 0 -0.29092638885970451 -0.39846933503943821 0 -0.28307956849111848 -0.3828068929804474 0 -0.29092638885970451 -0.39846933503943821 0 -0.28307956849111848 -0.3828068929804474 0 -0.27459219804921331 -0.39809849142257658 0 -0.28243901841779939 -0.41376093348156762 0 -0.29092638885970451 -0.39846933503943821 0 -0.27459219804921331 -0.39809849142257658 0 -0.29998863005712628 -0.39809616774203599 0 -0.29092638885970451 -0.39846933503943821 0 -0.29406976999373469 -0.38920344929064732 0 -0.29092638885970451 -0.39846933503943821 0 -0.29406976999373469 -0.38920344929064732 0 -0.28307956849111848 -0.3828068929804474 0 -0.29713407365637251 -0.38186722723828942 0 -0.29406976999373469 -0.38920344929064732 0 -0.28307956849111848 -0.3828068929804474 0 -0.29584447723995128 -0.37444813956539807 0 -0.29713407365637251 -0.38186722723828942 0 -0.28307956849111848 -0.3828068929804474 0 -0.28307956849111848 -0.3828068929804474 0 -0.27459219804921331 -0.39809849142257658 0 -0.26050234447883253 -0.38027693877573482 0 -0.28307956849111848 -0.3828068929804474 0 -0.27459219804921331 -0.39809849142257658 0 -0.27459219804921331 -0.39809849142257658 0 -0.26610482760730952 -0.4133900898647066 0 -0.27459219804921331 -0.39809849142257658 0 -0.26088670843651829 -0.40068536336094251 0 -0.26610482760730952 -0.4133900898647066 0 -0.26088670843651829 -0.40068536336094251 0 -0.26050234447883253 -0.38027693877573482 0 -0.2487824818667288 -0.3954643368039899 0 -0.27459219804921331 -0.39809849142257658 0 -0.26088670843651829 -0.40068536336094251 0 -0.26050234447883253 -0.38027693877573482 0 -0.26088670843651829 -0.40068536336094251 0 -0.24694430377570939 -0.41295507854145541 0 -0.2487824818667288 -0.3954643368039899 0 -0.27500508569675858 -0.42792788340523652 0 -0.25298523514652932 -0.43702750984159111 0 -0.27028712802556781 -0.44002206955302048 0 -0.27500508569675858 -0.42792788340523652 0 -0.27028712802556781 -0.44002206955302048 0 -0.28620792983366777 -0.44117103379144762 0 -0.28243901841779939 -0.41376093348156762 0 -0.27500508569675858 -0.42792788340523652 0 -0.26610482760730952 -0.4133900898647066 0 -0.28243901841779939 -0.41376093348156762 0 -0.27459219804921331 -0.39809849142257658 0 -0.26610482760730952 -0.4133900898647066 0 -0.28243901841779939 -0.41376093348156762 0 -0.26610482760730952 -0.4133900898647066 0 -0.26610482760730952 -0.4133900898647066 0 -0.24694430377570939 -0.41295507854145541 0 -0.26610482760730952 -0.4133900898647066 0 -0.25298523514652932 -0.43702750984159111 0 -0.24694430377570939 -0.41295507854145541 0 -0.26088670843651829 -0.40068536336094251 0 -0.26610482760730952 -0.4133900898647066 0 -0.24694430377570939 -0.41295507854145541 0 -0.27500508569675858 -0.42792788340523652 0 -0.26610482760730952 -0.4133900898647066 0 -0.25298523514652932 -0.43702750984159111 0 -0.26610482760730952 -0.4133900898647066 0 -0.25298523514652932 -0.43702750984159111 0 -0.25298523514652932 -0.43702750984159111 0 -0.25823473398406083 -0.46259190486934387 0 -0.27139768853026319 -0.45350369328431828 0 -0.25298523514652932 -0.43702750984159111 0 -0.27139768853026319 -0.45350369328431828 0 -0.27028712802556781 -0.44002206955302048 0 -0.25298523514652932 -0.43702750984159111 0 -0.25823473398406083 -0.46259190486934387 0 -0.2398656426857485 -0.46066492981847512 0 -0.27139768853026319 -0.45350369328431828 0 -0.28665438526504589 -0.45880473289459528 0 -0.27499686831673542 -0.4693274569635677 0 -0.25823473398406083 -0.46259190486934387 0 -0.27139768853026319 -0.45350369328431828 0 -0.27499686831673542 -0.4693274569635677 0 -0.27139768853026319 -0.45350369328431828 0 -0.27028712802556781 -0.44002206955302048 0 -0.28620792983366777 -0.44117103379144762 0 -0.28620792983366777 -0.44117103379144762 0 -0.29665932401628559 -0.4519210782245337 0 -0.28665438526504589 -0.45880473289459528 0 -0.28620792983366777 -0.44117103379144762 0 -0.29665932401628559 -0.4519210782245337 0 -0.30286215921622678 -0.44210958888768459 0 -0.27139768853026319 -0.45350369328431828 0 -0.28620792983366777 -0.44117103379144762 0 -0.28665438526504589 -0.45880473289459528 0 -0.29829421210859891 -0.43220714453990322 0 -0.28620792983366777 -0.44117103379144762 0 -0.30286215921622678 -0.44210958888768459 0 -0.28665438526504589 -0.45880473289459528 0 -0.28928475434474438 -0.47221518125428918 0 -0.27499686831673542 -0.4693274569635677 0 -0.28665438526504589 -0.45880473289459528 0 -0.30029558254474148 -0.46389675841394568 0 -0.28928475434474438 -0.47221518125428918 0 -0.29665932401628559 -0.4519210782245337 0 -0.28665438526504589 -0.45880473289459528 0 -0.30029558254474148 -0.46389675841394568 0 -0.29665932401628559 -0.4519210782245337 0 -0.30029558254474148 -0.46389675841394568 0 -0.31044958537109257 -0.45255960714027171 0 -0.31333683559556219 -0.46686726284272168 0 -0.30029558254474148 -0.46389675841394568 0 -0.31044958537109257 -0.45255960714027171 0 -0.31385630152515048 -0.44199725430357722 0 -0.31044958537109257 -0.45255960714027171 0 -0.30286215921622678 -0.44210958888768459 0 -0.31385630152515048 -0.44199725430357722 0 -0.31073004788055869 -0.43167813375356229 0 -0.30286215921622678 -0.44210958888768459 0 -0.29665932401628559 -0.4519210782245337 0 -0.31044958537109257 -0.45255960714027171 0 -0.30286215921622678 -0.44210958888768459 0 -0.32006214434654462 -0.5 0 -0.30503152439861497 -0.48190266549989857 0 -0.29355140103266869 -0.5 0 -0.30029558254474148 -0.46389675841394568 0 -0.30503152439861497 -0.48190266549989857 0 -0.28928475434474438 -0.47221518125428918 0 -0.31333683559556219 -0.46686726284272168 0 -0.30029558254474148 -0.46389675841394568 0 -0.30503152439861497 -0.48190266549989857 0 -0.30503152439861497 -0.48190266549989857 0 -0.28928475434474438 -0.47221518125428918 0 -0.27944541119858413 -0.48714429249943858 0 -0.30503152439861497 -0.48190266549989857 0 -0.29355140103266869 -0.5 0 -0.27944541119858413 -0.48714429249943858 0 -0.26704065771879287 -0.5 0 -0.27944541119858413 -0.48714429249943858 0 -0.26377894750559139 -0.4817410620592058 0 -0.29355140103266869 -0.5 0 -0.26704065771879287 -0.5 0 -0.27944541119858413 -0.48714429249943858 0 -0.27944541119858413 -0.48714429249943858 0 -0.27499686831673542 -0.4693274569635677 0 -0.26377894750559139 -0.4817410620592058 0 -0.28928475434474438 -0.47221518125428918 0 -0.27944541119858413 -0.48714429249943858 0 -0.27499686831673542 -0.4693274569635677 0 -0.25823473398406083 -0.46259190486934387 0 -0.27499686831673542 -0.4693274569635677 0 -0.26377894750559139 -0.4817410620592058 0 -0.25823473398406083 -0.46259190486934387 0 -0.26377894750559139 -0.4817410620592058 0 -0.24769273461092009 -0.47775775457152359 0 -0.26704065771879287 -0.5 0 -0.26377894750559139 -0.4817410620592058 0 -0.24052991440491719 -0.5 0 -0.26377894750559139 -0.4817410620592058 0 -0.24052991440491719 -0.5 0 -0.24769273461092009 -0.47775775457152359 0 -0.24052991440491719 -0.5 0 -0.24769273461092009 -0.47775775457152359 0 -0.2238647917587385 -0.47868470982513422 0 -0.24769273461092009 -0.47775775457152359 0 -0.2238647917587385 -0.47868470982513422 0 -0.2253613830811457 -0.45761053917550981 0 -0.24052991440491719 -0.5 0 -0.2238647917587385 -0.47868470982513422 0 -0.2140191710910414 -0.49999999999999972 0 -0.25298523514652932 -0.43702750984159111 0 -0.23591515519085041 -0.44398209369878189 0 -0.2398656426857485 -0.46066492981847512 0 -0.25298523514652932 -0.43702750984159111 0 -0.2398656426857485 -0.46066492981847512 0 -0.25823473398406083 -0.46259190486934387 0 -0.24769273461092009 -0.47775775457152359 0 -0.2398656426857485 -0.46066492981847512 0 -0.24769273461092009 -0.47775775457152359 0 -0.2398656426857485 -0.46066492981847512 0 -0.2253613830811457 -0.45761053917550981 0 -0.24769273461092009 -0.47775775457152359 0 -0.2253613830811457 -0.45761053917550981 0 -0.2238647917587385 -0.47868470982513422 0 -0.2253613830811457 -0.45761053917550981 0 -0.20999779143719291 -0.46083672605530768 0 -0.23591515519085041 -0.44398209369878189 0 -0.2398656426857485 -0.46066492981847512 0 -0.2253613830811457 -0.45761053917550981 0 -0.23591515519085041 -0.44398209369878189 0 -0.2253613830811457 -0.45761053917550981 0 -0.22549954629610269 -0.43500765649169948 0 -0.2253613830811457 -0.45761053917550981 0 -0.20999779143719291 -0.46083672605530768 0 -0.2030300315513712 -0.43746332377949593 0 -0.2253613830811457 -0.45761053917550981 0 -0.2030300315513712 -0.43746332377949593 0 -0.20999779143719291 -0.46083672605530768 0 -0.19715634076338631 -0.4518064782969281 0 -0.2030300315513712 -0.43746332377949593 0 -0.2253613830811457 -0.45761053917550981 0 -0.2030300315513712 -0.43746332377949593 0 -0.22549954629610269 -0.43500765649169948 0 -0.20999779143719291 -0.46083672605530768 0 -0.19715634076338631 -0.4518064782969281 0 -0.2055877559272139 -0.47590323914846377 0 -0.19715634076338631 -0.4518064782969281 0 -0.2055877559272139 -0.47590323914846377 0 -0.19179305986328829 -0.46711759196808689 0 -0.19715634076338631 -0.4518064782969281 0 -0.2055877559272139 -0.47590323914846377 0 -0.19179305986328829 -0.46711759196808689 0 -0.19715634076338631 -0.4518064782969281 0 -0.184822707974968 -0.45592422963236362 0 -0.19715634076338631 -0.4518064782969281 0 -0.2030300315513712 -0.43746332377949593 0 -0.18872492559955881 -0.42770971744539221 0 -0.19715634076338631 -0.4518064782969281 0 -0.18872492559955881 -0.42770971744539221 0 -0.19715634076338631 -0.4518064782969281 0 -0.1870173619903012 -0.44414077979923022 0 -0.18872492559955881 -0.42770971744539221 0 -0.19715634076338631 -0.4518064782969281 0 -0.184822707974968 -0.45592422963236362 0 -0.1870173619903012 -0.44414077979923022 0 -0.2140191710910414 -0.49999999999999972 0 -0.2055877559272139 -0.47590323914846377 0 -0.2140191710910414 -0.49999999999999972 0 -0.2055877559272139 -0.47590323914846377 0 -0.1915741566131953 -0.48274482478870012 0 -0.2238647917587385 -0.47868470982513422 0 -0.2140191710910414 -0.49999999999999972 0 -0.2055877559272139 -0.47590323914846377 0 -0.2238647917587385 -0.47868470982513422 0 -0.20999779143719291 -0.46083672605530768 0 -0.2055877559272139 -0.47590323914846377 0 -0.19179305986328829 -0.46711759196808689 0 -0.2055877559272139 -0.47590323914846377 0 -0.1915741566131953 -0.48274482478870012 0 -0.19179305986328829 -0.46711759196808689 0 -0.1915741566131953 -0.48274482478870012 0 -0.17982433803767831 -0.46920918797397909 0 -0.2140191710910414 -0.49999999999999972 0 -0.1915741566131953 -0.48274482478870012 0 -0.1841956238768391 -0.5 0 -0.1915741566131953 -0.48274482478870012 0 -0.1841956238768391 -0.5 0 -0.17247084166804699 -0.48396500267038112 0 -0.1841956238768391 -0.5 0 -0.17247084166804699 -0.48396500267038112 0 -0.15437207666263669 -0.50000000000000022 0 -0.15669106487963419 -0.47716915445828201 0 -0.17247084166804699 -0.48396500267038112 0 -0.15437207666263669 -0.50000000000000022 0 -0.15669106487963419 -0.47716915445828201 0 -0.17247084166804699 -0.48396500267038112 0 -0.1680230602922401 -0.4683158249620154 0 -0.17247084166804699 -0.48396500267038112 0 -0.17982433803767831 -0.46920918797397909 0 -0.1680230602922401 -0.4683158249620154 0 -0.1915741566131953 -0.48274482478870012 0 -0.17247084166804699 -0.48396500267038112 0 -0.17982433803767831 -0.46920918797397909 0 -0.19179305986328829 -0.46711759196808689 0 -0.17982433803767831 -0.46920918797397909 0 -0.184822707974968 -0.45592422963236362 0 -0.17982433803767831 -0.46920918797397909 0 -0.184822707974968 -0.45592422963236362 0 -0.17211900377920919 -0.45689747079087062 0 -0.17982433803767831 -0.46920918797397909 0 -0.17211900377920919 -0.45689747079087062 0 -0.1680230602922401 -0.4683158249620154 0 -0.1870173619903012 -0.44414077979923022 0 -0.17843006300647921 -0.44542980211747812 0 -0.1823118302108766 -0.43680876328769058 0 -0.184822707974968 -0.45592422963236362 0 -0.1870173619903012 -0.44414077979923022 0 -0.17843006300647921 -0.44542980211747812 0 -0.17211900377920919 -0.45689747079087062 0 -0.17843006300647921 -0.44542980211747812 0 -0.16919262628862339 -0.44362555979768409 0 -0.184822707974968 -0.45592422963236362 0 -0.17211900377920919 -0.45689747079087062 0 -0.17843006300647921 -0.44542980211747812 0 -0.17843006300647921 -0.44542980211747812 0 -0.16919262628862339 -0.44362555979768409 0 -0.17507497024716731 -0.42995475378866199 0 -0.1590100530966318 -0.45433830891656402 0 -0.148881704538534 -0.44296791951084241 0 -0.1613290413136293 -0.43150746337484569 0 -0.1590100530966318 -0.45433830891656402 0 -0.1613290413136293 -0.43150746337484569 0 -0.16919262628862339 -0.44362555979768409 0 -0.1590100530966318 -0.45433830891656402 0 -0.1613290413136293 -0.43150746337484569 0 -0.17211900377920919 -0.45689747079087062 0 -0.16919262628862339 -0.44362555979768409 0 -0.1590100530966318 -0.45433830891656402 0 -0.15669106487963419 -0.47716915445828201 0 -0.1680230602922401 -0.4683158249620154 0 -0.1590100530966318 -0.45433830891656402 0 -0.15669106487963419 -0.47716915445828201 0 -0.1590100530966318 -0.45433830891656402 0 -0.17211900377920919 -0.45689747079087062 0 -0.1680230602922401 -0.4683158249620154 0 -0.1590100530966318 -0.45433830891656402 0 -0.15669106487963419 -0.47716915445828201 0 -0.1590100530966318 -0.45433830891656402 0 -0.1472923250818238 -0.46077477567243558 0 -0.1590100530966318 -0.45433830891656402 0 -0.1472923250818238 -0.46077477567243558 0 -0.148881704538534 -0.44296791951084241 0 -0.1472923250818238 -0.46077477567243558 0 -0.148881704538534 -0.44296791951084241 0 -0.13194602454298601 -0.43962244526902572 0 -0.13194602454298601 -0.43962244526902572 0 -0.13077987840644981 -0.46069854066347632 0 -0.11615585050415531 -0.45102464773050138 0 -0.1472923250818238 -0.46077477567243558 0 -0.13194602454298601 -0.43962244526902572 0 -0.1472923250818238 -0.46077477567243558 0 -0.13077987840644981 -0.46069854066347632 0 -0.13742439756140509 -0.48004162281001828 0 -0.1472923250818238 -0.46077477567243558 0 -0.13194602454298601 -0.43962244526902572 0 -0.13077987840644981 -0.46069854066347632 0 -0.13742439756140509 -0.48004162281001828 0 -0.12108079434187891 -0.47202921183540031 0 -0.1206292342060253 -0.48641385964910883 0 -0.13077987840644981 -0.46069854066347632 0 -0.13742439756140509 -0.48004162281001828 0 -0.12108079434187891 -0.47202921183540031 0 -0.13742439756140509 -0.48004162281001828 0 -0.131118449396015 -0.5 0 -0.1206292342060253 -0.48641385964910883 0 -0.15669106487963419 -0.47716915445828201 0 -0.13742439756140509 -0.48004162281001828 0 -0.15437207666263669 -0.50000000000000022 0 -0.15669106487963419 -0.47716915445828201 0 -0.15437207666263669 -0.50000000000000022 0 -0.13742439756140509 -0.48004162281001828 0 -0.131118449396015 -0.5 0 -0.15437207666263669 -0.50000000000000022 0 -0.15669106487963419 -0.47716915445828201 0 -0.1472923250818238 -0.46077477567243558 0 -0.13742439756140509 -0.48004162281001828 0 -0.13678826443221431 -0.39755243580027871 0 -0.14931675495270949 -0.41057852288770358 0 -0.15761740849691311 -0.38818340141201402 0 -0.1369224961495438 -0.38192389563367207 0 -0.13678826443221431 -0.39755243580027871 0 -0.15761740849691311 -0.38818340141201402 0 -0.1369224961495438 -0.38192389563367207 0 -0.15761740849691311 -0.38818340141201402 0 -0.148308101659717 -0.36695316985008092 0 -0.1369224961495438 -0.38192389563367207 0 -0.12526638733901391 -0.39147447277512609 0 -0.13678826443221431 -0.39755243580027871 0 -0.1369224961495438 -0.38192389563367207 0 -0.1303219987982592 -0.3665496015062627 0 -0.12201267174342199 -0.37938718301114999 0 -0.1369224961495438 -0.38192389563367207 0 -0.12526638733901391 -0.39147447277512609 0 -0.12201267174342199 -0.37938718301114999 0 -0.12526638733901391 -0.39147447277512609 0 -0.13678826443221431 -0.39755243580027871 0 -0.12592730430259419 -0.40432488328170318 0 -0.13678826443221431 -0.39755243580027871 0 -0.12592730430259419 -0.40432488328170318 0 -0.1345256340888337 -0.41538851269275129 0 -0.13678826443221431 -0.39755243580027871 0 -0.1345256340888337 -0.41538851269275129 0 -0.14931675495270949 -0.41057852288770358 0 -0.12592730430259419 -0.40432488328170318 0 -0.1345256340888337 -0.41538851269275129 0 -0.1165997240041481 -0.41847011486561592 0 -0.13194602454298601 -0.43962244526902572 0 -0.1345256340888337 -0.41538851269275129 0 -0.14483107865759889 -0.42859660432134139 0 -0.13194602454298601 -0.43962244526902572 0 -0.1345256340888337 -0.41538851269275129 0 -0.1165997240041481 -0.41847011486561592 0 -0.148881704538534 -0.44296791951084241 0 -0.14483107865759889 -0.42859660432134139 0 -0.1613290413136293 -0.43150746337484569 0 -0.148881704538534 -0.44296791951084241 0 -0.13194602454298601 -0.43962244526902572 0 -0.14483107865759889 -0.42859660432134139 0 -0.14483107865759889 -0.42859660432134139 0 -0.14931675495270949 -0.41057852288770358 0 -0.1613290413136293 -0.43150746337484569 0 -0.1345256340888337 -0.41538851269275129 0 -0.14483107865759889 -0.42859660432134139 0 -0.14931675495270949 -0.41057852288770358 0 -0.16364802953062679 -0.40867661783312748 0 -0.1613290413136293 -0.43150746337484569 0 -0.14931675495270949 -0.41057852288770358 0 -0.16364802953062679 -0.40867661783312748 0 -0.1613290413136293 -0.43150746337484569 0 -0.16364802953062679 -0.40867661783312748 0 -0.1613290413136293 -0.43150746337484569 0 -0.17507497024716731 -0.42995475378866199 0 -0.16919262628862339 -0.44362555979768409 0 -0.1613290413136293 -0.43150746337484569 0 -0.17507497024716731 -0.42995475378866199 0 -0.1870173619903012 -0.44414077979923022 0 -0.1823118302108766 -0.43680876328769058 0 -0.18872492559955881 -0.42770971744539221 0 -0.17843006300647921 -0.44542980211747812 0 -0.17507497024716731 -0.42995475378866199 0 -0.1823118302108766 -0.43680876328769058 0 -0.17507497024716731 -0.42995475378866199 0 -0.1806986800215967 -0.4173161083834821 0 -0.18872492559955881 -0.42770971744539221 0 -0.17507497024716731 -0.42995475378866199 0 -0.1823118302108766 -0.43680876328769058 0 -0.18872492559955881 -0.42770971744539221 0 -0.1806986800215967 -0.4173161083834821 0 -0.18228064084688081 -0.39610998094782668 0 -0.19209360216251761 -0.40824625574224149 0 -0.16364802953062679 -0.40867661783312748 0 -0.17507497024716731 -0.42995475378866199 0 -0.1806986800215967 -0.4173161083834821 0 -0.16364802953062679 -0.40867661783312748 0 -0.1806986800215967 -0.4173161083834821 0 -0.18228064084688081 -0.39610998094782668 0 -0.16364802953062679 -0.40867661783312748 0 -0.18228064084688081 -0.39610998094782668 0 -0.15761740849691311 -0.38818340141201402 0 -0.14931675495270949 -0.41057852288770358 0 -0.16364802953062679 -0.40867661783312748 0 -0.15761740849691311 -0.38818340141201402 0 -0.15761740849691311 -0.38818340141201402 0 -0.183603859264966 -0.3766054584014627 0 -0.1661931572416451 -0.36889933283976362 0 -0.18228064084688081 -0.39610998094782668 0 -0.15761740849691311 -0.38818340141201402 0 -0.183603859264966 -0.3766054584014627 0 -0.18228064084688081 -0.39610998094782668 0 -0.183603859264966 -0.3766054584014627 0 -0.20216487974800659 -0.3829991661375407 0 -0.18228064084688081 -0.39610998094782668 0 -0.20343785588976751 -0.39944649130885712 0 -0.19209360216251761 -0.40824625574224149 0 -0.18228064084688081 -0.39610998094782668 0 -0.20216487974800659 -0.3829991661375407 0 -0.20343785588976751 -0.39944649130885712 0 -0.20343785588976751 -0.39944649130885712 0 -0.21350444502423929 -0.40864471589815532 0 -0.22035180610084079 -0.39356726900625483 0 -0.20216487974800659 -0.3829991661375407 0 -0.20343785588976751 -0.39944649130885712 0 -0.22035180610084079 -0.39356726900625483 0 -0.20216487974800659 -0.3829991661375407 0 -0.22035180610084079 -0.39356726900625483 0 -0.219169022554425 -0.37113875127287832 0 -0.1806986800215967 -0.4173161083834821 0 -0.2030300315513712 -0.43746332377949593 0 -0.18872492559955881 -0.42770971744539221 0 -0.1806986800215967 -0.4173161083834821 0 -0.2030300315513712 -0.43746332377949593 0 -0.2030300315513712 -0.43746332377949593 0 -0.19369636752838881 -0.41903658901391427 0 -0.2031687955665597 -0.42354741618771741 0 -0.1806986800215967 -0.4173161083834821 0 -0.2030300315513712 -0.43746332377949593 0 -0.19369636752838881 -0.41903658901391427 0 -0.19369636752838881 -0.41903658901391427 0 -0.20299923128825029 -0.41376529568937459 0 -0.2031687955665597 -0.42354741618771741 0 -0.1806986800215967 -0.4173161083834821 0 -0.19369636752838881 -0.41903658901391427 0 -0.19209360216251761 -0.40824625574224149 0 -0.19369636752838881 -0.41903658901391427 0 -0.19209360216251761 -0.40824625574224149 0 -0.20299923128825029 -0.41376529568937459 0 -0.20343785588976751 -0.39944649130885712 0 -0.19209360216251761 -0.40824625574224149 0 -0.20299923128825029 -0.41376529568937459 0 -0.20343785588976751 -0.39944649130885712 0 -0.20299923128825029 -0.41376529568937459 0 -0.21350444502423929 -0.40864471589815532 0 -0.21350444502423929 -0.40864471589815532 0 -0.21294955189822859 -0.42392445626808489 0 -0.2277837799441092 -0.41252006721820539 0 -0.20299923128825029 -0.41376529568937459 0 -0.2031687955665597 -0.42354741618771741 0 -0.21294955189822859 -0.42392445626808489 0 -0.20299923128825029 -0.41376529568937459 0 -0.21350444502423929 -0.40864471589815532 0 -0.21294955189822859 -0.42392445626808489 0 -0.2030300315513712 -0.43746332377949593 0 -0.21294955189822859 -0.42392445626808489 0 -0.22549954629610269 -0.43500765649169948 0 -0.2030300315513712 -0.43746332377949593 0 -0.2031687955665597 -0.42354741618771741 0 -0.21294955189822859 -0.42392445626808489 0 -0.23591515519085041 -0.44398209369878189 0 -0.22549954629610269 -0.43500765649169948 0 -0.23735783041644329 -0.42609093398936743 0 -0.22549954629610269 -0.43500765649169948 0 -0.2277837799441092 -0.41252006721820539 0 -0.23735783041644329 -0.42609093398936743 0 -0.21294955189822859 -0.42392445626808489 0 -0.22549954629610269 -0.43500765649169948 0 -0.2277837799441092 -0.41252006721820539 0 -0.2277837799441092 -0.41252006721820539 0 -0.24694430377570939 -0.41295507854145541 0 -0.2277837799441092 -0.41252006721820539 0 -0.24694430377570939 -0.41295507854145541 0 -0.23735783041644329 -0.42609093398936743 0 -0.2277837799441092 -0.41252006721820539 0 -0.24694430377570939 -0.41295507854145541 0 -0.2359891007147569 -0.39914414181493052 0 -0.25298523514652932 -0.43702750984159111 0 -0.24694430377570939 -0.41295507854145541 0 -0.23735783041644329 -0.42609093398936743 0 -0.25298523514652932 -0.43702750984159111 0 -0.23591515519085041 -0.44398209369878189 0 -0.23735783041644329 -0.42609093398936743 0 -0.22035180610084079 -0.39356726900625483 0 -0.23802591309349369 -0.38358476956933441 0 -0.219169022554425 -0.37113875127287832 0 -0.22035180610084079 -0.39356726900625483 0 -0.2359891007147569 -0.39914414181493052 0 -0.23802591309349369 -0.38358476956933441 0 -0.21350444502423929 -0.40864471589815532 0 -0.2277837799441092 -0.41252006721820539 0 -0.22035180610084079 -0.39356726900625483 0 -0.2277837799441092 -0.41252006721820539 0 -0.22035180610084079 -0.39356726900625483 0 -0.2359891007147569 -0.39914414181493052 0 -0.2359891007147569 -0.39914414181493052 0 -0.2487824818667288 -0.3954643368039899 0 -0.23802591309349369 -0.38358476956933441 0 -0.24694430377570939 -0.41295507854145541 0 -0.2359891007147569 -0.39914414181493052 0 -0.2487824818667288 -0.3954643368039899 0 -0.26050234447883253 -0.38027693877573482 0 -0.2487824818667288 -0.3954643368039899 0 -0.23802591309349369 -0.38358476956933441 0 -0.26050234447883253 -0.38027693877573482 0 -0.23802591309349369 -0.38358476956933441 0 -0.24817767477162081 -0.36986654917455902 0 -0.23802591309349369 -0.38358476956933441 0 -0.24817767477162081 -0.36986654917455902 0 -0.23583729862822109 -0.36574384613307409 0 -0.24817767477162081 -0.36986654917455902 0 -0.23583729862822109 -0.36574384613307409 0 -0.24850069890613241 -0.35473287875334369 0 -0.23583729862822109 -0.36574384613307409 0 -0.219169022554425 -0.37113875127287832 0 -0.22531318381543361 -0.34939628189525529 0 -0.23802591309349369 -0.38358476956933441 0 -0.23583729862822109 -0.36574384613307409 0 -0.219169022554425 -0.37113875127287832 0 -0.22531318381543361 -0.34939628189525529 0 -0.24850069890613241 -0.35473287875334369 0 -0.24219101746094579 -0.34438554910399921 0 -0.23583729862822109 -0.36574384613307409 0 -0.22531318381543361 -0.34939628189525529 0 -0.24850069890613241 -0.35473287875334369 0 -0.22531318381543361 -0.34939628189525529 0 -0.24850069890613241 -0.35473287875334369 0 -0.25445926970156468 -0.34270101061729968 0 -0.24850069890613241 -0.35473287875334369 0 -0.24219101746094579 -0.34438554910399921 0 -0.25445926970156468 -0.34270101061729968 0 -0.24219101746094579 -0.34438554910399921 0 -0.2460450098649074 -0.33743905859998191 0 -0.25207330520806498 -0.33378255792528982 0 -0.2460450098649074 -0.33743905859998191 0 -0.24306356592407591 -0.32787829483024122 0 -0.2348359590034956 -0.33686915078515089 0 -0.24306356592407591 -0.32787829483024122 0 -0.23163603200856511 -0.32708080208212859 0 -0.2460450098649074 -0.33743905859998191 0 -0.2348359590034956 -0.33686915078515089 0 -0.24306356592407591 -0.32787829483024122 0 -0.24219101746094579 -0.34438554910399921 0 -0.2460450098649074 -0.33743905859998191 0 -0.2348359590034956 -0.33686915078515089 0 -0.25273748935779161 -0.32224337373924072 0 -0.24326482791746179 -0.31394285089519419 0 -0.24426682308287331 -0.30533572025667649 0 -0.25273748935779161 -0.32224337373924072 0 -0.24426682308287331 -0.30533572025667649 0 -0.25273748935779161 -0.32224337373924072 0 -0.24326482791746179 -0.31394285089519419 0 -0.2440208243134171 -0.32058552998791068 0 -0.25273748935779161 -0.32224337373924072 0 -0.24306356592407591 -0.32787829483024122 0 -0.2440208243134171 -0.32058552998791068 0 -0.25207330520806498 -0.33378255792528982 0 -0.25273748935779161 -0.32224337373924072 0 -0.24306356592407591 -0.32787829483024122 0 -0.24306356592407591 -0.32787829483024122 0 -0.2440208243134171 -0.32058552998791068 0 -0.23701741405433899 -0.31827760048696663 0 -0.24306356592407591 -0.32787829483024122 0 -0.23701741405433899 -0.31827760048696663 0 -0.23163603200856511 -0.32708080208212859 0 -0.24326482791746179 -0.31394285089519419 0 -0.23701741405433899 -0.31827760048696663 0 -0.2384772558931193 -0.30928307653082621 0 -0.24326482791746179 -0.31394285089519419 0 -0.2440208243134171 -0.32058552998791068 0 -0.23701741405433899 -0.31827760048696663 0 -0.22244826701882919 -0.32070202864358233 0 -0.22802593536356699 -0.30882837184141948 0 -0.21110805984082151 -0.30983785689108939 0 -0.23701741405433899 -0.31827760048696663 0 -0.22244826701882919 -0.32070202864358233 0 -0.22802593536356699 -0.30882837184141948 0 -0.23701741405433899 -0.31827760048696663 0 -0.23163603200856511 -0.32708080208212859 0 -0.22244826701882919 -0.32070202864358233 0 -0.23163603200856511 -0.32708080208212859 0 -0.22244826701882919 -0.32070202864358233 0 -0.22079431421521131 -0.33353493235345111 0 -0.22531318381543361 -0.34939628189525529 0 -0.2348359590034956 -0.33686915078515089 0 -0.22079431421521131 -0.33353493235345111 0 -0.22531318381543361 -0.34939628189525529 0 -0.24219101746094579 -0.34438554910399921 0 -0.2348359590034956 -0.33686915078515089 0 -0.2348359590034956 -0.33686915078515089 0 -0.23163603200856511 -0.32708080208212859 0 -0.22079431421521131 -0.33353493235345111 0 -0.22079431421521131 -0.33353493235345111 0 -0.20839645480677241 -0.32403064402179738 0 -0.20212566872473489 -0.34405968503716688 0 -0.22531318381543361 -0.34939628189525529 0 -0.22079431421521131 -0.33353493235345111 0 -0.20212566872473489 -0.34405968503716688 0 -0.22244826701882919 -0.32070202864358233 0 -0.20839645480677241 -0.32403064402179738 0 -0.21110805984082151 -0.30983785689108939 0 -0.22244826701882919 -0.32070202864358233 0 -0.22079431421521131 -0.33353493235345111 0 -0.20839645480677241 -0.32403064402179738 0 -0.20839645480677241 -0.32403064402179738 0 -0.19575919956014079 -0.31702437624003538 0 -0.21110805984082151 -0.30983785689108939 0 -0.20839645480677241 -0.32403064402179738 0 -0.19575919956014079 -0.31702437624003538 0 -0.19562896033857519 -0.33020038185646122 0 -0.19575919956014079 -0.31702437624003538 0 -0.19562896033857519 -0.33020038185646122 0 -0.18477851095256179 -0.32477614194451959 0 -0.20212566872473489 -0.34405968503716688 0 -0.1789381536340362 -0.33872308817907848 0 -0.19562896033857519 -0.33020038185646122 0 -0.20212566872473489 -0.34405968503716688 0 -0.1789381536340362 -0.33872308817907848 0 -0.20839645480677241 -0.32403064402179738 0 -0.19562896033857519 -0.33020038185646122 0 -0.20212566872473489 -0.34405968503716688 0 -0.20212566872473489 -0.34405968503716688 0 -0.2037839996862793 -0.36234410805543599 0 -0.1863350517553729 -0.35962674217565882 0 -0.20212566872473489 -0.34405968503716688 0 -0.1863350517553729 -0.35962674217565882 0 -0.1789381536340362 -0.33872308817907848 0 -0.183603859264966 -0.3766054584014627 0 -0.20216487974800659 -0.3829991661375407 0 -0.2037839996862793 -0.36234410805543599 0 -0.183603859264966 -0.3766054584014627 0 -0.2037839996862793 -0.36234410805543599 0 -0.1863350517553729 -0.35962674217565882 0 -0.219169022554425 -0.37113875127287832 0 -0.22531318381543361 -0.34939628189525529 0 -0.2037839996862793 -0.36234410805543599 0 -0.20216487974800659 -0.3829991661375407 0 -0.219169022554425 -0.37113875127287832 0 -0.2037839996862793 -0.36234410805543599 0 -0.22531318381543361 -0.34939628189525529 0 -0.20212566872473489 -0.34405968503716688 0 -0.2037839996862793 -0.36234410805543599 0 -0.22531318381543361 -0.34939628189525529 0 -0.20212566872473489 -0.34405968503716688 0 -0.24465976002352091 -0.25387891845332877 0 -0.23199225124923151 -0.26692477658714647 0 -0.21854221021918649 -0.25236034283526498 0 -0.23199225124923151 -0.26692477658714647 0 -0.21864709985809599 -0.27150291036173302 0 -0.21854221021918649 -0.25236034283526498 0 -0.24465976002352091 -0.25387891845332877 0 -0.2444485511135471 -0.27534046621033159 0 -0.23199225124923151 -0.26692477658714647 0 -0.25958550566062261 -0.27102626557679149 0 -0.24465976002352091 -0.25387891845332877 0 -0.2444485511135471 -0.27534046621033159 0 -0.2444485511135471 -0.27534046621033159 0 -0.23199225124923151 -0.26692477658714647 0 -0.23366363503180709 -0.28154124507507411 0 -0.2197277065850177 -0.2872169177591285 0 -0.23366363503180709 -0.28154124507507411 0 -0.21864709985809599 -0.27150291036173302 0 -0.23199225124923151 -0.26692477658714647 0 -0.23366363503180709 -0.28154124507507411 0 -0.21864709985809599 -0.27150291036173302 0 -0.2197277065850177 -0.2872169177591285 0 -0.23366363503180709 -0.28154124507507411 0 -0.24011613505684479 -0.30107681213347393 0 -0.2197277065850177 -0.2872169177591285 0 -0.24011613505684479 -0.30107681213347393 0 -0.2197277065850177 -0.2872169177591285 0 -0.24011613505684479 -0.30107681213347393 0 -0.2201073871300871 -0.30044142834658671 0 -0.2444485511135471 -0.27534046621033159 0 -0.23366363503180709 -0.28154124507507411 0 -0.24732420154209239 -0.29033586459568173 0 -0.23366363503180709 -0.28154124507507411 0 -0.24732420154209239 -0.29033586459568173 0 -0.24011613505684479 -0.30107681213347393 0 -0.25608276685525683 -0.28295324223861612 0 -0.2444485511135471 -0.27534046621033159 0 -0.24732420154209239 -0.29033586459568173 0 -0.26050456352867191 -0.3149367065078193 0 -0.24011613505684479 -0.30107681213347393 0 -0.24426682308287331 -0.30533572025667649 0 -0.25485564421046719 -0.30132045870319019 0 -0.24732420154209239 -0.29033586459568173 0 -0.24011613505684479 -0.30107681213347393 0 -0.24011613505684479 -0.30107681213347393 0 -0.2384772558931193 -0.30928307653082621 0 -0.22802593536356699 -0.30882837184141948 0 -0.24326482791746179 -0.31394285089519419 0 -0.24426682308287331 -0.30533572025667649 0 -0.2384772558931193 -0.30928307653082621 0 -0.24011613505684479 -0.30107681213347393 0 -0.24426682308287331 -0.30533572025667649 0 -0.2384772558931193 -0.30928307653082621 0 -0.23701741405433899 -0.31827760048696663 0 -0.2384772558931193 -0.30928307653082621 0 -0.22802593536356699 -0.30882837184141948 0 -0.22802593536356699 -0.30882837184141948 0 -0.2201073871300871 -0.30044142834658671 0 -0.21110805984082151 -0.30983785689108939 0 -0.24011613505684479 -0.30107681213347393 0 -0.22802593536356699 -0.30882837184141948 0 -0.2201073871300871 -0.30044142834658671 0 -0.2201073871300871 -0.30044142834658671 0 -0.21110805984082151 -0.30983785689108939 0 -0.20155909880418441 -0.29524718310782239 0 -0.21110805984082151 -0.30983785689108939 0 -0.2000775247532616 -0.30687463122530689 0 -0.20155909880418441 -0.29524718310782239 0 -0.19575919956014079 -0.31702437624003538 0 -0.21110805984082151 -0.30983785689108939 0 -0.2000775247532616 -0.30687463122530689 0 -0.18961770926909149 -0.30481471110084102 0 -0.20155909880418441 -0.29524718310782239 0 -0.1798976030385912 -0.29461474791537873 0 -0.19575919956014079 -0.31702437624003538 0 -0.2000775247532616 -0.30687463122530689 0 -0.18961770926909149 -0.30481471110084102 0 -0.19575919956014079 -0.31702437624003538 0 -0.18961770926909149 -0.30481471110084102 0 -0.1803928959391416 -0.31521744924658562 0 -0.2000775247532616 -0.30687463122530689 0 -0.18961770926909149 -0.30481471110084102 0 -0.20155909880418441 -0.29524718310782239 0 -0.19933927811319041 -0.27335702338478318 0 -0.1798976030385912 -0.29461474791537873 0 -0.20155909880418441 -0.29524718310782239 0 -0.19933927811319041 -0.27335702338478318 0 -0.1798976030385912 -0.29461474791537873 0 -0.2197277065850177 -0.2872169177591285 0 -0.20155909880418441 -0.29524718310782239 0 -0.19933927811319041 -0.27335702338478318 0 -0.2197277065850177 -0.2872169177591285 0 -0.2201073871300871 -0.30044142834658671 0 -0.20155909880418441 -0.29524718310782239 0 -0.21864709985809599 -0.27150291036173302 0 -0.19933927811319041 -0.27335702338478318 0 -0.21854221021918649 -0.25236034283526498 0 -0.2197277065850177 -0.2872169177591285 0 -0.21864709985809599 -0.27150291036173302 0 -0.19933927811319041 -0.27335702338478318 0 -0.2197277065850177 -0.2872169177591285 0 -0.19933927811319041 -0.27335702338478318 0 -0.19672455084482071 -0.27157955221738023 0 -0.19563648814007639 -0.2627950405098789 0 -0.1773613401945949 -0.28300380337564962 0 -0.19672455084482071 -0.27157955221738023 0 -0.19933927811319041 -0.27335702338478318 0 -0.1773613401945949 -0.28300380337564962 0 -0.19672455084482071 -0.27157955221738023 0 -0.19933927811319041 -0.27335702338478318 0 -0.19563648814007639 -0.2627950405098789 0 -0.19672455084482071 -0.27157955221738023 0 -0.19933927811319041 -0.27335702338478318 0 -0.19933927811319041 -0.27335702338478318 0 -0.19563648814007639 -0.2627950405098789 0 -0.2024770003035091 -0.25628481747185139 0 -0.19563648814007639 -0.2627950405098789 0 -0.19160736129165659 -0.25262396586623759 0 -0.18182513936558051 -0.25739227955256888 0 -0.19563648814007639 -0.2627950405098789 0 -0.19160736129165659 -0.25262396586623759 0 -0.2024770003035091 -0.25628481747185139 0 -0.19160736129165659 -0.25262396586623759 0 -0.2024770003035091 -0.25628481747185139 0 -0.19988453840298659 -0.24176205441804 0 -0.19933927811319041 -0.27335702338478318 0 -0.2024770003035091 -0.25628481747185139 0 -0.21854221021918649 -0.25236034283526498 0 -0.2024770003035091 -0.25628481747185139 0 -0.21854221021918649 -0.25236034283526498 0 -0.19988453840298659 -0.24176205441804 0 -0.19933927811319041 -0.27335702338478318 0 -0.21854221021918649 -0.25236034283526498 0 -0.16270034237907721 -0.26451024010365409 0 -0.1689202540561075 -0.25519621835756329 0 -0.15263230708737521 -0.24356194903458239 0 -0.16270034237907721 -0.26451024010365409 0 -0.15585924966824549 -0.27338725763800159 0 -0.15263230708737521 -0.24356194903458239 0 -0.16270034237907721 -0.26451024010365409 0 -0.1689202540561075 -0.25519621835756329 0 -0.17291740387759841 -0.2648938158906885 0 -0.1689202540561075 -0.25519621835756329 0 -0.18182513936558051 -0.25739227955256888 0 -0.1745260775709061 -0.24562280720632229 0 -0.19160736129165659 -0.25262396586623759 0 -0.18182513936558051 -0.25739227955256888 0 -0.1745260775709061 -0.24562280720632229 0 -0.19563648814007639 -0.2627950405098789 0 -0.18182513936558051 -0.25739227955256888 0 -0.18269465011250469 -0.26841637399603913 0 -0.1689202540561075 -0.25519621835756329 0 -0.18182513936558051 -0.25739227955256888 0 -0.17291740387759841 -0.2648938158906885 0 -0.18182513936558051 -0.25739227955256888 0 -0.17291740387759841 -0.2648938158906885 0 -0.18269465011250469 -0.26841637399603913 0 -0.19563648814007639 -0.2627950405098789 0 -0.18269465011250469 -0.26841637399603913 0 -0.1773613401945949 -0.28300380337564962 0 -0.17291740387759841 -0.2648938158906885 0 -0.17526212336935321 -0.27297056277525461 0 -0.1680750992927145 -0.27556825783864097 0 -0.19563648814007639 -0.2627950405098789 0 -0.1773613401945949 -0.28300380337564962 0 -0.17291740387759841 -0.2648938158906885 0 -0.17526212336935321 -0.27297056277525461 0 -0.18269465011250469 -0.26841637399603913 0 -0.17526212336935321 -0.27297056277525461 0 -0.18269465011250469 -0.26841637399603913 0 -0.1773613401945949 -0.28300380337564962 0 -0.17526212336935321 -0.27297056277525461 0 -0.1680750992927145 -0.27556825783864097 0 -0.1773613401945949 -0.28300380337564962 0 -0.1680750992927145 -0.27556825783864097 0 -0.1682011228878135 -0.28257539269247411 0 -0.1773613401945949 -0.28300380337564962 0 -0.1680750992927145 -0.27556825783864097 0 -0.1622412594804854 -0.28273310688964581 0 -0.1682011228878135 -0.28257539269247411 0 -0.16270034237907721 -0.26451024010365409 0 -0.17291740387759841 -0.2648938158906885 0 -0.1680750992927145 -0.27556825783864097 0 -0.16270034237907721 -0.26451024010365409 0 -0.1680750992927145 -0.27556825783864097 0 -0.16179622859894191 -0.27503335760685149 0 -0.16270034237907721 -0.26451024010365409 0 -0.16179622859894191 -0.27503335760685149 0 -0.15585924966824549 -0.27338725763800159 0 -0.16179622859894191 -0.27503335760685149 0 -0.1622412594804854 -0.28273310688964581 0 -0.15585924966824549 -0.27338725763800159 0 -0.1680750992927145 -0.27556825783864097 0 -0.16179622859894191 -0.27503335760685149 0 -0.1622412594804854 -0.28273310688964581 0 -0.1622412594804854 -0.28273310688964581 0 -0.16512679258345911 -0.28899640266596011 0 -0.15908619224911419 -0.30321256624142101 0 -0.1622412594804854 -0.28273310688964581 0 -0.15908619224911419 -0.30321256624142101 0 -0.15585924966824549 -0.27338725763800159 0 -0.15908619224911419 -0.30321256624142101 0 -0.15585924966824549 -0.27338725763800159 0 -0.16512679258345911 -0.28899640266596011 0 -0.1773613401945949 -0.28300380337564962 0 -0.15908619224911419 -0.30321256624142101 0 -0.1773613401945949 -0.28300380337564962 0 -0.15908619224911419 -0.30321256624142101 0 -0.16512679258345911 -0.28899640266596011 0 -0.1682011228878135 -0.28257539269247411 0 -0.1773613401945949 -0.28300380337564962 0 -0.1622412594804854 -0.28273310688964581 0 -0.16512679258345911 -0.28899640266596011 0 -0.1682011228878135 -0.28257539269247411 0 -0.1773613401945949 -0.28300380337564962 0 -0.1798976030385912 -0.29461474791537873 0 -0.15908619224911419 -0.30321256624142101 0 -0.19933927811319041 -0.27335702338478318 0 -0.1773613401945949 -0.28300380337564962 0 -0.1798976030385912 -0.29461474791537873 0 -0.1798976030385912 -0.29461474791537873 0 -0.17759103405270391 -0.30762984517719472 0 -0.16045592796399111 -0.3158724724459735 0 -0.18961770926909149 -0.30481471110084102 0 -0.1798976030385912 -0.29461474791537873 0 -0.17759103405270391 -0.30762984517719472 0 -0.18961770926909149 -0.30481471110084102 0 -0.17759103405270391 -0.30762984517719472 0 -0.1803928959391416 -0.31521744924658562 0 -0.1798976030385912 -0.29461474791537873 0 -0.16045592796399111 -0.3158724724459735 0 -0.1798976030385912 -0.29461474791537873 0 -0.15908619224911419 -0.30321256624142101 0 -0.16045592796399111 -0.3158724724459735 0 -0.15908619224911419 -0.30321256624142101 0 -0.16045592796399111 -0.3158724724459735 0 -0.1471380549162328 -0.30532142906175452 0 -0.14032160831301491 -0.30752887986621158 0 -0.14130665940473261 -0.32287327510069419 0 -0.15908619224911419 -0.30321256624142101 0 -0.1471380549162328 -0.30532142906175452 0 -0.14130665940473261 -0.32287327510069419 0 -0.15908619224911419 -0.30321256624142101 0 -0.1471380549162328 -0.30532142906175452 0 -0.1510678287434867 -0.29559461902651829 0 -0.14390798587081549 -0.29739780507392732 0 -0.1471380549162328 -0.30532142906175452 0 -0.1510678287434867 -0.29559461902651829 0 -0.14390798587081549 -0.29739780507392732 0 -0.1471380549162328 -0.30532142906175452 0 -0.14032160831301491 -0.30752887986621158 0 -0.14032160831301491 -0.30752887986621158 0 -0.13439128381467691 -0.29991683468539793 0 -0.13033731665847181 -0.31286393971371201 0 -0.13439128381467691 -0.29991683468539793 0 -0.13033731665847181 -0.31286393971371201 0 -0.12304085188452731 -0.29931348820209958 0 -0.14390798587081549 -0.29739780507392732 0 -0.14032160831301491 -0.30752887986621158 0 -0.13439128381467691 -0.29991683468539793 0 -0.14390798587081549 -0.29739780507392732 0 -0.13439128381467691 -0.29991683468539793 0 -0.14011095662501261 -0.28947786809128212 0 -0.13439128381467691 -0.29991683468539793 0 -0.14011095662501261 -0.28947786809128212 0 -0.12994370463312691 -0.28995419054763111 0 -0.13439128381467691 -0.29991683468539793 0 -0.12994370463312691 -0.28995419054763111 0 -0.12304085188452731 -0.29931348820209958 0 -0.12994370463312691 -0.28995419054763111 0 -0.13687965345326569 -0.27993872332247433 0 -0.1257911728949061 -0.280427018304516 0 -0.12994370463312691 -0.28995419054763111 0 -0.1257911728949061 -0.280427018304516 0 -0.1194571486541455 -0.28746452468861589 0 -0.14011095662501261 -0.28947786809128212 0 -0.12994370463312691 -0.28995419054763111 0 -0.13687965345326569 -0.27993872332247433 0 -0.15908619224911419 -0.30321256624142101 0 -0.15162645984294551 -0.28670064183700439 0 -0.15585924966824549 -0.27338725763800159 0 -0.14011095662501261 -0.28947786809128212 0 -0.1458827091329962 -0.28225219708249882 0 -0.13687965345326569 -0.27993872332247433 0 -0.15908619224911419 -0.30321256624142101 0 -0.1510678287434867 -0.29559461902651829 0 -0.15162645984294551 -0.28670064183700439 0 -0.1458827091329962 -0.28225219708249882 0 -0.1468811506158991 -0.28912565090950809 0 -0.15162645984294551 -0.28670064183700439 0 -0.14011095662501261 -0.28947786809128212 0 -0.1458827091329962 -0.28225219708249882 0 -0.1468811506158991 -0.28912565090950809 0 -0.14390798587081549 -0.29739780507392732 0 -0.1468811506158991 -0.28912565090950809 0 -0.1510678287434867 -0.29559461902651829 0 -0.14390798587081549 -0.29739780507392732 0 -0.14011095662501261 -0.28947786809128212 0 -0.1468811506158991 -0.28912565090950809 0 -0.1468811506158991 -0.28912565090950809 0 -0.1510678287434867 -0.29559461902651829 0 -0.15162645984294551 -0.28670064183700439 0 -0.1458827091329962 -0.28225219708249882 0 -0.15162645984294551 -0.28670064183700439 0 -0.15098162864793119 -0.27663156012407891 0 -0.15162645984294551 -0.28670064183700439 0 -0.15098162864793119 -0.27663156012407891 0 -0.15585924966824549 -0.27338725763800159 0 -0.15098162864793119 -0.27663156012407891 0 -0.1522527558101047 -0.27366235468835692 0 -0.14903370440966179 -0.27344637702894548 0 -0.15098162864793119 -0.27663156012407891 0 -0.1522527558101047 -0.27366235468835692 0 -0.15585924966824549 -0.27338725763800159 0 -0.14903370440966179 -0.27344637702894548 0 -0.1531364405145805 -0.27118422396240138 0 -0.14385763015454139 -0.26954128824380802 0 -0.1522527558101047 -0.27366235468835692 0 -0.15585924966824549 -0.27338725763800159 0 -0.1531364405145805 -0.27118422396240138 0 -0.1522527558101047 -0.27366235468835692 0 -0.14903370440966179 -0.27344637702894548 0 -0.1531364405145805 -0.27118422396240138 0 -0.14903370440966179 -0.27344637702894548 0 -0.14385763015454139 -0.26954128824380802 0 -0.1442805510697899 -0.27562940435382949 0 -0.14385763015454139 -0.26954128824380802 0 -0.1442805510697899 -0.27562940435382949 0 -0.13835653564694769 -0.27242798417408381 0 -0.1458827091329962 -0.28225219708249882 0 -0.1442805510697899 -0.27562940435382949 0 -0.13687965345326569 -0.27993872332247433 0 -0.15098162864793119 -0.27663156012407891 0 -0.14903370440966179 -0.27344637702894548 0 -0.1442805510697899 -0.27562940435382949 0 -0.1458827091329962 -0.28225219708249882 0 -0.15098162864793119 -0.27663156012407891 0 -0.1442805510697899 -0.27562940435382949 0 -0.13687965345326569 -0.27993872332247433 0 -0.12970248462840331 -0.2717774759070859 0 -0.13835653564694769 -0.27242798417408381 0 -0.1442805510697899 -0.27562940435382949 0 -0.13687965345326569 -0.27993872332247433 0 -0.13835653564694769 -0.27242798417408381 0 -0.13687965345326569 -0.27993872332247433 0 -0.1257911728949061 -0.280427018304516 0 -0.12970248462840331 -0.2717774759070859 0 -0.12970248462840331 -0.2717774759070859 0 -0.13570208279224111 -0.26528350045903498 0 -0.12855037573501921 -0.26115248962005239 0 -0.14385763015454139 -0.26954128824380802 0 -0.13835653564694769 -0.27242798417408381 0 -0.13570208279224111 -0.26528350045903498 0 -0.12970248462840331 -0.2717774759070859 0 -0.13835653564694769 -0.27242798417408381 0 -0.13570208279224111 -0.26528350045903498 0 -0.13570208279224111 -0.26528350045903498 0 -0.12855037573501921 -0.26115248962005239 0 -0.1377523016625678 -0.25581657194563601 0 -0.14385763015454139 -0.26954128824380802 0 -0.13570208279224111 -0.26528350045903498 0 -0.1377523016625678 -0.25581657194563601 0 -0.12855037573501921 -0.26115248962005239 0 -0.1377523016625678 -0.25581657194563601 0 -0.1223681628105569 -0.24044891992886891 0 -0.1531364405145805 -0.27118422396240138 0 -0.1377523016625678 -0.25581657194563601 0 -0.15263230708737521 -0.24356194903458239 0 -0.15585924966824549 -0.27338725763800159 0 -0.1531364405145805 -0.27118422396240138 0 -0.15263230708737521 -0.24356194903458239 0 -0.15585924966824549 -0.27338725763800159 0 -0.15263230708737521 -0.24356194903458239 0 -0.1531364405145805 -0.27118422396240138 0 -0.1377523016625678 -0.25581657194563601 0 -0.1531364405145805 -0.27118422396240138 0 -0.14385763015454139 -0.26954128824380802 0 -0.1377523016625678 -0.25581657194563601 0 -0.1661931572416451 -0.36889933283976362 0 -0.1633245426028184 -0.34238590264286861 0 -0.15433175674287769 -0.35458729317269139 0 -0.1661931572416451 -0.36889933283976362 0 -0.1633245426028184 -0.34238590264286861 0 -0.1661931572416451 -0.36889933283976362 0 -0.17388048196752651 -0.3522733272046466 0 -0.1633245426028184 -0.34238590264286861 0 -0.1661931572416451 -0.36889933283976362 0 -0.15433175674287769 -0.35458729317269139 0 -0.148308101659717 -0.36695316985008092 0 -0.15761740849691311 -0.38818340141201402 0 -0.1661931572416451 -0.36889933283976362 0 -0.148308101659717 -0.36695316985008092 0 -0.183603859264966 -0.3766054584014627 0 -0.1661931572416451 -0.36889933283976362 0 -0.1863350517553729 -0.35962674217565882 0 -0.1661931572416451 -0.36889933283976362 0 -0.1863350517553729 -0.35962674217565882 0 -0.17388048196752651 -0.3522733272046466 0 -0.1863350517553729 -0.35962674217565882 0 -0.17388048196752651 -0.3522733272046466 0 -0.1789381536340362 -0.33872308817907848 0 -0.17388048196752651 -0.3522733272046466 0 -0.1789381536340362 -0.33872308817907848 0 -0.1633245426028184 -0.34238590264286861 0 -0.19562896033857519 -0.33020038185646122 0 -0.1789381536340362 -0.33872308817907848 0 -0.18477851095256179 -0.32477614194451959 0 -0.1789381536340362 -0.33872308817907848 0 -0.18477851095256179 -0.32477614194451959 0 -0.1735479853981102 -0.32728394705986258 0 -0.1789381536340362 -0.33872308817907848 0 -0.1735479853981102 -0.32728394705986258 0 -0.1633245426028184 -0.34238590264286861 0 -0.17759103405270391 -0.30762984517719472 0 -0.1803928959391416 -0.31521744924658562 0 -0.16045592796399111 -0.3158724724459735 0 -0.19575919956014079 -0.31702437624003538 0 -0.1803928959391416 -0.31521744924658562 0 -0.18477851095256179 -0.32477614194451959 0 -0.1803928959391416 -0.31521744924658562 0 -0.18477851095256179 -0.32477614194451959 0 -0.1735479853981102 -0.32728394705986258 0 -0.1803928959391416 -0.31521744924658562 0 -0.1735479853981102 -0.32728394705986258 0 -0.16045592796399111 -0.3158724724459735 0 -0.1735479853981102 -0.32728394705986258 0 -0.16045592796399111 -0.3158724724459735 0 -0.1633245426028184 -0.34238590264286861 0 -0.16045592796399111 -0.3158724724459735 0 -0.1633245426028184 -0.34238590264286861 0 -0.1476770575246594 -0.3298450188736391 0 -0.16045592796399111 -0.3158724724459735 0 -0.1633245426028184 -0.34238590264286861 0 -0.1633245426028184 -0.34238590264286861 0 -0.15030263560259111 -0.34285112818916452 0 -0.1476770575246594 -0.3298450188736391 0 -0.1476770575246594 -0.3298450188736391 0 -0.14130665940473261 -0.32287327510069419 0 -0.13989838249203351 -0.33226752099114382 0 -0.1476770575246594 -0.3298450188736391 0 -0.14096893258994439 -0.33934882548262568 0 -0.13989838249203351 -0.33226752099114382 0 -0.15030263560259111 -0.34285112818916452 0 -0.1476770575246594 -0.3298450188736391 0 -0.14096893258994439 -0.33934882548262568 0 -0.15908619224911419 -0.30321256624142101 0 -0.14130665940473261 -0.32287327510069419 0 -0.16045592796399111 -0.3158724724459735 0 -0.1476770575246594 -0.3298450188736391 0 -0.14130665940473261 -0.32287327510069419 0 -0.15908619224911419 -0.30321256624142101 0 -0.16045592796399111 -0.3158724724459735 0 -0.14130665940473261 -0.32287327510069419 0 -0.16045592796399111 -0.3158724724459735 0 -0.1476770575246594 -0.3298450188736391 0 -0.14130665940473261 -0.32287327510069419 0 -0.12766342535057629 -0.32481504462803062 0 -0.13033731665847181 -0.31286393971371201 0 -0.14032160831301491 -0.30752887986621158 0 -0.14130665940473261 -0.32287327510069419 0 -0.13033731665847181 -0.31286393971371201 0 -0.14130665940473261 -0.32287327510069419 0 -0.12766342535057629 -0.32481504462803062 0 -0.12902917457320359 -0.33644978787578289 0 -0.12766342535057629 -0.32481504462803062 0 -0.12902917457320359 -0.33644978787578289 0 -0.123033176677132 -0.34308019655903149 0 -0.14096893258994439 -0.33934882548262568 0 -0.12902917457320359 -0.33644978787578289 0 -0.13366226850604379 -0.34759248760944123 0 -0.14096893258994439 -0.33934882548262568 0 -0.13989838249203351 -0.33226752099114382 0 -0.12902917457320359 -0.33644978787578289 0 -0.14130665940473261 -0.32287327510069419 0 -0.12902917457320359 -0.33644978787578289 0 -0.14130665940473261 -0.32287327510069419 0 -0.13989838249203351 -0.33226752099114382 0 -0.12902917457320359 -0.33644978787578289 0 -0.12902917457320359 -0.33644978787578289 0 -0.123033176677132 -0.34308019655903149 0 -0.12902917457320359 -0.33644978787578289 0 -0.13366226850604379 -0.34759248760944123 0 -0.123033176677132 -0.34308019655903149 0 -0.13366226850604379 -0.34759248760944123 0 -0.1303219987982592 -0.3665496015062627 0 -0.123033176677132 -0.34308019655903149 0 -0.1303219987982592 -0.3665496015062627 0 -0.123033176677132 -0.34308019655903149 0 -0.13366226850604379 -0.34759248760944123 0 -0.1435303466076166 -0.35184693234157938 0 -0.1303219987982592 -0.3665496015062627 0 -0.14096893258994439 -0.33934882548262568 0 -0.13366226850604379 -0.34759248760944123 0 -0.1435303466076166 -0.35184693234157938 0 -0.15030263560259111 -0.34285112818916452 0 -0.14096893258994439 -0.33934882548262568 0 -0.1435303466076166 -0.35184693234157938 0 -0.1435303466076166 -0.35184693234157938 0 -0.15433175674287769 -0.35458729317269139 0 -0.148308101659717 -0.36695316985008092 0 -0.1633245426028184 -0.34238590264286861 0 -0.15030263560259111 -0.34285112818916452 0 -0.15433175674287769 -0.35458729317269139 0 -0.15030263560259111 -0.34285112818916452 0 -0.1435303466076166 -0.35184693234157938 0 -0.15433175674287769 -0.35458729317269139 0 -0.1435303466076166 -0.35184693234157938 0 -0.148308101659717 -0.36695316985008092 0 -0.1303219987982592 -0.3665496015062627 0 -0.1369224961495438 -0.38192389563367207 0 -0.148308101659717 -0.36695316985008092 0 -0.1303219987982592 -0.3665496015062627 0 -0.1303219987982592 -0.3665496015062627 0 -0.1159926709000937 -0.36685414663024191 0 -0.11895596668836859 -0.34683008488337108 0 -0.1303219987982592 -0.3665496015062627 0 -0.1159926709000937 -0.36685414663024191 0 -0.12201267174342199 -0.37938718301114999 0 -0.1024060606807759 -0.36205135125861898 0 -0.1016559479587178 -0.38500202459504551 0 -0.1159926709000937 -0.36685414663024191 0 -0.1024060606807759 -0.36205135125861898 0 -0.1094440337948836 -0.37923577087639421 0 -0.1024060606807759 -0.36205135125861898 0 -0.1016559479587178 -0.38500202459504551 0 -0.095426438310298192 -0.37780241062099151 0 -0.1024060606807759 -0.36205135125861898 0 -0.090139611558562177 -0.37333304007799939 0 -0.095426438310298192 -0.37780241062099151 0 -0.1024060606807759 -0.36205135125861898 0 -0.093943439343664059 -0.36410026383479388 0 -0.090139611558562177 -0.37333304007799939 0 -0.1024060606807759 -0.36205135125861898 0 -0.093943439343664059 -0.36410026383479388 0 -0.095626283443773746 -0.35612124291623848 0 -0.1024060606807759 -0.36205135125861898 0 -0.090139611558562177 -0.37333304007799939 0 -0.1024060606807759 -0.36205135125861898 0 -0.1029439411344124 -0.34559419992324319 0 -0.1024060606807759 -0.36205135125861898 0 -0.1029439411344124 -0.34559419992324319 0 -0.11895596668836859 -0.34683008488337108 0 -0.1024060606807759 -0.36205135125861898 0 -0.095626283443773746 -0.35612124291623848 0 -0.1029439411344124 -0.34559419992324319 0 -0.095626283443773746 -0.35612124291623848 0 -0.1029439411344124 -0.34559419992324319 0 -0.093212578299404075 -0.34130700998995739 0 -0.1159926709000937 -0.36685414663024191 0 -0.1024060606807759 -0.36205135125861898 0 -0.11895596668836859 -0.34683008488337108 0 -0.1024060606807759 -0.36205135125861898 0 -0.11895596668836859 -0.34683008488337108 0 -0.1303219987982592 -0.3665496015062627 0 -0.11895596668836859 -0.34683008488337108 0 -0.123033176677132 -0.34308019655903149 0 -0.1029439411344124 -0.34559419992324319 0 -0.11895596668836859 -0.34683008488337108 0 -0.123033176677132 -0.34308019655903149 0 -0.11895596668836859 -0.34683008488337108 0 -0.123033176677132 -0.34308019655903149 0 -0.1029439411344124 -0.34559419992324319 0 -0.1137910684918501 -0.33520612369310882 0 -0.123033176677132 -0.34308019655903149 0 -0.123033176677132 -0.34308019655903149 0 -0.1159692764993048 -0.31568518943543378 0 -0.1137910684918501 -0.33520612369310882 0 -0.123033176677132 -0.34308019655903149 0 -0.1159692764993048 -0.31568518943543378 0 -0.12766342535057629 -0.32481504462803062 0 -0.123033176677132 -0.34308019655903149 0 -0.1159692764993048 -0.31568518943543378 0 -0.1137910684918501 -0.33520612369310882 0 -0.1159692764993048 -0.31568518943543378 0 -0.1034818215880495 -0.3291370485878673 0 -0.12766342535057629 -0.32481504462803062 0 -0.13033731665847181 -0.31286393971371201 0 -0.1159692764993048 -0.31568518943543378 0 -0.1159692764993048 -0.31568518943543378 0 -0.10079975883819629 -0.31506063040533638 0 -0.1034818215880495 -0.3291370485878673 0 -0.10079975883819629 -0.31506063040533638 0 -0.093212578299404075 -0.34130700998995739 0 -0.10079975883819629 -0.31506063040533638 0 -0.093212578299404075 -0.34130700998995739 0 -0.087373844159168004 -0.3291061545470132 0 -0.10079975883819629 -0.31506063040533638 0 -0.1034818215880495 -0.3291370485878673 0 -0.093212578299404075 -0.34130700998995739 0 -0.1029439411344124 -0.34559419992324319 0 -0.1034818215880495 -0.3291370485878673 0 -0.1029439411344124 -0.34559419992324319 0 -0.1034818215880495 -0.3291370485878673 0 -0.093212578299404075 -0.34130700998995739 0 -0.1029439411344124 -0.34559419992324319 0 -0.1137910684918501 -0.33520612369310882 0 -0.1034818215880495 -0.3291370485878673 0 -0.093212578299404075 -0.34130700998995739 0 -0.087373844159168004 -0.3291061545470132 0 -0.080908772255243899 -0.33898270124258217 0 -0.087373844159168004 -0.3291061545470132 0 -0.080908772255243899 -0.33898270124258217 0 -0.077490532230771417 -0.32991328235931511 0 -0.093212578299404075 -0.34130700998995739 0 -0.080908772255243899 -0.33898270124258217 0 -0.080378844364046895 -0.35001101873094542 0 -0.10079975883819629 -0.31506063040533638 0 -0.085305929108392881 -0.31951846990187233 0 -0.091873739319295072 -0.31122357941036211 0 -0.10079975883819629 -0.31506063040533638 0 -0.087373844159168004 -0.3291061545470132 0 -0.085305929108392881 -0.31951846990187233 0 -0.085305929108392881 -0.31951846990187233 0 -0.076805788315873161 -0.32077910918615782 0 -0.077490532230771417 -0.32991328235931511 0 -0.087373844159168004 -0.3291061545470132 0 -0.085305929108392881 -0.31951846990187233 0 -0.077490532230771417 -0.32991328235931511 0 -0.085305929108392881 -0.31951846990187233 0 -0.076805788315873161 -0.32077910918615782 0 -0.078544889372492196 -0.31002595631180607 0 -0.085305929108392881 -0.31951846990187233 0 -0.091873739319295072 -0.31122357941036211 0 -0.078544889372492196 -0.31002595631180607 0 -0.066882954587322394 -0.32486941793266988 0 -0.078544889372492196 -0.31002595631180607 0 -0.05424539878688571 -0.319762651601179 0 -0.078544889372492196 -0.31002595631180607 0 -0.05424539878688571 -0.319762651601179 0 -0.076805788315873161 -0.32077910918615782 0 -0.066882954587322394 -0.32486941793266988 0 -0.078544889372492196 -0.31002595631180607 0 -0.076805788315873161 -0.32077910918615782 0 -0.066882954587322394 -0.32486941793266988 0 -0.077490532230771417 -0.32991328235931511 0 -0.066882954587322394 -0.32486941793266988 0 -0.070160141916437824 -0.34098238217286791 0 -0.054527031800802053 -0.34042178362413461 0 -0.066882954587322394 -0.32486941793266988 0 -0.077490532230771417 -0.32991328235931511 0 -0.070160141916437824 -0.34098238217286791 0 -0.080908772255243899 -0.33898270124258217 0 -0.077490532230771417 -0.32991328235931511 0 -0.070160141916437824 -0.34098238217286791 0 -0.080908772255243899 -0.33898270124258217 0 -0.070160141916437824 -0.34098238217286791 0 -0.080378844364046895 -0.35001101873094542 0 -0.070160141916437824 -0.34098238217286791 0 -0.066522813126512412 -0.35680227137673098 0 -0.054527031800802053 -0.34042178362413461 0 -0.070160141916437824 -0.34098238217286791 0 -0.066522813126512412 -0.35680227137673098 0 -0.080378844364046895 -0.35001101873094542 0 -0.066522813126512412 -0.35680227137673098 0 -0.076582500297099523 -0.36039923154202719 0 -0.080378844364046895 -0.35001101873094542 0 -0.066522813126512412 -0.35680227137673098 0 -0.073802945937226916 -0.36723024648585417 0 -0.058387822440418388 -0.36975607908058028 0 -0.073802945937226916 -0.36723024648585417 0 -0.058387822440418388 -0.36975607908058028 0 -0.08170780991661282 -0.38109255286014232 0 -0.066522813126512412 -0.35680227137673098 0 -0.073802945937226916 -0.36723024648585417 0 -0.076582500297099523 -0.36039923154202719 0 -0.073802945937226916 -0.36723024648585417 0 -0.076582500297099523 -0.36039923154202719 0 -0.085625397760611066 -0.36755338957457828 0 -0.085625397760611066 -0.36755338957457828 0 -0.087954911787112483 -0.37534235041220648 0 -0.08170780991661282 -0.38109255286014232 0 -0.073802945937226916 -0.36723024648585417 0 -0.085625397760611066 -0.36755338957457828 0 -0.08170780991661282 -0.38109255286014232 0 -0.085625397760611066 -0.36755338957457828 0 -0.08170780991661282 -0.38109255286014232 0 -0.093943439343664059 -0.36410026383479388 0 -0.085625397760611066 -0.36755338957457828 0 -0.090139611558562177 -0.37333304007799939 0 -0.093943439343664059 -0.36410026383479388 0 -0.090139611558562177 -0.37333304007799939 0 -0.085625397760611066 -0.36755338957457828 0 -0.090139611558562177 -0.37333304007799939 0 -0.087954911787112483 -0.37534235041220648 0 -0.085625397760611066 -0.36755338957457828 0 -0.087954911787112483 -0.37534235041220648 0 -0.090139611558562177 -0.37333304007799939 0 -0.087954911787112483 -0.37534235041220648 0 -0.093943439343664059 -0.36410026383479388 0 -0.095626283443773746 -0.35612124291623848 0 -0.085625397760611066 -0.36755338957457828 0 -0.093212578299404075 -0.34130700998995739 0 -0.085625397760611066 -0.36755338957457828 0 -0.076582500297099523 -0.36039923154202719 0 -0.085625397760611066 -0.36755338957457828 0 -0.080378844364046895 -0.35001101873094542 0 -0.093212578299404075 -0.34130700998995739 0 -0.085625397760611066 -0.36755338957457828 0 -0.080378844364046895 -0.35001101873094542 0 -0.085625397760611066 -0.36755338957457828 0 -0.080378844364046895 -0.35001101873094542 0 -0.095626283443773746 -0.35612124291623848 0 -0.093212578299404075 -0.34130700998995739 0 -0.085625397760611066 -0.36755338957457828 0 -0.10474757541744149 -0.26087495970427582 0 -0.090174700483665673 -0.26498018187443112 0 -0.1005321994236209 -0.2431127607729493 0 -0.10474757541744149 -0.26087495970427582 0 -0.11757885349586771 -0.25701660664448461 0 -0.1005321994236209 -0.2431127607729493 0 -0.12855037573501921 -0.26115248962005239 0 -0.11757885349586771 -0.25701660664448461 0 -0.1127895441811773 -0.27358429336009982 0 -0.12855037573501921 -0.26115248962005239 0 -0.11757885349586771 -0.25701660664448461 0 -0.1223681628105569 -0.24044891992886891 0 -0.10474757541744149 -0.26087495970427582 0 -0.11757885349586771 -0.25701660664448461 0 -0.1127895441811773 -0.27358429336009982 0 -0.11757885349586771 -0.25701660664448461 0 -0.1127895441811773 -0.27358429336009982 0 -0.1257911728949061 -0.280427018304516 0 -0.12970248462840331 -0.2717774759070859 0 -0.1127895441811773 -0.27358429336009982 0 -0.12855037573501921 -0.26115248962005239 0 -0.1127895441811773 -0.27358429336009982 0 -0.12970248462840331 -0.2717774759070859 0 -0.12855037573501921 -0.26115248962005239 0 -0.1127895441811773 -0.27358429336009982 0 -0.1257911728949061 -0.280427018304516 0 -0.1127895441811773 -0.27358429336009982 0 -0.1194571486541455 -0.28746452468861589 0 -0.1127895441811773 -0.27358429336009982 0 -0.1083869393769897 -0.28881425082071571 0 -0.1127895441811773 -0.27358429336009982 0 -0.093274829049746905 -0.28897707944045958 0 -0.090174700483665673 -0.26498018187443112 0 -0.10474757541744149 -0.26087495970427582 0 -0.1127895441811773 -0.27358429336009982 0 -0.090174700483665673 -0.26498018187443112 0 -0.1127895441811773 -0.27358429336009982 0 -0.1067008731150054 -0.28283902414649681 0 -0.093274829049746905 -0.28897707944045958 0 -0.1127895441811773 -0.27358429336009982 0 -0.093274829049746905 -0.28897707944045958 0 -0.1083869393769897 -0.28881425082071571 0 -0.102844379958099 -0.30028926102243358 0 -0.093274829049746905 -0.28897707944045958 0 -0.1127895441811773 -0.27358429336009982 0 -0.1083869393769897 -0.28881425082071571 0 -0.1067008731150054 -0.28283902414649681 0 -0.1083869393769897 -0.28881425082071571 0 -0.1067008731150054 -0.28283902414649681 0 -0.1083869393769897 -0.28881425082071571 0 -0.1067008731150054 -0.28283902414649681 0 -0.093274829049746905 -0.28897707944045958 0 -0.1127895441811773 -0.27358429336009982 0 -0.1083869393769897 -0.28881425082071571 0 -0.1194571486541455 -0.28746452468861589 0 -0.12994370463312691 -0.28995419054763111 0 -0.1194571486541455 -0.28746452468861589 0 -0.12304085188452731 -0.29931348820209958 0 -0.1083869393769897 -0.28881425082071571 0 -0.1194571486541455 -0.28746452468861589 0 -0.12304085188452731 -0.29931348820209958 0 -0.1159692764993048 -0.31568518943543378 0 -0.1083869393769897 -0.28881425082071571 0 -0.12304085188452731 -0.29931348820209958 0 -0.1159692764993048 -0.31568518943543378 0 -0.1083869393769897 -0.28881425082071571 0 -0.13033731665847181 -0.31286393971371201 0 -0.1159692764993048 -0.31568518943543378 0 -0.12304085188452731 -0.29931348820209958 0 -0.1159692764993048 -0.31568518943543378 0 -0.10079975883819629 -0.31506063040533638 0 -0.1083869393769897 -0.28881425082071571 0 -0.10079975883819629 -0.31506063040533638 0 -0.1083869393769897 -0.28881425082071571 0 -0.10079975883819629 -0.31506063040533638 0 -0.1083869393769897 -0.28881425082071571 0 -0.102844379958099 -0.30028926102243358 0 -0.10079975883819629 -0.31506063040533638 0 -0.102844379958099 -0.30028926102243358 0 -0.091873739319295072 -0.31122357941036211 0 -0.078544889372492196 -0.31002595631180607 0 -0.073760113918316481 -0.30436986552081963 0 -0.093274829049746905 -0.28897707944045958 0 -0.102844379958099 -0.30028926102243358 0 -0.078544889372492196 -0.31002595631180607 0 -0.093274829049746905 -0.28897707944045958 0 -0.102844379958099 -0.30028926102243358 0 -0.091873739319295072 -0.31122357941036211 0 -0.078544889372492196 -0.31002595631180607 0 -0.102844379958099 -0.30028926102243358 0 -0.078544889372492196 -0.31002595631180607 0 -0.078544889372492196 -0.31002595631180607 0 -0.073760113918316481 -0.30436986552081963 0 -0.05424539878688571 -0.319762651601179 0 -0.073760113918316481 -0.30436986552081963 0 -0.05424539878688571 -0.319762651601179 0 -0.073760113918316481 -0.30436986552081963 0 -0.071188273097670243 -0.28513602236808322 0 -0.055748641784298267 -0.30178875706485681 0 -0.073760113918316481 -0.30436986552081963 0 -0.071188273097670243 -0.28513602236808322 0 -0.093274829049746905 -0.28897707944045958 0 -0.073760113918316481 -0.30436986552081963 0 -0.093274829049746905 -0.28897707944045958 0 -0.071188273097670243 -0.28513602236808322 0 -0.093274829049746905 -0.28897707944045958 0 -0.090174700483665673 -0.26498018187443112 0 -0.071188273097670243 -0.28513602236808322 0 -0.063484538676239377 -0.26413124226689111 0 -0.090174700483665673 -0.26498018187443112 0 -0.063484538676239377 -0.26413124226689111 0 -0.076282262678724011 -0.24169347649274159 0 -0.063484538676239377 -0.26413124226689111 0 -0.090174700483665673 -0.26498018187443112 0 -0.076282262678724011 -0.24169347649274159 0 -0.036942597034766073 -0.27265489088473938 0 -0.050686814673754729 -0.28656900804104057 0 -0.0185119813334658 -0.28327625011988139 0 -0.038581934025118947 -0.25114857380685968 0 -0.038334603868346327 -0.2604973367990705 0 -0.03064478186574425 -0.25326356670072259 0 -0.038334603868346327 -0.2604973367990705 0 -0.029413390480137139 -0.26518294325465769 0 -0.03064478186574425 -0.25326356670072259 0 -0.038334603868346327 -0.2604973367990705 0 -0.046517308340487992 -0.25474718453952289 0 -0.048289188575406587 -0.26955092917192058 0 -0.038581934025118947 -0.25114857380685968 0 -0.038334603868346327 -0.2604973367990705 0 -0.046517308340487992 -0.25474718453952289 0 -0.063484538676239377 -0.26413124226689111 0 -0.046517308340487992 -0.25474718453952289 0 -0.0567919256119837 -0.24387644547435741 0 -0.063484538676239377 -0.26413124226689111 0 -0.046517308340487992 -0.25474718453952289 0 -0.048289188575406587 -0.26955092917192058 0 -0.063484538676239377 -0.26413124226689111 0 -0.050686814673754729 -0.28656900804104057 0 -0.071188273097670243 -0.28513602236808322 0 -0.063484538676239377 -0.26413124226689111 0 -0.050686814673754729 -0.28656900804104057 0 -0.063484538676239377 -0.26413124226689111 0 -0.048289188575406587 -0.26955092917192058 0 -0.050686814673754729 -0.28656900804104057 0 -0.048289188575406587 -0.26955092917192058 0 -0.036942597034766073 -0.27265489088473938 0 -0.050686814673754729 -0.28656900804104057 0 -0.038334603868346327 -0.2604973367990705 0 -0.048289188575406587 -0.26955092917192058 0 -0.036942597034766073 -0.27265489088473938 0 -0.038334603868346327 -0.2604973367990705 0 -0.036942597034766073 -0.27265489088473938 0 -0.029413390480137139 -0.26518294325465769 0 -0.050686814673754729 -0.28656900804104057 0 -0.037889090671270123 -0.30900677381518998 0 -0.0185119813334658 -0.28327625011988139 0 -0.071188273097670243 -0.28513602236808322 0 -0.050686814673754729 -0.28656900804104057 0 -0.055748641784298267 -0.30178875706485681 0 -0.073760113918316481 -0.30436986552081963 0 -0.055748641784298267 -0.30178875706485681 0 -0.05424539878688571 -0.319762651601179 0 -0.055748641784298267 -0.30178875706485681 0 -0.037889090671270123 -0.30900677381518998 0 -0.05424539878688571 -0.319762651601179 0 -0.050686814673754729 -0.28656900804104057 0 -0.055748641784298267 -0.30178875706485681 0 -0.037889090671270123 -0.30900677381518998 0 -0.050686814673754729 -0.28656900804104057 0 -0.037889090671270123 -0.30900677381518998 0 -0.037889090671270123 -0.30900677381518998 0 -0.014390974368570029 -0.31032982847088841 0 -0.0185119813334658 -0.28327625011988139 0 -0.014390974368570029 -0.31032982847088841 0 0.001904989571353899 -0.32214434476741449 0 0.0019518825097332619 -0.30029273945570772 0 -0.014390974368570029 -0.31032982847088841 0 -0.0185119813334658 -0.28327625011988139 0 0.0019518825097332619 -0.30029273945570772 0 -0.0185119813334658 -0.28327625011988139 0 -0.0020851015340006161 -0.28052611142458661 0 0.0019518825097332619 -0.30029273945570772 0 -0.014390974368570029 -0.31032982847088841 0 -0.0185119813334658 -0.28327625011988139 0 -0.036942597034766073 -0.27265489088473938 0 -0.0185119813334658 -0.28327625011988139 0 -0.029413390480137139 -0.26518294325465769 0 -0.0185119813334658 -0.28327625011988139 0 -0.02263298829836323 -0.25622267176887481 0 -0.029413390480137139 -0.26518294325465769 0 -0.0185119813334658 -0.28327625011988139 0 -0.02263298829836323 -0.25622267176887481 0 -0.0185119813334658 -0.28327625011988139 0 -0.0093077836028632385 -0.27105033158696179 0 -0.02263298829836323 -0.25622267176887481 0 -0.0185119813334658 -0.28327625011988139 0 -0.0020851015340006161 -0.28052611142458661 0 -0.0093077836028632385 -0.27105033158696179 0 -0.0020851015340006161 -0.28052611142458661 0 -0.0093077836028632385 -0.27105033158696179 0 0.0055944649301708496 -0.26664830233551728 0 -0.014059514610042069 -0.25416210053859828 0 -0.02263298829836323 -0.25622267176887481 0 0.0055944649301708496 -0.26664830233551728 0 -0.0093077836028632385 -0.27105033158696179 0 -0.02263298829836323 -0.25622267176887481 0 0.0055944649301708496 -0.26664830233551728 0 -0.02263298829836323 -0.25622267176887481 0 0.0055944649301708496 -0.26664830233551728 0 -0.014059514610042069 -0.25416210053859828 0 -0.0080727856436109482 -0.2481099565327444 0 0.0055944649301708496 -0.26664830233551728 0 -0.014059514610042069 -0.25416210053859828 0 -0.01887874476148543 -0.24814250919209771 0 -0.0080727856436109482 -0.2481099565327444 0 -0.014059514610042069 -0.25416210053859828 0 -0.02263298829836323 -0.25622267176887481 0 -0.02285766608625657 -0.25474770747244752 0 -0.014059514610042069 -0.25416210053859828 0 -0.02285766608625657 -0.25474770747244752 0 -0.01887874476148543 -0.24814250919209771 0 -0.02285766608625657 -0.25474770747244752 0 -0.026067501294639708 -0.24850247980592871 0 -0.01887874476148543 -0.24814250919209771 0 -0.02263298829836323 -0.25622267176887481 0 -0.02285766608625657 -0.25474770747244752 0 -0.02263298829836323 -0.25622267176887481 0 -0.029413390480137139 -0.26518294325465769 0 -0.03064478186574425 -0.25326356670072259 0 -0.02263298829836323 -0.25622267176887481 0 -0.03064478186574425 -0.25326356670072259 0 -0.02263298829836323 -0.25622267176887481 0 -0.02285766608625657 -0.25474770747244752 0 -0.03064478186574425 -0.25326356670072259 0 -0.02285766608625657 -0.25474770747244752 0 -0.03064478186574425 -0.25326356670072259 0 -0.026067501294639708 -0.24850247980592871 0 -0.040780788735907937 -0.34809370153295588 0 -0.035070660285960877 -0.35841379707961513 0 -0.051335308585544609 -0.35442186843706669 0 -0.040780788735907937 -0.34809370153295588 0 -0.033802973987086503 -0.33588719504380232 0 -0.029167969020145641 -0.35132386348016093 0 -0.040780788735907937 -0.34809370153295588 0 -0.035070660285960877 -0.35841379707961513 0 -0.029167969020145641 -0.35132386348016093 0 -0.035070660285960877 -0.35841379707961513 0 -0.040000350022935588 -0.37213681664196291 0 -0.021437446366364531 -0.36359117576668931 0 -0.035070660285960877 -0.35841379707961513 0 -0.058387822440418388 -0.36975607908058028 0 -0.035070660285960877 -0.35841379707961513 0 -0.040000350022935588 -0.37213681664196291 0 -0.058387822440418388 -0.36975607908058028 0 -0.040000350022935588 -0.37213681664196291 0 -0.058387822440418388 -0.36975607908058028 0 -0.058563253679506787 -0.38068245751723601 0 -0.035070660285960877 -0.35841379707961513 0 -0.058387822440418388 -0.36975607908058028 0 -0.051335308585544609 -0.35442186843706669 0 -0.066522813126512412 -0.35680227137673098 0 -0.058387822440418388 -0.36975607908058028 0 -0.051335308585544609 -0.35442186843706669 0 -0.066522813126512412 -0.35680227137673098 0 -0.051335308585544609 -0.35442186843706669 0 -0.054527031800802053 -0.34042178362413461 0 -0.040780788735907937 -0.34809370153295588 0 -0.051335308585544609 -0.35442186843706669 0 -0.054527031800802053 -0.34042178362413461 0 -0.066882954587322394 -0.32486941793266988 0 -0.054527031800802053 -0.34042178362413461 0 -0.05424539878688571 -0.319762651601179 0 -0.054527031800802053 -0.34042178362413461 0 -0.05424539878688571 -0.319762651601179 0 -0.033802973987086503 -0.33588719504380232 0 -0.05424539878688571 -0.319762651601179 0 -0.039668382727836717 -0.32560359559526031 0 -0.05424539878688571 -0.319762651601179 0 -0.033802973987086503 -0.33588719504380232 0 -0.037889090671270123 -0.30900677381518998 0 -0.025091366668787349 -0.3314445395893405 0 -0.05424539878688571 -0.319762651601179 0 -0.039668382727836717 -0.32560359559526031 0 -0.033802973987086503 -0.33588719504380232 0 -0.037889090671270123 -0.30900677381518998 0 -0.05424539878688571 -0.319762651601179 0 -0.039668382727836717 -0.32560359559526031 0 -0.037889090671270123 -0.30900677381518998 0 -0.039668382727836717 -0.32560359559526031 0 -0.025091366668787349 -0.3314445395893405 0 -0.040780788735907937 -0.34809370153295588 0 -0.054527031800802053 -0.34042178362413461 0 -0.033802973987086503 -0.33588719504380232 0 -0.039668382727836717 -0.32560359559526031 0 -0.025091366668787349 -0.3314445395893405 0 -0.039668382727836717 -0.32560359559526031 0 -0.033802973987086503 -0.33588719504380232 0 -0.025091366668787349 -0.3314445395893405 0 -0.025091366668787349 -0.3314445395893405 0 -0.01336054918728761 -0.35201173848642592 0 -0.033802973987086503 -0.33588719504380232 0 -0.025091366668787349 -0.3314445395893405 0 -0.01336054918728761 -0.35201173848642592 0 -0.025091366668787349 -0.3314445395893405 0 -0.01532372128421448 -0.33535839064186268 0 -0.01336054918728761 -0.35201173848642592 0 -0.025091366668787349 -0.3314445395893405 0 -0.022734703789933738 -0.32728556430890232 0 -0.01532372128421448 -0.33535839064186268 0 -0.025091366668787349 -0.3314445395893405 0 -0.01532372128421448 -0.33535839064186268 0 -0.022734703789933738 -0.32728556430890232 0 -0.01532372128421448 -0.33535839064186268 0 -0.037889090671270123 -0.30900677381518998 0 -0.014390974368570029 -0.31032982847088841 0 -0.022734703789933738 -0.32728556430890232 0 -0.037889090671270123 -0.30900677381518998 0 -0.025091366668787349 -0.3314445395893405 0 -0.022734703789933738 -0.32728556430890232 0 -0.014390974368570029 -0.31032982847088841 0 -0.022734703789933738 -0.32728556430890232 0 -0.01532372128421448 -0.33535839064186268 0 -0.014390974368570029 -0.31032982847088841 0 -0.010269967403673339 -0.33738340682189533 0 -0.014390974368570029 -0.31032982847088841 0 -0.010269967403673339 -0.33738340682189533 0 -0.01532372128421448 -0.33535839064186268 0 -0.014390974368570029 -0.31032982847088841 0 -0.010269967403673339 -0.33738340682189533 0 0.001904989571353899 -0.32214434476741449 0 -0.010269967403673339 -0.33738340682189533 0 -0.0096343958099064687 -0.34155580596031437 0 0.0075807645751098419 -0.34453611388615663 0 -0.010269967403673339 -0.33738340682189533 0 0.0075807645751098419 -0.34453611388615663 0 -0.0096343958099064687 -0.34155580596031437 0 -0.01532372128421448 -0.33535839064186268 0 -0.01336054918728761 -0.35201173848642592 0 -0.010269967403673339 -0.33738340682189533 0 -0.0096343958099064687 -0.34155580596031437 0 -0.010269967403673339 -0.33738340682189533 0 -0.0096343958099064687 -0.34155580596031437 0 -0.01532372128421448 -0.33535839064186268 0 -0.0096343958099064687 -0.34155580596031437 0 -0.01532372128421448 -0.33535839064186268 0 -0.010269967403673339 -0.33738340682189533 0 -0.01532372128421448 -0.33535839064186268 0 -0.010269967403673339 -0.33738340682189533 0 0.0034794820758208261 -0.33361449123698089 0 0.001904989571353899 -0.32214434476741449 0 -0.0096343958099064687 -0.34155580596031437 0 -0.0070150904897389628 -0.35875101633193152 0 -0.0096343958099064687 -0.34155580596031437 0 -0.0070150904897389628 -0.35875101633193152 0 -0.01336054918728761 -0.35201173848642592 0 -0.0096343958099064687 -0.34155580596031437 0 -0.0070150904897389628 -0.35875101633193152 0 0.0099352179383349771 -0.36287309999936251 0 -0.033802973987086503 -0.33588719504380232 0 -0.01336054918728761 -0.35201173848642592 0 -0.029167969020145641 -0.35132386348016093 0 -0.01336054918728761 -0.35201173848642592 0 -0.029167969020145641 -0.35132386348016093 0 -0.021437446366364531 -0.36359117576668931 0 -0.033802973987086503 -0.33588719504380232 0 -0.01336054918728761 -0.35201173848642592 0 -0.035070660285960877 -0.35841379707961513 0 -0.029167969020145641 -0.35132386348016093 0 -0.021437446366364531 -0.36359117576668931 0 -0.040000350022935588 -0.37213681664196291 0 -0.021437446366364531 -0.36359117576668931 0 -0.02618172091304426 -0.37743656618445498 0 -0.021437446366364531 -0.36359117576668931 0 -0.002178803782163227 -0.37161627006544062 0 -0.02618172091304426 -0.37743656618445498 0 -0.040000350022935588 -0.37213681664196291 0 -0.021437446366364531 -0.36359117576668931 0 -0.01336054918728761 -0.35201173848642592 0 -0.021437446366364531 -0.36359117576668931 0 -0.002178803782163227 -0.37161627006544062 0 -0.01336054918728761 -0.35201173848642592 0 -0.002178803782163227 -0.37161627006544062 0 -0.0070150904897389628 -0.35875101633193152 0 -0.01336054918728761 -0.35201173848642592 0 -0.002178803782163227 -0.37161627006544062 0 -0.002178803782163227 -0.37161627006544062 0 -0.026336278995230201 -0.38905167830789189 0 -0.002178803782163227 -0.37161627006544062 0 -0.0066930742226519926 -0.39143820132839208 0 -0.026336278995230201 -0.38905167830789189 0 -0.0066930742226519926 -0.39143820132839208 0 -0.001728596279610697 -0.40597762003102339 0 -0.017737199096442072 -0.40073047040120602 0 -0.0066930742226519926 -0.39143820132839208 0 -0.017737199096442072 -0.40073047040120602 0 -0.026336278995230201 -0.38905167830789189 0 -0.017737199096442072 -0.40073047040120602 0 -0.026336278995230201 -0.38905167830789189 0 -0.033287388117186109 -0.40399871831440642 0 -0.002178803782163227 -0.37161627006544062 0 -0.026336278995230201 -0.38905167830789189 0 -0.02618172091304426 -0.37743656618445498 0 -0.026336278995230201 -0.38905167830789189 0 -0.02618172091304426 -0.37743656618445498 0 -0.033482850758781962 -0.383939184607547 0 -0.02618172091304426 -0.37743656618445498 0 -0.042372487296275553 -0.37905951185084519 0 -0.033482850758781962 -0.383939184607547 0 -0.02618172091304426 -0.37743656618445498 0 -0.042372487296275553 -0.37905951185084519 0 -0.040000350022935588 -0.37213681664196291 0 -0.02618172091304426 -0.37743656618445498 0 -0.042372487296275553 -0.37905951185084519 0 -0.042372487296275553 -0.37905951185084519 0 -0.039040915830577852 -0.39020898208699611 0 -0.049048127186911553 -0.38756594990863991 0 -0.042372487296275553 -0.37905951185084519 0 -0.039040915830577852 -0.39020898208699611 0 -0.033482850758781962 -0.383939184607547 0 -0.026336278995230201 -0.38905167830789189 0 -0.039040915830577852 -0.39020898208699611 0 -0.033482850758781962 -0.383939184607547 0 -0.026336278995230201 -0.38905167830789189 0 -0.050493754208297943 -0.40648708655034188 0 -0.039040915830577852 -0.39020898208699611 0 -0.048181286987745188 -0.3967611761759377 0 -0.050493754208297943 -0.40648708655034188 0 -0.026336278995230201 -0.38905167830789189 0 -0.039040915830577852 -0.39020898208699611 0 -0.050493754208297943 -0.40648708655034188 0 -0.026336278995230201 -0.38905167830789189 0 -0.033287388117186109 -0.40399871831440642 0 -0.050493754208297943 -0.40648708655034188 0 -0.039040915830577852 -0.39020898208699611 0 -0.048181286987745188 -0.3967611761759377 0 -0.049048127186911553 -0.38756594990863991 0 -0.048181286987745188 -0.3967611761759377 0 -0.055512870853615448 -0.39455951290216967 0 -0.049048127186911553 -0.38756594990863991 0 -0.055512870853615448 -0.39455951290216967 0 -0.052509649903146327 -0.40794203844841681 0 -0.074281153156084773 -0.38791836881244668 0 -0.048181286987745188 -0.3967611761759377 0 -0.055512870853615448 -0.39455951290216967 0 -0.050493754208297943 -0.40648708655034188 0 -0.055512870853615448 -0.39455951290216967 0 -0.052509649903146327 -0.40794203844841681 0 -0.050493754208297943 -0.40648708655034188 0 -0.048181286987745188 -0.3967611761759377 0 -0.050493754208297943 -0.40648708655034188 0 -0.040000350022935588 -0.37213681664196291 0 -0.042372487296275553 -0.37905951185084519 0 -0.058563253679506787 -0.38068245751723601 0 -0.042372487296275553 -0.37905951185084519 0 -0.058563253679506787 -0.38068245751723601 0 -0.040000350022935588 -0.37213681664196291 0 -0.058563253679506787 -0.38068245751723601 0 -0.042372487296275553 -0.37905951185084519 0 -0.058563253679506787 -0.38068245751723601 0 -0.049048127186911553 -0.38756594990863991 0 -0.055512870853615448 -0.39455951290216967 0 -0.058563253679506787 -0.38068245751723601 0 -0.049048127186911553 -0.38756594990863991 0 -0.055571169944573007 -0.4278419796903028 0 -0.060002998013559863 -0.44648162232419802 0 -0.069408814394604765 -0.42365151461769918 0 -0.055571169944573007 -0.4278419796903028 0 -0.060002998013559863 -0.44648162232419802 0 -0.055571169944573007 -0.4278419796903028 0 -0.04142135733128624 -0.43391233418184683 0 -0.048623679129421588 -0.44273110985945369 0 -0.055571169944573007 -0.4278419796903028 0 -0.059775586818595829 -0.41787661413097049 0 -0.069408814394604765 -0.42365151461769918 0 -0.055571169944573007 -0.4278419796903028 0 -0.059775586818595829 -0.41787661413097049 0 -0.052509649903146327 -0.40794203844841681 0 -0.055571169944573007 -0.4278419796903028 0 -0.052509649903146327 -0.40794203844841681 0 -0.038621424185474637 -0.4207153063468223 0 -0.055571169944573007 -0.4278419796903028 0 -0.052509649903146327 -0.40794203844841681 0 -0.052509649903146327 -0.40794203844841681 0 -0.070248957975066639 -0.42074520084202788 0 -0.059775586818595829 -0.41787661413097049 0 -0.052509649903146327 -0.40794203844841681 0 -0.070248957975066639 -0.42074520084202788 0 -0.052509649903146327 -0.40794203844841681 0 -0.050493754208297943 -0.40648708655034188 0 -0.041470954428671609 -0.41006675355118111 0 -0.052509649903146327 -0.40794203844841681 0 -0.050493754208297943 -0.40648708655034188 0 -0.052509649903146327 -0.40794203844841681 0 -0.038621424185474637 -0.4207153063468223 0 -0.033287388117186109 -0.40399871831440642 0 -0.050493754208297943 -0.40648708655034188 0 -0.041470954428671609 -0.41006675355118111 0 -0.052509649903146327 -0.40794203844841681 0 -0.041470954428671609 -0.41006675355118111 0 -0.038621424185474637 -0.4207153063468223 0 -0.033287388117186109 -0.40399871831440642 0 -0.041470954428671609 -0.41006675355118111 0 -0.027792962261932352 -0.41547375898907968 0 -0.041470954428671609 -0.41006675355118111 0 -0.038621424185474637 -0.4207153063468223 0 -0.027792962261932352 -0.41547375898907968 0 -0.055571169944573007 -0.4278419796903028 0 -0.038621424185474637 -0.4207153063468223 0 -0.04142135733128624 -0.43391233418184683 0 -0.038621424185474637 -0.4207153063468223 0 -0.026103506495360269 -0.43222827563723731 0 -0.038621424185474637 -0.4207153063468223 0 -0.04142135733128624 -0.43391233418184683 0 -0.026103506495360269 -0.43222827563723731 0 -0.04142135733128624 -0.43391233418184683 0 -0.026103506495360269 -0.43222827563723731 0 -0.035662081446574762 -0.44437129177822371 0 -0.026103506495360269 -0.43222827563723731 0 -0.027792962261932352 -0.41547375898907968 0 -0.009537301248459449 -0.42510302968362512 0 -0.026103506495360269 -0.43222827563723731 0 -0.009537301248459449 -0.42510302968362512 0 -0.019709463090837601 -0.44530454005801179 0 -0.038621424185474637 -0.4207153063468223 0 -0.026103506495360269 -0.43222827563723731 0 -0.027792962261932352 -0.41547375898907968 0 -0.017737199096442072 -0.40073047040120602 0 -0.027792962261932352 -0.41547375898907968 0 -0.009537301248459449 -0.42510302968362512 0 -0.017737199096442072 -0.40073047040120602 0 -0.033287388117186109 -0.40399871831440642 0 -0.027792962261932352 -0.41547375898907968 0 -0.001728596279610697 -0.40597762003102339 0 -0.017737199096442072 -0.40073047040120602 0 -0.009537301248459449 -0.42510302968362512 0 -0.017737199096442072 -0.40073047040120602 0 -0.009537301248459449 -0.42510302968362512 0 -0.001728596279610697 -0.40597762003102339 0 -0.009537301248459449 -0.42510302968362512 0 0.0082246319185010179 -0.41465428951275207 0 -0.009537301248459449 -0.42510302968362512 0 -0.0013374034004768371 -0.44947558896604423 0 -0.009537301248459449 -0.42510302968362512 0 -0.0013374034004768371 -0.44947558896604423 0 0.01039378864355619 -0.42848339288335913 0 -0.009537301248459449 -0.42510302968362512 0 -0.0013374034004768371 -0.44947558896604423 0 -0.019709463090837601 -0.44530454005801179 0 -0.0013374034004768371 -0.44947558896604423 0 -0.014612752260004851 -0.46155177919014362 0 -0.019709463090837601 -0.44530454005801179 0 -0.0013374034004768371 -0.44947558896604423 0 -0.014612752260004851 -0.46155177919014362 0 0.0068624944475057766 -0.47384814824846327 0 -0.014612752260004851 -0.46155177919014362 0 -0.028521420705905499 -0.4674310816654948 0 -0.030789477839635839 -0.45543267362212791 0 -0.014612752260004851 -0.46155177919014362 0 -0.030789477839635839 -0.45543267362212791 0 -0.019709463090837601 -0.44530454005801179 0 -0.030789477839635839 -0.45543267362212791 0 -0.019709463090837601 -0.44530454005801179 0 -0.035662081446574762 -0.44437129177822371 0 -0.026103506495360269 -0.43222827563723731 0 -0.019709463090837601 -0.44530454005801179 0 -0.035662081446574762 -0.44437129177822371 0 -0.015217900669161011 -0.5 0 -0.01418124297067914 -0.47781864258071971 0 0.0024053695883212941 -0.48891336768777249 0 -0.01418124297067914 -0.47781864258071971 0 0.0068624944475057766 -0.47384814824846327 0 0.0024053695883212941 -0.48891336768777249 0 -0.014612752260004851 -0.46155177919014362 0 -0.01418124297067914 -0.47781864258071971 0 0.0068624944475057766 -0.47384814824846327 0 -0.014612752260004851 -0.46155177919014362 0 -0.028521420705905499 -0.4674310816654948 0 -0.01418124297067914 -0.47781864258071971 0 -0.028521420705905499 -0.4674310816654948 0 -0.01418124297067914 -0.47781864258071971 0 -0.027752274071966478 -0.47742461628286209 0 -0.015217900669161011 -0.5 0 -0.027752274071966478 -0.47742461628286209 0 -0.038171784631523778 -0.48284131767108018 0 -0.015217900669161011 -0.5 0 -0.01418124297067914 -0.47781864258071971 0 -0.027752274071966478 -0.47742461628286209 0 -0.015217900669161011 -0.5 0 -0.043972809743024373 -0.5 0 -0.038171784631523778 -0.48284131767108018 0 -0.043972809743024373 -0.5 0 -0.038171784631523778 -0.48284131767108018 0 -0.049841179956411519 -0.48183723669954598 0 -0.038171784631523778 -0.48284131767108018 0 -0.048675315621036823 -0.47094071089761919 0 -0.038171784631523778 -0.48284131767108018 0 -0.048675315621036823 -0.47094071089761919 0 -0.049841179956411519 -0.48183723669954598 0 -0.027752274071966478 -0.47742461628286209 0 -0.038171784631523778 -0.48284131767108018 0 -0.038764373548703768 -0.47063519779216179 0 -0.028521420705905499 -0.4674310816654948 0 -0.027752274071966478 -0.47742461628286209 0 -0.038764373548703768 -0.47063519779216179 0 -0.038764373548703768 -0.47063519779216179 0 -0.048675315621036823 -0.47094071089761919 0 -0.045335619097383061 -0.46570514195792412 0 -0.038171784631523778 -0.48284131767108018 0 -0.038764373548703768 -0.47063519779216179 0 -0.048675315621036823 -0.47094071089761919 0 -0.048675315621036823 -0.47094071089761919 0 -0.055120034750126161 -0.47128965669693351 0 -0.049841179956411519 -0.48183723669954598 0 -0.048675315621036823 -0.47094071089761919 0 -0.055120034750126161 -0.47128965669693351 0 -0.057384894248553399 -0.46524593439390849 0 -0.055120034750126161 -0.47128965669693351 0 -0.059149819292987238 -0.47777467248794547 0 -0.064422500494955764 -0.4650694252783244 0 -0.059149819292987238 -0.47777467248794547 0 -0.049841179956411519 -0.48183723669954598 0 -0.058853327493046781 -0.48842932436532971 0 -0.055120034750126161 -0.47128965669693351 0 -0.059149819292987238 -0.47777467248794547 0 -0.049841179956411519 -0.48183723669954598 0 -0.059149819292987238 -0.47777467248794547 0 -0.058853327493046781 -0.48842932436532971 0 -0.068575109655922298 -0.48253471263916042 0 -0.043972809743024373 -0.5 0 -0.058853327493046781 -0.48842932436532971 0 -0.072727718816887776 -0.49999999999999672 0 -0.043972809743024373 -0.5 0 -0.049841179956411519 -0.48183723669954598 0 -0.058853327493046781 -0.48842932436532971 0 -0.045123684251444827 -0.45223268167437758 0 -0.035662081446574762 -0.44437129177822371 0 -0.048623679129421588 -0.44273110985945369 0 -0.04142135733128624 -0.43391233418184683 0 -0.035662081446574762 -0.44437129177822371 0 -0.048623679129421588 -0.44273110985945369 0 -0.030789477839635839 -0.45543267362212791 0 -0.045123684251444827 -0.45223268167437758 0 -0.035662081446574762 -0.44437129177822371 0 -0.030789477839635839 -0.45543267362212791 0 -0.045123684251444827 -0.45223268167437758 0 -0.04007978340352341 -0.46172459869688548 0 -0.028521420705905499 -0.4674310816654948 0 -0.030789477839635839 -0.45543267362212791 0 -0.04007978340352341 -0.46172459869688548 0 -0.028521420705905499 -0.4674310816654948 0 -0.038764373548703768 -0.47063519779216179 0 -0.04007978340352341 -0.46172459869688548 0 -0.038764373548703768 -0.47063519779216179 0 -0.04007978340352341 -0.46172459869688548 0 -0.045335619097383061 -0.46570514195792412 0 -0.04007978340352341 -0.46172459869688548 0 -0.045335619097383061 -0.46570514195792412 0 -0.047248161051959649 -0.4591011094540644 0 -0.045123684251444827 -0.45223268167437758 0 -0.04007978340352341 -0.46172459869688548 0 -0.047248161051959649 -0.4591011094540644 0 -0.045123684251444827 -0.45223268167437758 0 -0.050581796861615229 -0.45333412325219669 0 -0.047248161051959649 -0.4591011094540644 0 -0.050581796861615229 -0.45333412325219669 0 -0.047248161051959649 -0.4591011094540644 0 -0.051910461861691633 -0.46612409294888979 0 -0.051910461861691633 -0.46612409294888979 0 -0.05917884661055 -0.4590401041241583 0 -0.060002998013559863 -0.44648162232419802 0 -0.051910461861691633 -0.46612409294888979 0 -0.060002998013559863 -0.44648162232419802 0 -0.050581796861615229 -0.45333412325219669 0 -0.051910461861691633 -0.46612409294888979 0 -0.060002998013559863 -0.44648162232419802 0 -0.048675315621036823 -0.47094071089761919 0 -0.05917884661055 -0.4590401041241583 0 -0.048675315621036823 -0.47094071089761919 0 -0.051910461861691633 -0.46612409294888979 0 -0.05917884661055 -0.4590401041241583 0 -0.048675315621036823 -0.47094071089761919 0 -0.045335619097383061 -0.46570514195792412 0 -0.051910461861691633 -0.46612409294888979 0 -0.045335619097383061 -0.46570514195792412 0 -0.047248161051959649 -0.4591011094540644 0 -0.051910461861691633 -0.46612409294888979 0 -0.055120034750126161 -0.47128965669693351 0 -0.057384894248553399 -0.46524593439390849 0 -0.064422500494955764 -0.4650694252783244 0 -0.048675315621036823 -0.47094071089761919 0 -0.057384894248553399 -0.46524593439390849 0 -0.05917884661055 -0.4590401041241583 0 -0.057384894248553399 -0.46524593439390849 0 -0.05917884661055 -0.4590401041241583 0 -0.059237257045792073 -0.46090013765886428 0 -0.064422500494955764 -0.4650694252783244 0 -0.057384894248553399 -0.46524593439390849 0 -0.059237257045792073 -0.46090013765886428 0 -0.064422500494955764 -0.4650694252783244 0 -0.057384894248553399 -0.46524593439390849 0 -0.059237257045792073 -0.46090013765886428 0 -0.05917884661055 -0.4590401041241583 0 -0.059237257045792073 -0.46090013765886428 0 -0.062180371227510647 -0.45563934639583059 0 -0.064422500494955764 -0.4650694252783244 0 -0.059237257045792073 -0.46090013765886428 0 -0.05917884661055 -0.4590401041241583 0 -0.062180371227510647 -0.45563934639583059 0 -0.05917884661055 -0.4590401041241583 0 -0.062180371227510647 -0.45563934639583059 0 -0.05917884661055 -0.4590401041241583 0 -0.061269440441321127 -0.45180810022505591 0 -0.05917884661055 -0.4590401041241583 0 -0.062180371227510647 -0.45563934639583059 0 -0.061269440441321127 -0.45180810022505591 0 -0.062180371227510647 -0.45563934639583059 0 -0.061269440441321127 -0.45180810022505591 0 -0.055571169944573007 -0.4278419796903028 0 -0.060002998013559863 -0.44648162232419802 0 -0.048623679129421588 -0.44273110985945369 0 -0.05917884661055 -0.4590401041241583 0 -0.061269440441321127 -0.45180810022505591 0 -0.060002998013559863 -0.44648162232419802 0 -0.061269440441321127 -0.45180810022505591 0 -0.060002998013559863 -0.44648162232419802 0 -0.050581796861615229 -0.45333412325219669 0 -0.060002998013559863 -0.44648162232419802 0 -0.048623679129421588 -0.44273110985945369 0 -0.045123684251444827 -0.45223268167437758 0 -0.050581796861615229 -0.45333412325219669 0 -0.048623679129421588 -0.44273110985945369 0 -0.061269440441321127 -0.45180810022505591 0 -0.069408814394604765 -0.42365151461769918 0 -0.062180371227510647 -0.45563934639583059 0 -0.061269440441321127 -0.45180810022505591 0 -0.077098496045509793 -0.43873696019506903 0 -0.062180371227510647 -0.45563934639583059 0 -0.077098496045509793 -0.43873696019506903 0 -0.073769461018799692 -0.45951707792468061 0 -0.061269440441321127 -0.45180810022505591 0 -0.077098496045509793 -0.43873696019506903 0 -0.069408814394604765 -0.42365151461769918 0 -0.061269440441321127 -0.45180810022505591 0 -0.060002998013559863 -0.44648162232419802 0 -0.069408814394604765 -0.42365151461769918 0 -0.062180371227510647 -0.45563934639583059 0 -0.077098496045509793 -0.43873696019506903 0 -0.062180371227510647 -0.45563934639583059 0 -0.064422500494955764 -0.4650694252783244 0 -0.062180371227510647 -0.45563934639583059 0 -0.064422500494955764 -0.4650694252783244 0 -0.073769461018799692 -0.45951707792468061 0 -0.084521355142842869 -0.45759592347480388 0 -0.086143661312174283 -0.48253471263916248 0 -0.099165393688022629 -0.46120376842987459 0 -0.073769461018799692 -0.45951707792468061 0 -0.084521355142842869 -0.45759592347480388 0 -0.086143661312174283 -0.48253471263916248 0 -0.084521355142842869 -0.45759592347480388 0 -0.089624247433654214 -0.44685599598904568 0 -0.099165393688022629 -0.46120376842987459 0 -0.077098496045509793 -0.43873696019506903 0 -0.084521355142842869 -0.45759592347480388 0 -0.089624247433654214 -0.44685599598904568 0 -0.077098496045509793 -0.43873696019506903 0 -0.073769461018799692 -0.45951707792468061 0 -0.084521355142842869 -0.45759592347480388 0 -0.089624247433654214 -0.44685599598904568 0 -0.099878095611554862 -0.4393977270813314 0 -0.089545628933694749 -0.43673796215895883 0 -0.077098496045509793 -0.43873696019506903 0 -0.089624247433654214 -0.44685599598904568 0 -0.089545628933694749 -0.43673796215895883 0 -0.072727718816887776 -0.49999999999999672 0 -0.068575109655922298 -0.48253471263916042 0 -0.058853327493046781 -0.48842932436532971 0 -0.072727718816887776 -0.49999999999999672 0 -0.068575109655922298 -0.48253471263916042 0 -0.072727718816887776 -0.49999999999999672 0 -0.068575109655922298 -0.48253471263916042 0 -0.086143661312174283 -0.48253471263916248 0 -0.064422500494955764 -0.4650694252783244 0 -0.068575109655922298 -0.48253471263916042 0 -0.059149819292987238 -0.47777467248794547 0 -0.064422500494955764 -0.4650694252783244 0 -0.068575109655922298 -0.48253471263916042 0 -0.064422500494955764 -0.4650694252783244 0 -0.073769461018799692 -0.45951707792468061 0 -0.086143661312174283 -0.48253471263916248 0 -0.064422500494955764 -0.4650694252783244 0 -0.068575109655922298 -0.48253471263916042 0 -0.086143661312174283 -0.48253471263916248 0 -0.064422500494955764 -0.4650694252783244 0 -0.086143661312174283 -0.48253471263916248 0 -0.072727718816887776 -0.49999999999999672 0 -0.086143661312174283 -0.48253471263916248 0 -0.090296270473140428 -0.5 0 -0.086143661312174283 -0.48253471263916248 0 -0.090296270473140428 -0.5 0 -0.10786482212939311 -0.50000000000000011 0 -0.086143661312174283 -0.48253471263916248 0 -0.10786482212939311 -0.50000000000000011 0 -0.086143661312174283 -0.48253471263916248 0 -0.10786482212939311 -0.50000000000000011 0 -0.1056577076014347 -0.47999846360012538 0 -0.086143661312174283 -0.48253471263916248 0 -0.1056577076014347 -0.47999846360012538 0 -0.099165393688022629 -0.46120376842987459 0 -0.1056577076014347 -0.47999846360012538 0 -0.12108079434187891 -0.47202921183540031 0 -0.099165393688022629 -0.46120376842987459 0 -0.1056577076014347 -0.47999846360012538 0 -0.12108079434187891 -0.47202921183540031 0 -0.1206292342060253 -0.48641385964910883 0 -0.131118449396015 -0.5 0 -0.10786482212939311 -0.50000000000000011 0 -0.1206292342060253 -0.48641385964910883 0 -0.10786482212939311 -0.50000000000000011 0 -0.1056577076014347 -0.47999846360012538 0 -0.1206292342060253 -0.48641385964910883 0 -0.099878095611554862 -0.4393977270813314 0 -0.099165393688022629 -0.46120376842987459 0 -0.099878095611554862 -0.4393977270813314 0 -0.099165393688022629 -0.46120376842987459 0 -0.11615585050415531 -0.45102464773050138 0 -0.089624247433654214 -0.44685599598904568 0 -0.099878095611554862 -0.4393977270813314 0 -0.099165393688022629 -0.46120376842987459 0 -0.12108079434187891 -0.47202921183540031 0 -0.099165393688022629 -0.46120376842987459 0 -0.11615585050415531 -0.45102464773050138 0 -0.13077987840644981 -0.46069854066347632 0 -0.12108079434187891 -0.47202921183540031 0 -0.11615585050415531 -0.45102464773050138 0 -0.13194602454298601 -0.43962244526902572 0 -0.11615585050415531 -0.45102464773050138 0 -0.1129403580353462 -0.43280081863281078 0 -0.099878095611554862 -0.4393977270813314 0 -0.11615585050415531 -0.45102464773050138 0 -0.1129403580353462 -0.43280081863281078 0 -0.13194602454298601 -0.43962244526902572 0 -0.1165997240041481 -0.41847011486561592 0 -0.13194602454298601 -0.43962244526902572 0 -0.1129403580353462 -0.43280081863281078 0 -0.1165997240041481 -0.41847011486561592 0 -0.1129403580353462 -0.43280081863281078 0 -0.1079125428112538 -0.41892639524425412 0 -0.1165997240041481 -0.41847011486561592 0 -0.099878095611554862 -0.4393977270813314 0 -0.100590797535087 -0.41759168573278821 0 -0.092016620863508841 -0.4218345739943074 0 -0.099878095611554862 -0.4393977270813314 0 -0.089545628933694749 -0.43673796215895883 0 -0.092016620863508841 -0.4218345739943074 0 -0.099878095611554862 -0.4393977270813314 0 -0.1129403580353462 -0.43280081863281078 0 -0.10283731640903 -0.42510314405888588 0 -0.099878095611554862 -0.4393977270813314 0 -0.100590797535087 -0.41759168573278821 0 -0.099878095611554862 -0.4393977270813314 0 -0.10283731640903 -0.42510314405888588 0 -0.100590797535087 -0.41759168573278821 0 -0.1129403580353462 -0.43280081863281078 0 -0.10283731640903 -0.42510314405888588 0 -0.1079125428112538 -0.41892639524425412 0 -0.100590797535087 -0.41759168573278821 0 -0.1012534234653099 -0.39731778446220639 0 -0.1165997240041481 -0.41847011486561592 0 -0.1012534234653099 -0.39731778446220639 0 -0.100590797535087 -0.41759168573278821 0 -0.094499944748829334 -0.39722631626938482 0 -0.088610052547492879 -0.41006814396079783 0 -0.100590797535087 -0.41759168573278821 0 -0.1079125428112538 -0.41892639524425412 0 -0.1012534234653099 -0.39731778446220639 0 -0.100590797535087 -0.41759168573278821 0 -0.094499944748829334 -0.39722631626938482 0 -0.1079125428112538 -0.41892639524425412 0 -0.1165997240041481 -0.41847011486561592 0 -0.1012534234653099 -0.39731778446220639 0 -0.10283731640903 -0.42510314405888588 0 -0.100590797535087 -0.41759168573278821 0 -0.1079125428112538 -0.41892639524425412 0 -0.10283731640903 -0.42510314405888588 0 -0.100590797535087 -0.41759168573278821 0 -0.12592730430259419 -0.40432488328170318 0 -0.1165997240041481 -0.41847011486561592 0 -0.1152538145686829 -0.39895411709426332 0 -0.1165997240041481 -0.41847011486561592 0 -0.1152538145686829 -0.39895411709426332 0 -0.1012534234653099 -0.39731778446220639 0 -0.12526638733901391 -0.39147447277512609 0 -0.12592730430259419 -0.40432488328170318 0 -0.1152538145686829 -0.39895411709426332 0 -0.12526638733901391 -0.39147447277512609 0 -0.1152538145686829 -0.39895411709426332 0 -0.1147112201852714 -0.38836266809632891 0 -0.1152538145686829 -0.39895411709426332 0 -0.1147112201852714 -0.38836266809632891 0 -0.1077648281157602 -0.39377477908459929 0 -0.12526638733901391 -0.39147447277512609 0 -0.12201267174342199 -0.37938718301114999 0 -0.1147112201852714 -0.38836266809632891 0 -0.1147112201852714 -0.38836266809632891 0 -0.1094440337948836 -0.37923577087639421 0 -0.1073228884697877 -0.3875649225559597 0 -0.1147112201852714 -0.38836266809632891 0 -0.1073228884697877 -0.3875649225559597 0 -0.1077648281157602 -0.39377477908459929 0 -0.12201267174342199 -0.37938718301114999 0 -0.1147112201852714 -0.38836266809632891 0 -0.1094440337948836 -0.37923577087639421 0 -0.1159926709000937 -0.36685414663024191 0 -0.12201267174342199 -0.37938718301114999 0 -0.1094440337948836 -0.37923577087639421 0 -0.1024060606807759 -0.36205135125861898 0 -0.1094440337948836 -0.37923577087639421 0 -0.1016559479587178 -0.38500202459504551 0 -0.1094440337948836 -0.37923577087639421 0 -0.1016559479587178 -0.38500202459504551 0 -0.1073228884697877 -0.3875649225559597 0 -0.1016559479587178 -0.38500202459504551 0 -0.1014693111655476 -0.390712419775258 0 -0.1016559479587178 -0.38500202459504551 0 -0.1073228884697877 -0.3875649225559597 0 -0.1014693111655476 -0.390712419775258 0 -0.1016559479587178 -0.38500202459504551 0 -0.091585827134305964 -0.3839926061052007 0 -0.1016559479587178 -0.38500202459504551 0 -0.1014693111655476 -0.390712419775258 0 -0.093729726096669103 -0.3869476153003294 0 -0.1016559479587178 -0.38500202459504551 0 -0.091585827134305964 -0.3839926061052007 0 -0.093729726096669103 -0.3869476153003294 0 -0.1014693111655476 -0.390712419775258 0 -0.093729726096669103 -0.3869476153003294 0 -0.1016559479587178 -0.38500202459504551 0 -0.095426438310298192 -0.37780241062099151 0 -0.091585827134305964 -0.3839926061052007 0 -0.100590797535087 -0.41759168573278821 0 -0.1012534234653099 -0.39731778446220639 0 -0.099487365185966847 -0.39952233119993291 0 -0.100590797535087 -0.41759168573278821 0 -0.094499944748829334 -0.39722631626938482 0 -0.099487365185966847 -0.39952233119993291 0 -0.1152538145686829 -0.39895411709426332 0 -0.1077648281157602 -0.39377477908459929 0 -0.1012534234653099 -0.39731778446220639 0 -0.1073228884697877 -0.3875649225559597 0 -0.1077648281157602 -0.39377477908459929 0 -0.1014693111655476 -0.390712419775258 0 -0.1077648281157602 -0.39377477908459929 0 -0.1012534234653099 -0.39731778446220639 0 -0.1014693111655476 -0.390712419775258 0 -0.1077648281157602 -0.39377477908459929 0 -0.1014693111655476 -0.390712419775258 0 -0.1012534234653099 -0.39731778446220639 0 -0.094499944748829334 -0.39722631626938482 0 -0.099487365185966847 -0.39952233119993291 0 -0.1012534234653099 -0.39731778446220639 0 -0.094499944748829334 -0.39722631626938482 0 -0.093729726096669103 -0.3869476153003294 0 -0.1012534234653099 -0.39731778446220639 0 -0.1014693111655476 -0.390712419775258 0 -0.093729726096669103 -0.3869476153003294 0 -0.1012534234653099 -0.39731778446220639 0 -0.093729726096669103 -0.3869476153003294 0 -0.1012534234653099 -0.39731778446220639 0 -0.1014693111655476 -0.390712419775258 0 -0.094499944748829334 -0.39722631626938482 0 -0.099487365185966847 -0.39952233119993291 0 -0.094499944748829334 -0.39722631626938482 0 -0.085553154766675646 -0.40134027138503481 0 -0.088610052547492879 -0.41006814396079783 0 -0.094499944748829334 -0.39722631626938482 0 -0.082560309743270749 -0.39172977139542609 0 -0.085553154766675646 -0.40134027138503481 0 -0.094499944748829334 -0.39722631626938482 0 -0.082560309743270749 -0.39172977139542609 0 -0.091033556626635648 -0.38563610430902873 0 -0.094499944748829334 -0.39722631626938482 0 -0.082560309743270749 -0.39172977139542609 0 -0.094499944748829334 -0.39722631626938482 0 -0.091033556626635648 -0.38563610430902873 0 -0.082560309743270749 -0.39172977139542609 0 -0.079097438192195432 -0.39013559964190198 0 -0.074673198083630793 -0.40544040024196493 0 -0.082560309743270749 -0.39172977139542609 0 -0.079097438192195432 -0.39013559964190198 0 -0.082560309743270749 -0.39172977139542609 0 -0.076542312027108539 -0.406336853914531 0 -0.082560309743270749 -0.39172977139542609 0 -0.085553154766675646 -0.40134027138503481 0 -0.076542312027108539 -0.406336853914531 0 -0.085553154766675646 -0.40134027138503481 0 -0.076542312027108539 -0.406336853914531 0 -0.088610052547492879 -0.41006814396079783 0 -0.090139611558562177 -0.37333304007799939 0 -0.088525620654428705 -0.37725057202694517 0 -0.088525620654428705 -0.37725057202694517 0 -0.087954911787112483 -0.37534235041220648 0 -0.08170780991661282 -0.38109255286014232 0 -0.090139611558562177 -0.37333304007799939 0 -0.088525620654428705 -0.37725057202694517 0 -0.087954911787112483 -0.37534235041220648 0 -0.088525620654428705 -0.37725057202694517 0 -0.087954911787112483 -0.37534235041220648 0 -0.090139611558562177 -0.37333304007799939 0 -0.095426438310298192 -0.37780241062099151 0 -0.088525620654428705 -0.37725057202694517 0 -0.088525620654428705 -0.37725057202694517 0 -0.091585827134305964 -0.3839926061052007 0 -0.095426438310298192 -0.37780241062099151 0 -0.088525620654428705 -0.37725057202694517 0 -0.091585827134305964 -0.3839926061052007 0 -0.088525620654428705 -0.37725057202694517 0 -0.086634605294488312 -0.38349630075200858 0 -0.088525620654428705 -0.37725057202694517 0 -0.086634605294488312 -0.38349630075200858 0 -0.091585827134305964 -0.3839926061052007 0 -0.082560309743270749 -0.39172977139542609 0 -0.086634605294488312 -0.38349630075200858 0 -0.091033556626635648 -0.38563610430902873 0 -0.094499944748829334 -0.39722631626938482 0 -0.091033556626635648 -0.38563610430902873 0 -0.093729726096669103 -0.3869476153003294 0 -0.086634605294488312 -0.38349630075200858 0 -0.091585827134305964 -0.3839926061052007 0 -0.086634605294488312 -0.38349630075200858 0 -0.091033556626635648 -0.38563610430902873 0 -0.086634605294488312 -0.38349630075200858 0 -0.091585827134305964 -0.3839926061052007 0 -0.091033556626635648 -0.38563610430902873 0 -0.091585827134305964 -0.3839926061052007 0 -0.091033556626635648 -0.38563610430902873 0 -0.093729726096669103 -0.3869476153003294 0 -0.091033556626635648 -0.38563610430902873 0 -0.093729726096669103 -0.3869476153003294 0 -0.091585827134305964 -0.3839926061052007 0 -0.093729726096669103 -0.3869476153003294 0 -0.091585827134305964 -0.3839926061052007 0 -0.091033556626635648 -0.38563610430902873 0 -0.082560309743270749 -0.39172977139542609 0 -0.086634605294488312 -0.38349630075200858 0 -0.082560309743270749 -0.39172977139542609 0 -0.086634605294488312 -0.38349630075200858 0 -0.081174899406055781 -0.38294902548401538 0 -0.082560309743270749 -0.39172977139542609 0 -0.079097438192195432 -0.39013559964190198 0 -0.081174899406055781 -0.38294902548401538 0 -0.079097438192195432 -0.39013559964190198 0 -0.081174899406055781 -0.38294902548401538 0 -0.074281153156084773 -0.38791836881244668 0 -0.079097438192195432 -0.39013559964190198 0 -0.081174899406055781 -0.38294902548401538 0 -0.086634605294488312 -0.38349630075200858 0 -0.081174899406055781 -0.38294902548401538 0 -0.088525620654428705 -0.37725057202694517 0 -0.086634605294488312 -0.38349630075200858 0 -0.08170780991661282 -0.38109255286014232 0 -0.086634605294488312 -0.38349630075200858 0 -0.081174899406055781 -0.38294902548401538 0 -0.08170780991661282 -0.38109255286014232 0 -0.086634605294488312 -0.38349630075200858 0 -0.08170780991661282 -0.38109255286014232 0 -0.081174899406055781 -0.38294902548401538 0 -0.08170780991661282 -0.38109255286014232 0 -0.087954911787112483 -0.37534235041220648 0 -0.08170780991661282 -0.38109255286014232 0 -0.055512870853615448 -0.39455951290216967 0 -0.058563253679506787 -0.38068245751723601 0 -0.074281153156084773 -0.38791836881244668 0 -0.058563253679506787 -0.38068245751723601 0 -0.074281153156084773 -0.38791836881244668 0 -0.058387822440418388 -0.36975607908058028 0 -0.08170780991661282 -0.38109255286014232 0 -0.058387822440418388 -0.36975607908058028 0 -0.081174899406055781 -0.38294902548401538 0 -0.08170780991661282 -0.38109255286014232 0 -0.058563253679506787 -0.38068245751723601 0 -0.081174899406055781 -0.38294902548401538 0 -0.074281153156084773 -0.38791836881244668 0 -0.058563253679506787 -0.38068245751723601 0 -0.081174899406055781 -0.38294902548401538 0 -0.058387822440418388 -0.36975607908058028 0 -0.058563253679506787 -0.38068245751723601 0 -0.081174899406055781 -0.38294902548401538 0 -0.081174899406055781 -0.38294902548401538 0 -0.074281153156084773 -0.38791836881244668 0 -0.079097438192195432 -0.39013559964190198 0 -0.074281153156084773 -0.38791836881244668 0 -0.079097438192195432 -0.39013559964190198 0 -0.074281153156084773 -0.38791836881244668 0 -0.074673198083630793 -0.40544040024196493 0 -0.052509649903146327 -0.40794203844841681 0 -0.074281153156084773 -0.38791836881244668 0 -0.052509649903146327 -0.40794203844841681 0 -0.074281153156084773 -0.38791836881244668 0 -0.074673198083630793 -0.40544040024196493 0 -0.082560309743270749 -0.39172977139542609 0 -0.074673198083630793 -0.40544040024196493 0 -0.076542312027108539 -0.406336853914531 0 -0.079097438192195432 -0.39013559964190198 0 -0.074673198083630793 -0.40544040024196493 0 -0.052509649903146327 -0.40794203844841681 0 -0.074673198083630793 -0.40544040024196493 0 -0.070248957975066639 -0.42074520084202788 0 -0.076542312027108539 -0.406336853914531 0 -0.070248957975066639 -0.42074520084202788 0 -0.074673198083630793 -0.40544040024196493 0 -0.070248957975066639 -0.42074520084202788 0 -0.074673198083630793 -0.40544040024196493 0 -0.076542312027108539 -0.406336853914531 0 -0.070248957975066639 -0.42074520084202788 0 -0.070248957975066639 -0.42074520084202788 0 -0.077246521605040669 -0.42579562012280953 0 -0.078194253298280558 -0.41865647959270891 0 -0.076542312027108539 -0.406336853914531 0 -0.070248957975066639 -0.42074520084202788 0 -0.078194253298280558 -0.41865647959270891 0 -0.059775586818595829 -0.41787661413097049 0 -0.070248957975066639 -0.42074520084202788 0 -0.069408814394604765 -0.42365151461769918 0 -0.060002998013559863 -0.44648162232419802 0 -0.069408814394604765 -0.42365151461769918 0 -0.070248957975066639 -0.42074520084202788 0 -0.069408814394604765 -0.42365151461769918 0 -0.077098496045509793 -0.43873696019506903 0 -0.069408814394604765 -0.42365151461769918 0 -0.077246521605040669 -0.42579562012280953 0 -0.070248957975066639 -0.42074520084202788 0 -0.069408814394604765 -0.42365151461769918 0 -0.077246521605040669 -0.42579562012280953 0 -0.070248957975066639 -0.42074520084202788 0 -0.077246521605040669 -0.42579562012280953 0 -0.077246521605040669 -0.42579562012280953 0 -0.082943237868067593 -0.4239856173255338 0 -0.078194253298280558 -0.41865647959270891 0 -0.077098496045509793 -0.43873696019506903 0 -0.082943237868067593 -0.4239856173255338 0 -0.092016620863508841 -0.4218345739943074 0 -0.077098496045509793 -0.43873696019506903 0 -0.089545628933694749 -0.43673796215895883 0 -0.092016620863508841 -0.4218345739943074 0 -0.077098496045509793 -0.43873696019506903 0 -0.092016620863508841 -0.4218345739943074 0 -0.077098496045509793 -0.43873696019506903 0 -0.077246521605040669 -0.42579562012280953 0 -0.082943237868067593 -0.4239856173255338 0 -0.100590797535087 -0.41759168573278821 0 -0.092016620863508841 -0.4218345739943074 0 -0.088610052547492879 -0.41006814396079783 0 -0.082943237868067593 -0.4239856173255338 0 -0.092016620863508841 -0.4218345739943074 0 -0.083714880680240453 -0.41622037016703428 0 -0.092016620863508841 -0.4218345739943074 0 -0.088610052547492879 -0.41006814396079783 0 -0.083714880680240453 -0.41622037016703428 0 -0.076542312027108539 -0.406336853914531 0 -0.088610052547492879 -0.41006814396079783 0 -0.083714880680240453 -0.41622037016703428 0 -0.076542312027108539 -0.406336853914531 0 -0.078194253298280558 -0.41865647959270891 0 -0.083714880680240453 -0.41622037016703428 0 -0.082943237868067593 -0.4239856173255338 0 -0.078194253298280558 -0.41865647959270891 0 -0.083714880680240453 -0.41622037016703428 0 -0.081808777729522386 -0.083143660930833002 0 -0.073985000225153141 -0.099795971436559522 0 -0.085935801107842547 -0.09579043756499836 0 -0.081808777729522386 -0.083143660930833002 0 -0.085935801107842547 -0.09579043756499836 0 -0.094306078709463503 -0.087148618235937392 0 -0.081808777729522386 -0.083143660930833002 0 -0.094306078709463503 -0.087148618235937392 0 -0.095869533599057435 -0.074719864200214883 0 -0.081808777729522386 -0.083143660930833002 0 -0.087640100333796281 -0.066301869750421821 0 -0.076351800502585221 -0.068318825045574613 0 -0.081808777729522386 -0.083143660930833002 0 -0.087640100333796281 -0.066301869750421821 0 -0.095869533599057435 -0.074719864200214883 0 -0.087640100333796281 -0.066301869750421821 0 -0.095869533599057435 -0.074719864200214883 0 -0.097041901727127691 -0.062312633498474219 0 -0.087640100333796281 -0.066301869750421821 0 -0.076351800502585221 -0.068318825045574613 0 -0.079773765115028039 -0.057914828426178573 0 -0.081808777729522386 -0.083143660930833002 0 -0.076351800502585221 -0.068318825045574613 0 -0.068001603171865072 -0.074911341683796137 0 -0.068001603171865072 -0.074911341683796137 0 -0.065822825648978775 -0.060485584973140792 0 -0.05753372126900759 -0.073422836261521005 0 -0.076351800502585221 -0.068318825045574613 0 -0.068001603171865072 -0.074911341683796137 0 -0.065822825648978775 -0.060485584973140792 0 -0.068001603171865072 -0.074911341683796137 0 -0.066670257350634976 -0.085780572793309681 0 -0.05753372126900759 -0.073422836261521005 0 -0.081808777729522386 -0.083143660930833002 0 -0.066670257350634976 -0.085780572793309681 0 -0.073985000225153141 -0.099795971436559522 0 -0.081808777729522386 -0.083143660930833002 0 -0.068001603171865072 -0.074911341683796137 0 -0.066670257350634976 -0.085780572793309681 0 -0.066670257350634976 -0.085780572793309681 0 -0.073985000225153141 -0.099795971436559522 0 -0.05982498813170789 -0.10249801488187529 0 -0.073985000225153141 -0.099795971436559522 0 -0.065415314349395459 -0.11473522154729129 0 -0.05982498813170789 -0.10249801488187529 0 -0.073985000225153141 -0.099795971436559522 0 -0.065415314349395459 -0.11473522154729129 0 -0.07727601190464152 -0.1134926659633375 0 -0.065415314349395459 -0.11473522154729129 0 -0.060446148579459319 -0.1303024678998376 0 -0.071674103496310607 -0.1250344835198243 0 -0.07727601190464152 -0.1134926659633375 0 -0.082994471061899833 -0.1234246307735777 0 -0.071674103496310607 -0.1250344835198243 0 -0.065415314349395459 -0.11473522154729129 0 -0.07727601190464152 -0.1134926659633375 0 -0.071674103496310607 -0.1250344835198243 0 -0.07727601190464152 -0.1134926659633375 0 -0.082994471061899833 -0.1234246307735777 0 -0.08680817640523622 -0.1078855820033275 0 -0.082994471061899833 -0.1234246307735777 0 -0.08680817640523622 -0.1078855820033275 0 -0.095277368860953449 -0.1178446661751102 0 -0.082994471061899833 -0.1234246307735777 0 -0.095277368860953449 -0.1178446661751102 0 -0.095971306836852913 -0.13086642389395989 0 -0.085935801107842547 -0.09579043756499836 0 -0.08680817640523622 -0.1078855820033275 0 -0.1020424425883536 -0.1015565670732166 0 -0.073985000225153141 -0.099795971436559522 0 -0.085935801107842547 -0.09579043756499836 0 -0.08680817640523622 -0.1078855820033275 0 -0.073985000225153141 -0.099795971436559522 0 -0.07727601190464152 -0.1134926659633375 0 -0.08680817640523622 -0.1078855820033275 0 -0.085935801107842547 -0.09579043756499836 0 -0.1020424425883536 -0.1015565670732166 0 -0.094306078709463503 -0.087148618235937392 0 -0.08680817640523622 -0.1078855820033275 0 -0.1020424425883536 -0.1015565670732166 0 -0.095277368860953449 -0.1178446661751102 0 -0.1020424425883536 -0.1015565670732166 0 -0.095277368860953449 -0.1178446661751102 0 -0.1085913382140784 -0.11903379143832921 0 -0.095277368860953449 -0.1178446661751102 0 -0.1085913382140784 -0.11903379143832921 0 -0.095971306836852913 -0.13086642389395989 0 -0.1085913382140784 -0.11903379143832921 0 -0.11893842975153809 -0.10446969177473921 0 -0.12736410167423581 -0.1213878944680517 0 -0.1020424425883536 -0.1015565670732166 0 -0.11893842975153809 -0.10446969177473921 0 -0.1189291253072135 -0.086669643832799348 0 -0.1020424425883536 -0.1015565670732166 0 -0.1085913382140784 -0.11903379143832921 0 -0.11893842975153809 -0.10446969177473921 0 -0.1189291253072135 -0.086669643832799348 0 -0.1056068239719813 -0.08097964138995771 0 -0.1139735316209595 -0.069866863539540053 0 -0.1020424425883536 -0.1015565670732166 0 -0.1189291253072135 -0.086669643832799348 0 -0.1056068239719813 -0.08097964138995771 0 -0.1020424425883536 -0.1015565670732166 0 -0.1056068239719813 -0.08097964138995771 0 -0.094306078709463503 -0.087148618235937392 0 -0.1056068239719813 -0.08097964138995771 0 -0.094306078709463503 -0.087148618235937392 0 -0.095869533599057435 -0.074719864200214883 0 -0.095869533599057435 -0.074719864200214883 0 -0.1039382096783972 -0.069282752438140638 0 -0.097041901727127691 -0.062312633498474219 0 -0.1056068239719813 -0.08097964138995771 0 -0.1039382096783972 -0.069282752438140638 0 -0.1139735316209595 -0.069866863539540053 0 -0.1056068239719813 -0.08097964138995771 0 -0.095869533599057435 -0.074719864200214883 0 -0.1039382096783972 -0.069282752438140638 0 -0.1039382096783972 -0.069282752438140638 0 -0.097041901727127691 -0.062312633498474219 0 -0.1071992574728602 -0.058534759562516372 0 -0.1039382096783972 -0.069282752438140638 0 -0.1139735316209595 -0.069866863539540053 0 -0.1071992574728602 -0.058534759562516372 0 -0.1189291253072135 -0.086669643832799348 0 -0.1139735316209595 -0.069866863539540053 0 -0.12930964035960699 -0.069761515268982097 0 -0.1139735316209595 -0.069866863539540053 0 -0.1161384697585349 -0.056806249932135858 0 -0.12930964035960699 -0.069761515268982097 0 -0.1161384697585349 -0.056806249932135858 0 -0.1208541397454049 -0.045822468476665427 0 -0.12930964035960699 -0.069761515268982097 0 -0.1248214427799455 -0.0491876577223027 0 -0.1208541397454049 -0.045822468476665427 0 -0.12930964035960699 -0.069761515268982097 0 -0.1161384697585349 -0.056806249932135858 0 -0.10991932193075039 -0.048940588969216672 0 -0.1071992574728602 -0.058534759562516372 0 -0.1139735316209595 -0.069866863539540053 0 -0.1161384697585349 -0.056806249932135858 0 -0.1071992574728602 -0.058534759562516372 0 -0.1161384697585349 -0.056806249932135858 0 -0.10991932193075039 -0.048940588969216672 0 -0.1149357203506014 -0.047989794102068162 0 -0.1161384697585349 -0.056806249932135858 0 -0.1149357203506014 -0.047989794102068162 0 -0.1208541397454049 -0.045822468476665427 0 -0.1248214427799455 -0.0491876577223027 0 -0.1208541397454049 -0.045822468476665427 0 -0.1246368416492639 -0.024787675353444869 0 -0.1128309499677153 -0.040389869030254703 0 -0.10841128816168021 -0.033720593740292633 0 -0.11239863913120279 -0.021883421684348751 0 -0.1208541397454049 -0.045822468476665427 0 -0.11239863913120279 -0.021883421684348751 0 -0.1208541397454049 -0.045822468476665427 0 -0.1128309499677153 -0.040389869030254703 0 -0.11239863913120279 -0.021883421684348751 0 -0.1248214427799455 -0.0491876577223027 0 -0.1246368416492639 -0.024787675353444869 0 -0.1149357203506014 -0.047989794102068162 0 -0.1208541397454049 -0.045822468476665427 0 -0.1128309499677153 -0.040389869030254703 0 -0.10991932193075039 -0.048940588969216672 0 -0.1149357203506014 -0.047989794102068162 0 -0.1128309499677153 -0.040389869030254703 0 -0.10991932193075039 -0.048940588969216672 0 -0.1128309499677153 -0.040389869030254703 0 -0.1049963107845597 -0.040407454994133042 0 -0.10991932193075039 -0.048940588969216672 0 -0.1049963107845597 -0.040407454994133042 0 -0.1002598709818909 -0.049694841596422852 0 -0.1049963107845597 -0.040407454994133042 0 -0.10841128816168021 -0.033720593740292633 0 -0.1012581714839781 -0.029848849592015819 0 -0.1128309499677153 -0.040389869030254703 0 -0.1049963107845597 -0.040407454994133042 0 -0.10841128816168021 -0.033720593740292633 0 -0.097298262181343159 -0.039849987036595598 0 -0.1012581714839781 -0.029848849592015819 0 -0.091929659262116575 -0.033133953101480262 0 -0.1049963107845597 -0.040407454994133042 0 -0.097298262181343159 -0.039849987036595598 0 -0.1012581714839781 -0.029848849592015819 0 -0.1049963107845597 -0.040407454994133042 0 -0.097298262181343159 -0.039849987036595598 0 -0.1002598709818909 -0.049694841596422852 0 -0.097298262181343159 -0.039849987036595598 0 -0.1002598709818909 -0.049694841596422852 0 -0.087030839425688053 -0.044306376809862227 0 -0.1002598709818909 -0.049694841596422852 0 -0.097041901727127691 -0.062312633498474219 0 -0.1071992574728602 -0.058534759562516372 0 -0.1002598709818909 -0.049694841596422852 0 -0.097041901727127691 -0.062312633498474219 0 -0.090164156554830718 -0.055563028782557922 0 -0.10991932193075039 -0.048940588969216672 0 -0.1002598709818909 -0.049694841596422852 0 -0.1071992574728602 -0.058534759562516372 0 -0.1244522405185825 -0.00038769298458709092 0 -0.11239863913120279 -0.021883421684348751 0 -0.10394313851700079 0.0020556251079679459 0 -0.1244522405185825 -0.00038769298458709092 0 -0.1246368416492639 -0.024787675353444869 0 -0.1244522405185825 -0.00038769298458709092 0 -0.11239863913120279 -0.021883421684348751 0 -0.1246368416492639 -0.024787675353444869 0 -0.1208541397454049 -0.045822468476665427 0 -0.11239863913120279 -0.021883421684348751 0 -0.1246368416492639 -0.024787675353444869 0 -0.10841128816168021 -0.033720593740292633 0 -0.11239863913120279 -0.021883421684348751 0 -0.1012581714839781 -0.029848849592015819 0 -0.1012581714839781 -0.029848849592015819 0 -0.090677970328949406 -0.022917020247476879 0 -0.091929659262116575 -0.033133953101480262 0 -0.1012581714839781 -0.029848849592015819 0 -0.1001126671493681 -0.016491083843961009 0 -0.090677970328949406 -0.022917020247476879 0 -0.1001126671493681 -0.016491083843961009 0 -0.092285416285709382 -0.0098617528039315269 0 -0.090677970328949406 -0.022917020247476879 0 -0.11239863913120279 -0.021883421684348751 0 -0.1012581714839781 -0.029848849592015819 0 -0.1001126671493681 -0.016491083843961009 0 -0.1001126671493681 -0.016491083843961009 0 -0.092285416285709382 -0.0098617528039315269 0 -0.10394313851700079 0.0020556251079679459 0 -0.11239863913120279 -0.021883421684348751 0 -0.1001126671493681 -0.016491083843961009 0 -0.10394313851700079 0.0020556251079679459 0 -0.092285416285709382 -0.0098617528039315269 0 -0.10394313851700079 0.0020556251079679459 0 -0.085958893623968774 0.001514634656162053 0 -0.11239863913120279 -0.021883421684348751 0 -0.10394313851700079 0.0020556251079679459 0 -0.092285416285709382 -0.0098617528039315269 0 -0.077949881484559239 -0.01307625006729682 0 -0.085958893623968774 0.001514634656162053 0 -0.092285416285709382 -0.0098617528039315269 0 -0.090677970328949406 -0.022917020247476879 0 -0.077949881484559239 -0.01307625006729682 0 -0.090677970328949406 -0.022917020247476879 0 -0.073841780976804383 -0.025706854857452392 0 -0.077949881484559239 -0.01307625006729682 0 -0.090677970328949406 -0.022917020247476879 0 -0.073841780976804383 -0.025706854857452392 0 -0.082102255714859004 -0.034759692131612618 0 -0.090677970328949406 -0.022917020247476879 0 -0.091929659262116575 -0.033133953101480262 0 -0.082102255714859004 -0.034759692131612618 0 -0.073841780976804383 -0.025706854857452392 0 -0.077949881484559239 -0.01307625006729682 0 -0.060674527584339763 -0.015412449877807689 0 -0.073841780976804383 -0.025706854857452392 0 -0.060674527584339763 -0.015412449877807689 0 -0.060703590497751453 -0.03101491529774986 0 -0.077949881484559239 -0.01307625006729682 0 -0.085958893623968774 0.001514634656162053 0 -0.065648076432031049 0.00090955339710942099 0 -0.077949881484559239 -0.01307625006729682 0 -0.060674527584339763 -0.015412449877807689 0 -0.065648076432031049 0.00090955339710942099 0 -0.079773765115028039 -0.057914828426178573 0 -0.087030839425688053 -0.044306376809862227 0 -0.074827122987446398 -0.047817820925290022 0 -0.079773765115028039 -0.057914828426178573 0 -0.090164156554830718 -0.055563028782557922 0 -0.087030839425688053 -0.044306376809862227 0 -0.087640100333796281 -0.066301869750421821 0 -0.079773765115028039 -0.057914828426178573 0 -0.090164156554830718 -0.055563028782557922 0 -0.087640100333796281 -0.066301869750421821 0 -0.097041901727127691 -0.062312633498474219 0 -0.090164156554830718 -0.055563028782557922 0 -0.1002598709818909 -0.049694841596422852 0 -0.090164156554830718 -0.055563028782557922 0 -0.087030839425688053 -0.044306376809862227 0 -0.097298262181343159 -0.039849987036595598 0 -0.087030839425688053 -0.044306376809862227 0 -0.091929659262116575 -0.033133953101480262 0 -0.087030839425688053 -0.044306376809862227 0 -0.091929659262116575 -0.033133953101480262 0 -0.082102255714859004 -0.034759692131612618 0 -0.087030839425688053 -0.044306376809862227 0 -0.082102255714859004 -0.034759692131612618 0 -0.074827122987446398 -0.047817820925290022 0 -0.082102255714859004 -0.034759692131612618 0 -0.070942460250367517 -0.03706080152277047 0 -0.074827122987446398 -0.047817820925290022 0 -0.073841780976804383 -0.025706854857452392 0 -0.082102255714859004 -0.034759692131612618 0 -0.070942460250367517 -0.03706080152277047 0 -0.073841780976804383 -0.025706854857452392 0 -0.070942460250367517 -0.03706080152277047 0 -0.060703590497751453 -0.03101491529774986 0 -0.070942460250367517 -0.03706080152277047 0 -0.061850736208416378 -0.044087883634974623 0 -0.060703590497751453 -0.03101491529774986 0 -0.070942460250367517 -0.03706080152277047 0 -0.074827122987446398 -0.047817820925290022 0 -0.061850736208416378 -0.044087883634974623 0 -0.074827122987446398 -0.047817820925290022 0 -0.065822825648978775 -0.060485584973140792 0 -0.061850736208416378 -0.044087883634974623 0 -0.079773765115028039 -0.057914828426178573 0 -0.074827122987446398 -0.047817820925290022 0 -0.065822825648978775 -0.060485584973140792 0 -0.076351800502585221 -0.068318825045574613 0 -0.079773765115028039 -0.057914828426178573 0 -0.065822825648978775 -0.060485584973140792 0 -0.065822825648978775 -0.060485584973140792 0 -0.051906109188989122 -0.051634581827710108 0 -0.055146373663134192 -0.063188587977351315 0 -0.065822825648978775 -0.060485584973140792 0 -0.051906109188989122 -0.051634581827710108 0 -0.061850736208416378 -0.044087883634974623 0 -0.051906109188989122 -0.051634581827710108 0 -0.044968642856814678 -0.064628327886466996 0 -0.055146373663134192 -0.063188587977351315 0 -0.061850736208416378 -0.044087883634974623 0 -0.048286593140243993 -0.039377229684959138 0 -0.060703590497751453 -0.03101491529774986 0 -0.051906109188989122 -0.051634581827710108 0 -0.061850736208416378 -0.044087883634974623 0 -0.048286593140243993 -0.039377229684959138 0 -0.048286593140243993 -0.039377229684959138 0 -0.039642814346724391 -0.052475069278980747 0 -0.030584103036016622 -0.035608219704199993 0 -0.039642814346724391 -0.052475069278980747 0 -0.024435088609687641 -0.049746151716912712 0 -0.030584103036016622 -0.035608219704199993 0 -0.048286593140243993 -0.039377229684959138 0 -0.044331283213942488 -0.020119990811347448 0 -0.030584103036016622 -0.035608219704199993 0 -0.039642814346724391 -0.052475069278980747 0 -0.03034189778213453 -0.060014988360291517 0 -0.024435088609687641 -0.049746151716912712 0 -0.039642814346724391 -0.052475069278980747 0 -0.03034189778213453 -0.060014988360291517 0 -0.044968642856814678 -0.064628327886466996 0 -0.051906109188989122 -0.051634581827710108 0 -0.039642814346724391 -0.052475069278980747 0 -0.044968642856814678 -0.064628327886466996 0 -0.051906109188989122 -0.051634581827710108 0 -0.048286593140243993 -0.039377229684959138 0 -0.039642814346724391 -0.052475069278980747 0 -0.060674527584339763 -0.015412449877807689 0 -0.044331283213942488 -0.020119990811347448 0 -0.045118160941850949 -0.00049033847668307538 0 -0.060674527584339763 -0.015412449877807689 0 -0.045118160941850949 -0.00049033847668307538 0 -0.065648076432031049 0.00090955339710942099 0 -0.048286593140243993 -0.039377229684959138 0 -0.060703590497751453 -0.03101491529774986 0 -0.044331283213942488 -0.020119990811347448 0 -0.060674527584339763 -0.015412449877807689 0 -0.060703590497751453 -0.03101491529774986 0 -0.044331283213942488 -0.020119990811347448 0 -0.044331283213942488 -0.020119990811347448 0 -0.027025641752002061 -0.0079319500279313396 0 -0.030584103036016622 -0.035608219704199993 0 -0.044331283213942488 -0.020119990811347448 0 -0.045118160941850949 -0.00049033847668307538 0 -0.027025641752002061 -0.0079319500279313396 0 -0.027025641752002061 -0.0079319500279313396 0 -0.0118242871531395 -0.020545428430059291 0 -0.0091716063734174208 -0.003332990253060792 0 -0.027025641752002061 -0.0079319500279313396 0 -0.0091716063734174208 -0.003332990253060792 0 -0.01566814095190756 0.010235570601176981 0 -0.027025641752002061 -0.0079319500279313396 0 -0.0118242871531395 -0.020545428430059291 0 -0.030584103036016622 -0.035608219704199993 0 -0.0118242871531395 -0.020545428430059291 0 -0.030584103036016622 -0.035608219704199993 0 -0.0118242871531395 -0.020545428430059291 0 0.006935528729737548 -0.0054826371559186567 0 0.0027408304473846411 -0.028176541972939319 0 -0.0118242871531395 -0.020545428430059291 0 -0.01026660782967455 -0.041229232136501717 0 0.0027408304473846411 -0.028176541972939319 0 -0.0118242871531395 -0.020545428430059291 0 -0.0091716063734174208 -0.003332990253060792 0 0.006935528729737548 -0.0054826371559186567 0 -0.0118242871531395 -0.020545428430059291 0 0.006935528729737548 -0.0054826371559186567 0 -0.024435088609687641 -0.049746151716912712 0 -0.01026660782967455 -0.041229232136501717 0 -0.01499476028908407 -0.06055090283160456 0 -0.03034189778213453 -0.060014988360291517 0 -0.01499476028908407 -0.06055090283160456 0 -0.03034189778213453 -0.060014988360291517 0 -0.024435088609687641 -0.049746151716912712 0 -0.01499476028908407 -0.06055090283160456 0 -0.024435088609687641 -0.049746151716912712 0 -0.030584103036016622 -0.035608219704199993 0 -0.01026660782967455 -0.041229232136501717 0 -0.0118242871531395 -0.020545428430059291 0 -0.030584103036016622 -0.035608219704199993 0 -0.01026660782967455 -0.041229232136501717 0 -0.01026660782967455 -0.041229232136501717 0 0.0096258971738255473 -0.043108802377643002 0 0.00035237720396625368 -0.061086817302918282 0 -0.01026660782967455 -0.041229232136501717 0 -0.01499476028908407 -0.06055090283160456 0 0.00035237720396625368 -0.061086817302918282 0 -0.01499476028908407 -0.06055090283160456 0 0.00035237720396625368 -0.061086817302918282 0 -0.011408129540087309 -0.083886203777590068 0 0.0065051428120863272 -0.082127796022149757 0 0.00035237720396625368 -0.061086817302918282 0 -0.011408129540087309 -0.083886203777590068 0 0.00035237720396625368 -0.061086817302918282 0 -0.01499476028908407 -0.06055090283160456 0 -0.011408129540087309 -0.083886203777590068 0 0.00035237720396625368 -0.061086817302918282 0 -0.011408129540087309 -0.083886203777590068 0 0.001856719827670471 -0.098182337095309047 0 0.0065051428120863272 -0.082127796022149757 0 -0.011408129540087309 -0.083886203777590068 0 -0.03053113156520738 -0.089911417014305078 0 -0.02316863628414112 -0.10668559025226169 0 -0.011408129540087309 -0.083886203777590068 0 -0.03053113156520738 -0.089911417014305078 0 -0.026049830403481512 -0.075342802050597457 0 -0.01499476028908407 -0.06055090283160456 0 -0.011408129540087309 -0.083886203777590068 0 -0.026049830403481512 -0.075342802050597457 0 -0.03034189778213453 -0.060014988360291517 0 -0.01499476028908407 -0.06055090283160456 0 -0.026049830403481512 -0.075342802050597457 0 -0.03034189778213453 -0.060014988360291517 0 -0.026049830403481512 -0.075342802050597457 0 -0.041349905228919973 -0.078428718904655664 0 -0.03034189778213453 -0.060014988360291517 0 -0.044968642856814678 -0.064628327886466996 0 -0.041349905228919973 -0.078428718904655664 0 -0.03053113156520738 -0.089911417014305078 0 -0.026049830403481512 -0.075342802050597457 0 -0.041349905228919973 -0.078428718904655664 0 -0.03053113156520738 -0.089911417014305078 0 -0.041349905228919973 -0.078428718904655664 0 -0.047432501145458397 -0.097370211357339573 0 -0.041349905228919973 -0.078428718904655664 0 -0.053879666709155317 -0.08598560359304859 0 -0.05753372126900759 -0.073422836261521005 0 -0.041349905228919973 -0.078428718904655664 0 -0.053879666709155317 -0.08598560359304859 0 -0.047432501145458397 -0.097370211357339573 0 -0.066670257350634976 -0.085780572793309681 0 -0.053879666709155317 -0.08598560359304859 0 -0.05982498813170789 -0.10249801488187529 0 -0.066670257350634976 -0.085780572793309681 0 -0.053879666709155317 -0.08598560359304859 0 -0.05753372126900759 -0.073422836261521005 0 -0.044968642856814678 -0.064628327886466996 0 -0.041349905228919973 -0.078428718904655664 0 -0.05753372126900759 -0.073422836261521005 0 -0.065822825648978775 -0.060485584973140792 0 -0.05753372126900759 -0.073422836261521005 0 -0.055146373663134192 -0.063188587977351315 0 -0.044968642856814678 -0.064628327886466996 0 -0.05753372126900759 -0.073422836261521005 0 -0.055146373663134192 -0.063188587977351315 0 -0.065415314349395459 -0.11473522154729129 0 -0.048239208743362072 -0.1165718691901324 0 -0.05982498813170789 -0.10249801488187529 0 -0.065415314349395459 -0.11473522154729129 0 -0.048239208743362072 -0.1165718691901324 0 -0.060446148579459319 -0.1303024678998376 0 -0.048239208743362072 -0.1165718691901324 0 -0.05982498813170789 -0.10249801488187529 0 -0.047432501145458397 -0.097370211357339573 0 -0.053879666709155317 -0.08598560359304859 0 -0.05982498813170789 -0.10249801488187529 0 -0.047432501145458397 -0.097370211357339573 0 -0.048239208743362072 -0.1165718691901324 0 -0.047432501145458397 -0.097370211357339573 0 -0.02316863628414112 -0.10668559025226169 0 -0.03053113156520738 -0.089911417014305078 0 -0.047432501145458397 -0.097370211357339573 0 -0.02316863628414112 -0.10668559025226169 0 -0.048239208743362072 -0.1165718691901324 0 -0.02316863628414112 -0.10668559025226169 0 -0.029948833034415319 -0.13246817914486481 0 -0.02316863628414112 -0.10668559025226169 0 -0.01250087523651249 -0.12826546419306251 0 -0.029948833034415319 -0.13246817914486481 0 -0.011408129540087309 -0.083886203777590068 0 -0.02316863628414112 -0.10668559025226169 0 -0.02316863628414112 -0.10668559025226169 0 0.0015243557028834459 -0.11711868301268021 0 0.001856719827670471 -0.098182337095309047 0 -0.011408129540087309 -0.083886203777590068 0 -0.02316863628414112 -0.10668559025226169 0 0.001856719827670471 -0.098182337095309047 0 -0.02316863628414112 -0.10668559025226169 0 -0.01250087523651249 -0.12826546419306251 0 0.0015243557028834459 -0.11711868301268021 0 -0.01250087523651249 -0.12826546419306251 0 -0.013317386200938249 -0.14799664519887931 0 0.0088678229424013627 -0.13941235935176011 0 -0.01250087523651249 -0.12826546419306251 0 0.0088678229424013627 -0.13941235935176011 0 0.0015243557028834459 -0.11711868301268021 0 -0.01250087523651249 -0.12826546419306251 0 -0.029948833034415319 -0.13246817914486481 0 -0.013317386200938249 -0.14799664519887931 0 -0.013317386200938249 -0.14799664519887931 0 -0.035502595344277812 -0.15658093104599841 0 -0.029948833034415319 -0.13246817914486481 0 -0.013317386200938249 -0.14799664519887931 0 -0.035502595344277812 -0.15658093104599841 0 -0.013317386200938249 -0.14799664519887931 0 0.0088678229424013627 -0.13941235935176011 0 -0.013317386200938249 -0.14799664519887931 0 0.0027310736070901482 -0.15493719994590471 0 0.0088678229424013627 -0.13941235935176011 0 -0.013317386200938249 -0.14799664519887931 0 -0.0013673002328405961 -0.1767093328090546 0 0.0027310736070901482 -0.15493719994590471 0 -0.013317386200938249 -0.14799664519887931 0 -0.0013673002328405961 -0.1767093328090546 0 -0.029934926785222919 -0.1776443960910804 0 -0.0013673002328405961 -0.1767093328090546 0 -0.0217915143334447 -0.19785215020996011 0 -0.0013673002328405961 -0.1767093328090546 0 -0.029934926785222919 -0.1776443960910804 0 -0.0217915143334447 -0.19785215020996011 0 -0.013317386200938249 -0.14799664519887931 0 -0.029934926785222919 -0.1776443960910804 0 -0.035502595344277812 -0.15658093104599841 0 -0.035502595344277812 -0.15658093104599841 0 -0.057687804487617317 -0.16516521689311761 0 -0.029934926785222919 -0.1776443960910804 0 -0.035502595344277812 -0.15658093104599841 0 -0.057687804487617317 -0.16516521689311761 0 -0.029934926785222919 -0.1776443960910804 0 -0.048583433801033478 -0.18728911877980611 0 -0.034676635542126917 -0.191298641696723 0 -0.029934926785222919 -0.1776443960910804 0 -0.048583433801033478 -0.18728911877980611 0 -0.057687804487617317 -0.16516521689311761 0 -0.048583433801033478 -0.18728911877980611 0 -0.057687804487617317 -0.16516521689311761 0 -0.063770138428779252 -0.18079669395549949 0 -0.035502595344277812 -0.15658093104599841 0 -0.057687804487617317 -0.16516521689311761 0 -0.06059931965736505 -0.14742373122833671 0 -0.035502595344277812 -0.15658093104599841 0 -0.06059931965736505 -0.14742373122833671 0 -0.046947221071775923 -0.13666943570183401 0 -0.048239208743362072 -0.1165718691901324 0 -0.046947221071775923 -0.13666943570183401 0 -0.060446148579459319 -0.1303024678998376 0 -0.06059931965736505 -0.14742373122833671 0 -0.046947221071775923 -0.13666943570183401 0 -0.060446148579459319 -0.1303024678998376 0 -0.048239208743362072 -0.1165718691901324 0 -0.029948833034415319 -0.13246817914486481 0 -0.046947221071775923 -0.13666943570183401 0 -0.029948833034415319 -0.13246817914486481 0 -0.035502595344277812 -0.15658093104599841 0 -0.046947221071775923 -0.13666943570183401 0 -0.03064478186574425 -0.25326356670072259 0 -0.026067501294639708 -0.24850247980592871 0 -0.033387688564450117 -0.24425465961654741 0 -0.026067501294639708 -0.24850247980592871 0 -0.02456862519526215 -0.24210395604782819 0 -0.033387688564450117 -0.24425465961654741 0 -0.02974340118516787 -0.23585106297766359 0 -0.02456862519526215 -0.24210395604782819 0 -0.02062871475200042 -0.2320366992723622 0 -0.02974340118516787 -0.23585106297766359 0 -0.02456862519526215 -0.24210395604782819 0 -0.033387688564450117 -0.24425465961654741 0 -0.02456862519526215 -0.24210395604782819 0 -0.01660477195623393 -0.2403164687020414 0 -0.02062871475200042 -0.2320366992723622 0 -0.02456862519526215 -0.24210395604782819 0 -0.01660477195623393 -0.2403164687020414 0 -0.01887874476148543 -0.24814250919209771 0 -0.026067501294639708 -0.24850247980592871 0 -0.02456862519526215 -0.24210395604782819 0 -0.01887874476148543 -0.24814250919209771 0 -0.01660477195623393 -0.2403164687020414 0 -0.01887874476148543 -0.24814250919209771 0 -0.0080727856436109482 -0.2481099565327444 0 -0.0080727856436109482 -0.2481099565327444 0 -0.0084819670471955304 -0.2367225590632196 0 0.0055632338660241776 -0.24332209518663511 0 -0.01660477195623393 -0.2403164687020414 0 -0.0084819670471955304 -0.2367225590632196 0 -0.02062871475200042 -0.2320366992723622 0 -0.01660477195623393 -0.2403164687020414 0 -0.0080727856436109482 -0.2481099565327444 0 -0.0084819670471955304 -0.2367225590632196 0 -0.0084819670471955304 -0.2367225590632196 0 -0.0075276580997289226 -0.21896018305478171 0 0.0032521440618358652 -0.23009641691855939 0 -0.0084819670471955304 -0.2367225590632196 0 -0.0075276580997289226 -0.21896018305478171 0 -0.02062871475200042 -0.2320366992723622 0 -0.0075276580997289226 -0.21896018305478171 0 -0.02062871475200042 -0.2320366992723622 0 -0.024832472176938718 -0.21885173135413241 0 -0.02974340118516787 -0.23585106297766359 0 -0.02062871475200042 -0.2320366992723622 0 -0.031998745265470661 -0.22641465662269231 0 -0.02062871475200042 -0.2320366992723622 0 -0.024832472176938718 -0.21885173135413241 0 -0.031998745265470661 -0.22641465662269231 0 -0.0075276580997289226 -0.21896018305478171 0 -0.024832472176938718 -0.21885173135413241 0 -0.0217915143334447 -0.19785215020996011 0 -0.024832472176938718 -0.21885173135413241 0 -0.0217915143334447 -0.19785215020996011 0 -0.042215728434048867 -0.21899496761086559 0 -0.0075276580997289226 -0.21896018305478171 0 -0.0217915143334447 -0.19785215020996011 0 0.003555539334036632 -0.19934620758084881 0 -0.0013673002328405961 -0.1767093328090546 0 -0.0217915143334447 -0.19785215020996011 0 0.003555539334036632 -0.19934620758084881 0 -0.029934926785222919 -0.1776443960910804 0 -0.0217915143334447 -0.19785215020996011 0 -0.034676635542126917 -0.191298641696723 0 -0.0217915143334447 -0.19785215020996011 0 -0.034676635542126917 -0.191298641696723 0 -0.04224094911505525 -0.20168175555289891 0 -0.048583433801033478 -0.18728911877980611 0 -0.034676635542126917 -0.191298641696723 0 -0.04224094911505525 -0.20168175555289891 0 -0.048583433801033478 -0.18728911877980611 0 -0.058327232484387218 -0.2013044317948425 0 -0.063770138428779252 -0.18079669395549949 0 -0.048583433801033478 -0.18728911877980611 0 -0.04224094911505525 -0.20168175555289891 0 -0.058327232484387218 -0.2013044317948425 0 -0.058327232484387218 -0.2013044317948425 0 -0.04785115009529034 -0.21335122322519601 0 -0.065984069430329237 -0.21594808513783789 0 -0.04224094911505525 -0.20168175555289891 0 -0.058327232484387218 -0.2013044317948425 0 -0.04785115009529034 -0.21335122322519601 0 -0.04785115009529034 -0.21335122322519601 0 -0.065984069430329237 -0.21594808513783789 0 -0.04785115009529034 -0.21335122322519601 0 -0.050089297127046031 -0.22131182591420251 0 -0.065984069430329237 -0.21594808513783789 0 -0.0217915143334447 -0.19785215020996011 0 -0.042215728434048867 -0.21899496761086559 0 -0.0217915143334447 -0.19785215020996011 0 -0.04224094911505525 -0.20168175555289891 0 -0.042215728434048867 -0.21899496761086559 0 -0.04224094911505525 -0.20168175555289891 0 -0.04785115009529034 -0.21335122322519601 0 -0.042215728434048867 -0.21899496761086559 0 -0.04785115009529034 -0.21335122322519601 0 -0.042215728434048867 -0.21899496761086559 0 -0.050089297127046031 -0.22131182591420251 0 -0.024832472176938718 -0.21885173135413241 0 -0.031998745265470661 -0.22641465662269231 0 -0.042215728434048867 -0.21899496761086559 0 -0.031998745265470661 -0.22641465662269231 0 -0.042215728434048867 -0.21899496761086559 0 -0.041320068815934301 -0.22639292378782619 0 -0.031998745265470661 -0.22641465662269231 0 -0.041320068815934301 -0.22639292378782619 0 -0.038133232148655979 -0.23444534332888789 0 -0.02974340118516787 -0.23585106297766359 0 -0.031998745265470661 -0.22641465662269231 0 -0.038133232148655979 -0.23444534332888789 0 -0.041320068815934301 -0.22639292378782619 0 -0.052151212760384272 -0.22988480121754831 0 -0.038133232148655979 -0.23444534332888789 0 -0.042215728434048867 -0.21899496761086559 0 -0.041320068815934301 -0.22639292378782619 0 -0.050089297127046031 -0.22131182591420251 0 -0.041320068815934301 -0.22639292378782619 0 -0.050089297127046031 -0.22131182591420251 0 -0.052151212760384272 -0.22988480121754831 0 -0.0567919256119837 -0.24387644547435741 0 -0.065984069430329237 -0.21594808513783789 0 -0.050089297127046031 -0.22131182591420251 0 -0.052151212760384272 -0.22988480121754831 0 -0.065984069430329237 -0.21594808513783789 0 -0.052151212760384272 -0.22988480121754831 0 -0.0567919256119837 -0.24387644547435741 0 -0.065984069430329237 -0.21594808513783789 0 -0.052151212760384272 -0.22988480121754831 0 -0.0567919256119837 -0.24387644547435741 0 -0.045207486351244337 -0.24272005325013779 0 -0.046517308340487992 -0.25474718453952289 0 -0.0567919256119837 -0.24387644547435741 0 -0.045207486351244337 -0.24272005325013779 0 -0.038581934025118947 -0.25114857380685968 0 -0.046517308340487992 -0.25474718453952289 0 -0.045207486351244337 -0.24272005325013779 0 -0.052151212760384272 -0.22988480121754831 0 -0.045207486351244337 -0.24272005325013779 0 -0.038133232148655979 -0.23444534332888789 0 -0.02974340118516787 -0.23585106297766359 0 -0.038133232148655979 -0.23444534332888789 0 -0.033387688564450117 -0.24425465961654741 0 -0.045207486351244337 -0.24272005325013779 0 -0.038133232148655979 -0.23444534332888789 0 -0.033387688564450117 -0.24425465961654741 0 -0.038581934025118947 -0.25114857380685968 0 -0.03064478186574425 -0.25326356670072259 0 -0.033387688564450117 -0.24425465961654741 0 -0.038581934025118947 -0.25114857380685968 0 -0.045207486351244337 -0.24272005325013779 0 -0.033387688564450117 -0.24425465961654741 0 -0.076282262678724011 -0.24169347649274159 0 -0.094544528280961701 -0.23130979592197831 0 -0.1005321994236209 -0.2431127607729493 0 -0.090174700483665673 -0.26498018187443112 0 -0.076282262678724011 -0.24169347649274159 0 -0.1005321994236209 -0.2431127607729493 0 -0.063484538676239377 -0.26413124226689111 0 -0.0567919256119837 -0.24387644547435741 0 -0.076282262678724011 -0.24169347649274159 0 -0.0567919256119837 -0.24387644547435741 0 -0.076282262678724011 -0.24169347649274159 0 -0.076216545617433393 -0.2267874217425101 0 -0.0567919256119837 -0.24387644547435741 0 -0.076216545617433393 -0.2267874217425101 0 -0.065984069430329237 -0.21594808513783789 0 -0.076216545617433393 -0.2267874217425101 0 -0.089079986681209755 -0.21925571071859279 0 -0.065984069430329237 -0.21594808513783789 0 -0.076282262678724011 -0.24169347649274159 0 -0.076216545617433393 -0.2267874217425101 0 -0.089079986681209755 -0.21925571071859279 0 -0.076282262678724011 -0.24169347649274159 0 -0.089079986681209755 -0.21925571071859279 0 -0.076282262678724011 -0.24169347649274159 0 -0.089079986681209755 -0.21925571071859279 0 -0.094544528280961701 -0.23130979592197831 0 -0.089079986681209755 -0.21925571071859279 0 -0.087982693832912948 -0.20610030108417279 0 -0.065984069430329237 -0.21594808513783789 0 -0.089079986681209755 -0.21925571071859279 0 -0.091681034097487346 -0.21469539259619891 0 -0.087982693832912948 -0.20610030108417279 0 -0.089079986681209755 -0.21925571071859279 0 -0.091681034097487346 -0.21469539259619891 0 -0.089079986681209755 -0.21925571071859279 0 -0.065984069430329237 -0.21594808513783789 0 -0.058327232484387218 -0.2013044317948425 0 -0.065984069430329237 -0.21594808513783789 0 -0.072928541530643487 -0.1948487939390374 0 -0.065984069430329237 -0.21594808513783789 0 -0.072928541530643487 -0.1948487939390374 0 -0.087982693832912948 -0.20610030108417279 0 -0.065984069430329237 -0.21594808513783789 0 -0.072928541530643487 -0.1948487939390374 0 -0.058327232484387218 -0.2013044317948425 0 -0.072928541530643487 -0.1948487939390374 0 -0.063770138428779252 -0.18079669395549949 0 -0.087982693832912948 -0.20610030108417279 0 -0.072928541530643487 -0.1948487939390374 0 -0.088647710124579282 -0.1895137930351245 0 -0.087982693832912948 -0.20610030108417279 0 -0.088647710124579282 -0.1895137930351245 0 -0.098413722631135098 -0.19641739989264009 0 -0.088647710124579282 -0.1895137930351245 0 -0.098413722631135098 -0.19641739989264009 0 -0.1039428787252024 -0.18306303235069041 0 -0.087982693832912948 -0.20610030108417279 0 -0.098413722631135098 -0.19641739989264009 0 -0.1018219586260966 -0.2062222809526808 0 -0.098413722631135098 -0.19641739989264009 0 -0.10967337184688419 -0.19718759204053191 0 -0.1018219586260966 -0.2062222809526808 0 -0.098413722631135098 -0.19641739989264009 0 -0.10967337184688419 -0.19718759204053191 0 -0.1039428787252024 -0.18306303235069041 0 -0.1039428787252024 -0.18306303235069041 0 -0.1280127438194481 -0.19237656196114411 0 -0.10967337184688419 -0.19718759204053191 0 -0.1178174188303993 -0.20556040013348681 0 -0.1280127438194481 -0.19237656196114411 0 -0.10967337184688419 -0.19718759204053191 0 -0.1039428787252024 -0.18306303235069041 0 -0.1280127438194481 -0.19237656196114411 0 -0.10967337184688419 -0.19718759204053191 0 -0.10961342770230489 -0.21003706569406461 0 -0.1178174188303993 -0.20556040013348681 0 -0.1178174188303993 -0.20556040013348681 0 -0.1109550451866443 -0.21888036136960631 0 -0.13246178853905299 -0.20873151589840269 0 -0.1109550451866443 -0.21888036136960631 0 -0.13246178853905299 -0.20873151589840269 0 -0.1109550451866443 -0.21888036136960631 0 -0.12407830270498089 -0.22426790937284519 0 -0.13246178853905299 -0.20873151589840269 0 -0.10961342770230489 -0.21003706569406461 0 -0.1178174188303993 -0.20556040013348681 0 -0.1109550451866443 -0.21888036136960631 0 -0.10961342770230489 -0.21003706569406461 0 -0.103172625086798 -0.22127395363072039 0 -0.1109550451866443 -0.21888036136960631 0 -0.10961342770230489 -0.21003706569406461 0 -0.1018219586260966 -0.2062222809526808 0 -0.103172625086798 -0.22127395363072039 0 -0.10967337184688419 -0.19718759204053191 0 -0.10961342770230489 -0.21003706569406461 0 -0.1018219586260966 -0.2062222809526808 0 -0.091681034097487346 -0.21469539259619891 0 -0.087982693832912948 -0.20610030108417279 0 -0.103172625086798 -0.22127395363072039 0 -0.089079986681209755 -0.21925571071859279 0 -0.091681034097487346 -0.21469539259619891 0 -0.103172625086798 -0.22127395363072039 0 -0.087982693832912948 -0.20610030108417279 0 -0.103172625086798 -0.22127395363072039 0 -0.087982693832912948 -0.20610030108417279 0 -0.1018219586260966 -0.2062222809526808 0 -0.103172625086798 -0.22127395363072039 0 -0.094544528280961701 -0.23130979592197831 0 -0.103172625086798 -0.22127395363072039 0 -0.1005321994236209 -0.2431127607729493 0 -0.089079986681209755 -0.21925571071859279 0 -0.103172625086798 -0.22127395363072039 0 -0.089079986681209755 -0.21925571071859279 0 -0.094544528280961701 -0.23130979592197831 0 -0.103172625086798 -0.22127395363072039 0 -0.103172625086798 -0.22127395363072039 0 -0.1223681628105569 -0.24044891992886891 0 -0.103172625086798 -0.22127395363072039 0 -0.12407830270498089 -0.22426790937284519 0 -0.1238233973506119 -0.23541481827178831 0 -0.103172625086798 -0.22127395363072039 0 -0.1223681628105569 -0.24044891992886891 0 -0.1238233973506119 -0.23541481827178831 0 -0.103172625086798 -0.22127395363072039 0 -0.12407830270498089 -0.22426790937284519 0 -0.103172625086798 -0.22127395363072039 0 -0.1109550451866443 -0.21888036136960631 0 -0.12407830270498089 -0.22426790937284519 0 -0.11757885349586771 -0.25701660664448461 0 -0.1223681628105569 -0.24044891992886891 0 -0.1005321994236209 -0.2431127607729493 0 -0.11757885349586771 -0.25701660664448461 0 -0.1223681628105569 -0.24044891992886891 0 -0.1223681628105569 -0.24044891992886891 0 -0.1238233973506119 -0.23541481827178831 0 -0.103172625086798 -0.22127395363072039 0 -0.1223681628105569 -0.24044891992886891 0 -0.1005321994236209 -0.2431127607729493 0 -0.088441251280713618 -0.1477167476767523 0 -0.085474651021334253 -0.13655174303235951 0 -0.077236065216807342 -0.1460130695171887 0 -0.088441251280713618 -0.1477167476767523 0 -0.077236065216807342 -0.1460130695171887 0 -0.072985053953480025 -0.15595005707556001 0 -0.088441251280713618 -0.1477167476767523 0 -0.093538562727787294 -0.15940564464812701 0 -0.098894310772838973 -0.14952020789867901 0 -0.088441251280713618 -0.1477167476767523 0 -0.085474651021334253 -0.13655174303235951 0 -0.095252038160572317 -0.1406191133899993 0 -0.085474651021334253 -0.13655174303235951 0 -0.095971306836852913 -0.13086642389395989 0 -0.095252038160572317 -0.1406191133899993 0 -0.082994471061899833 -0.1234246307735777 0 -0.085474651021334253 -0.13655174303235951 0 -0.095971306836852913 -0.13086642389395989 0 -0.082994471061899833 -0.1234246307735777 0 -0.085474651021334253 -0.13655174303235951 0 -0.073596501371478315 -0.1364787996572045 0 -0.085474651021334253 -0.13655174303235951 0 -0.073596501371478315 -0.1364787996572045 0 -0.077236065216807342 -0.1460130695171887 0 -0.06059931965736505 -0.14742373122833671 0 -0.060446148579459319 -0.1303024678998376 0 -0.073596501371478315 -0.1364787996572045 0 -0.082994471061899833 -0.1234246307735777 0 -0.073596501371478315 -0.1364787996572045 0 -0.071674103496310607 -0.1250344835198243 0 -0.060446148579459319 -0.1303024678998376 0 -0.073596501371478315 -0.1364787996572045 0 -0.071674103496310607 -0.1250344835198243 0 -0.06059931965736505 -0.14742373122833671 0 -0.073596501371478315 -0.1364787996572045 0 -0.077236065216807342 -0.1460130695171887 0 -0.057687804487617317 -0.16516521689311761 0 -0.06059931965736505 -0.14742373122833671 0 -0.072985053953480025 -0.15595005707556001 0 -0.06059931965736505 -0.14742373122833671 0 -0.077236065216807342 -0.1460130695171887 0 -0.072985053953480025 -0.15595005707556001 0 -0.057687804487617317 -0.16516521689311761 0 -0.079873013630956835 -0.17374950274023659 0 -0.057687804487617317 -0.16516521689311761 0 -0.072985053953480025 -0.15595005707556001 0 -0.079873013630956835 -0.17374950274023659 0 -0.072928541530643487 -0.1948487939390374 0 -0.079873013630956835 -0.17374950274023659 0 -0.057687804487617317 -0.16516521689311761 0 -0.063770138428779252 -0.18079669395549949 0 -0.079873013630956835 -0.17374950274023659 0 -0.072928541530643487 -0.1948487939390374 0 -0.063770138428779252 -0.18079669395549949 0 -0.079873013630956835 -0.17374950274023659 0 -0.072928541530643487 -0.1948487939390374 0 -0.088647710124579282 -0.1895137930351245 0 -0.079873013630956835 -0.17374950274023659 0 -0.079873013630956835 -0.17374950274023659 0 -0.1039428787252024 -0.18306303235069041 0 -0.088647710124579282 -0.1895137930351245 0 -0.079873013630956835 -0.17374950274023659 0 -0.1039428787252024 -0.18306303235069041 0 -0.088441251280713618 -0.1477167476767523 0 -0.079873013630956835 -0.17374950274023659 0 -0.079873013630956835 -0.17374950274023659 0 -0.093538562727787294 -0.15940564464812701 0 -0.098088850166783578 -0.16700629557107341 0 -0.088441251280713618 -0.1477167476767523 0 -0.079873013630956835 -0.17374950274023659 0 -0.093538562727787294 -0.15940564464812701 0 -0.088441251280713618 -0.1477167476767523 0 -0.072985053953480025 -0.15595005707556001 0 -0.079873013630956835 -0.17374950274023659 0 -0.093538562727787294 -0.15940564464812701 0 -0.098088850166783578 -0.16700629557107341 0 -0.1023953877876435 -0.15903546935389351 0 -0.098088850166783578 -0.16700629557107341 0 -0.1039428787252024 -0.18306303235069041 0 -0.1119878388851908 -0.16231915977259129 0 -0.098088850166783578 -0.16700629557107341 0 -0.1023953877876435 -0.15903546935389351 0 -0.1119878388851908 -0.16231915977259129 0 -0.079873013630956835 -0.17374950274023659 0 -0.098088850166783578 -0.16700629557107341 0 -0.1039428787252024 -0.18306303235069041 0 -0.1039428787252024 -0.18306303235069041 0 -0.11859204859796291 -0.17560578940816099 0 -0.1119878388851908 -0.16231915977259129 0 -0.1039428787252024 -0.18306303235069041 0 -0.11859204859796291 -0.17560578940816099 0 -0.1280127438194481 -0.19237656196114411 0 -0.1023953877876435 -0.15903546935389351 0 -0.1119878388851908 -0.16231915977259129 0 -0.1169630623746598 -0.14907522687480429 0 -0.11859204859796291 -0.17560578940816099 0 -0.1119878388851908 -0.16231915977259129 0 -0.12588679133122799 -0.1624874708491951 0 -0.1119878388851908 -0.16231915977259129 0 -0.1169630623746598 -0.14907522687480429 0 -0.12588679133122799 -0.1624874708491951 0 -0.1119878388851908 -0.16231915977259129 0 -0.1169630623746598 -0.14907522687480429 0 -0.1023953877876435 -0.15903546935389351 0 -0.1169630623746598 -0.14907522687480429 0 -0.098894310772838973 -0.14952020789867901 0 -0.1169630623746598 -0.14907522687480429 0 -0.098894310772838973 -0.14952020789867901 0 -0.1169630623746598 -0.14907522687480429 0 -0.098894310772838973 -0.14952020789867901 0 -0.1074786708911218 -0.1384404444482458 0 -0.088441251280713618 -0.1477167476767523 0 -0.098894310772838973 -0.14952020789867901 0 -0.095252038160572317 -0.1406191133899993 0 -0.098894310772838973 -0.14952020789867901 0 -0.095252038160572317 -0.1406191133899993 0 -0.1074786708911218 -0.1384404444482458 0 -0.093538562727787294 -0.15940564464812701 0 -0.1023953877876435 -0.15903546935389351 0 -0.098894310772838973 -0.14952020789867901 0 -0.1085913382140784 -0.11903379143832921 0 -0.095971306836852913 -0.13086642389395989 0 -0.1074786708911218 -0.1384404444482458 0 -0.095971306836852913 -0.13086642389395989 0 -0.095252038160572317 -0.1406191133899993 0 -0.1074786708911218 -0.1384404444482458 0 -0.1085913382140784 -0.11903379143832921 0 -0.1074786708911218 -0.1384404444482458 0 -0.12736410167423581 -0.1213878944680517 0 -0.1169630623746598 -0.14907522687480429 0 -0.1074786708911218 -0.1384404444482458 0 -0.12736410167423581 -0.1213878944680517 0 -0.1169630623746598 -0.14907522687480429 0 -0.12736410167423581 -0.1213878944680517 0 -0.13746664940214659 -0.13470709103134659 0 -0.12736410167423581 -0.1213878944680517 0 -0.14737054533773081 -0.1208951937003558 0 -0.1169630623746598 -0.14907522687480429 0 -0.13746664940214659 -0.13470709103134659 0 -0.12736410167423581 -0.1213878944680517 0 -0.1569759497016511 -0.14808982533941309 0 -0.14737054533773081 -0.1208951937003558 0 -0.13746664940214659 -0.13470709103134659 0 -0.1569759497016511 -0.14808982533941309 0 -0.14737054533773081 -0.1208951937003558 0 -0.1369695060381555 -0.1485825261071109 0 -0.1526603788815559 -0.1573596194762775 0 -0.1569759497016511 -0.14808982533941309 0 -0.13746664940214659 -0.13470709103134659 0 -0.1369695060381555 -0.1485825261071109 0 -0.1569759497016511 -0.14808982533941309 0 -0.1369695060381555 -0.1485825261071109 0 -0.1569759497016511 -0.14808982533941309 0 -0.1169630623746598 -0.14907522687480429 0 -0.1369695060381555 -0.1485825261071109 0 -0.1169630623746598 -0.14907522687480429 0 -0.1369695060381555 -0.1485825261071109 0 -0.12588679133122799 -0.1624874708491951 0 -0.1169630623746598 -0.14907522687480429 0 -0.13746664940214659 -0.13470709103134659 0 -0.1369695060381555 -0.1485825261071109 0 -0.11859204859796291 -0.17560578940816099 0 -0.12588679133122799 -0.1624874708491951 0 -0.13147554750711021 -0.17522771154146191 0 -0.12588679133122799 -0.1624874708491951 0 -0.13147554750711021 -0.17522771154146191 0 -0.14107140235061469 -0.16358211752318311 0 -0.13147554750711021 -0.17522771154146191 0 -0.14520517551865919 -0.17294749126987599 0 -0.14107140235061469 -0.16358211752318311 0 -0.1369695060381555 -0.1485825261071109 0 -0.12588679133122799 -0.1624874708491951 0 -0.14107140235061469 -0.16358211752318311 0 -0.11859204859796291 -0.17560578940816099 0 -0.13147554750711021 -0.17522771154146191 0 -0.1280127438194481 -0.19237656196114411 0 -0.13147554750711021 -0.17522771154146191 0 -0.1398254013782112 -0.18365029146927231 0 -0.1280127438194481 -0.19237656196114411 0 -0.13147554750711021 -0.17522771154146191 0 -0.1398254013782112 -0.18365029146927231 0 -0.14520517551865919 -0.17294749126987599 0 -0.1398254013782112 -0.18365029146927231 0 -0.14820117369214661 -0.18035874543477601 0 -0.1498687104188495 -0.18767128888863599 0 -0.1398254013782112 -0.18365029146927231 0 -0.14820117369214661 -0.18035874543477601 0 -0.14520517551865919 -0.17294749126987599 0 -0.14820117369214661 -0.18035874543477601 0 -0.14520517551865919 -0.17294749126987599 0 -0.1568216795970071 -0.17538216601134321 0 -0.14820117369214661 -0.18035874543477601 0 -0.15608754076248521 -0.18190001438557629 0 -0.1568216795970071 -0.17538216601134321 0 -0.14520517551865919 -0.17294749126987599 0 -0.15263532751206779 -0.16758471640843459 0 -0.1568216795970071 -0.17538216601134321 0 -0.14820117369214661 -0.18035874543477601 0 -0.15608754076248521 -0.18190001438557629 0 -0.1498687104188495 -0.18767128888863599 0 -0.15608754076248521 -0.18190001438557629 0 -0.1607184616130248 -0.18728683910860641 0 -0.1498687104188495 -0.18767128888863599 0 -0.1369695060381555 -0.1485825261071109 0 -0.14107140235061469 -0.16358211752318311 0 -0.1526603788815559 -0.1573596194762775 0 -0.14520517551865919 -0.17294749126987599 0 -0.14107140235061469 -0.16358211752318311 0 -0.15263532751206779 -0.16758471640843459 0 -0.15263532751206779 -0.16758471640843459 0 -0.1526603788815559 -0.1573596194762775 0 -0.16142564196989831 -0.16655703171874039 0 -0.14107140235061469 -0.16358211752318311 0 -0.15263532751206779 -0.16758471640843459 0 -0.1526603788815559 -0.1573596194762775 0 -0.1526603788815559 -0.1573596194762775 0 -0.16142564196989831 -0.16655703171874039 0 -0.16326087804426159 -0.16588359066980229 0 -0.16326087804426159 -0.16588359066980229 0 -0.1569759497016511 -0.14808982533941309 0 -0.1526603788815559 -0.1573596194762775 0 -0.16326087804426159 -0.16588359066980229 0 -0.1569759497016511 -0.14808982533941309 0 -0.1594122663447772 -0.17133307891758459 0 -0.16142564196989831 -0.16655703171874039 0 -0.16676641630013581 -0.17580840153182001 0 -0.15263532751206779 -0.16758471640843459 0 -0.1594122663447772 -0.17133307891758459 0 -0.16142564196989831 -0.16655703171874039 0 -0.16142564196989831 -0.16655703171874039 0 -0.16326087804426159 -0.16588359066980229 0 -0.16676641630013581 -0.17580840153182001 0 -0.15263532751206779 -0.16758471640843459 0 -0.1594122663447772 -0.17133307891758459 0 -0.1568216795970071 -0.17538216601134321 0 -0.16142564196989831 -0.16655703171874039 0 -0.16326087804426159 -0.16588359066980229 0 -0.16326087804426159 -0.16588359066980229 0 -0.16676641630013581 -0.17580840153182001 0 -0.1783922457352059 -0.17293489930968209 0 -0.16326087804426159 -0.16588359066980229 0 -0.16676641630013581 -0.17580840153182001 0 -0.15608754076248521 -0.18190001438557629 0 -0.1607184616130248 -0.18728683910860641 0 -0.16676641630013581 -0.17580840153182001 0 -0.15608754076248521 -0.18190001438557629 0 -0.1568216795970071 -0.17538216601134321 0 -0.16676641630013581 -0.17580840153182001 0 -0.1594122663447772 -0.17133307891758459 0 -0.1568216795970071 -0.17538216601134321 0 -0.16676641630013581 -0.17580840153182001 0 -0.1607184616130248 -0.18728683910860641 0 -0.16676641630013581 -0.17580840153182001 0 -0.17547527524387041 -0.1884338249559952 0 -0.17547527524387041 -0.1884338249559952 0 -0.1969820185962792 -0.17828497948479149 0 -0.1783922457352059 -0.17293489930968209 0 -0.17547527524387041 -0.1884338249559952 0 -0.1969820185962792 -0.17828497948479149 0 -0.16676641630013581 -0.17580840153182001 0 -0.1783922457352059 -0.17293489930968209 0 -0.17547527524387041 -0.1884338249559952 0 -0.16326087804426159 -0.16588359066980229 0 -0.18947664049148261 -0.1562636999060015 0 -0.16326087804426159 -0.16588359066980229 0 -0.18633417632017751 -0.14736681724080919 0 -0.18947664049148261 -0.1562636999060015 0 -0.16326087804426159 -0.16588359066980229 0 -0.1783922457352059 -0.17293489930968209 0 -0.18947664049148261 -0.1562636999060015 0 -0.18633417632017751 -0.14736681724080919 0 -0.16621773075288121 -0.1295318635244681 0 -0.18400621351090571 -0.1217110611121094 0 -0.16621773075288121 -0.1295318635244681 0 -0.1569759497016511 -0.14808982533941309 0 -0.14737054533773081 -0.1208951937003558 0 -0.18633417632017751 -0.14736681724080919 0 -0.16621773075288121 -0.1295318635244681 0 -0.1569759497016511 -0.14808982533941309 0 -0.18633417632017751 -0.14736681724080919 0 -0.1569759497016511 -0.14808982533941309 0 -0.16326087804426159 -0.16588359066980229 0 -0.18633417632017751 -0.14736681724080919 0 -0.1569759497016511 -0.14808982533941309 0 -0.1377523016625678 -0.25581657194563601 0 -0.15263230708737521 -0.24356194903458239 0 -0.13476861079800859 -0.2391754021203874 0 -0.15263230708737521 -0.24356194903458239 0 -0.13476861079800859 -0.2391754021203874 0 -0.14055595197029169 -0.22979662500526149 0 -0.1377523016625678 -0.25581657194563601 0 -0.1223681628105569 -0.24044891992886891 0 -0.13476861079800859 -0.2391754021203874 0 -0.1377523016625678 -0.25581657194563601 0 -0.1223681628105569 -0.24044891992886891 0 -0.1238233973506119 -0.23541481827178831 0 -0.13476861079800859 -0.2391754021203874 0 -0.13139441447274411 -0.22962184130071481 0 -0.1223681628105569 -0.24044891992886891 0 -0.1238233973506119 -0.23541481827178831 0 -0.13476861079800859 -0.2391754021203874 0 -0.13476861079800859 -0.2391754021203874 0 -0.14055595197029169 -0.22979662500526149 0 -0.13139441447274411 -0.22962184130071481 0 -0.12407830270498089 -0.22426790937284519 0 -0.1238233973506119 -0.23541481827178831 0 -0.13139441447274411 -0.22962184130071481 0 -0.12407830270498089 -0.22426790937284519 0 -0.13139441447274411 -0.22962184130071481 0 -0.13441394179160859 -0.22010184774946731 0 -0.14055595197029169 -0.22979662500526149 0 -0.13139441447274411 -0.22962184130071481 0 -0.13441394179160859 -0.22010184774946731 0 -0.14055595197029169 -0.22979662500526149 0 -0.13441394179160859 -0.22010184774946731 0 -0.14940536450650499 -0.21373664043116339 0 -0.15263230708737521 -0.24356194903458239 0 -0.14940536450650499 -0.21373664043116339 0 -0.15263230708737521 -0.24356194903458239 0 -0.14940536450650499 -0.21373664043116339 0 -0.16621803193972459 -0.22739125443424221 0 -0.15263230708737521 -0.24356194903458239 0 -0.14055595197029169 -0.22979662500526149 0 -0.14940536450650499 -0.21373664043116339 0 -0.14940536450650499 -0.21373664043116339 0 -0.13246178853905299 -0.20873151589840269 0 -0.1539685318914617 -0.1985826704271989 0 -0.13246178853905299 -0.20873151589840269 0 -0.1539685318914617 -0.1985826704271989 0 -0.13441394179160859 -0.22010184774946731 0 -0.14940536450650499 -0.21373664043116339 0 -0.13246178853905299 -0.20873151589840269 0 -0.12407830270498089 -0.22426790937284519 0 -0.13441394179160859 -0.22010184774946731 0 -0.13246178853905299 -0.20873151589840269 0 -0.1178174188303993 -0.20556040013348681 0 -0.13246178853905299 -0.20873151589840269 0 -0.1280127438194481 -0.19237656196114411 0 -0.13246178853905299 -0.20873151589840269 0 -0.1280127438194481 -0.19237656196114411 0 -0.14041115317576749 -0.19424917250638599 0 -0.1398254013782112 -0.18365029146927231 0 -0.1280127438194481 -0.19237656196114411 0 -0.14041115317576749 -0.19424917250638599 0 -0.13246178853905299 -0.20873151589840269 0 -0.14041115317576749 -0.19424917250638599 0 -0.1539685318914617 -0.1985826704271989 0 -0.14041115317576749 -0.19424917250638599 0 -0.1539685318914617 -0.1985826704271989 0 -0.1498687104188495 -0.18767128888863599 0 -0.1398254013782112 -0.18365029146927231 0 -0.14041115317576749 -0.19424917250638599 0 -0.1498687104188495 -0.18767128888863599 0 -0.1607184616130248 -0.18728683910860641 0 -0.1539685318914617 -0.1985826704271989 0 -0.1498687104188495 -0.18767128888863599 0 -0.1607184616130248 -0.18728683910860641 0 -0.1539685318914617 -0.1985826704271989 0 -0.17547527524387041 -0.1884338249559952 0 -0.1539685318914617 -0.1985826704271989 0 -0.17547527524387041 -0.1884338249559952 0 -0.16825702714884239 -0.20885775366498019 0 -0.1539685318914617 -0.1985826704271989 0 -0.17547527524387041 -0.1884338249559952 0 -0.17547527524387041 -0.1884338249559952 0 -0.18277425339256639 -0.2026996383603622 0 -0.16825702714884239 -0.20885775366498019 0 -0.17547527524387041 -0.1884338249559952 0 -0.18277425339256639 -0.2026996383603622 0 -0.1902080517791363 -0.1917922864575213 0 -0.18277425339256639 -0.2026996383603622 0 -0.16825702714884239 -0.20885775366498019 0 -0.18626938338499441 -0.22517712183416291 0 -0.14940536450650499 -0.21373664043116339 0 -0.1539685318914617 -0.1985826704271989 0 -0.16825702714884239 -0.20885775366498019 0 -0.14940536450650499 -0.21373664043116339 0 -0.16825702714884239 -0.20885775366498019 0 -0.16621803193972459 -0.22739125443424221 0 -0.16825702714884239 -0.20885775366498019 0 -0.16621803193972459 -0.22739125443424221 0 -0.18626938338499441 -0.22517712183416291 0 -0.16621803193972459 -0.22739125443424221 0 -0.18626938338499441 -0.22517712183416291 0 -0.1745260775709061 -0.24562280720632229 0 -0.18626938338499441 -0.22517712183416291 0 -0.1745260775709061 -0.24562280720632229 0 -0.19988453840298659 -0.24176205441804 0 -0.18626938338499441 -0.22517712183416291 0 -0.1745260775709061 -0.24562280720632229 0 -0.15263230708737521 -0.24356194903458239 0 -0.16621803193972459 -0.22739125443424221 0 -0.1745260775709061 -0.24562280720632229 0 -0.1689202540561075 -0.25519621835756329 0 -0.15263230708737521 -0.24356194903458239 0 -0.1745260775709061 -0.24562280720632229 0 -0.21854221021918649 -0.25236034283526498 0 -0.19988453840298659 -0.24176205441804 0 -0.21493562756427159 -0.22243862284749449 0 -0.19160736129165659 -0.25262396586623759 0 -0.1745260775709061 -0.24562280720632229 0 -0.19988453840298659 -0.24176205441804 0 -0.18626938338499441 -0.22517712183416291 0 -0.19988453840298659 -0.24176205441804 0 -0.21493562756427159 -0.22243862284749449 0 -0.21493562756427159 -0.22243862284749449 0 -0.19801268919908249 -0.2047314364620034 0 -0.21541309520260529 -0.20113031717637361 0 -0.18626938338499441 -0.22517712183416291 0 -0.19801268919908249 -0.2047314364620034 0 -0.18277425339256639 -0.2026996383603622 0 -0.18626938338499441 -0.22517712183416291 0 -0.19801268919908249 -0.2047314364620034 0 -0.18626938338499441 -0.22517712183416291 0 -0.21493562756427159 -0.22243862284749449 0 -0.19801268919908249 -0.2047314364620034 0 -0.19801268919908249 -0.2047314364620034 0 -0.1902080517791363 -0.1917922864575213 0 -0.20975599501317069 -0.18428575108984399 0 -0.18277425339256639 -0.2026996383603622 0 -0.19801268919908249 -0.2047314364620034 0 -0.1902080517791363 -0.1917922864575213 0 -0.21541309520260529 -0.20113031717637361 0 -0.20975599501317069 -0.18428575108984399 0 -0.229896455205026 -0.18225842567294781 0 -0.19801268919908249 -0.2047314364620034 0 -0.21541309520260529 -0.20113031717637361 0 -0.20975599501317069 -0.18428575108984399 0 -0.19801268919908249 -0.2047314364620034 0 -0.20975599501317069 -0.18428575108984399 0 -0.21541309520260529 -0.20113031717637361 0 -0.23384346774119599 -0.2034651679104556 0 -0.229896455205026 -0.18225842567294781 0 -0.24262172765942899 -0.19089247064050549 0 -0.25644706280453389 -0.1995927939493197 0 -0.25029992488695979 -0.1782534950292988 0 -0.24262172765942899 -0.19089247064050549 0 -0.23384346774119599 -0.2034651679104556 0 -0.25644706280453389 -0.1995927939493197 0 -0.24262172765942899 -0.19089247064050549 0 -0.23384346774119599 -0.2034651679104556 0 -0.229896455205026 -0.18225842567294781 0 -0.23384346774119599 -0.2034651679104556 0 -0.2377451423251814 -0.23136366228574551 0 -0.25674041691710447 -0.22108212323078871 0 -0.23384346774119599 -0.2034651679104556 0 -0.25674041691710447 -0.22108212323078871 0 -0.25644706280453389 -0.1995927939493197 0 -0.21493562756427159 -0.22243862284749449 0 -0.21541309520260529 -0.20113031717637361 0 -0.23384346774119599 -0.2034651679104556 0 -0.21493562756427159 -0.22243862284749449 0 -0.23384346774119599 -0.2034651679104556 0 -0.2377451423251814 -0.23136366228574551 0 -0.24465976002352091 -0.25387891845332877 0 -0.2377451423251814 -0.23136366228574551 0 -0.25992972331208369 -0.2410680052130979 0 -0.24465976002352091 -0.25387891845332877 0 -0.21854221021918649 -0.25236034283526498 0 -0.2377451423251814 -0.23136366228574551 0 -0.21854221021918649 -0.25236034283526498 0 -0.21493562756427159 -0.22243862284749449 0 -0.2377451423251814 -0.23136366228574551 0 -0.21854221021918649 -0.25236034283526498 0 -0.2377451423251814 -0.23136366228574551 0 -0.21569240293870359 -0.1466438091422006 0 -0.18947664049148261 -0.1562636999060015 0 -0.2105647825198341 -0.15627799774793921 0 -0.2105647825198341 -0.15627799774793921 0 -0.22149930082725899 -0.1638400657176845 0 -0.22047208921520459 -0.14652609931143951 0 -0.21569240293870359 -0.1466438091422006 0 -0.2105647825198341 -0.15627799774793921 0 -0.22047208921520459 -0.14652609931143951 0 -0.21569240293870359 -0.1466438091422006 0 -0.22047208921520459 -0.14652609931143951 0 -0.20228853596836749 -0.13187567246267581 0 -0.2244809527826766 -0.1321180186971766 0 -0.2129261089666101 -0.1196792574727195 0 -0.21569240293870359 -0.1466438091422006 0 -0.20228853596836749 -0.13187567246267581 0 -0.2244809527826766 -0.1321180186971766 0 -0.18633417632017751 -0.14736681724080919 0 -0.20228853596836749 -0.13187567246267581 0 -0.18400621351090571 -0.1217110611121094 0 -0.21569240293870359 -0.1466438091422006 0 -0.18947664049148261 -0.1562636999060015 0 -0.18633417632017751 -0.14736681724080919 0 -0.21569240293870359 -0.1466438091422006 0 -0.18947664049148261 -0.1562636999060015 0 -0.18633417632017751 -0.14736681724080919 0 -0.21569240293870359 -0.1466438091422006 0 -0.18633417632017751 -0.14736681724080919 0 -0.21569240293870359 -0.1466438091422006 0 -0.20228853596836749 -0.13187567246267581 0 -0.1783922457352059 -0.17293489930968209 0 -0.18947664049148261 -0.1562636999060015 0 -0.1969820185962792 -0.17828497948479149 0 -0.18947664049148261 -0.1562636999060015 0 -0.1969820185962792 -0.17828497948479149 0 -0.20568347912652049 -0.16811631466237001 0 -0.18947664049148261 -0.1562636999060015 0 -0.20568347912652049 -0.16811631466237001 0 -0.2105647825198341 -0.15627799774793921 0 -0.1902080517791363 -0.1917922864575213 0 -0.1969820185962792 -0.17828497948479149 0 -0.20975599501317069 -0.18428575108984399 0 -0.17547527524387041 -0.1884338249559952 0 -0.1902080517791363 -0.1917922864575213 0 -0.1969820185962792 -0.17828497948479149 0 -0.20975599501317069 -0.18428575108984399 0 -0.22149930082725899 -0.1638400657176845 0 -0.20975599501317069 -0.18428575108984399 0 -0.20568347912652049 -0.16811631466237001 0 -0.22149930082725899 -0.1638400657176845 0 -0.1969820185962792 -0.17828497948479149 0 -0.20975599501317069 -0.18428575108984399 0 -0.20568347912652049 -0.16811631466237001 0 -0.20568347912652049 -0.16811631466237001 0 -0.2105647825198341 -0.15627799774793921 0 -0.22149930082725899 -0.1638400657176845 0 -0.22149930082725899 -0.1638400657176845 0 -0.2402834514435094 -0.1667894474332684 0 -0.2341322288468432 -0.15422277024092529 0 -0.22149930082725899 -0.1638400657176845 0 -0.229896455205026 -0.18225842567294781 0 -0.2402834514435094 -0.1667894474332684 0 -0.20975599501317069 -0.18428575108984399 0 -0.22149930082725899 -0.1638400657176845 0 -0.229896455205026 -0.18225842567294781 0 -0.229896455205026 -0.18225842567294781 0 -0.2402834514435094 -0.1667894474332684 0 -0.25029992488695979 -0.1782534950292988 0 -0.24262172765942899 -0.19089247064050549 0 -0.229896455205026 -0.18225842567294781 0 -0.25029992488695979 -0.1782534950292988 0 -0.2402834514435094 -0.1667894474332684 0 -0.25029992488695979 -0.1782534950292988 0 -0.25761979100978533 -0.16665415002795461 0 -0.2402834514435094 -0.1667894474332684 0 -0.24825300788518309 -0.1555077779107997 0 -0.25761979100978533 -0.16665415002795461 0 -0.2402834514435094 -0.1667894474332684 0 -0.24825300788518309 -0.1555077779107997 0 -0.2341322288468432 -0.15422277024092529 0 -0.24825300788518309 -0.1555077779107997 0 -0.2405789555143194 -0.1375116727892334 0 -0.25601133851015478 -0.1487044986697981 0 -0.24825300788518309 -0.1555077779107997 0 -0.2341322288468432 -0.15422277024092529 0 -0.2405789555143194 -0.1375116727892334 0 -0.21569240293870359 -0.1466438091422006 0 -0.22047208921520459 -0.14652609931143951 0 -0.2405789555143194 -0.1375116727892334 0 -0.22149930082725899 -0.1638400657176845 0 -0.2341322288468432 -0.15422277024092529 0 -0.22047208921520459 -0.14652609931143951 0 -0.21569240293870359 -0.1466438091422006 0 -0.2405789555143194 -0.1375116727892334 0 -0.2341322288468432 -0.15422277024092529 0 -0.22047208921520459 -0.14652609931143951 0 -0.2405789555143194 -0.1375116727892334 0 -0.21569240293870359 -0.1466438091422006 0 -0.2244809527826766 -0.1321180186971766 0 -0.2405789555143194 -0.1375116727892334 0 -0.2244809527826766 -0.1321180186971766 0 -0.2405789555143194 -0.1375116727892334 0 -0.23651179230599079 -0.1199754775459997 0 -0.2405789555143194 -0.1375116727892334 0 -0.23651179230599079 -0.1199754775459997 0 -0.25054446979338107 -0.12912519928877991 0 -0.23651179230599079 -0.1199754775459997 0 -0.24959534238117709 -0.1078054475449232 0 -0.26009747564537128 -0.1202716976192799 0 -0.23651179230599079 -0.1199754775459997 0 -0.26009747564537128 -0.1202716976192799 0 -0.23651179230599079 -0.1199754775459997 0 -0.26009747564537128 -0.1202716976192799 0 -0.25054446979338107 -0.12912519928877991 0 -0.23651179230599079 -0.1199754775459997 0 -0.24959534238117709 -0.1078054475449232 0 -0.23746734258601571 -0.1067534300414448 0 -0.24098124084432149 -0.095291905336151436 0 -0.23746734258601571 -0.1067534300414448 0 -0.22473934926471251 -0.1042306158888877 0 -0.24959534238117709 -0.1078054475449232 0 -0.24098124084432149 -0.095291905336151436 0 -0.25687551172258971 -0.095275519396915032 0 -0.24959534238117709 -0.1078054475449232 0 -0.24098124084432149 -0.095291905336151436 0 -0.23746734258601571 -0.1067534300414448 0 -0.22473934926471251 -0.1042306158888877 0 -0.22774604229393439 -0.087804120453188278 0 -0.20897213189474381 -0.093424031558921927 0 -0.24098124084432149 -0.095291905336151436 0 -0.22473934926471251 -0.1042306158888877 0 -0.22774604229393439 -0.087804120453188278 0 -0.2244809527826766 -0.1321180186971766 0 -0.23651179230599079 -0.1199754775459997 0 -0.2129261089666101 -0.1196792574727195 0 -0.23651179230599079 -0.1199754775459997 0 -0.2129261089666101 -0.1196792574727195 0 -0.23651179230599079 -0.1199754775459997 0 -0.23746734258601571 -0.1067534300414448 0 -0.22473934926471251 -0.1042306158888877 0 -0.23651179230599079 -0.1199754775459997 0 -0.22473934926471251 -0.1042306158888877 0 -0.2129261089666101 -0.1196792574727195 0 -0.2466384096447127 -0.069214282175018252 0 -0.23144064811545881 -0.071679072189906365 0 -0.24006258296416741 -0.059977364163272567 0 -0.2466384096447127 -0.069214282175018252 0 -0.23867713564867771 -0.0818228939715063 0 -0.25106785873748549 -0.083001848322642804 0 -0.2466384096447127 -0.069214282175018252 0 -0.23867713564867771 -0.0818228939715063 0 -0.23144064811545881 -0.071679072189906365 0 -0.24098124084432149 -0.095291905336151436 0 -0.25106785873748549 -0.083001848322642804 0 -0.25687551172258971 -0.095275519396915032 0 -0.24098124084432149 -0.095291905336151436 0 -0.23867713564867771 -0.0818228939715063 0 -0.25106785873748549 -0.083001848322642804 0 -0.24098124084432149 -0.095291905336151436 0 -0.23867713564867771 -0.0818228939715063 0 -0.22774604229393439 -0.087804120453188278 0 -0.22048160989483939 -0.080833284582646742 0 -0.22774604229393439 -0.087804120453188278 0 -0.23144064811545881 -0.071679072189906365 0 -0.23867713564867771 -0.0818228939715063 0 -0.22774604229393439 -0.087804120453188278 0 -0.23144064811545881 -0.071679072189906365 0 -0.22048160989483939 -0.080833284582646742 0 -0.22774604229393439 -0.087804120453188278 0 -0.20897213189474381 -0.093424031558921927 0 -0.23144064811545881 -0.071679072189906365 0 -0.2137676172752207 -0.070425914128570383 0 -0.21856310265569601 -0.047427796698218422 0 -0.22048160989483939 -0.080833284582646742 0 -0.23144064811545881 -0.071679072189906365 0 -0.2137676172752207 -0.070425914128570383 0 -0.23144064811545881 -0.071679072189906365 0 -0.23092663332862359 -0.057189961691847993 0 -0.24006258296416741 -0.059977364163272567 0 -0.20335705558913081 -0.063140738221072371 0 -0.2137676172752207 -0.070425914128570383 0 -0.20224544779007569 -0.076575791796341275 0 -0.2137676172752207 -0.070425914128570383 0 -0.20897213189474381 -0.093424031558921927 0 -0.20224544779007569 -0.076575791796341275 0 -0.2137676172752207 -0.070425914128570383 0 -0.20897213189474381 -0.093424031558921927 0 -0.22048160989483939 -0.080833284582646742 0 -0.2137676172752207 -0.070425914128570383 0 -0.20897213189474381 -0.093424031558921927 0 -0.20897213189474381 -0.093424031558921927 0 -0.18864483179057751 -0.079783658531738119 0 -0.20224544779007569 -0.076575791796341275 0 -0.20897213189474381 -0.093424031558921927 0 -0.18864483179057751 -0.079783658531738119 0 -0.1843208979706715 -0.098582101900239388 0 -0.20335705558913081 -0.063140738221072371 0 -0.18864483179057751 -0.079783658531738119 0 -0.20224544779007569 -0.076575791796341275 0 -0.20335705558913081 -0.063140738221072371 0 -0.18864483179057751 -0.079783658531738119 0 -0.20335705558913081 -0.063140738221072371 0 -0.18864483179057751 -0.079783658531738119 0 -0.18476368522970901 -0.060313507398174523 0 -0.22473934926471251 -0.1042306158888877 0 -0.2129261089666101 -0.1196792574727195 0 -0.1994025973422491 -0.10829052452779669 0 -0.20228853596836749 -0.13187567246267581 0 -0.2129261089666101 -0.1196792574727195 0 -0.1994025973422491 -0.10829052452779669 0 -0.22473934926471251 -0.1042306158888877 0 -0.20897213189474381 -0.093424031558921927 0 -0.1994025973422491 -0.10829052452779669 0 -0.20897213189474381 -0.093424031558921927 0 -0.1994025973422491 -0.10829052452779669 0 -0.1843208979706715 -0.098582101900239388 0 -0.20228853596836749 -0.13187567246267581 0 -0.1994025973422491 -0.10829052452779669 0 -0.18400621351090571 -0.1217110611121094 0 -0.1994025973422491 -0.10829052452779669 0 -0.18400621351090571 -0.1217110611121094 0 -0.1843208979706715 -0.098582101900239388 0 -0.16621773075288121 -0.1295318635244681 0 -0.18400621351090571 -0.1217110611121094 0 -0.16647442841019139 -0.11035058163789351 0 -0.18400621351090571 -0.1217110611121094 0 -0.16647442841019139 -0.11035058163789351 0 -0.1843208979706715 -0.098582101900239388 0 -0.16621773075288121 -0.1295318635244681 0 -0.16647442841019139 -0.11035058163789351 0 -0.14737054533773081 -0.1208951937003558 0 -0.16647442841019139 -0.11035058163789351 0 -0.16521255597131029 -0.094363556792246006 0 -0.15171862691764881 -0.097019712797942706 0 -0.16647442841019139 -0.11035058163789351 0 -0.16521255597131029 -0.094363556792246006 0 -0.1843208979706715 -0.098582101900239388 0 -0.16521255597131029 -0.094363556792246006 0 -0.1843208979706715 -0.098582101900239388 0 -0.1718657805157274 -0.077566403117392158 0 -0.18864483179057751 -0.079783658531738119 0 -0.1843208979706715 -0.098582101900239388 0 -0.1718657805157274 -0.077566403117392158 0 -0.18864483179057751 -0.079783658531738119 0 -0.1718657805157274 -0.077566403117392158 0 -0.18476368522970901 -0.060313507398174523 0 -0.1718657805157274 -0.077566403117392158 0 -0.16766997596840549 -0.055069670457126463 0 -0.18476368522970901 -0.060313507398174523 0 -0.1718657805157274 -0.077566403117392158 0 -0.1555984100513392 -0.067553704814911478 0 -0.16766997596840549 -0.055069670457126463 0 -0.1718657805157274 -0.077566403117392158 0 -0.15451520526235171 -0.083858215916353424 0 -0.1555984100513392 -0.067553704814911478 0 -0.16521255597131029 -0.094363556792246006 0 -0.1718657805157274 -0.077566403117392158 0 -0.15451520526235171 -0.083858215916353424 0 -0.16521255597131029 -0.094363556792246006 0 -0.15451520526235171 -0.083858215916353424 0 -0.15171862691764881 -0.097019712797942706 0 -0.15451520526235171 -0.083858215916353424 0 -0.14334301715898221 -0.074859018030624863 0 -0.13903100861317999 -0.090330850909877913 0 -0.15451520526235171 -0.083858215916353424 0 -0.13903100861317999 -0.090330850909877913 0 -0.15171862691764881 -0.097019712797942706 0 -0.1377651409738101 -0.093700562061298426 0 -0.13903100861317999 -0.090330850909877913 0 -0.15171862691764881 -0.097019712797942706 0 -0.15451520526235171 -0.083858215916353424 0 -0.1555984100513392 -0.067553704814911478 0 -0.14334301715898221 -0.074859018030624863 0 -0.1555984100513392 -0.067553704814911478 0 -0.14334301715898221 -0.074859018030624863 0 -0.13945189113323761 -0.059806177835795588 0 -0.14334301715898221 -0.074859018030624863 0 -0.12930964035960699 -0.069761515268982097 0 -0.13945189113323761 -0.059806177835795588 0 -0.12930964035960699 -0.069761515268982097 0 -0.1377651409738101 -0.093700562061298426 0 -0.12930964035960699 -0.069761515268982097 0 -0.1377651409738101 -0.093700562061298426 0 -0.13903100861317999 -0.090330850909877913 0 -0.1189291253072135 -0.086669643832799348 0 -0.12930964035960699 -0.069761515268982097 0 -0.1377651409738101 -0.093700562061298426 0 -0.14334301715898221 -0.074859018030624863 0 -0.12930964035960699 -0.069761515268982097 0 -0.13903100861317999 -0.090330850909877913 0 -0.1377651409738101 -0.093700562061298426 0 -0.13903100861317999 -0.090330850909877913 0 -0.11893842975153809 -0.10446969177473921 0 -0.1377651409738101 -0.093700562061298426 0 -0.12736410167423581 -0.1213878944680517 0 -0.1377651409738101 -0.093700562061298426 0 -0.12736410167423581 -0.1213878944680517 0 -0.11893842975153809 -0.10446969177473921 0 -0.1189291253072135 -0.086669643832799348 0 -0.1377651409738101 -0.093700562061298426 0 -0.1377651409738101 -0.093700562061298426 0 -0.12736410167423581 -0.1213878944680517 0 -0.14737054533773081 -0.1208951937003558 0 -0.16647442841019139 -0.11035058163789351 0 -0.14737054533773081 -0.1208951937003558 0 -0.15171862691764881 -0.097019712797942706 0 -0.1377651409738101 -0.093700562061298426 0 -0.14737054533773081 -0.1208951937003558 0 -0.15171862691764881 -0.097019712797942706 0 -0.1377651409738101 -0.093700562061298426 0 -0.14737054533773081 -0.1208951937003558 0 -0.14925834278157041 -0.027771983247297551 0 -0.15381676672243971 -0.0048344028756085976 0 -0.16158573310271521 -0.019122381719964599 0 -0.14925834278157041 -0.027771983247297551 0 -0.15381676672243971 -0.0048344028756085976 0 -0.14925834278157041 -0.027771983247297551 0 -0.13622810944285851 -0.025664644749336048 0 -0.13728148428220571 -0.03631729474545041 0 -0.15381676672243971 -0.0048344028756085976 0 -0.13373576905839379 -0.01378162565115138 0 -0.13796817939809339 -7.5853332940862265e-05 0 -0.14925834278157041 -0.027771983247297551 0 -0.15381676672243971 -0.0048344028756085976 0 -0.13373576905839379 -0.01378162565115138 0 -0.1244522405185825 -0.00038769298458709092 0 -0.1246368416492639 -0.024787675353444869 0 -0.13373576905839379 -0.01378162565115138 0 -0.1244522405185825 -0.00038769298458709092 0 -0.13373576905839379 -0.01378162565115138 0 -0.13796817939809339 -7.5853332940862265e-05 0 -0.1244522405185825 -0.00038769298458709092 0 -0.13373576905839379 -0.01378162565115138 0 -0.1246368416492639 -0.024787675353444869 0 -0.13373576905839379 -0.01378162565115138 0 -0.13622810944285851 -0.025664644749336048 0 -0.14925834278157041 -0.027771983247297551 0 -0.13373576905839379 -0.01378162565115138 0 -0.13622810944285851 -0.025664644749336048 0 -0.1246368416492639 -0.024787675353444869 0 -0.13622810944285851 -0.025664644749336048 0 -0.13728148428220571 -0.03631729474545041 0 -0.1248214427799455 -0.0491876577223027 0 -0.1246368416492639 -0.024787675353444869 0 -0.13067566527459321 -0.039597081228004503 0 -0.1246368416492639 -0.024787675353444869 0 -0.13067566527459321 -0.039597081228004503 0 -0.13728148428220571 -0.03631729474545041 0 -0.1248214427799455 -0.0491876577223027 0 -0.13067566527459321 -0.039597081228004503 0 -0.1359628923869578 -0.048095697090820053 0 -0.13067566527459321 -0.039597081228004503 0 -0.13728148428220571 -0.03631729474545041 0 -0.1359628923869578 -0.048095697090820053 0 -0.13728148428220571 -0.03631729474545041 0 -0.1359628923869578 -0.048095697090820053 0 -0.14767594406259391 -0.049379474087132447 0 -0.1248214427799455 -0.0491876577223027 0 -0.12930964035960699 -0.069761515268982097 0 -0.13945189113323761 -0.059806177835795588 0 -0.1208541397454049 -0.045822468476665427 0 -0.12930964035960699 -0.069761515268982097 0 -0.1248214427799455 -0.0491876577223027 0 -0.1359628923869578 -0.048095697090820053 0 -0.13945189113323761 -0.059806177835795588 0 -0.1555984100513392 -0.067553704814911478 0 -0.13945189113323761 -0.059806177835795588 0 -0.14767594406259391 -0.049379474087132447 0 -0.1359628923869578 -0.048095697090820053 0 -0.13945189113323761 -0.059806177835795588 0 -0.14767594406259391 -0.049379474087132447 0 -0.14925834278157041 -0.027771983247297551 0 -0.14767594406259391 -0.049379474087132447 0 -0.16346190388351911 -0.035477368974388322 0 -0.14925834278157041 -0.027771983247297551 0 -0.13728148428220571 -0.03631729474545041 0 -0.14767594406259391 -0.049379474087132447 0 -0.14767594406259391 -0.049379474087132447 0 -0.16346190388351911 -0.035477368974388322 0 -0.16766997596840549 -0.055069670457126463 0 -0.16346190388351911 -0.035477368974388322 0 -0.16766997596840549 -0.055069670457126463 0 -0.1792130821544009 -0.041655239440509813 0 -0.1555984100513392 -0.067553704814911478 0 -0.14767594406259391 -0.049379474087132447 0 -0.16766997596840549 -0.055069670457126463 0 -0.16766997596840549 -0.055069670457126463 0 -0.18476368522970901 -0.060313507398174523 0 -0.1792130821544009 -0.041655239440509813 0 -0.18476368522970901 -0.060313507398174523 0 -0.1792130821544009 -0.041655239440509813 0 -0.19607578221694649 -0.043845816873478577 0 -0.16346190388351911 -0.035477368974388322 0 -0.1792130821544009 -0.041655239440509813 0 -0.1747539590121796 -0.02148713112583673 0 -0.1792130821544009 -0.041655239440509813 0 -0.1747539590121796 -0.02148713112583673 0 -0.18874747204970219 -0.028974905836781941 0 -0.1747539590121796 -0.02148713112583673 0 -0.18814241231787171 -0.014961103822567131 0 -0.18874747204970219 -0.028974905836781941 0 -0.14925834278157041 -0.027771983247297551 0 -0.16346190388351911 -0.035477368974388322 0 -0.16158573310271521 -0.019122381719964599 0 -0.16346190388351911 -0.035477368974388322 0 -0.1747539590121796 -0.02148713112583673 0 -0.16158573310271521 -0.019122381719964599 0 -0.1747539590121796 -0.02148713112583673 0 -0.16158573310271521 -0.019122381719964599 0 -0.1670666400728934 -0.0075955490013497832 0 -0.15381676672243971 -0.0048344028756085976 0 -0.1670666400728934 -0.0075955490013497832 0 -0.16872927738725291 0.0066655648670224509 0 -0.15381676672243971 -0.0048344028756085976 0 -0.16158573310271521 -0.019122381719964599 0 -0.1670666400728934 -0.0075955490013497832 0 -0.1670666400728934 -0.0075955490013497832 0 -0.1785064095432054 -0.0066611219507198768 0 -0.16872927738725291 0.0066655648670224509 0 -0.1747539590121796 -0.02148713112583673 0 -0.1670666400728934 -0.0075955490013497832 0 -0.1785064095432054 -0.0066611219507198768 0 -0.1747539590121796 -0.02148713112583673 0 -0.1785064095432054 -0.0066611219507198768 0 -0.18814241231787171 -0.014961103822567131 0 -0.1785064095432054 -0.0066611219507198768 0 -0.18814241231787171 -0.014961103822567131 0 -0.193034969706537 0.00064734206737222756 0 -0.20555212454711219 -0.022925237921517471 0 -0.20993853639106591 -0.0035380738047605968 0 -0.193034969706537 0.00064734206737222756 0 -0.18814241231787171 -0.014961103822567131 0 -0.20555212454711219 -0.022925237921517471 0 -0.193034969706537 0.00064734206737222756 0 -0.20555212454711219 -0.022925237921517471 0 -0.193034969706537 0.00064734206737222756 0 -0.20993853639106591 -0.0035380738047605968 0 -0.193034969706537 0.00064734206737222756 0 -0.18814241231787171 -0.014961103822567131 0 -0.18874747204970219 -0.028974905836781941 0 -0.20555212454711219 -0.022925237921517471 0 -0.20555212454711219 -0.022925237921517471 0 -0.21630961893328751 -0.01519709454307171 0 -0.22290571171937651 -0.026601576769118469 0 -0.20993853639106591 -0.0035380738047605968 0 -0.22684210307559549 -0.0077234896768903086 0 -0.21568563774484731 0.0082874278720449449 0 -0.20993853639106591 -0.0035380738047605968 0 -0.21630961893328751 -0.01519709454307171 0 -0.22684210307559549 -0.0077234896768903086 0 -0.20555212454711219 -0.022925237921517471 0 -0.20993853639106591 -0.0035380738047605968 0 -0.21630961893328751 -0.01519709454307171 0 -0.20993853639106591 -0.0035380738047605968 0 -0.22684210307559549 -0.0077234896768903086 0 -0.20335705558913081 -0.063140738221072371 0 -0.18476368522970901 -0.060313507398174523 0 -0.19607578221694649 -0.043845816873478577 0 -0.1792130821544009 -0.041655239440509813 0 -0.18874747204970219 -0.028974905836781941 0 -0.19607578221694649 -0.043845816873478577 0 -0.18874747204970219 -0.028974905836781941 0 -0.20555212454711219 -0.022925237921517471 0 -0.19607578221694649 -0.043845816873478577 0 -0.20555212454711219 -0.022925237921517471 0 -0.21856310265569601 -0.047427796698218422 0 -0.20555212454711219 -0.022925237921517471 0 -0.21856310265569601 -0.047427796698218422 0 -0.21896932036315811 -0.045479663861346789 0 -0.20555212454711219 -0.022925237921517471 0 -0.19607578221694649 -0.043845816873478577 0 -0.21856310265569601 -0.047427796698218422 0 -0.20555212454711219 -0.022925237921517471 0 -0.21896932036315811 -0.045479663861346789 0 -0.22290571171937651 -0.026601576769118469 0 -0.2137676172752207 -0.070425914128570383 0 -0.21856310265569601 -0.047427796698218422 0 -0.20335705558913081 -0.063140738221072371 0 -0.2137676172752207 -0.070425914128570383 0 -0.21856310265569601 -0.047427796698218422 0 -0.20335705558913081 -0.063140738221072371 0 -0.19607578221694649 -0.043845816873478577 0 -0.21856310265569601 -0.047427796698218422 0 -0.20335705558913081 -0.063140738221072371 0 -0.21856310265569601 -0.047427796698218422 0 -0.23144064811545881 -0.071679072189906365 0 -0.21856310265569601 -0.047427796698218422 0 -0.23092663332862359 -0.057189961691847993 0 -0.23144064811545881 -0.071679072189906365 0 -0.21856310265569601 -0.047427796698218422 0 -0.21856310265569601 -0.047427796698218422 0 -0.23092663332862359 -0.057189961691847993 0 -0.22458774444026389 -0.046948698447319907 0 -0.23092663332862359 -0.057189961691847993 0 -0.2320274706224234 -0.04981915803055513 0 -0.23892230415514151 -0.050781370399802413 0 -0.23092663332862359 -0.057189961691847993 0 -0.22458774444026389 -0.046948698447319907 0 -0.2320274706224234 -0.04981915803055513 0 -0.21896932036315811 -0.045479663861346789 0 -0.2306307955349908 -0.032287844280089482 0 -0.22290571171937651 -0.026601576769118469 0 -0.21896932036315811 -0.045479663861346789 0 -0.22290571171937651 -0.026601576769118469 0 -0.22458774444026389 -0.046948698447319907 0 -0.2320274706224234 -0.04981915803055513 0 -0.23529860714157019 -0.041169280456794459 0 -0.22458774444026389 -0.046948698447319907 0 -0.2306307955349908 -0.032287844280089482 0 -0.23529860714157019 -0.041169280456794459 0 -0.22458774444026389 -0.046948698447319907 0 -0.21896932036315811 -0.045479663861346789 0 -0.2306307955349908 -0.032287844280089482 0 -0.21856310265569601 -0.047427796698218422 0 -0.22458774444026389 -0.046948698447319907 0 -0.21896932036315811 -0.045479663861346789 0 -0.21856310265569601 -0.047427796698218422 0 -0.21896932036315811 -0.045479663861346789 0 -0.21896932036315811 -0.045479663861346789 0 -0.2306307955349908 -0.032287844280089482 0 -0.2306307955349908 -0.032287844280089482 0 -0.23529860714157019 -0.041169280456794459 0 -0.241537864008738 -0.030171217790278881 0 -0.24798951326795751 -0.035882587373858313 0 -0.23529860714157019 -0.041169280456794459 0 -0.241537864008738 -0.030171217790278881 0 -0.24798951326795751 -0.035882587373858313 0 -0.24357205858261219 -0.044359355700093257 0 -0.23529860714157019 -0.041169280456794459 0 -0.24798951326795751 -0.035882587373858313 0 -0.24357205858261219 -0.044359355700093257 0 -0.25238491957690051 -0.051022134359787842 0 -0.24357205858261219 -0.044359355700093257 0 -0.23529860714157019 -0.041169280456794459 0 -0.23892230415514151 -0.050781370399802413 0 -0.2466384096447127 -0.069214282175018252 0 -0.24006258296416741 -0.059977364163272567 0 -0.25238491957690051 -0.051022134359787842 0 -0.2320274706224234 -0.04981915803055513 0 -0.23529860714157019 -0.041169280456794459 0 -0.23892230415514151 -0.050781370399802413 0 -0.23892230415514151 -0.050781370399802413 0 -0.24006258296416741 -0.059977364163272567 0 -0.25238491957690051 -0.051022134359787842 0 -0.24357205858261219 -0.044359355700093257 0 -0.23892230415514151 -0.050781370399802413 0 -0.25238491957690051 -0.051022134359787842 0 -0.23092663332862359 -0.057189961691847993 0 -0.23892230415514151 -0.050781370399802413 0 -0.24006258296416741 -0.059977364163272567 0 -0.21630961893328751 -0.01519709454307171 0 -0.22684210307559549 -0.0077234896768903086 0 -0.22290571171937651 -0.026601576769118469 0 -0.22684210307559549 -0.0077234896768903086 0 -0.22290571171937651 -0.026601576769118469 0 -0.23226271327452069 -0.02198020745377605 0 -0.22684210307559549 -0.0077234896768903086 0 -0.22290571171937651 -0.026601576769118469 0 -0.2306307955349908 -0.032287844280089482 0 -0.22290571171937651 -0.026601576769118469 0 -0.23226271327452069 -0.02198020745377605 0 -0.22684210307559549 -0.0077234896768903086 0 -0.23226271327452069 -0.02198020745377605 0 -0.24229227070682269 -0.019096024698831499 0 -0.2306307955349908 -0.032287844280089482 0 -0.241537864008738 -0.030171217790278881 0 -0.24229227070682269 -0.019096024698831499 0 -0.2306307955349908 -0.032287844280089482 0 -0.23226271327452069 -0.02198020745377605 0 -0.24229227070682269 -0.019096024698831499 0 -0.2306307955349908 -0.032287844280089482 0 -0.24229227070682269 -0.019096024698831499 0 -0.24798951326795751 -0.035882587373858313 0 -0.241537864008738 -0.030171217790278881 0 -0.25387676547985721 -0.02452441136234379 0 -0.241537864008738 -0.030171217790278881 0 -0.24229227070682269 -0.019096024698831499 0 -0.25387676547985721 -0.02452441136234379 0 -0.24229227070682269 -0.019096024698831499 0 -0.24826461013585729 -0.013027819984466921 0 -0.25387676547985721 -0.02452441136234379 0 -0.22684210307559549 -0.0077234896768903086 0 -0.24826461013585729 -0.013027819984466921 0 -0.24598119983726671 0.0037338506766126851 0 -0.22684210307559549 -0.0077234896768903086 0 -0.24229227070682269 -0.019096024698831499 0 -0.24826461013585729 -0.013027819984466921 0 -0.22684210307559549 -0.0077234896768903086 0 -0.24826461013585729 -0.013027819984466921 0 -0.24826461013585729 -0.013027819984466921 0 -0.26003022337954462 -0.0038093911555793728 0 -0.24598119983726671 0.0037338506766126851 0 -0.24826461013585729 -0.013027819984466921 0 -0.26003022337954462 -0.0038093911555793728 0 -0.26968711719611937 -0.018332150292041979 0 -0.24826461013585729 -0.013027819984466921 0 -0.26968711719611937 -0.018332150292041979 0 -0.25387676547985721 -0.02452441136234379 0 -0.26968711719611937 -0.018332150292041979 0 -0.26155562347943467 -0.037861138146123199 0 -0.24826461013585729 -0.013027819984466921 0 -0.25387676547985721 -0.02452441136234379 0 -0.26968711719611937 -0.018332150292041979 0 -0.26968711719611937 -0.018332150292041979 0 -0.28953187906397732 -0.034281883787379987 0 -0.27524211720584768 -0.038538427260779863 0 -0.26003022337954462 -0.0038093911555793728 0 -0.26968711719611937 -0.018332150292041979 0 -0.27433688946420332 -0.0007833753365484626 0 -0.26968711719611937 -0.018332150292041979 0 -0.27433688946420332 -0.0007833753365484626 0 -0.28631392786639209 -0.0070506759659385472 0 -0.28631392786639209 -0.0070506759659385472 0 -0.29653674479957171 -0.021015146411400301 0 -0.3025805037907468 -0.0027432771802810229 0 -0.28631392786639209 -0.0070506759659385472 0 -0.3025805037907468 -0.0027432771802810229 0 -0.28842838408131971 0.0076205693905790281 0 -0.27433688946420332 -0.0007833753365484626 0 -0.28631392786639209 -0.0070506759659385472 0 -0.28842838408131971 0.0076205693905790281 0 -0.26968711719611937 -0.018332150292041979 0 -0.28631392786639209 -0.0070506759659385472 0 -0.29653674479957171 -0.021015146411400301 0 -0.26968711719611937 -0.018332150292041979 0 -0.29653674479957171 -0.021015146411400301 0 -0.28953187906397732 -0.034281883787379987 0 -0.29653674479957171 -0.021015146411400301 0 -0.28953187906397732 -0.034281883787379987 0 -0.31718310516035308 -0.038172790333745737 0 -0.29653674479957171 -0.021015146411400301 0 -0.31459326366374579 -0.01532774276474733 0 -0.31718310516035308 -0.038172790333745737 0 -0.29653674479957171 -0.021015146411400301 0 -0.3025805037907468 -0.0027432771802810229 0 -0.31459326366374579 -0.01532774276474733 0 -0.30229462048881822 -0.056161209871372138 0 -0.29850594913894141 -0.055440370537233663 0 -0.30849544073550722 -0.074776909133231664 0 -0.30229462048881822 -0.056161209871372138 0 -0.29366820665513949 -0.048519954280836622 0 -0.31370341578724742 -0.051143824177853653 0 -0.30229462048881822 -0.056161209871372138 0 -0.29850594913894141 -0.055440370537233663 0 -0.29366820665513949 -0.048519954280836622 0 -0.30229462048881822 -0.056161209871372138 0 -0.31629816603535338 -0.060261719535131632 0 -0.30229462048881822 -0.056161209871372138 0 -0.31178497446605258 -0.064623658022855565 0 -0.31629816603535338 -0.060261719535131632 0 -0.30229462048881822 -0.056161209871372138 0 -0.31370341578724742 -0.051143824177853653 0 -0.31629816603535338 -0.060261719535131632 0 -0.29366820665513949 -0.048519954280836622 0 -0.31718310516035308 -0.038172790333745737 0 -0.29366820665513949 -0.048519954280836622 0 -0.31718310516035308 -0.038172790333745737 0 -0.31370341578724742 -0.051143824177853653 0 -0.28953187906397732 -0.034281883787379987 0 -0.29366820665513949 -0.048519954280836622 0 -0.31718310516035308 -0.038172790333745737 0 -0.28953187906397732 -0.034281883787379987 0 -0.29366820665513949 -0.048519954280836622 0 -0.27524211720584768 -0.038538427260779863 0 -0.29366820665513949 -0.048519954280836622 0 -0.27015330814992611 -0.058867118227927437 0 -0.29366820665513949 -0.048519954280836622 0 -0.28660483069534037 -0.061918496488246169 0 -0.27015330814992611 -0.058867118227927437 0 -0.29850594913894141 -0.055440370537233663 0 -0.28660483069534037 -0.061918496488246169 0 -0.29557893925590151 -0.069462416794053169 0 -0.29850594913894141 -0.055440370537233663 0 -0.29366820665513949 -0.048519954280836622 0 -0.28660483069534037 -0.061918496488246169 0 -0.29366820665513949 -0.048519954280836622 0 -0.27015330814992611 -0.058867118227927437 0 -0.27524211720584768 -0.038538427260779863 0 -0.26968711719611937 -0.018332150292041979 0 -0.27524211720584768 -0.038538427260779863 0 -0.26155562347943467 -0.037861138146123199 0 -0.27015330814992611 -0.058867118227927437 0 -0.27524211720584768 -0.038538427260779863 0 -0.26155562347943467 -0.037861138146123199 0 -0.24798951326795751 -0.035882587373858313 0 -0.26155562347943467 -0.037861138146123199 0 -0.25238491957690051 -0.051022134359787842 0 -0.24798951326795751 -0.035882587373858313 0 -0.25387676547985721 -0.02452441136234379 0 -0.26155562347943467 -0.037861138146123199 0 -0.27015330814992611 -0.058867118227927437 0 -0.26155562347943467 -0.037861138146123199 0 -0.25238491957690051 -0.051022134359787842 0 -0.2466384096447127 -0.069214282175018252 0 -0.27015330814992611 -0.058867118227927437 0 -0.25238491957690051 -0.051022134359787842 0 -0.2466384096447127 -0.069214282175018252 0 -0.27015330814992611 -0.058867118227927437 0 -0.26102584033089798 -0.073534373921212107 0 -0.2466384096447127 -0.069214282175018252 0 -0.27015330814992611 -0.058867118227927437 0 -0.2466384096447127 -0.069214282175018252 0 -0.26102584033089798 -0.073534373921212107 0 -0.25106785873748549 -0.083001848322642804 0 -0.25106785873748549 -0.083001848322642804 0 -0.26431637422662529 -0.083961298504163229 0 -0.25687551172258971 -0.095275519396915032 0 -0.26431637422662529 -0.083961298504163229 0 -0.25687551172258971 -0.095275519396915032 0 -0.26922948176741379 -0.094556007429682482 0 -0.26102584033089798 -0.073534373921212107 0 -0.25106785873748549 -0.083001848322642804 0 -0.26431637422662529 -0.083961298504163229 0 -0.26431637422662529 -0.083961298504163229 0 -0.27622487875609619 -0.085738752979791055 0 -0.27411142324960069 -0.07331497732508381 0 -0.26431637422662529 -0.083961298504163229 0 -0.27622487875609619 -0.085738752979791055 0 -0.26922948176741379 -0.094556007429682482 0 -0.27622487875609619 -0.085738752979791055 0 -0.26922948176741379 -0.094556007429682482 0 -0.28208733676033698 -0.099544680508420066 0 -0.27622487875609619 -0.085738752979791055 0 -0.27411142324960069 -0.07331497732508381 0 -0.28634330733871821 -0.075869823829162894 0 -0.28660483069534037 -0.061918496488246169 0 -0.27015330814992611 -0.058867118227927437 0 -0.27411142324960069 -0.07331497732508381 0 -0.27015330814992611 -0.058867118227927437 0 -0.26102584033089798 -0.073534373921212107 0 -0.27411142324960069 -0.07331497732508381 0 -0.26102584033089798 -0.073534373921212107 0 -0.26431637422662529 -0.083961298504163229 0 -0.27411142324960069 -0.07331497732508381 0 -0.24959534238117709 -0.1078054475449232 0 -0.26009747564537128 -0.1202716976192799 0 -0.26511094786836592 -0.1069062435210571 0 -0.24959534238117709 -0.1078054475449232 0 -0.26511094786836592 -0.1069062435210571 0 -0.25687551172258971 -0.095275519396915032 0 -0.26511094786836592 -0.1069062435210571 0 -0.25687551172258971 -0.095275519396915032 0 -0.26922948176741379 -0.094556007429682482 0 -0.26511094786836592 -0.1069062435210571 0 -0.27676276389741278 -0.11052104179975 0 -0.28208733676033698 -0.099544680508420066 0 -0.26511094786836592 -0.1069062435210571 0 -0.26922948176741379 -0.094556007429682482 0 -0.28208733676033698 -0.099544680508420066 0 -0.26511094786836592 -0.1069062435210571 0 -0.28208733676033698 -0.099544680508420066 0 -0.26009747564537128 -0.1202716976192799 0 -0.28368315898475188 -0.1205679176925603 0 -0.26697405985724948 -0.1304210152969853 0 -0.26009747564537128 -0.1202716976192799 0 -0.27676276389741278 -0.11052104179975 0 -0.28368315898475188 -0.1205679176925603 0 -0.26009747564537128 -0.1202716976192799 0 -0.28368315898475188 -0.1205679176925603 0 -0.26009747564537128 -0.1202716976192799 0 -0.26511094786836592 -0.1069062435210571 0 -0.27676276389741278 -0.11052104179975 0 -0.28368315898475188 -0.1205679176925603 0 -0.30807566230962469 -0.12087427087378499 0 -0.28368315898475188 -0.1205679176925603 0 -0.29137344231852969 -0.1063755175941712 0 -0.30807566230962469 -0.12087427087378499 0 -0.27676276389741278 -0.11052104179975 0 -0.28368315898475188 -0.1205679176925603 0 -0.29137344231852969 -0.1063755175941712 0 -0.28368315898475188 -0.1205679176925603 0 -0.29137344231852969 -0.1063755175941712 0 -0.29137344231852969 -0.1063755175941712 0 -0.28208733676033698 -0.099544680508420066 0 -0.29906372565230788 -0.092183117495782341 0 -0.28208733676033698 -0.099544680508420066 0 -0.29906372565230788 -0.092183117495782341 0 -0.27676276389741278 -0.11052104179975 0 -0.29137344231852969 -0.1063755175941712 0 -0.28208733676033698 -0.099544680508420066 0 -0.29137344231852969 -0.1063755175941712 0 -0.29906372565230788 -0.092183117495782341 0 -0.30690970986333499 -0.10413412755240679 0 -0.29906372565230788 -0.092183117495782341 0 -0.31411573014289268 -0.085656035662949492 0 -0.29137344231852969 -0.1063755175941712 0 -0.30690970986333499 -0.10413412755240679 0 -0.29906372565230788 -0.092183117495782341 0 -0.28368315898475188 -0.1205679176925603 0 -0.30807566230962469 -0.12087427087378499 0 -0.30140371581860798 -0.1292511186866305 0 -0.29137344231852969 -0.1063755175941712 0 -0.30690970986333499 -0.10413412755240679 0 -0.30807566230962469 -0.12087427087378499 0 -0.29557893925590151 -0.069462416794053169 0 -0.28634330733871821 -0.075869823829162894 0 -0.29528406594296941 -0.079953964946478426 0 -0.28660483069534037 -0.061918496488246169 0 -0.29557893925590151 -0.069462416794053169 0 -0.28634330733871821 -0.075869823829162894 0 -0.28660483069534037 -0.061918496488246169 0 -0.27411142324960069 -0.07331497732508381 0 -0.28634330733871821 -0.075869823829162894 0 -0.27622487875609619 -0.085738752979791055 0 -0.28634330733871821 -0.075869823829162894 0 -0.28693891673241251 -0.08747755748016231 0 -0.28208733676033698 -0.099544680508420066 0 -0.28693891673241251 -0.08747755748016231 0 -0.29906372565230788 -0.092183117495782341 0 -0.27622487875609619 -0.085738752979791055 0 -0.28208733676033698 -0.099544680508420066 0 -0.28693891673241251 -0.08747755748016231 0 -0.28693891673241251 -0.08747755748016231 0 -0.29528406594296941 -0.079953964946478426 0 -0.29906372565230788 -0.092183117495782341 0 -0.28634330733871821 -0.075869823829162894 0 -0.28693891673241251 -0.08747755748016231 0 -0.29528406594296941 -0.079953964946478426 0 -0.29528406594296941 -0.079953964946478426 0 -0.29906372565230788 -0.092183117495782341 0 -0.30849544073550722 -0.074776909133231664 0 -0.29906372565230788 -0.092183117495782341 0 -0.30849544073550722 -0.074776909133231664 0 -0.29906372565230788 -0.092183117495782341 0 -0.30849544073550722 -0.074776909133231664 0 -0.31411573014289268 -0.085656035662949492 0 -0.29906372565230788 -0.092183117495782341 0 -0.31411573014289268 -0.085656035662949492 0 -0.30849544073550722 -0.074776909133231664 0 -0.31411573014289268 -0.085656035662949492 0 -0.30229462048881822 -0.056161209871372138 0 -0.30849544073550722 -0.074776909133231664 0 -0.31178497446605258 -0.064623658022855565 0 -0.29850594913894141 -0.055440370537233663 0 -0.29557893925590151 -0.069462416794053169 0 -0.30849544073550722 -0.074776909133231664 0 -0.30849544073550722 -0.074776909133231664 0 -0.31286059459191501 -0.066721027791507209 0 -0.29850594913894141 -0.055440370537233663 0 -0.30849544073550722 -0.074776909133231664 0 -0.29557893925590151 -0.069462416794053169 0 -0.29528406594296941 -0.079953964946478426 0 -0.30849544073550722 -0.074776909133231664 0 -0.30849544073550722 -0.074776909133231664 0 -0.31178497446605258 -0.064623658022855565 0 -0.31286059459191501 -0.066721027791507209 0 -0.31178497446605258 -0.064623658022855565 0 -0.31286059459191501 -0.066721027791507209 0 -0.31286059459191501 -0.066721027791507209 0 -0.32103296817657878 -0.082656476452658639 0 -0.31286059459191501 -0.066721027791507209 0 -0.32103296817657878 -0.082656476452658639 0 -0.32352590008436471 -0.062378140209921912 0 -0.31178497446605258 -0.064623658022855565 0 -0.31286059459191501 -0.066721027791507209 0 -0.31629816603535338 -0.060261719535131632 0 -0.30849544073550722 -0.074776909133231664 0 -0.31286059459191501 -0.066721027791507209 0 -0.32103296817657878 -0.082656476452658639 0 -0.31286059459191501 -0.066721027791507209 0 -0.31629816603535338 -0.060261719535131632 0 -0.31286059459191501 -0.066721027791507209 0 -0.31629816603535338 -0.060261719535131632 0 -0.32352590008436471 -0.062378140209921912 0 -0.32103296817657878 -0.082656476452658639 0 -0.33093834944883532 -0.101971145942244 0 -0.30849544073550722 -0.074776909133231664 0 -0.31411573014289268 -0.085656035662949492 0 -0.32103296817657878 -0.082656476452658639 0 -0.31411573014289268 -0.085656035662949492 0 -0.32103296817657878 -0.082656476452658639 0 -0.32329194788869442 -0.1034183298589804 0 -0.31411573014289268 -0.085656035662949492 0 -0.32103296817657878 -0.082656476452658639 0 -0.32103296817657878 -0.082656476452658639 0 -0.33692687914299491 -0.089632102483736459 0 -0.33093834944883532 -0.101971145942244 0 -0.32103296817657878 -0.082656476452658639 0 -0.33692687914299491 -0.089632102483736459 0 -0.3453529791357649 -0.07211045902320197 0 -0.32103296817657878 -0.082656476452658639 0 -0.3453529791357649 -0.07211045902320197 0 -0.32352590008436471 -0.062378140209921912 0 -0.34475717967991132 -0.068595070548471249 0 -0.3453529791357649 -0.07211045902320197 0 -0.32352590008436471 -0.062378140209921912 0 -0.34475717967991132 -0.068595070548471249 0 -0.32352590008436471 -0.062378140209921912 0 -0.32103296817657878 -0.082656476452658639 0 -0.3453529791357649 -0.07211045902320197 0 -0.30807566230962469 -0.12087427087378499 0 -0.32329194788869442 -0.1034183298589804 0 -0.33246816563449738 -0.1211806240550105 0 -0.30807566230962469 -0.12087427087378499 0 -0.33246816563449738 -0.1211806240550105 0 -0.30807566230962469 -0.12087427087378499 0 -0.32007374605487132 -0.12494213909402439 0 -0.33246816563449738 -0.1211806240550105 0 -0.30690970986333499 -0.10413412755240679 0 -0.30807566230962469 -0.12087427087378499 0 -0.32329194788869442 -0.1034183298589804 0 -0.32329194788869442 -0.1034183298589804 0 -0.33246816563449738 -0.1211806240550105 0 -0.32007374605487132 -0.12494213909402439 0 -0.33441303965894859 -0.1249452932850653 0 -0.30690970986333499 -0.10413412755240679 0 -0.31411573014289268 -0.085656035662949492 0 -0.32329194788869442 -0.1034183298589804 0 -0.32103296817657878 -0.082656476452658639 0 -0.32329194788869442 -0.1034183298589804 0 -0.33093834944883532 -0.101971145942244 0 -0.31411573014289268 -0.085656035662949492 0 -0.32329194788869442 -0.1034183298589804 0 -0.32329194788869442 -0.1034183298589804 0 -0.33093834944883532 -0.101971145942244 0 -0.33246816563449738 -0.1211806240550105 0 -0.33692687914299491 -0.089632102483736459 0 -0.33093834944883532 -0.101971145942244 0 -0.35038321981080389 -0.10179032851684799 0 -0.33093834944883532 -0.101971145942244 0 -0.34773438721257438 -0.1121772477149196 0 -0.35038321981080389 -0.10179032851684799 0 -0.33093834944883532 -0.101971145942244 0 -0.3408437307210912 -0.1212858154318297 0 -0.33093834944883532 -0.101971145942244 0 -0.3408437307210912 -0.1212858154318297 0 -0.33246816563449738 -0.1211806240550105 0 -0.33093834944883532 -0.101971145942244 0 -0.3408437307210912 -0.1212858154318297 0 -0.34773438721257438 -0.1121772477149196 0 -0.34272140335036932 -0.124947120862287 0 -0.3408437307210912 -0.1212858154318297 0 -0.33441303965894859 -0.1249452932850653 0 -0.3408437307210912 -0.1212858154318297 0 -0.33246816563449738 -0.1211806240550105 0 -0.34272140335036932 -0.124947120862287 0 -0.33441303965894859 -0.1249452932850653 0 -0.34272140335036932 -0.124947120862287 0 -0.3408437307210912 -0.1212858154318297 0 -0.32007374605487132 -0.12494213909402439 0 -0.33441303965894859 -0.1249452932850653 0 -0.33246816563449738 -0.1211806240550105 0 -0.3408437307210912 -0.1212858154318297 0 -0.33441303965894859 -0.1249452932850653 0 -0.33246816563449738 -0.1211806240550105 0 -0.33441303965894859 -0.1249452932850653 0 -0.33246816563449738 -0.1211806240550105 0 -0.34272140335036932 -0.124947120862287 0 -0.35433435295871402 -0.1214552484327875 0 -0.36893450279197471 -0.1249528869149899 0 -0.34272140335036932 -0.124947120862287 0 -0.36893450279197471 -0.1249528869149899 0 -0.3408437307210912 -0.1212858154318297 0 -0.35433435295871402 -0.1214552484327875 0 -0.3408437307210912 -0.1212858154318297 0 -0.35433435295871402 -0.1214552484327875 0 -0.34773438721257438 -0.1121772477149196 0 -0.34272140335036932 -0.124947120862287 0 -0.3408437307210912 -0.1212858154318297 0 -0.35433435295871402 -0.1214552484327875 0 -0.35433435295871402 -0.1214552484327875 0 -0.34773438721257438 -0.1121772477149196 0 -0.3623387343604032 -0.1125517513480446 0 -0.34773438721257438 -0.1121772477149196 0 -0.35038321981080389 -0.10179032851684799 0 -0.3623387343604032 -0.1125517513480446 0 -0.37380044498630338 -0.100392191664622 0 -0.3623387343604032 -0.1125517513480446 0 -0.3789649235099295 -0.11270856972454819 0 -0.35038321981080389 -0.10179032851684799 0 -0.37380044498630338 -0.100392191664622 0 -0.36747037526515469 -0.088210616938563927 0 -0.35038321981080389 -0.10179032851684799 0 -0.37380044498630338 -0.100392191664622 0 -0.3623387343604032 -0.1125517513480446 0 -0.3623387343604032 -0.1125517513480446 0 -0.36893450279197471 -0.1249528869149899 0 -0.3789649235099295 -0.11270856972454819 0 -0.35433435295871402 -0.1214552484327875 0 -0.3623387343604032 -0.1125517513480446 0 -0.36893450279197471 -0.1249528869149899 0 -0.34995192587724822 -0.070116192960804249 0 -0.35645509357982358 -0.081628608772215283 0 -0.36843110820579178 -0.075527255856609146 0 -0.34995192587724822 -0.070116192960804249 0 -0.36608399240098949 -0.063120758007335118 0 -0.35494834161021771 -0.06194377696909157 0 -0.34995192587724822 -0.070116192960804249 0 -0.36843110820579178 -0.075527255856609146 0 -0.34995192587724822 -0.070116192960804249 0 -0.36608399240098949 -0.063120758007335118 0 -0.34995192587724822 -0.070116192960804249 0 -0.34475717967991132 -0.068595070548471249 0 -0.35494834161021771 -0.06194377696909157 0 -0.34995192587724822 -0.070116192960804249 0 -0.34475717967991132 -0.068595070548471249 0 -0.34995192587724822 -0.070116192960804249 0 -0.34475717967991132 -0.068595070548471249 0 -0.3453529791357649 -0.07211045902320197 0 -0.34995192587724822 -0.070116192960804249 0 -0.3453529791357649 -0.07211045902320197 0 -0.34995192587724822 -0.070116192960804249 0 -0.3453529791357649 -0.07211045902320197 0 -0.35645509357982358 -0.081628608772215283 0 -0.34475717967991132 -0.068595070548471249 0 -0.3453529791357649 -0.07211045902320197 0 -0.35038321981080389 -0.10179032851684799 0 -0.35645509357982358 -0.081628608772215283 0 -0.36747037526515469 -0.088210616938563927 0 -0.35038321981080389 -0.10179032851684799 0 -0.3453529791357649 -0.07211045902320197 0 -0.35645509357982358 -0.081628608772215283 0 -0.33692687914299491 -0.089632102483736459 0 -0.35038321981080389 -0.10179032851684799 0 -0.3453529791357649 -0.07211045902320197 0 -0.35038321981080389 -0.10179032851684799 0 -0.3453529791357649 -0.07211045902320197 0 -0.36747037526515469 -0.088210616938563927 0 -0.36843110820579178 -0.075527255856609146 0 -0.38691029053433551 -0.080938318752413793 0 -0.35645509357982358 -0.081628608772215283 0 -0.36747037526515469 -0.088210616938563927 0 -0.36843110820579178 -0.075527255856609146 0 -0.34995192587724822 -0.070116192960804249 0 -0.36843110820579178 -0.075527255856609146 0 -0.36608399240098949 -0.063120758007335118 0 -0.36843110820579178 -0.075527255856609146 0 -0.36608399240098949 -0.063120758007335118 0 -0.37978412082390189 -0.068029865631836883 0 -0.36608399240098949 -0.063120758007335118 0 -0.37085155020467431 -0.050438611479832557 0 -0.38221605892473098 -0.056125323053866277 0 -0.36608399240098949 -0.063120758007335118 0 -0.38221605892473098 -0.056125323053866277 0 -0.37085155020467431 -0.050438611479832557 0 -0.36177701350261748 -0.054750595911384127 0 -0.36329546327126672 -0.041142767418341691 0 -0.36608399240098949 -0.063120758007335118 0 -0.36177701350261748 -0.054750595911384127 0 -0.35494834161021771 -0.06194377696909157 0 -0.36608399240098949 -0.063120758007335118 0 -0.37085155020467431 -0.050438611479832557 0 -0.36177701350261748 -0.054750595911384127 0 -0.36177701350261748 -0.054750595911384127 0 -0.35494834161021771 -0.06194377696909157 0 -0.35217159659032232 -0.05313626741746251 0 -0.34475717967991132 -0.068595070548471249 0 -0.35217159659032232 -0.05313626741746251 0 -0.34008173660725832 -0.04100860914713586 0 -0.36177701350261748 -0.054750595911384127 0 -0.35217159659032232 -0.05313626741746251 0 -0.36329546327126672 -0.041142767418341691 0 -0.34475717967991132 -0.068595070548471249 0 -0.35494834161021771 -0.06194377696909157 0 -0.35217159659032232 -0.05313626741746251 0 -0.35217159659032232 -0.05313626741746251 0 -0.35233090603521772 -0.034345905606361089 0 -0.36329546327126672 -0.041142767418341691 0 -0.35217159659032232 -0.05313626741746251 0 -0.35233090603521772 -0.034345905606361089 0 -0.34008173660725832 -0.04100860914713586 0 -0.35233090603521772 -0.034345905606361089 0 -0.34677261788783459 -0.022263095799622792 0 -0.34008173660725832 -0.04100860914713586 0 -0.35233090603521772 -0.034345905606361089 0 -0.36329546327126672 -0.041142767418341691 0 -0.36125368123050811 -0.029816691131076791 0 -0.36329546327126672 -0.041142767418341691 0 -0.37015544225173291 -0.03012439130571171 0 -0.36125368123050811 -0.029816691131076791 0 -0.37085155020467431 -0.050438611479832557 0 -0.36329546327126672 -0.041142767418341691 0 -0.37439980638912518 -0.038891661293645137 0 -0.36329546327126672 -0.041142767418341691 0 -0.37439980638912518 -0.038891661293645137 0 -0.37015544225173291 -0.03012439130571171 0 -0.37439980638912518 -0.038891661293645137 0 -0.37015544225173291 -0.03012439130571171 0 -0.37866743010551202 -0.02906954498465647 0 -0.37015544225173291 -0.03012439130571171 0 -0.37402384376206249 -0.023759624541515059 0 -0.37866743010551202 -0.02906954498465647 0 -0.37015544225173291 -0.03012439130571171 0 -0.37402384376206249 -0.023759624541515059 0 -0.36652472594663232 -0.022500501643346649 0 -0.37402384376206249 -0.023759624541515059 0 -0.37465439862472261 -0.016787835852634068 0 -0.36652472594663232 -0.022500501643346649 0 -0.37465439862472261 -0.016787835852634068 0 -0.36652472594663232 -0.022500501643346649 0 -0.3596530522362773 -0.017262546391789129 0 -0.36652472594663232 -0.022500501643346649 0 -0.3596530522362773 -0.017262546391789129 0 -0.35649867437881472 -0.022585523222405649 0 -0.36652472594663232 -0.022500501643346649 0 -0.36125368123050811 -0.029816691131076791 0 -0.35649867437881472 -0.022585523222405649 0 -0.37015544225173291 -0.03012439130571171 0 -0.36652472594663232 -0.022500501643346649 0 -0.36125368123050811 -0.029816691131076791 0 -0.37465439862472261 -0.016787835852634068 0 -0.3596530522362773 -0.017262546391789129 0 -0.34857824671955512 -0.007874197240844389 0 -0.37465439862472261 -0.016787835852634068 0 -0.3597652811465577 -0.0058215117475868012 0 -0.34857824671955512 -0.007874197240844389 0 -0.37465439862472261 -0.016787835852634068 0 -0.34857824671955512 -0.007874197240844389 0 -0.37126952376897032 -0.00085078512189483576 0 -0.36867541047690239 -0.006920070417115203 0 -0.36494834593608783 -0.001298186014321303 0 -0.37126952376897032 -0.00085078512189483576 0 -0.37464851222799189 -0.0076089195940836872 0 -0.37774077980655368 -0.001289555558904682 0 -0.37126952376897032 -0.00085078512189483576 0 -0.37464851222799189 -0.0076089195940836872 0 -0.36867541047690239 -0.006920070417115203 0 -0.37465439862472261 -0.016787835852634068 0 -0.36867541047690239 -0.006920070417115203 0 -0.3597652811465577 -0.0058215117475868012 0 -0.37465439862472261 -0.016787835852634068 0 -0.37464851222799189 -0.0076089195940836872 0 -0.36867541047690239 -0.006920070417115203 0 -0.36867541047690239 -0.006920070417115203 0 -0.3597652811465577 -0.0058215117475868012 0 -0.36494834593608783 -0.001298186014321303 0 -0.3597652811465577 -0.0058215117475868012 0 -0.36494834593608783 -0.001298186014321303 0 -0.35900139338342918 0.0020097317905480609 0 -0.3597652811465577 -0.0058215117475868012 0 -0.35221409618436439 -0.0049109655465913588 0 -0.34857824671955512 -0.007874197240844389 0 -0.3597652811465577 -0.0058215117475868012 0 -0.35509488683577939 -0.0004162838960613095 0 -0.35900139338342918 0.0020097317905480609 0 -0.3597652811465577 -0.0058215117475868012 0 -0.35509488683577939 -0.0004162838960613095 0 -0.35221409618436439 -0.0049109655465913588 0 -0.3596530522362773 -0.017262546391789129 0 -0.34857824671955512 -0.007874197240844389 0 -0.35200921551166209 -0.0165646739997149 0 -0.34857824671955512 -0.007874197240844389 0 -0.34618108527798752 -0.01472783018749277 0 -0.35200921551166209 -0.0165646739997149 0 -0.35233090603521772 -0.034345905606361089 0 -0.36125368123050811 -0.029816691131076791 0 -0.35649867437881472 -0.022585523222405649 0 -0.35233090603521772 -0.034345905606361089 0 -0.35649867437881472 -0.022585523222405649 0 -0.34677261788783459 -0.022263095799622792 0 -0.35649867437881472 -0.022585523222405649 0 -0.35200921551166209 -0.0165646739997149 0 -0.34677261788783459 -0.022263095799622792 0 -0.3596530522362773 -0.017262546391789129 0 -0.35649867437881472 -0.022585523222405649 0 -0.35200921551166209 -0.0165646739997149 0 -0.34618108527798752 -0.01472783018749277 0 -0.35200921551166209 -0.0165646739997149 0 -0.34677261788783459 -0.022263095799622792 0 -0.33540629353460438 -0.01342214774580049 0 -0.31718310516035308 -0.038172790333745737 0 -0.34008173660725832 -0.04100860914713586 0 -0.33540629353460438 -0.01342214774580049 0 -0.34008173660725832 -0.04100860914713586 0 -0.34677261788783459 -0.022263095799622792 0 -0.33540629353460438 -0.01342214774580049 0 -0.34008173660725832 -0.04100860914713586 0 -0.34618108527798752 -0.01472783018749277 0 -0.34677261788783459 -0.022263095799622792 0 -0.33540629353460438 -0.01342214774580049 0 -0.33540629353460438 -0.01342214774580049 0 -0.3204068892458079 -0.0014125807301150939 0 -0.33073085046195078 0.01416431365553468 0 -0.34857824671955512 -0.007874197240844389 0 -0.33540629353460438 -0.01342214774580049 0 -0.33073085046195078 0.01416431365553468 0 -0.34857824671955512 -0.007874197240844389 0 -0.34618108527798752 -0.01472783018749277 0 -0.33540629353460438 -0.01342214774580049 0 -0.3025805037907468 -0.0027432771802810229 0 -0.31459326366374579 -0.01532774276474733 0 -0.3204068892458079 -0.0014125807301150939 0 -0.33540629353460438 -0.01342214774580049 0 -0.31459326366374579 -0.01532774276474733 0 -0.3204068892458079 -0.0014125807301150939 0 -0.33540629353460438 -0.01342214774580049 0 -0.31459326366374579 -0.01532774276474733 0 -0.31718310516035308 -0.038172790333745737 0 -0.31718310516035308 -0.038172790333745737 0 -0.3268834079531176 -0.05023453433316457 0 -0.34008173660725832 -0.04100860914713586 0 -0.31718310516035308 -0.038172790333745737 0 -0.31370341578724742 -0.051143824177853653 0 -0.3268834079531176 -0.05023453433316457 0 -0.31370341578724742 -0.051143824177853653 0 -0.31629816603535338 -0.060261719535131632 0 -0.32352590008436471 -0.062378140209921912 0 -0.31629816603535338 -0.060261719535131632 0 -0.32352590008436471 -0.062378140209921912 0 -0.32352590008436471 -0.062378140209921912 0 -0.3268834079531176 -0.05023453433316457 0 -0.33381205608116321 -0.055554088559673351 0 -0.31370341578724742 -0.051143824177853653 0 -0.32352590008436471 -0.062378140209921912 0 -0.3268834079531176 -0.05023453433316457 0 -0.34475717967991132 -0.068595070548471249 0 -0.32352590008436471 -0.062378140209921912 0 -0.33381205608116321 -0.055554088559673351 0 -0.34475717967991132 -0.068595070548471249 0 -0.33381205608116321 -0.055554088559673351 0 -0.34008173660725832 -0.04100860914713586 0 -0.3268834079531176 -0.05023453433316457 0 -0.33381205608116321 -0.055554088559673351 0 -0.34008173660725832 -0.04100860914713586 0 -0.34475717967991132 -0.068595070548471249 0 -0.34008173660725832 -0.04100860914713586 0 -0.29131753467172561 -0.25675805269722002 0 -0.30769212114973271 -0.24578220261295139 0 -0.29241592956139478 -0.23974284613727589 0 -0.30769212114973271 -0.24578220261295139 0 -0.30829656048542242 -0.23127198481015249 0 -0.29241592956139478 -0.23974284613727589 0 -0.30829656048542242 -0.23127198481015249 0 -0.29279532374442052 -0.2217612167757172 0 -0.3129652712195421 -0.2114706657937139 0 -0.30829656048542242 -0.23127198481015249 0 -0.29279532374442052 -0.2217612167757172 0 -0.29241592956139478 -0.23974284613727589 0 -0.29279532374442052 -0.2217612167757172 0 -0.29241592956139478 -0.23974284613727589 0 -0.27798049023744681 -0.23352671123603991 0 -0.29279532374442052 -0.2217612167757172 0 -0.27798049023744681 -0.23352671123603991 0 -0.27449661508218531 -0.21747639879007349 0 -0.29131753467172561 -0.25675805269722002 0 -0.29241592956139478 -0.23974284613727589 0 -0.27722523139620658 -0.24922189107985179 0 -0.29241592956139478 -0.23974284613727589 0 -0.27722523139620658 -0.24922189107985179 0 -0.27798049023744681 -0.23352671123603991 0 -0.27722523139620658 -0.24922189107985179 0 -0.25992972331208369 -0.2410680052130979 0 -0.27798049023744681 -0.23352671123603991 0 -0.26398002587916253 -0.25656090854441049 0 -0.27722523139620658 -0.24922189107985179 0 -0.25992972331208369 -0.2410680052130979 0 -0.25992972331208369 -0.2410680052130979 0 -0.25674041691710447 -0.22108212323078871 0 -0.27798049023744681 -0.23352671123603991 0 -0.2377451423251814 -0.23136366228574551 0 -0.25992972331208369 -0.2410680052130979 0 -0.25674041691710447 -0.22108212323078871 0 -0.25674041691710447 -0.22108212323078871 0 -0.27798049023744681 -0.23352671123603991 0 -0.27449661508218531 -0.21747639879007349 0 -0.27449661508218531 -0.21747639879007349 0 -0.25644706280453389 -0.1995927939493197 0 -0.27817485521465529 -0.19463925610534399 0 -0.27449661508218531 -0.21747639879007349 0 -0.27817485521465529 -0.19463925610534399 0 -0.25674041691710447 -0.22108212323078871 0 -0.27449661508218531 -0.21747639879007349 0 -0.25644706280453389 -0.1995927939493197 0 -0.25644706280453389 -0.1995927939493197 0 -0.27817485521465529 -0.19463925610534399 0 -0.26629571781906192 -0.18034234132084431 0 -0.27817485521465529 -0.19463925610534399 0 -0.29367807880863189 -0.20345752952089671 0 -0.29386082525749962 -0.1848532680646672 0 -0.27449661508218531 -0.21747639879007349 0 -0.27817485521465529 -0.19463925610534399 0 -0.29367807880863189 -0.20345752952089671 0 -0.29279532374442052 -0.2217612167757172 0 -0.27449661508218531 -0.21747639879007349 0 -0.29367807880863189 -0.20345752952089671 0 -0.29279532374442052 -0.2217612167757172 0 -0.29367807880863189 -0.20345752952089671 0 -0.3129652712195421 -0.2114706657937139 0 -0.29367807880863189 -0.20345752952089671 0 -0.30717411826112789 -0.1920401195635244 0 -0.29386082525749962 -0.1848532680646672 0 -0.29367807880863189 -0.20345752952089671 0 -0.30717411826112789 -0.1920401195635244 0 -0.3129652712195421 -0.2114706657937139 0 -0.30551265723832022 -0.17938492804960809 0 -0.29677214667513702 -0.1677956617280158 0 -0.29386082525749962 -0.1848532680646672 0 -0.30717411826112789 -0.1920401195635244 0 -0.30551265723832022 -0.17938492804960809 0 -0.29386082525749962 -0.1848532680646672 0 -0.30717411826112789 -0.1920401195635244 0 -0.30551265723832022 -0.17938492804960809 0 -0.31489114071409963 -0.18333745750317351 0 -0.30551265723832022 -0.17938492804960809 0 -0.31220508881165993 -0.16846949012138551 0 -0.29677214667513702 -0.1677956617280158 0 -0.30551265723832022 -0.17938492804960809 0 -0.31220508881165993 -0.16846949012138551 0 -0.31489114071409963 -0.18333745750317351 0 -0.31220508881165993 -0.16846949012138551 0 -0.2949530938874384 -0.15245549241185349 0 -0.31498630483336881 -0.15987728715749039 0 -0.31220508881165993 -0.16846949012138551 0 -0.2949530938874384 -0.15245549241185349 0 -0.31220508881165993 -0.16846949012138551 0 -0.29677214667513702 -0.1677956617280158 0 -0.2949530938874384 -0.15245549241185349 0 -0.28185309534712533 -0.17180211342061449 0 -0.28553133547959519 -0.14896497073588499 0 -0.29677214667513702 -0.1677956617280158 0 -0.28185309534712533 -0.17180211342061449 0 -0.2949530938874384 -0.15245549241185349 0 -0.28185309534712533 -0.17180211342061449 0 -0.28553133547959519 -0.14896497073588499 0 -0.2949530938874384 -0.15245549241185349 0 -0.27817485521465529 -0.19463925610534399 0 -0.28185309534712533 -0.17180211342061449 0 -0.29386082525749962 -0.1848532680646672 0 -0.29677214667513702 -0.1677956617280158 0 -0.28185309534712533 -0.17180211342061449 0 -0.29386082525749962 -0.1848532680646672 0 -0.27817485521465529 -0.19463925610534399 0 -0.28185309534712533 -0.17180211342061449 0 -0.27817485521465529 -0.19463925610534399 0 -0.28185309534712533 -0.17180211342061449 0 -0.26629571781906192 -0.18034234132084431 0 -0.26629571781906192 -0.18034234132084431 0 -0.25029992488695979 -0.1782534950292988 0 -0.25761979100978533 -0.16665415002795461 0 -0.25644706280453389 -0.1995927939493197 0 -0.26629571781906192 -0.18034234132084431 0 -0.25029992488695979 -0.1782534950292988 0 -0.26629571781906192 -0.18034234132084431 0 -0.25761979100978533 -0.16665415002795461 0 -0.26933386928146391 -0.16300442301689841 0 -0.24825300788518309 -0.1555077779107997 0 -0.25761979100978533 -0.16665415002795461 0 -0.26108146703715113 -0.15708396540124031 0 -0.25761979100978533 -0.16665415002795461 0 -0.26108146703715113 -0.15708396540124031 0 -0.26933386928146391 -0.16300442301689841 0 -0.28185309534712533 -0.17180211342061449 0 -0.27598770130958522 -0.15333886838191951 0 -0.28553133547959519 -0.14896497073588499 0 -0.28185309534712533 -0.17180211342061449 0 -0.26629571781906192 -0.18034234132084431 0 -0.26933386928146391 -0.16300442301689841 0 -0.26108146703715113 -0.15708396540124031 0 -0.26933386928146391 -0.16300442301689841 0 -0.26726071412102442 -0.15087550168963329 0 -0.28185309534712533 -0.17180211342061449 0 -0.26933386928146391 -0.16300442301689841 0 -0.27598770130958522 -0.15333886838191951 0 -0.27598770130958522 -0.15333886838191951 0 -0.271177428866754 -0.14364721368904659 0 -0.28553133547959519 -0.14896497073588499 0 -0.271177428866754 -0.14364721368904659 0 -0.28662611268527088 -0.1421678116724244 0 -0.28553133547959519 -0.14896497073588499 0 -0.271177428866754 -0.14364721368904659 0 -0.28553133547959519 -0.14896497073588499 0 -0.271177428866754 -0.14364721368904659 0 -0.26726071412102442 -0.15087550168963329 0 -0.25891484533836889 -0.13910423861407881 0 -0.271177428866754 -0.14364721368904659 0 -0.26726071412102442 -0.15087550168963329 0 -0.27598770130958522 -0.15333886838191951 0 -0.271177428866754 -0.14364721368904659 0 -0.26726071412102442 -0.15087550168963329 0 -0.26933386928146391 -0.16300442301689841 0 -0.27598770130958522 -0.15333886838191951 0 -0.26726071412102442 -0.15087550168963329 0 -0.2405789555143194 -0.1375116727892334 0 -0.25601133851015478 -0.1487044986697981 0 -0.25891484533836889 -0.13910423861407881 0 -0.26108146703715113 -0.15708396540124031 0 -0.26726071412102442 -0.15087550168963329 0 -0.25601133851015478 -0.1487044986697981 0 -0.271177428866754 -0.14364721368904659 0 -0.25891484533836889 -0.13910423861407881 0 -0.26726071412102442 -0.15087550168963329 0 -0.25601133851015478 -0.1487044986697981 0 -0.25891484533836889 -0.13910423861407881 0 -0.24825300788518309 -0.1555077779107997 0 -0.26108146703715113 -0.15708396540124031 0 -0.25601133851015478 -0.1487044986697981 0 -0.26009747564537128 -0.1202716976192799 0 -0.25054446979338107 -0.12912519928877991 0 -0.26697405985724948 -0.1304210152969853 0 -0.25054446979338107 -0.12912519928877991 0 -0.25891484533836889 -0.13910423861407881 0 -0.26697405985724948 -0.1304210152969853 0 -0.2405789555143194 -0.1375116727892334 0 -0.25054446979338107 -0.12912519928877991 0 -0.25891484533836889 -0.13910423861407881 0 -0.28368315898475188 -0.1205679176925603 0 -0.271177428866754 -0.14364721368904659 0 -0.26697405985724948 -0.1304210152969853 0 -0.28368315898475188 -0.1205679176925603 0 -0.271177428866754 -0.14364721368904659 0 -0.28514813781506088 -0.1345929107172644 0 -0.28368315898475188 -0.1205679176925603 0 -0.271177428866754 -0.14364721368904659 0 -0.271177428866754 -0.14364721368904659 0 -0.25891484533836889 -0.13910423861407881 0 -0.26697405985724948 -0.1304210152969853 0 -0.271177428866754 -0.14364721368904659 0 -0.28514813781506088 -0.1345929107172644 0 -0.28662611268527088 -0.1421678116724244 0 -0.28368315898475188 -0.1205679176925603 0 -0.29492821592448881 -0.13453805291007029 0 -0.28514813781506088 -0.1345929107172644 0 -0.28368315898475188 -0.1205679176925603 0 -0.29492821592448881 -0.13453805291007029 0 -0.30140371581860798 -0.1292511186866305 0 -0.29492821592448881 -0.13453805291007029 0 -0.2912775948780732 -0.1389862943003273 0 -0.28514813781506088 -0.1345929107172644 0 -0.29657756063899582 -0.140013172184488 0 -0.29492821592448881 -0.13453805291007029 0 -0.2912775948780732 -0.1389862943003273 0 -0.2912775948780732 -0.1389862943003273 0 -0.28514813781506088 -0.1345929107172644 0 -0.28662611268527088 -0.1421678116724244 0 -0.28662611268527088 -0.1421678116724244 0 -0.28553133547959519 -0.14896497073588499 0 -0.28662611268527088 -0.1421678116724244 0 -0.28553133547959519 -0.14896497073588499 0 -0.28937009998544028 -0.14621975116982991 0 -0.28553133547959519 -0.14896497073588499 0 -0.2922536480049423 -0.1499497578362777 0 -0.28937009998544028 -0.14621975116982991 0 -0.28553133547959519 -0.14896497073588499 0 -0.2922536480049423 -0.1499497578362777 0 -0.2949530938874384 -0.15245549241185349 0 -0.28553133547959519 -0.14896497073588499 0 -0.2949530938874384 -0.15245549241185349 0 -0.2922536480049423 -0.1499497578362777 0 -0.2949530938874384 -0.15245549241185349 0 -0.29617843115691228 -0.14802272380236281 0 -0.2922536480049423 -0.1499497578362777 0 -0.2949530938874384 -0.15245549241185349 0 -0.2912775948780732 -0.1389862943003273 0 -0.28662611268527088 -0.1421678116724244 0 -0.29310794732654949 -0.1436195240173895 0 -0.28662611268527088 -0.1421678116724244 0 -0.28937009998544028 -0.14621975116982991 0 -0.29310794732654949 -0.1436195240173895 0 -0.2922536480049423 -0.1499497578362777 0 -0.28937009998544028 -0.14621975116982991 0 -0.29310794732654949 -0.1436195240173895 0 -0.29617843115691228 -0.14802272380236281 0 -0.29310794732654949 -0.1436195240173895 0 -0.29956135480037449 -0.14472193576336759 0 -0.2922536480049423 -0.1499497578362777 0 -0.29617843115691228 -0.14802272380236281 0 -0.29310794732654949 -0.1436195240173895 0 -0.29657756063899582 -0.140013172184488 0 -0.2912775948780732 -0.1389862943003273 0 -0.29310794732654949 -0.1436195240173895 0 -0.29657756063899582 -0.140013172184488 0 -0.29310794732654949 -0.1436195240173895 0 -0.29956135480037449 -0.14472193576336759 0 -0.29956135480037449 -0.14472193576336759 0 -0.30554397810907652 -0.146919348525368 0 -0.30456114821214081 -0.13888567554976469 0 -0.2949530938874384 -0.15245549241185349 0 -0.30620642865757891 -0.15285211384445899 0 -0.31498630483336881 -0.15987728715749039 0 -0.2949530938874384 -0.15245549241185349 0 -0.31498630483336881 -0.15987728715749039 0 -0.29657756063899582 -0.140013172184488 0 -0.29956135480037449 -0.14472193576336759 0 -0.30456114821214081 -0.13888567554976469 0 -0.29617843115691228 -0.14802272380236281 0 -0.29956135480037449 -0.14472193576336759 0 -0.30052761464898298 -0.14908162957255741 0 -0.29956135480037449 -0.14472193576336759 0 -0.30052761464898298 -0.14908162957255741 0 -0.30554397810907652 -0.146919348525368 0 -0.2949530938874384 -0.15245549241185349 0 -0.30052761464898298 -0.14908162957255741 0 -0.30620642865757891 -0.15285211384445899 0 -0.2949530938874384 -0.15245549241185349 0 -0.29617843115691228 -0.14802272380236281 0 -0.30052761464898298 -0.14908162957255741 0 -0.30052761464898298 -0.14908162957255741 0 -0.30620642865757891 -0.15285211384445899 0 -0.30554397810907652 -0.146919348525368 0 -0.30620642865757891 -0.15285211384445899 0 -0.31211863317072019 -0.1538765410016501 0 -0.31498630483336881 -0.15987728715749039 0 -0.30620642865757891 -0.15285211384445899 0 -0.31071230574427161 -0.15022116190891349 0 -0.30554397810907652 -0.146919348525368 0 -0.30620642865757891 -0.15285211384445899 0 -0.31071230574427161 -0.15022116190891349 0 -0.31211863317072019 -0.1538765410016501 0 -0.31246836027323899 -0.14497521722301901 0 -0.31246708178415561 -0.13872402753426441 0 -0.30456114821214081 -0.13888567554976469 0 -0.30554397810907652 -0.146919348525368 0 -0.31246836027323899 -0.14497521722301901 0 -0.30456114821214081 -0.13888567554976469 0 -0.31071230574427161 -0.15022116190891349 0 -0.30554397810907652 -0.146919348525368 0 -0.31246836027323899 -0.14497521722301901 0 -0.30140371581860798 -0.1292511186866305 0 -0.30456114821214081 -0.13888567554976469 0 -0.31280589771709483 -0.13181614145056869 0 -0.31246708178415561 -0.13872402753426441 0 -0.30456114821214081 -0.13888567554976469 0 -0.31280589771709483 -0.13181614145056869 0 -0.30807566230962469 -0.12087427087378499 0 -0.30140371581860798 -0.1292511186866305 0 -0.31280589771709483 -0.13181614145056869 0 -0.29657756063899582 -0.140013172184488 0 -0.29492821592448881 -0.13453805291007029 0 -0.30456114821214081 -0.13888567554976469 0 -0.29492821592448881 -0.13453805291007029 0 -0.30140371581860798 -0.1292511186866305 0 -0.30456114821214081 -0.13888567554976469 0 -0.3226930215385343 -0.13395567837890529 0 -0.31855308997834159 -0.13934265221991729 0 -0.32506280578504959 -0.14064102607364051 0 -0.3226930215385343 -0.13395567837890529 0 -0.32506280578504959 -0.14064102607364051 0 -0.33047387389575927 -0.1369340691945744 0 -0.3226930215385343 -0.13395567837890529 0 -0.32807010768985068 -0.12986880773923029 0 -0.33047387389575927 -0.1369340691945744 0 -0.32007374605487132 -0.12494213909402439 0 -0.33441303965894859 -0.1249452932850653 0 -0.32807010768985068 -0.12986880773923029 0 -0.32007374605487132 -0.12494213909402439 0 -0.3226930215385343 -0.13395567837890529 0 -0.32807010768985068 -0.12986880773923029 0 -0.32007374605487132 -0.12494213909402439 0 -0.3226930215385343 -0.13395567837890529 0 -0.31280589771709483 -0.13181614145056869 0 -0.30807566230962469 -0.12087427087378499 0 -0.32007374605487132 -0.12494213909402439 0 -0.31280589771709483 -0.13181614145056869 0 -0.3226930215385343 -0.13395567837890529 0 -0.31280589771709483 -0.13181614145056869 0 -0.31855308997834159 -0.13934265221991729 0 -0.31246708178415561 -0.13872402753426441 0 -0.31280589771709483 -0.13181614145056869 0 -0.31855308997834159 -0.13934265221991729 0 -0.31246836027323899 -0.14497521722301901 0 -0.31246708178415561 -0.13872402753426441 0 -0.31855308997834159 -0.13934265221991729 0 -0.31246836027323899 -0.14497521722301901 0 -0.31855308997834159 -0.13934265221991729 0 -0.32096396999162452 -0.14503749675666289 0 -0.31246836027323899 -0.14497521722301901 0 -0.31722412851074311 -0.15248258895007169 0 -0.32096396999162452 -0.14503749675666289 0 -0.31211863317072019 -0.1538765410016501 0 -0.31722412851074311 -0.15248258895007169 0 -0.31498630483336881 -0.15987728715749039 0 -0.31071230574427161 -0.15022116190891349 0 -0.31246836027323899 -0.14497521722301901 0 -0.31722412851074311 -0.15248258895007169 0 -0.31071230574427161 -0.15022116190891349 0 -0.31211863317072019 -0.1538765410016501 0 -0.31722412851074311 -0.15248258895007169 0 -0.32096396999162452 -0.14503749675666289 0 -0.32506280578504959 -0.14064102607364051 0 -0.33039285730051032 -0.1475567648151897 0 -0.31722412851074311 -0.15248258895007169 0 -0.32096396999162452 -0.14503749675666289 0 -0.33039285730051032 -0.1475567648151897 0 -0.31855308997834159 -0.13934265221991729 0 -0.32096396999162452 -0.14503749675666289 0 -0.32506280578504959 -0.14064102607364051 0 -0.33039285730051032 -0.1475567648151897 0 -0.33813688440009898 -0.15615522653291031 0 -0.34198145815712638 -0.1395953898376964 0 -0.32506280578504959 -0.14064102607364051 0 -0.33039285730051032 -0.1475567648151897 0 -0.33047387389575927 -0.1369340691945744 0 -0.31722412851074311 -0.15248258895007169 0 -0.33039285730051032 -0.1475567648151897 0 -0.33813688440009898 -0.15615522653291031 0 -0.33039285730051032 -0.1475567648151897 0 -0.34198145815712638 -0.1395953898376964 0 -0.33047387389575927 -0.1369340691945744 0 -0.33813688440009898 -0.15615522653291031 0 -0.34198145815712638 -0.1395953898376964 0 -0.34954987665533299 -0.15424548639031271 0 -0.34198145815712638 -0.1395953898376964 0 -0.3337346198504213 -0.1328358900141379 0 -0.33047387389575927 -0.1369340691945744 0 -0.32807010768985068 -0.12986880773923029 0 -0.3337346198504213 -0.1328358900141379 0 -0.33047387389575927 -0.1369340691945744 0 -0.33441303965894859 -0.1249452932850653 0 -0.32807010768985068 -0.12986880773923029 0 -0.3337346198504213 -0.1328358900141379 0 -0.33441303965894859 -0.1249452932850653 0 -0.34198145815712638 -0.1395953898376964 0 -0.34272140335036932 -0.124947120862287 0 -0.33441303965894859 -0.1249452932850653 0 -0.34198145815712638 -0.1395953898376964 0 -0.33441303965894859 -0.1249452932850653 0 -0.34198145815712638 -0.1395953898376964 0 -0.3337346198504213 -0.1328358900141379 0 -0.34272140335036932 -0.124947120862287 0 -0.35413341494744088 -0.14719959415449421 0 -0.34272140335036932 -0.124947120862287 0 -0.35599685079288468 -0.13305792836185981 0 -0.35413341494744088 -0.14719959415449421 0 -0.34272140335036932 -0.124947120862287 0 -0.34198145815712638 -0.1395953898376964 0 -0.35413341494744088 -0.14719959415449421 0 -0.34272140335036932 -0.124947120862287 0 -0.36893450279197471 -0.1249528869149899 0 -0.35599685079288468 -0.13305792836185981 0 -0.35599685079288468 -0.13305792836185981 0 -0.36484224068191412 -0.14157370685753851 0 -0.35413341494744088 -0.14719959415449421 0 -0.36893450279197471 -0.1249528869149899 0 -0.35599685079288468 -0.13305792836185981 0 -0.36484224068191412 -0.14157370685753851 0 -0.36893450279197471 -0.1249528869149899 0 -0.36484224068191412 -0.14157370685753851 0 -0.3777566452334315 -0.14913711856379011 0 -0.3679743334396014 -0.15408772885571331 0 -0.37696591512674532 -0.1609827341034305 0 -0.3777566452334315 -0.14913711856379011 0 -0.3679743334396014 -0.15408772885571331 0 -0.36484224068191412 -0.14157370685753851 0 -0.3777566452334315 -0.14913711856379011 0 -0.3679743334396014 -0.15408772885571331 0 -0.36484224068191412 -0.14157370685753851 0 -0.35413341494744088 -0.14719959415449421 0 -0.35413341494744088 -0.14719959415449421 0 -0.34954987665533299 -0.15424548639031271 0 -0.35445721343992059 -0.1619675590177023 0 -0.34198145815712638 -0.1395953898376964 0 -0.34954987665533299 -0.15424548639031271 0 -0.34198145815712638 -0.1395953898376964 0 -0.35413341494744088 -0.14719959415449421 0 -0.34954987665533299 -0.15424548639031271 0 -0.33813688440009898 -0.15615522653291031 0 -0.34954987665533299 -0.15424548639031271 0 -0.34648545334868369 -0.16311147615285329 0 -0.34648545334868369 -0.16311147615285329 0 -0.35788001493839611 -0.17576831496813999 0 -0.33501951577929873 -0.16729908190312789 0 -0.34954987665533299 -0.15424548639031271 0 -0.34648545334868369 -0.16311147615285329 0 -0.35445721343992059 -0.1619675590177023 0 -0.35413341494744088 -0.14719959415449421 0 -0.35445721343992059 -0.1619675590177023 0 -0.36554542654456429 -0.16945206744667471 0 -0.35788001493839611 -0.17576831496813999 0 -0.33501951577929873 -0.16729908190312789 0 -0.34648545334868369 -0.16311147615285329 0 -0.35445721343992059 -0.1619675590177023 0 -0.35788001493839611 -0.17576831496813999 0 -0.35445721343992059 -0.1619675590177023 0 -0.36554542654456429 -0.16945206744667471 0 -0.35788001493839611 -0.17576831496813999 0 -0.35413341494744088 -0.14719959415449421 0 -0.36554542654456429 -0.16945206744667471 0 -0.3679743334396014 -0.15408772885571331 0 -0.35413341494744088 -0.14719959415449421 0 -0.36554542654456429 -0.16945206744667471 0 -0.3679743334396014 -0.15408772885571331 0 -0.36554542654456429 -0.16945206744667471 0 -0.37696591512674532 -0.1609827341034305 0 -0.37016556171889331 -0.18126023377528719 0 -0.3536864721015115 -0.18284124587119119 0 -0.37235342842372432 -0.19838340983925429 0 -0.36554542654456429 -0.16945206744667471 0 -0.37016556171889331 -0.18126023377528719 0 -0.38426477739238413 -0.17192867897072969 0 -0.37016556171889331 -0.18126023377528719 0 -0.3536864721015115 -0.18284124587119119 0 -0.35788001493839611 -0.17576831496813999 0 -0.36554542654456429 -0.16945206744667471 0 -0.37016556171889331 -0.18126023377528719 0 -0.35788001493839611 -0.17576831496813999 0 -0.3536864721015115 -0.18284124587119119 0 -0.33501951577929873 -0.16729908190312789 0 -0.3536864721015115 -0.18284124587119119 0 -0.35788001493839611 -0.17576831496813999 0 -0.33501951577929873 -0.16729908190312789 0 -0.3536864721015115 -0.18284124587119119 0 -0.32945708373588178 -0.18448348783091689 0 -0.33501951577929873 -0.16729908190312789 0 -0.31722412851074311 -0.15248258895007169 0 -0.33813688440009898 -0.15615522653291031 0 -0.33501951577929873 -0.16729908190312789 0 -0.33813688440009898 -0.15615522653291031 0 -0.34648545334868369 -0.16311147615285329 0 -0.33501951577929873 -0.16729908190312789 0 -0.31722412851074311 -0.15248258895007169 0 -0.33501951577929873 -0.16729908190312789 0 -0.31722412851074311 -0.15248258895007169 0 -0.33501951577929873 -0.16729908190312789 0 -0.31498630483336881 -0.15987728715749039 0 -0.31220508881165993 -0.16846949012138551 0 -0.33501951577929873 -0.16729908190312789 0 -0.31498630483336881 -0.15987728715749039 0 -0.33501951577929873 -0.16729908190312789 0 -0.31498630483336881 -0.15987728715749039 0 -0.31220508881165993 -0.16846949012138551 0 -0.32945708373588178 -0.18448348783091689 0 -0.31489114071409963 -0.18333745750317351 0 -0.31220508881165993 -0.16846949012138551 0 -0.32945708373588178 -0.18448348783091689 0 -0.31220508881165993 -0.16846949012138551 0 -0.32945708373588178 -0.18448348783091689 0 -0.33501951577929873 -0.16729908190312789 0 -0.32945708373588178 -0.18448348783091689 0 -0.31489114071409963 -0.18333745750317351 0 -0.32010675552350842 -0.19230926195043291 0 -0.30717411826112789 -0.1920401195635244 0 -0.32010675552350842 -0.19230926195043291 0 -0.3129652712195421 -0.2114706657937139 0 -0.32945708373588178 -0.18448348783091689 0 -0.32010675552350842 -0.19230926195043291 0 -0.32566449460190838 -0.20326261146105551 0 -0.32010675552350842 -0.19230926195043291 0 -0.3129652712195421 -0.2114706657937139 0 -0.32566449460190838 -0.20326261146105551 0 -0.30717411826112789 -0.1920401195635244 0 -0.31489114071409963 -0.18333745750317351 0 -0.32010675552350842 -0.19230926195043291 0 -0.3129652712195421 -0.2114706657937139 0 -0.32566449460190838 -0.20326261146105551 0 -0.33208474862113468 -0.21873250337862821 0 -0.33208474862113468 -0.21873250337862821 0 -0.34670907866010381 -0.20049748554044841 0 -0.34896881396179619 -0.22434135344573131 0 -0.32566449460190838 -0.20326261146105551 0 -0.33208474862113468 -0.21873250337862821 0 -0.34670907866010381 -0.20049748554044841 0 -0.3536864721015115 -0.18284124587119119 0 -0.32945708373588178 -0.18448348783091689 0 -0.34670907866010381 -0.20049748554044841 0 -0.32945708373588178 -0.18448348783091689 0 -0.32566449460190838 -0.20326261146105551 0 -0.34670907866010381 -0.20049748554044841 0 -0.32945708373588178 -0.18448348783091689 0 -0.34670907866010381 -0.20049748554044841 0 -0.3536864721015115 -0.18284124587119119 0 -0.35917751319241631 -0.19955840612521841 0 -0.34670907866010381 -0.20049748554044841 0 -0.3536864721015115 -0.18284124587119119 0 -0.37235342842372432 -0.19838340983925429 0 -0.3536864721015115 -0.18284124587119119 0 -0.35917751319241631 -0.19955840612521841 0 -0.37235342842372432 -0.19838340983925429 0 -0.37235342842372432 -0.19838340983925429 0 -0.36396107358432572 -0.21651148324997979 0 -0.37772562505684643 -0.22219038377974651 0 -0.35917751319241631 -0.19955840612521841 0 -0.37235342842372432 -0.19838340983925429 0 -0.36396107358432572 -0.21651148324997979 0 -0.34670907866010381 -0.20049748554044841 0 -0.36396107358432572 -0.21651148324997979 0 -0.34896881396179619 -0.22434135344573131 0 -0.34670907866010381 -0.20049748554044841 0 -0.36396107358432572 -0.21651148324997979 0 -0.35917751319241631 -0.19955840612521841 0 -0.34670907866010381 -0.20049748554044841 0 -0.36396107358432572 -0.21651148324997979 0 -0.34896881396179619 -0.22434135344573131 0 -0.36764811873304098 -0.23322730847002751 0 -0.35305879752332059 -0.24486073726717009 0 -0.36396107358432572 -0.21651148324997979 0 -0.36764811873304098 -0.23322730847002751 0 -0.37772562505684643 -0.22219038377974651 0 -0.36396107358432572 -0.21651148324997979 0 -0.34896881396179619 -0.22434135344573131 0 -0.36764811873304098 -0.23322730847002751 0 -0.37533687834285862 -0.25417213976024849 0 -0.36764811873304098 -0.23322730847002751 0 -0.35305879752332059 -0.24486073726717009 0 -0.34896881396179619 -0.22434135344573131 0 -0.35305879752332059 -0.24486073726717009 0 -0.33568364413539042 -0.23615154195274179 0 -0.33623326073948312 -0.25365348176558788 0 -0.33568364413539042 -0.23615154195274179 0 -0.32213598881581812 -0.2442700999577708 0 -0.33623326073948312 -0.25365348176558788 0 -0.35305879752332059 -0.24486073726717009 0 -0.33568364413539042 -0.23615154195274179 0 -0.33208474862113468 -0.21873250337862821 0 -0.33568364413539042 -0.23615154195274179 0 -0.32219037366776621 -0.22897372759534659 0 -0.33208474862113468 -0.21873250337862821 0 -0.34896881396179619 -0.22434135344573131 0 -0.33568364413539042 -0.23615154195274179 0 -0.30829656048542242 -0.23127198481015249 0 -0.3129652712195421 -0.2114706657937139 0 -0.32219037366776621 -0.22897372759534659 0 -0.3129652712195421 -0.2114706657937139 0 -0.33208474862113468 -0.21873250337862821 0 -0.32219037366776621 -0.22897372759534659 0 -0.30769212114973271 -0.24578220261295139 0 -0.30829656048542242 -0.23127198481015249 0 -0.32213598881581812 -0.2442700999577708 0 -0.30829656048542242 -0.23127198481015249 0 -0.32219037366776621 -0.22897372759534659 0 -0.32213598881581812 -0.2442700999577708 0 -0.31968345090478489 -0.25798973640781447 0 -0.30769212114973271 -0.24578220261295139 0 -0.32213598881581812 -0.2442700999577708 0 -0.33568364413539042 -0.23615154195274179 0 -0.32219037366776621 -0.22897372759534659 0 -0.32213598881581812 -0.2442700999577708 0 -0.43598079583492633 -0.24721882136819351 0 -0.42311134176242837 -0.2304528026464861 0 -0.41615383063077721 -0.2466412503256647 0 -0.43598079583492633 -0.24721882136819351 0 -0.42311134176242837 -0.2304528026464861 0 -0.43908324849522451 -0.2287046610080686 0 -0.42311134176242837 -0.2304528026464861 0 -0.41411505562058892 -0.2091502018577929 0 -0.42948217154750851 -0.21815887616964899 0 -0.42311134176242837 -0.2304528026464861 0 -0.42948217154750851 -0.21815887616964899 0 -0.43908324849522451 -0.2287046610080686 0 -0.42948217154750851 -0.21815887616964899 0 -0.43955036875351089 -0.21658504913102711 0 -0.43908324849522451 -0.2287046610080686 0 -0.40619246279161347 -0.2313797712556602 0 -0.41411505562058892 -0.2091502018577929 0 -0.42311134176242837 -0.2304528026464861 0 -0.40619246279161347 -0.2313797712556602 0 -0.41411505562058892 -0.2091502018577929 0 -0.39826986996263802 -0.25360934065352753 0 -0.41615383063077721 -0.2466412503256647 0 -0.40619246279161347 -0.2313797712556602 0 -0.42311134176242837 -0.2304528026464861 0 -0.41615383063077721 -0.2466412503256647 0 -0.40619246279161347 -0.2313797712556602 0 -0.39826986996263802 -0.25360934065352753 0 -0.38632210934187061 -0.2364082567837591 0 -0.40619246279161347 -0.2313797712556602 0 -0.39826986996263802 -0.25360934065352753 0 -0.40619246279161347 -0.2313797712556602 0 -0.37533687834285862 -0.25417213976024849 0 -0.36764811873304098 -0.23322730847002751 0 -0.38632210934187061 -0.2364082567837591 0 -0.37533687834285862 -0.25417213976024849 0 -0.39826986996263802 -0.25360934065352753 0 -0.38632210934187061 -0.2364082567837591 0 -0.36764811873304098 -0.23322730847002751 0 -0.38632210934187061 -0.2364082567837591 0 -0.37772562505684643 -0.22219038377974651 0 -0.38632210934187061 -0.2364082567837591 0 -0.37772562505684643 -0.22219038377974651 0 -0.39102038474593709 -0.2139255738073175 0 -0.38632210934187061 -0.2364082567837591 0 -0.40619246279161347 -0.2313797712556602 0 -0.39102038474593709 -0.2139255738073175 0 -0.39102038474593709 -0.2139255738073175 0 -0.40351751052996843 -0.1957217498792192 0 -0.41411505562058892 -0.2091502018577929 0 -0.40619246279161347 -0.2313797712556602 0 -0.39102038474593709 -0.2139255738073175 0 -0.41411505562058892 -0.2091502018577929 0 -0.37235342842372432 -0.19838340983925429 0 -0.39102038474593709 -0.2139255738073175 0 -0.37235342842372432 -0.19838340983925429 0 -0.37772562505684643 -0.22219038377974651 0 -0.39102038474593709 -0.2139255738073175 0 -0.37016556171889331 -0.18126023377528719 0 -0.37235342842372432 -0.19838340983925429 0 -0.38726325091278008 -0.18918768555573329 0 -0.37235342842372432 -0.19838340983925429 0 -0.39102038474593709 -0.2139255738073175 0 -0.38726325091278008 -0.18918768555573329 0 -0.38726325091278008 -0.18918768555573329 0 -0.40351751052996843 -0.1957217498792192 0 -0.40315121292097328 -0.17942465571532731 0 -0.39102038474593709 -0.2139255738073175 0 -0.38726325091278008 -0.18918768555573329 0 -0.40351751052996843 -0.1957217498792192 0 -0.41411505562058892 -0.2091502018577929 0 -0.42203764844956237 -0.18692063245992491 0 -0.40351751052996843 -0.1957217498792192 0 -0.41411505562058892 -0.2091502018577929 0 -0.42203764844956237 -0.18692063245992491 0 -0.41411505562058892 -0.2091502018577929 0 -0.42948217154750851 -0.21815887616964899 0 -0.43155084310578928 -0.2059016662048701 0 -0.42948217154750851 -0.21815887616964899 0 -0.43155084310578928 -0.2059016662048701 0 -0.43955036875351089 -0.21658504913102711 0 -0.42203764844956237 -0.18692063245992491 0 -0.44484374680150301 -0.19597231310248839 0 -0.41411505562058892 -0.2091502018577929 0 -0.43155084310578928 -0.2059016662048701 0 -0.42203764844956237 -0.18692063245992491 0 -0.43155084310578928 -0.2059016662048701 0 -0.42203764844956237 -0.18692063245992491 0 -0.44484374680150301 -0.19597231310248839 0 -0.42203764844956237 -0.18692063245992491 0 -0.44134853753678083 -0.18159229851429221 0 -0.44484374680150301 -0.19597231310248839 0 -0.42203764844956237 -0.18692063245992491 0 -0.42880774722037651 -0.1679247830322266 0 -0.42203764844956237 -0.18692063245992491 0 -0.42880774722037651 -0.1679247830322266 0 -0.44134853753678083 -0.18159229851429221 0 -0.42880774722037651 -0.1679247830322266 0 -0.43557784599118871 -0.14892893360452769 0 -0.44631139980808621 -0.1631836851414229 0 -0.42880774722037651 -0.1679247830322266 0 -0.43557784599118871 -0.14892893360452769 0 -0.42880774722037651 -0.1679247830322266 0 -0.41236960909879722 -0.16540507401591409 0 -0.42079860369606048 -0.15043713941075901 0 -0.42203764844956237 -0.18692063245992491 0 -0.42880774722037651 -0.1679247830322266 0 -0.41236960909879722 -0.16540507401591409 0 -0.40351751052996843 -0.1957217498792192 0 -0.42203764844956237 -0.18692063245992491 0 -0.40315121292097328 -0.17942465571532731 0 -0.42203764844956237 -0.18692063245992491 0 -0.40315121292097328 -0.17942465571532731 0 -0.42203764844956237 -0.18692063245992491 0 -0.41236960909879722 -0.16540507401591409 0 -0.40315121292097328 -0.17942465571532731 0 -0.38726325091278008 -0.18918768555573329 0 -0.40315121292097328 -0.17942465571532731 0 -0.38426477739238413 -0.17192867897072969 0 -0.40315121292097328 -0.17942465571532731 0 -0.38426477739238413 -0.17192867897072969 0 -0.37016556171889331 -0.18126023377528719 0 -0.38726325091278008 -0.18918768555573329 0 -0.38426477739238413 -0.17192867897072969 0 -0.36554542654456429 -0.16945206744667471 0 -0.38426477739238413 -0.17192867897072969 0 -0.37696591512674532 -0.1609827341034305 0 -0.38426477739238413 -0.17192867897072969 0 -0.37696591512674532 -0.1609827341034305 0 -0.39230106084837368 -0.15838844905994759 0 -0.40315121292097328 -0.17942465571532731 0 -0.38426477739238413 -0.17192867897072969 0 -0.39230106084837368 -0.15838844905994759 0 -0.41236960909879722 -0.16540507401591409 0 -0.39230106084837368 -0.15838844905994759 0 -0.40587711449475489 -0.1449624873806776 0 -0.41236960909879722 -0.16540507401591409 0 -0.40315121292097328 -0.17942465571532731 0 -0.39230106084837368 -0.15838844905994759 0 -0.39230106084837368 -0.15838844905994759 0 -0.39162863389564362 -0.14105630786861159 0 -0.40587711449475489 -0.1449624873806776 0 -0.39230106084837368 -0.15838844905994759 0 -0.39162863389564362 -0.14105630786861159 0 -0.3777566452334315 -0.14913711856379011 0 -0.37696591512674532 -0.1609827341034305 0 -0.39230106084837368 -0.15838844905994759 0 -0.3777566452334315 -0.14913711856379011 0 -0.36893450279197471 -0.1249528869149899 0 -0.39162863389564362 -0.14105630786861159 0 -0.3777566452334315 -0.14913711856379011 0 -0.36893450279197471 -0.1249528869149899 0 -0.39162863389564362 -0.14105630786861159 0 -0.39514760223357998 -0.1249586529677193 0 -0.39162863389564362 -0.14105630786861159 0 -0.40587711449475489 -0.1449624873806776 0 -0.39514760223357998 -0.1249586529677193 0 -0.40587711449475489 -0.1449624873806776 0 -0.39514760223357998 -0.1249586529677193 0 -0.42136070167518519 -0.1249644190204488 0 -0.40587711449475489 -0.1449624873806776 0 -0.42079860369606048 -0.15043713941075901 0 -0.42136070167518519 -0.1249644190204488 0 -0.41236960909879722 -0.16540507401591409 0 -0.40587711449475489 -0.1449624873806776 0 -0.42079860369606048 -0.15043713941075901 0 -0.42079860369606048 -0.15043713941075901 0 -0.43557784599118871 -0.14892893360452769 0 -0.42136070167518519 -0.1249644190204488 0 -0.42880774722037651 -0.1679247830322266 0 -0.42079860369606048 -0.15043713941075901 0 -0.43557784599118871 -0.14892893360452769 0 -0.43557784599118871 -0.14892893360452769 0 -0.42136070167518519 -0.1249644190204488 0 -0.44757380111679052 -0.12497018507317829 0 -0.43557784599118871 -0.14892893360452769 0 -0.45596445488588 -0.14427568033770541 0 -0.44757380111679052 -0.12497018507317829 0 -0.43557784599118871 -0.14892893360452769 0 -0.45596445488588 -0.14427568033770541 0 -0.44631139980808621 -0.1631836851414229 0 -0.45596445488588 -0.14427568033770541 0 -0.46278066629215481 -0.1610158872753634 0 -0.44631139980808621 -0.1631836851414229 0 -0.45596445488588 -0.14427568033770541 0 -0.47930750267908417 -0.1480635854121114 0 -0.46278066629215481 -0.1610158872753634 0 -0.45596445488588 -0.14427568033770541 0 -0.44757380111679052 -0.12497018507317829 0 -0.47378690055839578 -0.1249759511259078 0 -0.48827360080937021 -0.13531742911399189 0 -0.47930750267908417 -0.1480635854121114 0 -0.47378690055839578 -0.1249759511259078 0 -0.45596445488588 -0.14427568033770541 0 -0.47930750267908417 -0.1480635854121114 0 -0.47378690055839578 -0.1249759511259078 0 -0.48827360080937021 -0.13531742911399189 0 -0.5 -0.14324846273931111 0 -0.50000000000000111 -0.12498171717863731 0 -0.48827360080937021 -0.13531742911399189 0 -0.47378690055839578 -0.1249759511259078 0 -0.50000000000000111 -0.12498171717863731 0 -0.5 -0.14324846273931111 0 -0.47930750267908417 -0.1480635854121114 0 -0.49999999999999961 -0.161515208299985 0 -0.48827360080937021 -0.13531742911399189 0 -0.5 -0.14324846273931111 0 -0.47930750267908417 -0.1480635854121114 0 -0.47930750267908417 -0.1480635854121114 0 -0.47738728335761421 -0.1682509267597351 0 -0.46278066629215481 -0.1610158872753634 0 -0.47738728335761421 -0.1682509267597351 0 -0.49999999999999961 -0.161515208299985 0 -0.48839409620634278 -0.18039624849769001 0 -0.49999999999999961 -0.161515208299985 0 -0.48839409620634278 -0.18039624849769001 0 -0.47930750267908417 -0.1480635854121114 0 -0.47738728335761421 -0.1682509267597351 0 -0.49999999999999961 -0.161515208299985 0 -0.49999999999999961 -0.161515208299985 0 -0.5 -0.18618779176616679 0 -0.48839409620634278 -0.18039624849769001 0 -0.5 -0.18618779176616679 0 -0.48839409620634278 -0.18039624849769001 0 -0.48957789370491162 -0.19386933705848941 0 -0.47738728335761421 -0.1682509267597351 0 -0.48839409620634278 -0.18039624849769001 0 -0.47328693949397721 -0.18411760774338479 0 -0.47738728335761421 -0.1682509267597351 0 -0.47328693949397721 -0.18411760774338479 0 -0.45860677246597031 -0.17520894370368309 0 -0.47328693949397721 -0.18411760774338479 0 -0.45860677246597031 -0.17520894370368309 0 -0.45906836497473352 -0.19043479360484361 0 -0.47738728335761421 -0.1682509267597351 0 -0.45860677246597031 -0.17520894370368309 0 -0.46278066629215481 -0.1610158872753634 0 -0.45860677246597031 -0.17520894370368309 0 -0.46278066629215481 -0.1610158872753634 0 -0.44631139980808621 -0.1631836851414229 0 -0.42880774722037651 -0.1679247830322266 0 -0.44631139980808621 -0.1631836851414229 0 -0.44134853753678083 -0.18159229851429221 0 -0.45860677246597031 -0.17520894370368309 0 -0.44631139980808621 -0.1631836851414229 0 -0.44134853753678083 -0.18159229851429221 0 -0.45860677246597031 -0.17520894370368309 0 -0.44134853753678083 -0.18159229851429221 0 -0.45906836497473352 -0.19043479360484361 0 -0.44134853753678083 -0.18159229851429221 0 -0.45906836497473352 -0.19043479360484361 0 -0.44134853753678083 -0.18159229851429221 0 -0.44484374680150301 -0.19597231310248839 0 -0.45906836497473352 -0.19043479360484361 0 -0.43155084310578928 -0.2059016662048701 0 -0.44484374680150301 -0.19597231310248839 0 -0.44343463088850471 -0.20721188330797369 0 -0.43155084310578928 -0.2059016662048701 0 -0.44343463088850471 -0.20721188330797369 0 -0.43955036875351089 -0.21658504913102711 0 -0.44343463088850471 -0.20721188330797369 0 -0.43955036875351089 -0.21658504913102711 0 -0.44966782191270221 -0.21345696714665749 0 -0.44966782191270221 -0.21345696714665749 0 -0.45691127413918359 -0.218140336649912 0 -0.44903912237987481 -0.22310222333220869 0 -0.43955036875351089 -0.21658504913102711 0 -0.44966782191270221 -0.21345696714665749 0 -0.44903912237987481 -0.22310222333220869 0 -0.44484374680150301 -0.19597231310248839 0 -0.44343463088850471 -0.20721188330797369 0 -0.45285363365211462 -0.2065344908709397 0 -0.44343463088850471 -0.20721188330797369 0 -0.44966782191270221 -0.21345696714665749 0 -0.45285363365211462 -0.2065344908709397 0 -0.45285363365211462 -0.2065344908709397 0 -0.4586721235044201 -0.2110072970525271 0 -0.46764984515344349 -0.20502399374505181 0 -0.44966782191270221 -0.21345696714665749 0 -0.45285363365211462 -0.2065344908709397 0 -0.4586721235044201 -0.2110072970525271 0 -0.44966782191270221 -0.21345696714665749 0 -0.4586721235044201 -0.2110072970525271 0 -0.45691127413918359 -0.218140336649912 0 -0.4586721235044201 -0.2110072970525271 0 -0.45691127413918359 -0.218140336649912 0 -0.46757130244775341 -0.21427176676618889 0 -0.4586721235044201 -0.2110072970525271 0 -0.46757130244775341 -0.21427176676618889 0 -0.46764984515344349 -0.20502399374505181 0 -0.44484374680150301 -0.19597231310248839 0 -0.46764984515344349 -0.20502399374505181 0 -0.45906836497473352 -0.19043479360484361 0 -0.44484374680150301 -0.19597231310248839 0 -0.45285363365211462 -0.2065344908709397 0 -0.46764984515344349 -0.20502399374505181 0 -0.45906836497473352 -0.19043479360484361 0 -0.47678819241268611 -0.1992772886953951 0 -0.44484374680150301 -0.19597231310248839 0 -0.46764984515344349 -0.20502399374505181 0 -0.46764984515344349 -0.20502399374505181 0 -0.45906836497473352 -0.19043479360484361 0 -0.47678819241268611 -0.1992772886953951 0 -0.47328693949397721 -0.18411760774338479 0 -0.45906836497473352 -0.19043479360484361 0 -0.47678819241268611 -0.1992772886953951 0 -0.48839409620634278 -0.18039624849769001 0 -0.47328693949397721 -0.18411760774338479 0 -0.47678819241268611 -0.1992772886953951 0 -0.48839409620634278 -0.18039624849769001 0 -0.47678819241268611 -0.1992772886953951 0 -0.47678819241268611 -0.1992772886953951 0 -0.48957789370491162 -0.19386933705848941 0 -0.50000000000000222 -0.21086037523234849 0 -0.48839409620634278 -0.18039624849769001 0 -0.47678819241268611 -0.1992772886953951 0 -0.48957789370491162 -0.19386933705848941 0 -0.5 -0.18618779176616679 0 -0.48957789370491162 -0.19386933705848941 0 -0.50000000000000222 -0.21086037523234849 0 -0.50000000000000222 -0.21086037523234849 0 -0.48101414991814051 -0.21220490785157131 0 -0.4775447229854059 -0.22535576830415929 0 -0.47678819241268611 -0.1992772886953951 0 -0.50000000000000222 -0.21086037523234849 0 -0.47678819241268611 -0.1992772886953951 0 -0.50000000000000222 -0.21086037523234849 0 -0.48101414991814051 -0.21220490785157131 0 -0.46757130244775341 -0.21427176676618889 0 -0.47678819241268611 -0.1992772886953951 0 -0.48101414991814051 -0.21220490785157131 0 -0.46757130244775341 -0.21427176676618889 0 -0.47678819241268611 -0.1992772886953951 0 -0.46757130244775341 -0.21427176676618889 0 -0.46764984515344349 -0.20502399374505181 0 -0.47678819241268611 -0.1992772886953951 0 -0.46757130244775341 -0.21427176676618889 0 -0.48101414991814051 -0.21220490785157131 0 -0.4775447229854059 -0.22535576830415929 0 -0.46757130244775341 -0.21427176676618889 0 -0.4775447229854059 -0.22535576830415929 0 -0.46571952953094348 -0.22577651025912229 0 -0.4775447229854059 -0.22535576830415929 0 -0.4726071657750785 -0.240360200228666 0 -0.45676275941016609 -0.23628729483617639 0 -0.50000000000000222 -0.21086037523234849 0 -0.4775447229854059 -0.22535576830415929 0 -0.48548116721245049 -0.23774912910784329 0 -0.50000000000000222 -0.21086037523234849 0 -0.5 -0.2401545466321974 0 -0.48548116721245049 -0.23774912910784329 0 -0.48050148842732221 -0.25523221810557922 0 -0.5 -0.2401545466321974 0 -0.48548116721245049 -0.23774912910784329 0 -0.48050148842732221 -0.25523221810557922 0 -0.4726071657750785 -0.240360200228666 0 -0.46267023581878858 -0.24817136713935201 0 -0.48050148842732221 -0.25523221810557922 0 -0.48548116721245049 -0.23774912910784329 0 -0.4726071657750785 -0.240360200228666 0 -0.4775447229854059 -0.22535576830415929 0 -0.48548116721245049 -0.23774912910784329 0 -0.4726071657750785 -0.240360200228666 0 -0.4726071657750785 -0.240360200228666 0 -0.46267023581878858 -0.24817136713935201 0 -0.45676275941016609 -0.23628729483617639 0 -0.46267023581878858 -0.24817136713935201 0 -0.45676275941016609 -0.23628729483617639 0 -0.45139902778349827 -0.24711062934306771 0 -0.4775447229854059 -0.22535576830415929 0 -0.45676275941016609 -0.23628729483617639 0 -0.46571952953094348 -0.22577651025912229 0 -0.4775447229854059 -0.22535576830415929 0 -0.45676275941016609 -0.23628729483617639 0 -0.46757130244775341 -0.21427176676618889 0 -0.45835441248282049 -0.22926624483698249 0 -0.45691127413918359 -0.218140336649912 0 -0.46757130244775341 -0.21427176676618889 0 -0.45835441248282049 -0.22926624483698249 0 -0.46757130244775341 -0.21427176676618889 0 -0.46571952953094348 -0.22577651025912229 0 -0.45835441248282049 -0.22926624483698249 0 -0.45691127413918359 -0.218140336649912 0 -0.45835441248282049 -0.22926624483698249 0 -0.44903912237987481 -0.22310222333220869 0 -0.45676275941016609 -0.23628729483617639 0 -0.46571952953094348 -0.22577651025912229 0 -0.45835441248282049 -0.22926624483698249 0 -0.45676275941016609 -0.23628729483617639 0 -0.45835441248282049 -0.22926624483698249 0 -0.44784406772060242 -0.23291584907632601 0 -0.45835441248282049 -0.22926624483698249 0 -0.44784406772060242 -0.23291584907632601 0 -0.44903912237987481 -0.22310222333220869 0 -0.44784406772060242 -0.23291584907632601 0 -0.44903912237987481 -0.22310222333220869 0 -0.43908324849522451 -0.2287046610080686 0 -0.43955036875351089 -0.21658504913102711 0 -0.44903912237987481 -0.22310222333220869 0 -0.43908324849522451 -0.2287046610080686 0 -0.43598079583492633 -0.24721882136819351 0 -0.44784406772060242 -0.23291584907632601 0 -0.43908324849522451 -0.2287046610080686 0 -0.43598079583492633 -0.24721882136819351 0 -0.45676275941016609 -0.23628729483617639 0 -0.45139902778349827 -0.24711062934306771 0 -0.43598079583492633 -0.24721882136819351 0 -0.45676275941016609 -0.23628729483617639 0 -0.44784406772060242 -0.23291584907632601 0 -0.43598079583492633 -0.24721882136819351 0 -0.45676275941016609 -0.23628729483617639 0 -0.41513049604948221 -0.033942569896895612 0 -0.42680670243505803 -0.034615113076212713 0 -0.40073055052989021 -0.025701474464423758 0 -0.41513049604948221 -0.033942569896895612 0 -0.42462943043776058 -0.041038039404546971 0 -0.40237332615973681 -0.030676944162886681 0 -0.42462943043776058 -0.041038039404546971 0 -0.40237332615973681 -0.030676944162886681 0 -0.41105872637709778 -0.041104419315527559 0 -0.42462943043776058 -0.041038039404546971 0 -0.40237332615973681 -0.030676944162886681 0 -0.41795689190558921 -0.046390941043723911 0 -0.41105872637709778 -0.041104419315527559 0 -0.42462943043776058 -0.041038039404546971 0 -0.41513049604948221 -0.033942569896895612 0 -0.42462943043776058 -0.041038039404546971 0 -0.4243569293735685 -0.037306081984415762 0 -0.41105872637709778 -0.041104419315527559 0 -0.4050251302254127 -0.045922345921936697 0 -0.40306291723554027 -0.039039715031688543 0 -0.41795689190558921 -0.046390941043723911 0 -0.41105872637709778 -0.041104419315527559 0 -0.41174405323292163 -0.047949206462353358 0 -0.41105872637709778 -0.041104419315527559 0 -0.41174405323292163 -0.047949206462353358 0 -0.4050251302254127 -0.045922345921936697 0 -0.41174405323292163 -0.047949206462353358 0 -0.4050251302254127 -0.045922345921936697 0 -0.40603099279739802 -0.054788986838451827 0 -0.41174405323292163 -0.047949206462353358 0 -0.4187470457232762 -0.053937065845881961 0 -0.40603099279739802 -0.054788986838451827 0 -0.4187470457232762 -0.053937065845881961 0 -0.40603099279739802 -0.054788986838451827 0 -0.41284572228237681 -0.064006668923108523 0 -0.4187470457232762 -0.053937065845881961 0 -0.41284572228237681 -0.064006668923108523 0 -0.42746868386642678 -0.066478460468227696 0 -0.41795689190558921 -0.046390941043723911 0 -0.41174405323292163 -0.047949206462353358 0 -0.4187470457232762 -0.053937065845881961 0 -0.41795689190558921 -0.046390941043723911 0 -0.4187470457232762 -0.053937065845881961 0 -0.42320145590089769 -0.048540393412862697 0 -0.42320145590089769 -0.048540393412862697 0 -0.43147245553696489 -0.05279552735729795 0 -0.42462943043776058 -0.041038039404546971 0 -0.4187470457232762 -0.053937065845881961 0 -0.42320145590089769 -0.048540393412862697 0 -0.43147245553696489 -0.05279552735729795 0 -0.43147245553696489 -0.05279552735729795 0 -0.42462943043776058 -0.041038039404546971 0 -0.44688553471578463 -0.051399134646207288 0 -0.4187470457232762 -0.053937065845881961 0 -0.43147245553696489 -0.05279552735729795 0 -0.42746868386642678 -0.066478460468227696 0 -0.43147245553696489 -0.05279552735729795 0 -0.42746868386642678 -0.066478460468227696 0 -0.43950717444435422 -0.063784996514660589 0 -0.42818951741271921 -0.038310772776573528 0 -0.43628267576141971 -0.035329403205585218 0 -0.44688553471578463 -0.051399134646207288 0 -0.42462943043776058 -0.041038039404546971 0 -0.42818951741271921 -0.038310772776573528 0 -0.44688553471578463 -0.051399134646207288 0 -0.42462943043776058 -0.041038039404546971 0 -0.44688553471578463 -0.051399134646207288 0 -0.41795689190558921 -0.046390941043723911 0 -0.42320145590089769 -0.048540393412862697 0 -0.42462943043776058 -0.041038039404546971 0 -0.41513049604948221 -0.033942569896895612 0 -0.4243569293735685 -0.037306081984415762 0 -0.42680670243505803 -0.034615113076212713 0 -0.42462943043776058 -0.041038039404546971 0 -0.4243569293735685 -0.037306081984415762 0 -0.42818951741271921 -0.038310772776573528 0 -0.42818951741271921 -0.038310772776573528 0 -0.42680670243505803 -0.034615113076212713 0 -0.4243569293735685 -0.037306081984415762 0 -0.42818951741271921 -0.038310772776573528 0 -0.42680670243505803 -0.034615113076212713 0 -0.42818951741271921 -0.038310772776573528 0 -0.42680670243505803 -0.034615113076212713 0 -0.42995577540377822 -0.032900560567165532 0 -0.42818951741271921 -0.038310772776573528 0 -0.42995577540377822 -0.032900560567165532 0 -0.43628267576141971 -0.035329403205585218 0 -0.42995577540377822 -0.032900560567165532 0 -0.43628267576141971 -0.035329403205585218 0 -0.4327931004709421 -0.029092843067932112 0 -0.42680670243505803 -0.034615113076212713 0 -0.4285090787839364 -0.025262373234060161 0 -0.41794895562780338 -0.01094222954485795 0 -0.42680670243505803 -0.034615113076212713 0 -0.41794895562780338 -0.01094222954485795 0 -0.43628267576141971 -0.035329403205585218 0 -0.4327931004709421 -0.029092843067932112 0 -0.43710875721387199 -0.026668229939385779 0 -0.42995577540377822 -0.032900560567165532 0 -0.4327931004709421 -0.029092843067932112 0 -0.4285090787839364 -0.025262373234060161 0 -0.43210921519170409 -0.025303648393463829 0 -0.43710875721387199 -0.026668229939385779 0 -0.43108579893039811 -0.01948839847471974 0 -0.4327931004709421 -0.029092843067932112 0 -0.43210921519170409 -0.025303648393463829 0 -0.4285090787839364 -0.025262373234060161 0 -0.4327931004709421 -0.029092843067932112 0 -0.43210921519170409 -0.025303648393463829 0 -0.43710875721387199 -0.026668229939385779 0 -0.43108579893039811 -0.01948839847471974 0 -0.43397544616601241 -0.014244232554068349 0 -0.43928417642389239 -0.017661557407765791 0 -0.43710875721387199 -0.026668229939385779 0 -0.43108579893039811 -0.01948839847471974 0 -0.43928417642389239 -0.017661557407765791 0 -0.43210921519170409 -0.025303648393463829 0 -0.43108579893039811 -0.01948839847471974 0 -0.4285090787839364 -0.025262373234060161 0 -0.43108579893039811 -0.01948839847471974 0 -0.4285090787839364 -0.025262373234060161 0 -0.41794895562780338 -0.01094222954485795 0 -0.42680670243505803 -0.034615113076212713 0 -0.42995577540377822 -0.032900560567165532 0 -0.4285090787839364 -0.025262373234060161 0 -0.43591977417237449 -0.008065469867085449 0 -0.42907061680018699 -0.010664914002041091 0 -0.42583279771702431 0.00046528033667210148 0 -0.43108579893039811 -0.01948839847471974 0 -0.43397544616601241 -0.014244232554068349 0 -0.42907061680018699 -0.010664914002041091 0 -0.43591977417237449 -0.008065469867085449 0 -0.43397544616601241 -0.014244232554068349 0 -0.43928417642389239 -0.017661557407765791 0 -0.43591977417237449 -0.008065469867085449 0 -0.43397544616601241 -0.014244232554068349 0 -0.42907061680018699 -0.010664914002041091 0 -0.43108579893039811 -0.01948839847471974 0 -0.42907061680018699 -0.010664914002041091 0 -0.41794895562780338 -0.01094222954485795 0 -0.42907061680018699 -0.010664914002041091 0 -0.41794895562780338 -0.01094222954485795 0 -0.42583279771702431 0.00046528033667210148 0 -0.41794895562780338 -0.01094222954485795 0 -0.4102220184461346 -0.019351118920435541 0 -0.40021295305484711 -0.013852611056198059 0 -0.41794895562780338 -0.01094222954485795 0 -0.40352261506359649 -0.001038070178381474 0 -0.40021295305484711 -0.013852611056198059 0 -0.42680670243505803 -0.034615113076212713 0 -0.41794895562780338 -0.01094222954485795 0 -0.4102220184461346 -0.019351118920435541 0 -0.42680670243505803 -0.034615113076212713 0 -0.4102220184461346 -0.019351118920435541 0 -0.40073055052989021 -0.025701474464423758 0 -0.42680670243505803 -0.034615113076212713 0 -0.40073055052989021 -0.025701474464423758 0 -0.41513049604948221 -0.033942569896895612 0 -0.40073055052989021 -0.025701474464423758 0 -0.40237332615973681 -0.030676944162886681 0 -0.40073055052989021 -0.025701474464423758 0 -0.40237332615973681 -0.030676944162886681 0 -0.38011722188171299 -0.020315848921226409 0 -0.40237332615973681 -0.030676944162886681 0 -0.38011722188171299 -0.020315848921226409 0 -0.4102220184461346 -0.019351118920435541 0 -0.40073055052989021 -0.025701474464423758 0 -0.40021295305484711 -0.013852611056198059 0 -0.40073055052989021 -0.025701474464423758 0 -0.40021295305484711 -0.013852611056198059 0 -0.38745402304870558 -0.01483805838738575 0 -0.40352261506359649 -0.001038070178381474 0 -0.40021295305484711 -0.013852611056198059 0 -0.39408165103759368 -0.0019794594859314238 0 -0.40021295305484711 -0.013852611056198059 0 -0.39408165103759368 -0.0019794594859314238 0 -0.39005949432245718 -0.0085411321607220259 0 -0.40021295305484711 -0.013852611056198059 0 -0.39005949432245718 -0.0085411321607220259 0 -0.38745402304870558 -0.01483805838738575 0 -0.39408165103759368 -0.0019794594859314238 0 -0.3848191179490616 -0.0027051675553946518 0 -0.39005949432245718 -0.0085411321607220259 0 -0.3848191179490616 -0.0027051675553946518 0 -0.38372972652207787 -0.0093303643187002475 0 -0.39005949432245718 -0.0085411321607220259 0 -0.38372972652207787 -0.0093303643187002475 0 -0.38745402304870558 -0.01483805838738575 0 -0.3791207175096093 -0.01135650732177081 0 -0.38372972652207787 -0.0093303643187002475 0 -0.39005949432245718 -0.0085411321607220259 0 -0.38745402304870558 -0.01483805838738575 0 -0.37465439862472261 -0.016787835852634068 0 -0.37464851222799189 -0.0076089195940836872 0 -0.3791207175096093 -0.01135650732177081 0 -0.37465439862472261 -0.016787835852634068 0 -0.38745402304870558 -0.01483805838738575 0 -0.3791207175096093 -0.01135650732177081 0 -0.37464851222799189 -0.0076089195940836872 0 -0.3791207175096093 -0.01135650732177081 0 -0.37960876280762101 -0.0064231604720931881 0 -0.38372972652207787 -0.0093303643187002475 0 -0.3791207175096093 -0.01135650732177081 0 -0.37960876280762101 -0.0064231604720931881 0 -0.3848191179490616 -0.0027051675553946518 0 -0.38372972652207787 -0.0093303643187002475 0 -0.37960876280762101 -0.0064231604720931881 0 -0.37464851222799189 -0.0076089195940836872 0 -0.37960876280762101 -0.0064231604720931881 0 -0.37774077980655368 -0.001289555558904682 0 -0.3848191179490616 -0.0027051675553946518 0 -0.37960876280762101 -0.0064231604720931881 0 -0.37774077980655368 -0.001289555558904682 0 -0.37465439862472261 -0.016787835852634068 0 -0.40073055052989021 -0.025701474464423758 0 -0.38745402304870558 -0.01483805838738575 0 -0.40237332615973681 -0.030676944162886681 0 -0.38781453024876661 -0.02996800237218563 0 -0.38011722188171299 -0.020315848921226409 0 -0.37465439862472261 -0.016787835852634068 0 -0.40073055052989021 -0.025701474464423758 0 -0.38011722188171299 -0.020315848921226409 0 -0.37465439862472261 -0.016787835852634068 0 -0.40073055052989021 -0.025701474464423758 0 -0.37402384376206249 -0.023759624541515059 0 -0.37465439862472261 -0.016787835852634068 0 -0.38011722188171299 -0.020315848921226409 0 -0.37402384376206249 -0.023759624541515059 0 -0.38011722188171299 -0.020315848921226409 0 -0.37866743010551202 -0.02906954498465647 0 -0.38781453024876661 -0.02996800237218563 0 -0.38011722188171299 -0.020315848921226409 0 -0.37866743010551202 -0.02906954498465647 0 -0.37439980638912518 -0.038891661293645137 0 -0.37866743010551202 -0.02906954498465647 0 -0.38394575501216083 -0.036535335565972972 0 -0.37439980638912518 -0.038891661293645137 0 -0.37993408630244868 -0.045501240077299353 0 -0.38394575501216083 -0.036535335565972972 0 -0.37085155020467431 -0.050438611479832557 0 -0.37439980638912518 -0.038891661293645137 0 -0.37993408630244868 -0.045501240077299353 0 -0.37993408630244868 -0.045501240077299353 0 -0.38895054345211377 -0.045335196083553769 0 -0.38394575501216083 -0.036535335565972972 0 -0.38895054345211377 -0.045335196083553769 0 -0.38394575501216083 -0.036535335565972972 0 -0.39396365166307989 -0.03445798481758762 0 -0.38781453024876661 -0.02996800237218563 0 -0.38394575501216083 -0.036535335565972972 0 -0.39396365166307989 -0.03445798481758762 0 -0.38781453024876661 -0.02996800237218563 0 -0.37866743010551202 -0.02906954498465647 0 -0.38394575501216083 -0.036535335565972972 0 -0.40237332615973681 -0.030676944162886681 0 -0.38781453024876661 -0.02996800237218563 0 -0.39396365166307989 -0.03445798481758762 0 -0.39396365166307989 -0.03445798481758762 0 -0.39750411751227832 -0.042292212187568533 0 -0.39928834571923882 -0.035924112998793431 0 -0.38895054345211377 -0.045335196083553769 0 -0.39396365166307989 -0.03445798481758762 0 -0.39750411751227832 -0.042292212187568533 0 -0.39750411751227832 -0.042292212187568533 0 -0.4050251302254127 -0.045922345921936697 0 -0.40306291723554027 -0.039039715031688543 0 -0.39750411751227832 -0.042292212187568533 0 -0.40306291723554027 -0.039039715031688543 0 -0.39928834571923882 -0.035924112998793431 0 -0.40237332615973681 -0.030676944162886681 0 -0.39396365166307989 -0.03445798481758762 0 -0.39928834571923882 -0.035924112998793431 0 -0.41105872637709778 -0.041104419315527559 0 -0.40237332615973681 -0.030676944162886681 0 -0.40306291723554027 -0.039039715031688543 0 -0.40237332615973681 -0.030676944162886681 0 -0.40306291723554027 -0.039039715031688543 0 -0.39928834571923882 -0.035924112998793431 0 -0.40603099279739802 -0.054788986838451827 0 -0.39527915405366182 -0.064437672488960096 0 -0.41284572228237681 -0.064006668923108523 0 -0.40603099279739802 -0.054788986838451827 0 -0.39443592701229091 -0.053019652188425637 0 -0.39527915405366182 -0.064437672488960096 0 -0.4050251302254127 -0.045922345921936697 0 -0.40603099279739802 -0.054788986838451827 0 -0.39443592701229091 -0.053019652188425637 0 -0.39750411751227832 -0.042292212187568533 0 -0.4050251302254127 -0.045922345921936697 0 -0.39443592701229091 -0.053019652188425637 0 -0.38895054345211377 -0.045335196083553769 0 -0.39750411751227832 -0.042292212187568533 0 -0.39443592701229091 -0.053019652188425637 0 -0.39443592701229091 -0.053019652188425637 0 -0.38221605892473098 -0.056125323053866277 0 -0.39527915405366182 -0.064437672488960096 0 -0.36608399240098949 -0.063120758007335118 0 -0.38221605892473098 -0.056125323053866277 0 -0.37978412082390189 -0.068029865631836883 0 -0.38895054345211377 -0.045335196083553769 0 -0.39443592701229091 -0.053019652188425637 0 -0.38221605892473098 -0.056125323053866277 0 -0.37993408630244868 -0.045501240077299353 0 -0.38895054345211377 -0.045335196083553769 0 -0.38221605892473098 -0.056125323053866277 0 -0.37085155020467431 -0.050438611479832557 0 -0.37993408630244868 -0.045501240077299353 0 -0.38221605892473098 -0.056125323053866277 0 -0.36843110820579178 -0.075527255856609146 0 -0.37978412082390189 -0.068029865631836883 0 -0.38691029053433551 -0.080938318752413793 0 -0.37978412082390189 -0.068029865631836883 0 -0.38691029053433551 -0.080938318752413793 0 -0.39527915405366182 -0.064437672488960096 0 -0.38221605892473098 -0.056125323053866277 0 -0.37978412082390189 -0.068029865631836883 0 -0.39527915405366182 -0.064437672488960096 0 -0.37380044498630338 -0.100392191664622 0 -0.36747037526515469 -0.088210616938563927 0 -0.38691029053433551 -0.080938318752413793 0 -0.36843110820579178 -0.075527255856609146 0 -0.38691029053433551 -0.080938318752413793 0 -0.40007542381043809 -0.086939242353532731 0 -0.39460333317738627 -0.1006873657273652 0 -0.41352047356827321 -0.0909948847898496 0 -0.38691029053433551 -0.080938318752413793 0 -0.40007542381043809 -0.086939242353532731 0 -0.40767355229219521 -0.074626636544090755 0 -0.38691029053433551 -0.080938318752413793 0 -0.40007542381043809 -0.086939242353532731 0 -0.39460333317738627 -0.1006873657273652 0 -0.38691029053433551 -0.080938318752413793 0 -0.39527915405366182 -0.064437672488960096 0 -0.40767355229219521 -0.074626636544090755 0 -0.39527915405366182 -0.064437672488960096 0 -0.41284572228237681 -0.064006668923108523 0 -0.40767355229219521 -0.074626636544090755 0 -0.36893450279197471 -0.1249528869149899 0 -0.3789649235099295 -0.11270856972454819 0 -0.39514760223357998 -0.1249586529677193 0 -0.36893450279197471 -0.1249528869149899 0 -0.39514760223357998 -0.1249586529677193 0 -0.3789649235099295 -0.11270856972454819 0 -0.39460333317738627 -0.1006873657273652 0 -0.39514760223357998 -0.1249586529677193 0 -0.37380044498630338 -0.100392191664622 0 -0.38691029053433551 -0.080938318752413793 0 -0.39460333317738627 -0.1006873657273652 0 -0.37380044498630338 -0.100392191664622 0 -0.3789649235099295 -0.11270856972454819 0 -0.39460333317738627 -0.1006873657273652 0 -0.39460333317738627 -0.1006873657273652 0 -0.39514760223357998 -0.1249586529677193 0 -0.4114708495464785 -0.1093321351213095 0 -0.42136070167518519 -0.1249644190204488 0 -0.4114708495464785 -0.1093321351213095 0 -0.43272213707796769 -0.1050553531011644 0 -0.39514760223357998 -0.1249586529677193 0 -0.42136070167518519 -0.1249644190204488 0 -0.39514760223357998 -0.1249586529677193 0 -0.42136070167518519 -0.1249644190204488 0 -0.4114708495464785 -0.1093321351213095 0 -0.39460333317738627 -0.1006873657273652 0 -0.4114708495464785 -0.1093321351213095 0 -0.41352047356827321 -0.0909948847898496 0 -0.4114708495464785 -0.1093321351213095 0 -0.43272213707796769 -0.1050553531011644 0 -0.41352047356827321 -0.0909948847898496 0 -0.42136070167518519 -0.1249644190204488 0 -0.43272213707796769 -0.1050553531011644 0 -0.44757380111679052 -0.12497018507317829 0 -0.42136070167518519 -0.1249644190204488 0 -0.44757380111679052 -0.12497018507317829 0 -0.42023793718526542 -0.076451056482049876 0 -0.41284572228237681 -0.064006668923108523 0 -0.42746868386642678 -0.066478460468227696 0 -0.42023793718526542 -0.076451056482049876 0 -0.41284572228237681 -0.064006668923108523 0 -0.40767355229219521 -0.074626636544090755 0 -0.42023793718526542 -0.076451056482049876 0 -0.40767355229219521 -0.074626636544090755 0 -0.41352047356827321 -0.0909948847898496 0 -0.40007542381043809 -0.086939242353532731 0 -0.40767355229219521 -0.074626636544090755 0 -0.41352047356827321 -0.0909948847898496 0 -0.42023793718526542 -0.076451056482049876 0 -0.41352047356827321 -0.0909948847898496 0 -0.43051036701793649 -0.083964229305721505 0 -0.43272213707796769 -0.1050553531011644 0 -0.41352047356827321 -0.0909948847898496 0 -0.43051036701793649 -0.083964229305721505 0 -0.43272213707796769 -0.1050553531011644 0 -0.43051036701793649 -0.083964229305721505 0 -0.44869793539396702 -0.090613631575090198 0 -0.43051036701793649 -0.083964229305721505 0 -0.42746868386642678 -0.066478460468227696 0 -0.43938561630945938 -0.075374003134316428 0 -0.42023793718526542 -0.076451056482049876 0 -0.43051036701793649 -0.083964229305721505 0 -0.42746868386642678 -0.066478460468227696 0 -0.42746868386642678 -0.066478460468227696 0 -0.43950717444435422 -0.063784996514660589 0 -0.43938561630945938 -0.075374003134316428 0 -0.43950717444435422 -0.063784996514660589 0 -0.45074392082461212 -0.072028697807882153 0 -0.43938561630945938 -0.075374003134316428 0 -0.43051036701793649 -0.083964229305721505 0 -0.43938561630945938 -0.075374003134316428 0 -0.44869793539396702 -0.090613631575090198 0 -0.45074392082461212 -0.072028697807882153 0 -0.43938561630945938 -0.075374003134316428 0 -0.44869793539396702 -0.090613631575090198 0 -0.45074392082461212 -0.072028697807882153 0 -0.44869793539396702 -0.090613631575090198 0 -0.4647336852437608 -0.080388630180202481 0 -0.44869793539396702 -0.090613631575090198 0 -0.4647336852437608 -0.080388630180202481 0 -0.47380622041468068 -0.096022360055862885 0 -0.4647336852437608 -0.080388630180202481 0 -0.46264955769922828 -0.069236149835977229 0 -0.47254815090776853 -0.069469283055039688 0 -0.45074392082461212 -0.072028697807882153 0 -0.46264955769922828 -0.069236149835977229 0 -0.44688553471578463 -0.051399134646207288 0 -0.46264955769922828 -0.069236149835977229 0 -0.47254815090776853 -0.069469283055039688 0 -0.46914163899380801 -0.061760229887868598 0 -0.45074392082461212 -0.072028697807882153 0 -0.4647336852437608 -0.080388630180202481 0 -0.46264955769922828 -0.069236149835977229 0 -0.43272213707796769 -0.1050553531011644 0 -0.44757380111679052 -0.12497018507317829 0 -0.46022938895027038 -0.10869066194517669 0 -0.43272213707796769 -0.1050553531011644 0 -0.44869793539396702 -0.090613631575090198 0 -0.46022938895027038 -0.10869066194517669 0 -0.44869793539396702 -0.090613631575090198 0 -0.46022938895027038 -0.10869066194517669 0 -0.47380622041468068 -0.096022360055862885 0 -0.44757380111679052 -0.12497018507317829 0 -0.47378690055839578 -0.1249759511259078 0 -0.44757380111679052 -0.12497018507317829 0 -0.46022938895027038 -0.10869066194517669 0 -0.47378690055839578 -0.1249759511259078 0 -0.46022938895027038 -0.10869066194517669 0 -0.47378690055839578 -0.1249759511259078 0 -0.48374478807960558 -0.1092121363906397 0 -0.46022938895027038 -0.10869066194517669 0 -0.48374478807960558 -0.1092121363906397 0 -0.47380622041468068 -0.096022360055862885 0 -0.48374478807960558 -0.1092121363906397 0 -0.47380622041468068 -0.096022360055862885 0 -0.48832582805197727 -0.092109142267116931 0 -0.48374478807960558 -0.1092121363906397 0 -0.5 -0.10055386622176241 0 -0.48832582805197727 -0.092109142267116931 0 -0.47378690055839578 -0.1249759511259078 0 -0.48374478807960558 -0.1092121363906397 0 -0.50000000000000111 -0.12498171717863731 0 -0.48374478807960558 -0.1092121363906397 0 -0.5 -0.10055386622176241 0 -0.50000000000000111 -0.12498171717863731 0 -0.47378690055839578 -0.1249759511259078 0 -0.50000000000000111 -0.12498171717863731 0 -0.47254815090776853 -0.069469283055039688 0 -0.47913967023945842 -0.082463322467565006 0 -0.48457081949690362 -0.068943122576377761 0 -0.47913967023945842 -0.082463322467565006 0 -0.48808502354595151 -0.080031310268457945 0 -0.48457081949690362 -0.068943122576377761 0 -0.48457081949690362 -0.068943122576377761 0 -0.46914163899380801 -0.061760229887868598 0 -0.48457081949690362 -0.068943122576377761 0 -0.48230491698392047 -0.057318093012348498 0 -0.46914163899380801 -0.061760229887868598 0 -0.47254815090776853 -0.069469283055039688 0 -0.48457081949690362 -0.068943122576377761 0 -0.46914163899380801 -0.061760229887868598 0 -0.47254815090776853 -0.069469283055039688 0 -0.46914163899380801 -0.061760229887868598 0 -0.4647336852437608 -0.080388630180202481 0 -0.47254815090776853 -0.069469283055039688 0 -0.47913967023945842 -0.082463322467565006 0 -0.4647336852437608 -0.080388630180202481 0 -0.47380622041468068 -0.096022360055862885 0 -0.47913967023945842 -0.082463322467565006 0 -0.47380622041468068 -0.096022360055862885 0 -0.47913967023945842 -0.082463322467565006 0 -0.48832582805197727 -0.092109142267116931 0 -0.5 -0.10055386622176241 0 -0.48832582805197727 -0.092109142267116931 0 -0.499999999999999 -0.07612601526488752 0 -0.48808502354595151 -0.080031310268457945 0 -0.48832582805197727 -0.092109142267116931 0 -0.499999999999999 -0.07612601526488752 0 -0.47913967023945842 -0.082463322467565006 0 -0.48808502354595151 -0.080031310268457945 0 -0.48832582805197727 -0.092109142267116931 0 -0.499999999999999 -0.07612601526488752 0 -0.48457081949690362 -0.068943122576377761 0 -0.499999999999999 -0.07612601526488752 0 -0.48457081949690362 -0.068943122576377761 0 -0.5 -0.055081012739928707 0 -0.48808502354595151 -0.080031310268457945 0 -0.499999999999999 -0.07612601526488752 0 -0.48457081949690362 -0.068943122576377761 0 -0.48457081949690362 -0.068943122576377761 0 -0.5 -0.055081012739928707 0 -0.48230491698392047 -0.057318093012348498 0 -0.5 -0.055081012739928707 0 -0.48157039955536241 -0.044558511477442143 0 -0.48230491698392047 -0.057318093012348498 0 -0.5 -0.055081012739928707 0 -0.500000000000004 -0.034036010214970061 0 -0.48157039955536241 -0.044558511477442143 0 -0.500000000000004 -0.034036010214970061 0 -0.48157039955536241 -0.044558511477442143 0 -0.48148290990478199 -0.029591545163434652 0 -0.48157039955536241 -0.044558511477442143 0 -0.45768975774058179 -0.035844230274481748 0 -0.48148290990478199 -0.029591545163434652 0 -0.48157039955536241 -0.044558511477442143 0 -0.46914163899380801 -0.061760229887868598 0 -0.45768975774058179 -0.035844230274481748 0 -0.48157039955536241 -0.044558511477442143 0 -0.48230491698392047 -0.057318093012348498 0 -0.46914163899380801 -0.061760229887868598 0 -0.46914163899380801 -0.061760229887868598 0 -0.45768975774058179 -0.035844230274481748 0 -0.44688553471578463 -0.051399134646207288 0 -0.46914163899380801 -0.061760229887868598 0 -0.45768975774058179 -0.035844230274481748 0 -0.46264955769922828 -0.069236149835977229 0 -0.46914163899380801 -0.061760229887868598 0 -0.44688553471578463 -0.051399134646207288 0 -0.46914163899380801 -0.061760229887868598 0 -0.44688553471578463 -0.051399134646207288 0 -0.43628267576141971 -0.035329403205585218 0 -0.44354830351403418 -0.034418653902415733 0 -0.44688553471578463 -0.051399134646207288 0 -0.45768975774058179 -0.035844230274481748 0 -0.44354830351403418 -0.034418653902415733 0 -0.44688553471578463 -0.051399134646207288 0 -0.45768975774058179 -0.035844230274481748 0 -0.44354830351403418 -0.034418653902415733 0 -0.44312252706978628 -0.024928407146411868 0 -0.43628267576141971 -0.035329403205585218 0 -0.43710875721387199 -0.026668229939385779 0 -0.44354830351403418 -0.034418653902415733 0 -0.43950717444435422 -0.063784996514660589 0 -0.45074392082461212 -0.072028697807882153 0 -0.44688553471578463 -0.051399134646207288 0 -0.43147245553696489 -0.05279552735729795 0 -0.43950717444435422 -0.063784996514660589 0 -0.44688553471578463 -0.051399134646207288 0 -0.43591977417237449 -0.008065469867085449 0 -0.44623787648735791 -0.0099282306610938807 0 -0.43740981058492812 0.01004998492246997 0 -0.43591977417237449 -0.008065469867085449 0 -0.44623787648735791 -0.0099282306610938807 0 -0.43928417642389239 -0.017661557407765791 0 -0.43591977417237449 -0.008065469867085449 0 -0.44623787648735791 -0.0099282306610938807 0 -0.43710875721387199 -0.026668229939385779 0 -0.43928417642389239 -0.017661557407765791 0 -0.44312252706978628 -0.024928407146411868 0 -0.45768975774058179 -0.035844230274481748 0 -0.44623787648735791 -0.0099282306610938807 0 -0.44312252706978628 -0.024928407146411868 0 -0.45768975774058179 -0.035844230274481748 0 -0.44623787648735791 -0.0099282306610938807 0 -0.44623787648735791 -0.0099282306610938807 0 -0.43928417642389239 -0.017661557407765791 0 -0.44312252706978628 -0.024928407146411868 0 -0.43710875721387199 -0.026668229939385779 0 -0.44354830351403418 -0.034418653902415733 0 -0.44312252706978628 -0.024928407146411868 0 -0.45768975774058179 -0.035844230274481748 0 -0.44623787648735791 -0.0099282306610938807 0 -0.47146408957177099 -0.01448240150379307 0 -0.44623787648735791 -0.0099282306610938807 0 -0.47146408957177099 -0.01448240150379307 0 -0.44623787648735791 -0.0099282306610938807 0 -0.47146408957177099 -0.01448240150379307 0 -0.46048772545436639 0.0043098071123656434 0 -0.47146408957177099 -0.01448240150379307 0 -0.47882554305316488 -0.0018417715126103191 0 -0.46048772545436639 0.0043098071123656434 0 -0.47146408957177099 -0.01448240150379307 0 -0.47882554305316488 -0.0018417715126103191 0 -0.49669030265618502 -0.01903657234648758 0 -0.47146408957177099 -0.01448240150379307 0 -0.49669030265618502 -0.01903657234648758 0 -0.47146408957177099 -0.01448240150379307 0 -0.48148290990478199 -0.029591545163434652 0 -0.49669030265618502 -0.01903657234648758 0 -0.45768975774058179 -0.035844230274481748 0 -0.47146408957177099 -0.01448240150379307 0 -0.48148290990478199 -0.029591545163434652 0 -0.500000000000004 -0.034036010214970061 0 -0.48148290990478199 -0.029591545163434652 0 -0.49669030265618502 -0.01903657234648758 0 -0.49669030265618502 -0.01903657234648758 0 -0.50000000000000056 -0.019634082844440681 0 -0.500000000000004 -0.034036010214970061 0 -0.49669030265618502 -0.01903657234648758 0 -0.500000000000004 -0.034036010214970061 0 -0.49669030265618502 -0.01903657234648758 0 -0.50000000000000056 -0.019634082844440681 0 -0.47882554305316488 -0.0018417715126103191 0 -0.49669030265618502 -0.01903657234648758 0 -0.49160980924365538 0.0039880541876541054 0 -0.49669030265618502 -0.01903657234648758 0 -0.49160980924365538 0.0039880541876541054 0 -0.49669030265618502 -0.01903657234648758 0 -0.50000000000000056 -0.019634082844440681 0 -0.49160980924365538 0.0039880541876541054 0 -0.50000000000000056 -0.019634082844440681 0 -0.49160980924365538 0.0039880541876541054 0 -0.50000000000000033 0.009303662189531537 0 -0.49160980924365538 0.0039880541876541054 0 -0.48652931583112352 0.027012680721795381 0 -0.49160980924365538 0.0039880541876541054 0 -0.50000000000000033 0.009303662189531537 0 -0.48652931583112352 0.027012680721795381 0 -0.50000000000000033 0.009303662189531537 0 -0.5 0.03611151152349279 0 -0.49175907743105379 0.031398254416965428 0 -0.50000000000000033 0.009303662189531537 0 -0.49175907743105379 0.031398254416965428 0 -0.50000000000000033 0.009303662189531537 0 -0.48652931583112352 0.027012680721795381 0 -0.49175907743105379 0.031398254416965428 0 -0.48652931583112352 0.027012680721795381 0 -0.47387578833984401 0.016012254987208822 0 -0.46815351836101687 0.031449839152918539 0 -0.49160980924365538 0.0039880541876541054 0 -0.48652931583112352 0.027012680721795381 0 -0.47387578833984401 0.016012254987208822 0 -0.47882554305316488 -0.0018417715126103191 0 -0.49160980924365538 0.0039880541876541054 0 -0.47387578833984401 0.016012254987208822 0 -0.47882554305316488 -0.0018417715126103191 0 -0.47387578833984401 0.016012254987208822 0 -0.46048772545436639 0.0043098071123656434 0 -0.49282352307895688 0.045257754500502748 0 -0.5 0.03611151152349279 0 -0.5 0.062919360857453976 0 -0.49282352307895688 0.045257754500502748 0 -0.48351815486210709 0.053492846644399093 0 -0.5 0.062919360857453976 0 -0.49175907743105379 0.031398254416965428 0 -0.48144882241859149 0.050037307255936581 0 -0.48351815486210709 0.053492846644399093 0 -0.48652931583112352 0.027012680721795381 0 -0.49175907743105379 0.031398254416965428 0 -0.48144882241859149 0.050037307255936581 0 -0.49175907743105379 0.031398254416965428 0 -0.48351815486210709 0.053492846644399093 0 -0.49282352307895688 0.045257754500502748 0 -0.49175907743105379 0.031398254416965428 0 -0.48351815486210709 0.053492846644399093 0 -0.49282352307895688 0.045257754500502748 0 -0.5 0.03611151152349279 0 -0.49175907743105379 0.031398254416965428 0 -0.48144882241859149 0.050037307255936581 0 -0.4639696453013944 0.043374392403556838 0 -0.46815351836101687 0.031449839152918539 0 -0.48652931583112352 0.027012680721795381 0 -0.48144882241859149 0.050037307255936581 0 -0.48652931583112352 0.027012680721795381 0 -0.48144882241859149 0.050037307255936581 0 -0.46815351836101687 0.031449839152918539 0 -0.48144882241859149 0.050037307255936581 0 -0.45709786057011947 0.055708105081253657 0 -0.47636832900606041 0.073061933790077832 0 -0.48144882241859149 0.050037307255936581 0 -0.48351815486210709 0.053492846644399093 0 -0.47636832900606041 0.073061933790077832 0 -0.48144882241859149 0.050037307255936581 0 -0.47636832900606041 0.073061933790077832 0 -0.48144882241859149 0.050037307255936581 0 -0.45709786057011947 0.055708105081253657 0 -0.4639696453013944 0.043374392403556838 0 -0.45709786057011947 0.055708105081253657 0 -0.4639696453013944 0.043374392403556838 0 -0.45299045524759751 0.034902057762674861 0 -0.4639696453013944 0.043374392403556838 0 -0.46815351836101687 0.031449839152918539 0 -0.45299045524759751 0.034902057762674861 0 -0.46815351836101687 0.031449839152918539 0 -0.45299045524759751 0.034902057762674861 0 -0.45709786057011947 0.055708105081253657 0 -0.45299045524759751 0.034902057762674861 0 -0.43782739213417787 0.038354276372430232 0 -0.45299045524759751 0.034902057762674861 0 -0.43782739213417787 0.038354276372430232 0 -0.45299045524759751 0.034902057762674861 0 -0.43782739213417787 0.038354276372430232 0 -0.44297011017848281 0.02707887027054981 0 -0.45709786057011947 0.055708105081253657 0 -0.43782739213417787 0.038354276372430232 0 -0.43187248081207541 0.055496176207803817 0 -0.45709786057011947 0.055708105081253657 0 -0.43782739213417787 0.038354276372430232 0 -0.45709786057011947 0.055708105081253657 0 -0.43187248081207541 0.055496176207803817 0 -0.43763284036668942 0.072255399145110422 0 -0.47387578833984401 0.016012254987208822 0 -0.46048772545436639 0.0043098071123656434 0 -0.45598123469437257 0.020633802368031268 0 -0.47387578833984401 0.016012254987208822 0 -0.46815351836101687 0.031449839152918539 0 -0.45598123469437257 0.020633802368031268 0 -0.46815351836101687 0.031449839152918539 0 -0.45299045524759751 0.034902057762674861 0 -0.45598123469437257 0.020633802368031268 0 -0.45598123469437257 0.020633802368031268 0 -0.44297011017848281 0.02707887027054981 0 -0.43740981058492812 0.01004998492246997 0 -0.45299045524759751 0.034902057762674861 0 -0.45598123469437257 0.020633802368031268 0 -0.44297011017848281 0.02707887027054981 0 -0.46048772545436639 0.0043098071123656434 0 -0.45598123469437257 0.020633802368031268 0 -0.43740981058492812 0.01004998492246997 0 -0.44623787648735791 -0.0099282306610938807 0 -0.46048772545436639 0.0043098071123656434 0 -0.43740981058492812 0.01004998492246997 0 -0.44623787648735791 -0.0099282306610938807 0 -0.43740981058492812 0.01004998492246997 0 -0.43591977417237449 -0.008065469867085449 0 -0.43740981058492812 0.01004998492246997 0 -0.42583279771702431 0.00046528033667210148 0 -0.43740981058492812 0.01004998492246997 0 -0.42292027786463471 0.01349413118407828 0 -0.42583279771702431 0.00046528033667210148 0 -0.41794895562780338 -0.01094222954485795 0 -0.40909120882054839 0.01273065398649661 0 -0.41794895562780338 -0.01094222954485795 0 -0.40352261506359649 -0.001038070178381474 0 -0.40909120882054839 0.01273065398649661 0 -0.42292027786463471 0.01349413118407828 0 -0.42583279771702431 0.00046528033667210148 0 -0.40909120882054839 0.01273065398649661 0 -0.41794895562780338 -0.01094222954485795 0 -0.42583279771702431 0.00046528033667210148 0 -0.40909120882054839 0.01273065398649661 0 -0.40909120882054839 0.01273065398649661 0 -0.41494363987246979 0.023236645495722939 0 -0.40023346201329341 0.036403537517851137 0 -0.41494363987246979 0.023236645495722939 0 -0.41436175989852531 0.033604495869393458 0 -0.40023346201329341 0.036403537517851137 0 -0.42292027786463471 0.01349413118407828 0 -0.41494363987246979 0.023236645495722939 0 -0.424969395700869 0.026775135554755129 0 -0.42292027786463471 0.01349413118407828 0 -0.40909120882054839 0.01273065398649661 0 -0.41494363987246979 0.023236645495722939 0 -0.41494363987246979 0.023236645495722939 0 -0.41896391809246269 0.029132761591660509 0 -0.41436175989852531 0.033604495869393458 0 -0.41494363987246979 0.023236645495722939 0 -0.41896391809246269 0.029132761591660509 0 -0.424969395700869 0.026775135554755129 0 -0.41896391809246269 0.029132761591660509 0 -0.424969395700869 0.026775135554755129 0 -0.42158087689798668 0.032914769446770492 0 -0.424969395700869 0.026775135554755129 0 -0.42858174468249838 0.030028200506033911 0 -0.42158087689798668 0.032914769446770492 0 -0.44297011017848281 0.02707887027054981 0 -0.43740981058492812 0.01004998492246997 0 -0.42858174468249838 0.030028200506033911 0 -0.43740981058492812 0.01004998492246997 0 -0.42292027786463471 0.01349413118407828 0 -0.424969395700869 0.026775135554755129 0 -0.43740981058492812 0.01004998492246997 0 -0.42858174468249838 0.030028200506033911 0 -0.43740981058492812 0.01004998492246997 0 -0.424969395700869 0.026775135554755129 0 -0.42858174468249838 0.030028200506033911 0 -0.424969395700869 0.026775135554755129 0 -0.42858174468249838 0.030028200506033911 0 -0.43782739213417787 0.038354276372430232 0 -0.44297011017848281 0.02707887027054981 0 -0.42858174468249838 0.030028200506033911 0 -0.43782739213417787 0.038354276372430232 0 -0.42858174468249838 0.030028200506033911 0 -0.42345682706553001 0.041626064651069543 0 -0.43782739213417787 0.038354276372430232 0 -0.42345682706553001 0.041626064651069543 0 -0.43187248081207541 0.055496176207803817 0 -0.43782739213417787 0.038354276372430232 0 -0.42858174468249838 0.030028200506033911 0 -0.43782739213417787 0.038354276372430232 0 -0.42345682706553001 0.041626064651069543 0 -0.42858174468249838 0.030028200506033911 0 -0.42345682706553001 0.041626064651069543 0 -0.42158087689798668 0.032914769446770492 0 -0.42858174468249838 0.030028200506033911 0 -0.42345682706553001 0.041626064651069543 0 -0.42345682706553001 0.041626064651069543 0 -0.43187248081207541 0.055496176207803817 0 -0.4177568865966339 0.054525225210098782 0 -0.43187248081207541 0.055496176207803817 0 -0.4177568865966339 0.054525225210098782 0 -0.41753301535116211 0.067129086497859855 0 -0.42345682706553001 0.041626064651069543 0 -0.4177568865966339 0.054525225210098782 0 -0.40276573021624068 0.046336866753853997 0 -0.4177568865966339 0.054525225210098782 0 -0.40750332447406851 0.057375884956624552 0 -0.41753301535116211 0.067129086497859855 0 -0.42345682706553001 0.041626064651069543 0 -0.4177568865966339 0.054525225210098782 0 -0.4177568865966339 0.054525225210098782 0 -0.40750332447406851 0.057375884956624552 0 -0.40276573021624068 0.046336866753853997 0 -0.42345682706553001 0.041626064651069543 0 -0.40276573021624068 0.046336866753853997 0 -0.42345682706553001 0.041626064651069543 0 -0.41020444479839763 0.039492741198042178 0 -0.40276573021624068 0.046336866753853997 0 -0.42345682706553001 0.041626064651069543 0 -0.41436175989852531 0.033604495869393458 0 -0.42158087689798668 0.032914769446770492 0 -0.42345682706553001 0.041626064651069543 0 -0.41436175989852531 0.033604495869393458 0 -0.41020444479839763 0.039492741198042178 0 -0.41896391809246269 0.029132761591660509 0 -0.41436175989852531 0.033604495869393458 0 -0.42158087689798668 0.032914769446770492 0 -0.41436175989852531 0.033604495869393458 0 -0.41020444479839763 0.039492741198042178 0 -0.40023346201329341 0.036403537517851137 0 -0.40276573021624068 0.046336866753853997 0 -0.38207463336695202 0.051047668856640811 0 -0.38772007791329738 0.03985096685417347 0 -0.41020444479839763 0.039492741198042178 0 -0.40023346201329341 0.036403537517851137 0 -0.40276573021624068 0.046336866753853997 0 -0.40023346201329341 0.036403537517851137 0 -0.40276573021624068 0.046336866753853997 0 -0.38772007791329738 0.03985096685417347 0 -0.40023346201329341 0.036403537517851137 0 -0.38772007791329738 0.03985096685417347 0 -0.38925836826538629 0.030805614435688099 0 -0.40276573021624068 0.046336866753853997 0 -0.38207463336695202 0.051047668856640811 0 -0.40276573021624068 0.046336866753853997 0 -0.39689466156197101 0.057407184083191301 0 -0.38207463336695202 0.051047668856640811 0 -0.40750332447406851 0.057375884956624552 0 -0.39689466156197101 0.057407184083191301 0 -0.40210564328563447 0.066115584712721373 0 -0.40750332447406851 0.057375884956624552 0 -0.40276573021624068 0.046336866753853997 0 -0.39689466156197101 0.057407184083191301 0 -0.38207463336695202 0.051047668856640811 0 -0.38848633305814179 0.065600711414542545 0 -0.36891219827968119 0.060077996683558232 0 -0.39689466156197101 0.057407184083191301 0 -0.38207463336695202 0.051047668856640811 0 -0.38848633305814179 0.065600711414542545 0 -0.38772007791329738 0.03985096685417347 0 -0.37937813184432773 0.031366277704107569 0 -0.38925836826538629 0.030805614435688099 0 -0.38207463336695202 0.051047668856640811 0 -0.38772007791329738 0.03985096685417347 0 -0.37261014177358448 0.043145835856899219 0 -0.38772007791329738 0.03985096685417347 0 -0.37937813184432773 0.031366277704107569 0 -0.37261014177358448 0.043145835856899219 0 -0.37937813184432773 0.031366277704107569 0 -0.38391758338059062 0.022870450659759161 0 -0.37479293228070759 0.022502646493578662 0 -0.37937813184432773 0.031366277704107569 0 -0.38925836826538629 0.030805614435688099 0 -0.38391758338059062 0.022870450659759161 0 -0.38925836826538629 0.030805614435688099 0 -0.38391758338059062 0.022870450659759161 0 -0.3946160130735708 0.021551959563878339 0 -0.38391758338059062 0.022870450659759161 0 -0.38667067902898572 0.013842153393714489 0 -0.3946160130735708 0.021551959563878339 0 -0.38391758338059062 0.022870450659759161 0 -0.3778438638662554 0.014761087644765769 0 -0.38667067902898572 0.013842153393714489 0 -0.38391758338059062 0.022870450659759161 0 -0.3778438638662554 0.014761087644765769 0 -0.37479293228070759 0.022502646493578662 0 -0.3778438638662554 0.014761087644765769 0 -0.38165634421242611 0.0056742618597281089 0 -0.38667067902898572 0.013842153393714489 0 -0.3778438638662554 0.014761087644765769 0 -0.38165634421242611 0.0056742618597281089 0 -0.37464316483836829 0.0066416053135349984 0 -0.37774077980655368 -0.001289555558904682 0 -0.38165634421242611 0.0056742618597281089 0 -0.37464316483836829 0.0066416053135349984 0 -0.3848191179490616 -0.0027051675553946518 0 -0.37774077980655368 -0.001289555558904682 0 -0.38165634421242611 0.0056742618597281089 0 -0.3848191179490616 -0.0027051675553946518 0 -0.38165634421242611 0.0056742618597281089 0 -0.38845980705381639 0.0057813395070211177 0 -0.39408165103759368 -0.0019794594859314238 0 -0.3848191179490616 -0.0027051675553946518 0 -0.38845980705381639 0.0057813395070211177 0 -0.38845980705381639 0.0057813395070211177 0 -0.38667067902898572 0.013842153393714489 0 -0.39627830677719 0.008853295208583448 0 -0.38165634421242611 0.0056742618597281089 0 -0.38845980705381639 0.0057813395070211177 0 -0.38667067902898572 0.013842153393714489 0 -0.38667067902898572 0.013842153393714489 0 -0.39627830677719 0.008853295208583448 0 -0.3946160130735708 0.021551959563878339 0 -0.39408165103759368 -0.0019794594859314238 0 -0.38845980705381639 0.0057813395070211177 0 -0.39627830677719 0.008853295208583448 0 -0.40352261506359649 -0.001038070178381474 0 -0.39408165103759368 -0.0019794594859314238 0 -0.39627830677719 0.008853295208583448 0 -0.40352261506359649 -0.001038070178381474 0 -0.40909120882054839 0.01273065398649661 0 -0.39627830677719 0.008853295208583448 0 -0.40909120882054839 0.01273065398649661 0 -0.39627830677719 0.008853295208583448 0 -0.3946160130735708 0.021551959563878339 0 -0.40909120882054839 0.01273065398649661 0 -0.40023346201329341 0.036403537517851137 0 -0.3946160130735708 0.021551959563878339 0 -0.40909120882054839 0.01273065398649661 0 -0.40023346201329341 0.036403537517851137 0 -0.40023346201329341 0.036403537517851137 0 -0.38925836826538629 0.030805614435688099 0 -0.3946160130735708 0.021551959563878339 0 -0.38696142946532958 0.1003701901717608 0 -0.40164011277457379 0.081352107660276216 0 -0.40864304721671202 0.1107171055473533 0 -0.38750957741872682 0.11885909540365321 0 -0.40864304721671202 0.1107171055473533 0 -0.39401402549175851 0.1361747599337243 0 -0.38750957741872682 0.11885909540365321 0 -0.38696142946532958 0.1003701901717608 0 -0.40864304721671202 0.1107171055473533 0 -0.38750957741872682 0.11885909540365321 0 -0.38696142946532958 0.1003701901717608 0 -0.36904533532088801 0.1177582563576956 0 -0.38696142946532958 0.1003701901717608 0 -0.37090825683648998 0.098456277756480637 0 -0.36904533532088801 0.1177582563576956 0 -0.37929074908003868 0.077603726490867345 0 -0.40164011277457379 0.081352107660276216 0 -0.38696142946532958 0.1003701901717608 0 -0.37929074908003868 0.077603726490867345 0 -0.40164011277457379 0.081352107660276216 0 -0.38696142946532958 0.1003701901717608 0 -0.37929074908003868 0.077603726490867345 0 -0.37090825683648998 0.098456277756480637 0 -0.37929074908003868 0.077603726490867345 0 -0.38848633305814179 0.065600711414542545 0 -0.36891219827968119 0.060077996683558232 0 -0.37929074908003868 0.077603726490867345 0 -0.38848633305814179 0.065600711414542545 0 -0.40164011277457379 0.081352107660276216 0 -0.38848633305814179 0.065600711414542545 0 -0.40210564328563447 0.066115584712721373 0 -0.40164011277457379 0.081352107660276216 0 -0.39689466156197101 0.057407184083191301 0 -0.38848633305814179 0.065600711414542545 0 -0.40210564328563447 0.066115584712721373 0 -0.40164011277457379 0.081352107660276216 0 -0.42398947646910912 0.085100488829685086 0 -0.40164011277457379 0.081352107660276216 0 -0.42398947646910912 0.085100488829685086 0 -0.40864304721671202 0.1107171055473533 0 -0.40210564328563447 0.066115584712721373 0 -0.40164011277457379 0.081352107660276216 0 -0.41753301535116211 0.067129086497859855 0 -0.40164011277457379 0.081352107660276216 0 -0.41753301535116211 0.067129086497859855 0 -0.42398947646910912 0.085100488829685086 0 -0.40750332447406851 0.057375884956624552 0 -0.40210564328563447 0.066115584712721373 0 -0.41753301535116211 0.067129086497859855 0 -0.41753301535116211 0.067129086497859855 0 -0.42398947646910912 0.085100488829685086 0 -0.43763284036668942 0.072255399145110422 0 -0.43187248081207541 0.055496176207803817 0 -0.41753301535116211 0.067129086497859855 0 -0.43763284036668942 0.072255399145110422 0 -0.42398947646910912 0.085100488829685086 0 -0.44633884016364428 0.088848869999093971 0 -0.42398947646910912 0.085100488829685086 0 -0.43763284036668942 0.072255399145110422 0 -0.44633884016364428 0.088848869999093971 0 -0.42398947646910912 0.085100488829685086 0 -0.42906186480059683 0.10519001099972999 0 -0.44633884016364428 0.088848869999093971 0 -0.42398947646910912 0.085100488829685086 0 -0.42906186480059683 0.10519001099972999 0 -0.40864304721671202 0.1107171055473533 0 -0.40864304721671202 0.1107171055473533 0 -0.43267942878230348 0.12559175737704789 0 -0.42906186480059683 0.10519001099972999 0 -0.40864304721671202 0.1107171055473533 0 -0.43267942878230348 0.12559175737704789 0 -0.42906186480059683 0.10519001099972999 0 -0.4489383204882843 0.11104189391905871 0 -0.43267942878230348 0.12559175737704789 0 -0.4489383204882843 0.11104189391905871 0 -0.45289828098281221 0.1241297055338681 0 -0.43267942878230348 0.12559175737704789 0 -0.4489383204882843 0.11104189391905871 0 -0.43267942878230348 0.12559175737704789 0 -0.42906186480059683 0.10519001099972999 0 -0.4489383204882843 0.11104189391905871 0 -0.44633884016364428 0.088848869999093971 0 -0.4489383204882843 0.11104189391905871 0 -0.44633884016364428 0.088848869999093971 0 -0.47121921728662652 0.096397536200283296 0 -0.46607010556719342 0.11973313861048911 0 -0.47121921728662652 0.096397536200283296 0 -0.4489383204882843 0.11104189391905871 0 -0.46607010556719342 0.11973313861048911 0 -0.47121921728662652 0.096397536200283296 0 -0.4489383204882843 0.11104189391905871 0 -0.45289828098281221 0.1241297055338681 0 -0.46607010556719342 0.11973313861048911 0 -0.45709786057011947 0.055708105081253657 0 -0.43763284036668942 0.072255399145110422 0 -0.45544766770060358 0.07348919590478746 0 -0.43763284036668942 0.072255399145110422 0 -0.44633884016364428 0.088848869999093971 0 -0.45544766770060358 0.07348919590478746 0 -0.44633884016364428 0.088848869999093971 0 -0.45544766770060358 0.07348919590478746 0 -0.47121921728662652 0.096397536200283296 0 -0.45544766770060358 0.07348919590478746 0 -0.47636832900606041 0.073061933790077832 0 -0.47121921728662652 0.096397536200283296 0 -0.45709786057011947 0.055708105081253657 0 -0.47636832900606041 0.073061933790077832 0 -0.45709786057011947 0.055708105081253657 0 -0.45544766770060358 0.07348919590478746 0 -0.47636832900606041 0.073061933790077832 0 -0.48351815486210709 0.053492846644399093 0 -0.47636832900606041 0.073061933790077832 0 -0.49140909277123612 0.074197219851226057 0 -0.47636832900606041 0.073061933790077832 0 -0.48274454235378189 0.091705374172880549 0 -0.47121921728662652 0.096397536200283296 0 -0.47636832900606041 0.073061933790077832 0 -0.47121921728662652 0.096397536200283296 0 -0.47636832900606041 0.073061933790077832 0 -0.49715897998801373 0.091784747772784503 0 -0.5 0.089727210191415163 0 -0.49715897998801373 0.091784747772784503 0 -0.49140909277123612 0.074197219851226057 0 -0.47636832900606041 0.073061933790077832 0 -0.48274454235378189 0.091705374172880549 0 -0.49715897998801373 0.091784747772784503 0 -0.47636832900606041 0.073061933790077832 0 -0.49715897998801373 0.091784747772784503 0 -0.49140909277123612 0.074197219851226057 0 -0.5 0.089727210191415163 0 -0.5 0.062919360857453976 0 -0.49140909277123612 0.074197219851226057 0 -0.48351815486210709 0.053492846644399093 0 -0.5 0.062919360857453976 0 -0.49140909277123612 0.074197219851226057 0 -0.46607010556719342 0.11973313861048911 0 -0.48623164313442779 0.1055772789283768 0 -0.48453668432005692 0.123143207324586 0 -0.46607010556719342 0.11973313861048911 0 -0.47121921728662652 0.096397536200283296 0 -0.48623164313442779 0.1055772789283768 0 -0.48274454235378189 0.091705374172880549 0 -0.47121921728662652 0.096397536200283296 0 -0.48623164313442779 0.1055772789283768 0 -0.5 0.089727210191415163 0 -0.49715897998801373 0.091784747772784503 0 -0.5 0.1165350595253765 0 -0.49715897998801373 0.091784747772784503 0 -0.48623164313442779 0.1055772789283768 0 -0.5 0.1165350595253765 0 -0.48274454235378189 0.091705374172880549 0 -0.49715897998801373 0.091784747772784503 0 -0.48623164313442779 0.1055772789283768 0 -0.48623164313442779 0.1055772789283768 0 -0.5 0.1165350595253765 0 -0.48453668432005692 0.123143207324586 0 -0.5 0.1165350595253765 0 -0.48453668432005692 0.123143207324586 0 -0.5 0.1433429088593379 0 -0.48453668432005692 0.123143207324586 0 -0.48049738108946538 0.1379484740379 0 -0.5 0.1433429088593379 0 -0.46607010556719342 0.11973313861048911 0 -0.48453668432005692 0.123143207324586 0 -0.48049738108946538 0.1379484740379 0 -0.46607010556719342 0.11973313861048911 0 -0.48049738108946538 0.1379484740379 0 -0.46092099384776192 0.14306874102069511 0 -0.48464943840857888 0.15775282940309851 0 -0.46990863904630059 0.1670362475492525 0 -0.46092099384776192 0.14306874102069511 0 -0.48464943840857888 0.15775282940309851 0 -0.46092099384776192 0.14306874102069511 0 -0.48049738108946538 0.1379484740379 0 -0.48464943840857888 0.15775282940309851 0 -0.46092099384776192 0.14306874102069511 0 -0.48049738108946538 0.1379484740379 0 -0.5 0.1433429088593379 0 -0.48464943840857888 0.15775282940309851 0 -0.48464943840857888 0.15775282940309851 0 -0.5 0.17015075819329931 0 -0.4898809761324775 0.17912292006808481 0 -0.5 0.1433429088593379 0 -0.48464943840857888 0.15775282940309851 0 -0.5 0.17015075819329931 0 -0.48464943840857888 0.15775282940309851 0 -0.4898809761324775 0.17912292006808481 0 -0.47865635922375932 0.17909963177513319 0 -0.5 0.17015075819329931 0 -0.4898809761324775 0.17912292006808481 0 -0.5 0.19695860752726069 0 -0.4898809761324775 0.17912292006808481 0 -0.47865635922375932 0.17909963177513319 0 -0.48609908303004917 0.1916527734416324 0 -0.47865635922375932 0.17909963177513319 0 -0.47279817792341111 0.1948006201282925 0 -0.47865635922375932 0.17909963177513319 0 -0.46589335310649882 0.18744802338852329 0 -0.47279817792341111 0.1948006201282925 0 -0.47865635922375932 0.17909963177513319 0 -0.46927870962167312 0.17493875400548389 0 -0.46990863904630059 0.1670362475492525 0 -0.47865635922375932 0.17909963177513319 0 -0.46927870962167312 0.17493875400548389 0 -0.46555461593459269 0.18128722400797501 0 -0.47865635922375932 0.17909963177513319 0 -0.46589335310649882 0.18744802338852329 0 -0.46555461593459269 0.18128722400797501 0 -0.48464943840857888 0.15775282940309851 0 -0.47865635922375932 0.17909963177513319 0 -0.46990863904630059 0.1670362475492525 0 -0.45742932361540911 0.15889287394486271 0 -0.45393765338305497 0.17471700686903011 0 -0.46990863904630059 0.1670362475492525 0 -0.45742932361540911 0.15889287394486271 0 -0.46092099384776192 0.14306874102069511 0 -0.45742932361540911 0.15889287394486271 0 -0.46299522428203971 0.17233191268957501 0 -0.45393765338305497 0.17471700686903011 0 -0.46927870962167312 0.17493875400548389 0 -0.46990863904630059 0.1670362475492525 0 -0.46299522428203971 0.17233191268957501 0 -0.46990863904630059 0.1670362475492525 0 -0.45742932361540911 0.15889287394486271 0 -0.46299522428203971 0.17233191268957501 0 -0.46589335310649882 0.18744802338852329 0 -0.46555461593459269 0.18128722400797501 0 -0.45393765338305497 0.17471700686903011 0 -0.46589335310649882 0.18744802338852329 0 -0.46555461593459269 0.18128722400797501 0 -0.46927870962167312 0.17493875400548389 0 -0.46555461593459269 0.18128722400797501 0 -0.46299522428203971 0.17233191268957501 0 -0.46555461593459269 0.18128722400797501 0 -0.46299522428203971 0.17233191268957501 0 -0.45393765338305497 0.17471700686903011 0 -0.46589335310649882 0.18744802338852329 0 -0.45393765338305497 0.17471700686903011 0 -0.45393765338305497 0.17471700686903011 0 -0.44047241453070329 0.18324079402305421 0 -0.44820564853932793 0.20069426145875721 0 -0.45393765338305497 0.17471700686903011 0 -0.44047241453070329 0.18324079402305421 0 -0.44174290600336708 0.16173144065936321 0 -0.45742932361540911 0.15889287394486271 0 -0.44174290600336708 0.16173144065936321 0 -0.44616928685712581 0.1494742970518641 0 -0.45742932361540911 0.15889287394486271 0 -0.45393765338305497 0.17471700686903011 0 -0.44174290600336708 0.16173144065936321 0 -0.45393765338305497 0.17471700686903011 0 -0.44174290600336708 0.16173144065936321 0 -0.44174290600336708 0.16173144065936321 0 -0.44616928685712581 0.1494742970518641 0 -0.43187713239064979 0.1573343508491826 0 -0.44616928685712581 0.1494742970518641 0 -0.43700896048386301 0.14249666109927989 0 -0.43187713239064979 0.1573343508491826 0 -0.44616928685712581 0.1494742970518641 0 -0.44680021131503311 0.13433024919887079 0 -0.46092099384776192 0.14306874102069511 0 -0.44616928685712581 0.1494742970518641 0 -0.44680021131503311 0.13433024919887079 0 -0.43700896048386301 0.14249666109927989 0 -0.45289828098281221 0.1241297055338681 0 -0.44680021131503311 0.13433024919887079 0 -0.43267942878230348 0.12559175737704789 0 -0.44680021131503311 0.13433024919887079 0 -0.43267942878230348 0.12559175737704789 0 -0.43700896048386301 0.14249666109927989 0 -0.44680021131503311 0.13433024919887079 0 -0.43267942878230348 0.12559175737704789 0 -0.45289828098281221 0.1241297055338681 0 -0.44680021131503311 0.13433024919887079 0 -0.46092099384776192 0.14306874102069511 0 -0.46607010556719342 0.11973313861048911 0 -0.46092099384776192 0.14306874102069511 0 -0.45289828098281221 0.1241297055338681 0 -0.46607010556719342 0.11973313861048911 0 -0.46092099384776192 0.14306874102069511 0 -0.44680021131503311 0.13433024919887079 0 -0.46092099384776192 0.14306874102069511 0 -0.45742932361540911 0.15889287394486271 0 -0.46092099384776192 0.14306874102069511 0 -0.45742932361540911 0.15889287394486271 0 -0.44616928685712581 0.1494742970518641 0 -0.46092099384776192 0.14306874102069511 0 -0.46853242371352971 0.23544625301742969 0 -0.46993231893463527 0.26090691788180947 0 -0.48177750529808522 0.24619974485466931 0 -0.46853242371352971 0.23544625301742969 0 -0.46993231893463527 0.26090691788180947 0 -0.48177750529808522 0.24619974485466931 0 -0.48375626182904402 0.22755154475287301 0 -0.46853242371352971 0.23544625301742969 0 -0.48177750529808522 0.24619974485466931 0 -0.5 0.2461359573144368 0 -0.48375626182904402 0.22755154475287301 0 -0.5 0.2461359573144368 0 -0.48375626182904402 0.22755154475287301 0 -0.49999999999999978 0.22376645686122221 0 -0.48375626182904402 0.22755154475287301 0 -0.48639908896170481 0.20928353849475789 0 -0.5 0.2461359573144368 0 -0.49999999999999978 0.22376645686122221 0 -0.48375626182904402 0.22755154475287301 0 -0.47173343442327142 0.22048762952866541 0 -0.46713252849242448 0.20998558815304991 0 -0.46853242371352971 0.23544625301742969 0 -0.48375626182904402 0.22755154475287301 0 -0.47173343442327142 0.22048762952866541 0 -0.4670472636537164 0.20843482960316059 0 -0.48375626182904402 0.22755154475287301 0 -0.47173343442327142 0.22048762952866541 0 -0.46853242371352971 0.23544625301742969 0 -0.48375626182904402 0.22755154475287301 0 -0.4670472636537164 0.20843482960316059 0 -0.48639908896170481 0.20928353849475789 0 -0.47279817792341111 0.1948006201282925 0 -0.4670472636537164 0.20843482960316059 0 -0.48375626182904402 0.22755154475287301 0 -0.48639908896170481 0.20928353849475789 0 -0.4670472636537164 0.20843482960316059 0 -0.49999999999999978 0.22376645686122221 0 -0.48639908896170481 0.20928353849475789 0 -0.5 0.19695860752726069 0 -0.49999999999999978 0.22376645686122221 0 -0.48639908896170481 0.20928353849475789 0 -0.48639908896170481 0.20928353849475789 0 -0.5 0.19695860752726069 0 -0.48609908303004917 0.1916527734416324 0 -0.4898809761324775 0.17912292006808481 0 -0.5 0.19695860752726069 0 -0.48609908303004917 0.1916527734416324 0 -0.48639908896170481 0.20928353849475789 0 -0.48609908303004917 0.1916527734416324 0 -0.47279817792341111 0.1948006201282925 0 -0.47865635922375932 0.17909963177513319 0 -0.48609908303004917 0.1916527734416324 0 -0.47279817792341111 0.1948006201282925 0 -0.48639908896170481 0.20928353849475789 0 -0.47279817792341111 0.1948006201282925 0 -0.47279817792341111 0.1948006201282925 0 -0.4670472636537164 0.20843482960316059 0 -0.46589335310649882 0.18744802338852329 0 -0.47279817792341111 0.1948006201282925 0 -0.46589335310649882 0.18744802338852329 0 -0.4603250720810298 0.20074399020462361 0 -0.4670472636537164 0.20843482960316059 0 -0.46589335310649882 0.18744802338852329 0 -0.45393765338305497 0.17471700686903011 0 -0.44820564853932793 0.20069426145875721 0 -0.46589335310649882 0.18744802338852329 0 -0.4603250720810298 0.20074399020462361 0 -0.44820564853932793 0.20069426145875721 0 -0.46589335310649882 0.18744802338852329 0 -0.47279817792341111 0.1948006201282925 0 -0.4670472636537164 0.20843482960316059 0 -0.46589335310649882 0.18744802338852329 0 -0.4670472636537164 0.20843482960316059 0 -0.45393765338305497 0.17471700686903011 0 -0.44820564853932793 0.20069426145875721 0 -0.44820564853932793 0.20069426145875721 0 -0.45427794118362658 0.21265328965042851 0 -0.44247364369559788 0.22667151604848371 0 -0.44820564853932793 0.20069426145875721 0 -0.44247364369559788 0.22667151604848371 0 -0.44820564853932793 0.20069426145875721 0 -0.44247364369559788 0.22667151604848371 0 -0.42336320141575168 0.21609666274764849 0 -0.45880341375183131 0.2186303689721085 0 -0.45427794118362658 0.21265328965042851 0 -0.46188137931700068 0.21002659871962689 0 -0.45880341375183131 0.2186303689721085 0 -0.45427794118362658 0.21265328965042851 0 -0.4536201791639074 0.2236252940046442 0 -0.4603250720810298 0.20074399020462361 0 -0.45427794118362658 0.21265328965042851 0 -0.46188137931700068 0.21002659871962689 0 -0.4603250720810298 0.20074399020462361 0 -0.44820564853932793 0.20069426145875721 0 -0.45427794118362658 0.21265328965042851 0 -0.4603250720810298 0.20074399020462361 0 -0.46188137931700068 0.21002659871962689 0 -0.4670472636537164 0.20843482960316059 0 -0.4603250720810298 0.20074399020462361 0 -0.4670472636537164 0.20843482960316059 0 -0.46188137931700068 0.21002659871962689 0 -0.4670472636537164 0.20843482960316059 0 -0.46713252849242448 0.20998558815304991 0 -0.4670472636537164 0.20843482960316059 0 -0.46713252849242448 0.20998558815304991 0 -0.47173343442327142 0.22048762952866541 0 -0.4670472636537164 0.20843482960316059 0 -0.46713252849242448 0.20998558815304991 0 -0.45880341375183131 0.2186303689721085 0 -0.46188137931700068 0.21002659871962689 0 -0.46713252849242448 0.20998558815304991 0 -0.46713252849242448 0.20998558815304991 0 -0.45710504060219709 0.23686107433279269 0 -0.46713252849242448 0.20998558815304991 0 -0.45710504060219709 0.23686107433279269 0 -0.46853242371352971 0.23544625301742969 0 -0.45880341375183131 0.2186303689721085 0 -0.46713252849242448 0.20998558815304991 0 -0.45710504060219709 0.23686107433279269 0 -0.45880341375183131 0.2186303689721085 0 -0.4536201791639074 0.2236252940046442 0 -0.45710504060219709 0.23686107433279269 0 -0.46713252849242448 0.20998558815304991 0 -0.46853242371352971 0.23544625301742969 0 -0.45427794118362658 0.21265328965042851 0 -0.4536201791639074 0.2236252940046442 0 -0.44247364369559788 0.22667151604848371 0 -0.4536201791639074 0.2236252940046442 0 -0.44247364369559788 0.22667151604848371 0 -0.45710504060219709 0.23686107433279269 0 -0.44247364369559788 0.22667151604848371 0 -0.4367416388518679 0.25264877063821017 0 -0.44247364369559788 0.22667151604848371 0 -0.45710504060219709 0.23686107433279269 0 -0.4367416388518679 0.25264877063821017 0 -0.45710504060219709 0.23686107433279269 0 -0.46853242371352971 0.23544625301742969 0 -0.46993231893463527 0.26090691788180947 0 -0.41931835140954682 0.23739665832436521 0 -0.40367044579520373 0.24132688110038639 0 -0.41175872593851298 0.2549478601346914 0 -0.41931835140954682 0.23739665832436521 0 -0.40790513800462019 0.22799805468035339 0 -0.40367044579520373 0.24132688110038639 0 -0.41931835140954682 0.23739665832436521 0 -0.4367416388518679 0.25264877063821017 0 -0.41175872593851298 0.2549478601346914 0 -0.44247364369559788 0.22667151604848371 0 -0.41931835140954682 0.23739665832436521 0 -0.4367416388518679 0.25264877063821017 0 -0.44247364369559788 0.22667151604848371 0 -0.41931835140954682 0.23739665832436521 0 -0.42336320141575168 0.21609666274764849 0 -0.41931835140954682 0.23739665832436521 0 -0.40790513800462019 0.22799805468035339 0 -0.42336320141575168 0.21609666274764849 0 -0.40790513800462019 0.22799805468035339 0 -0.42336320141575168 0.21609666274764849 0 -0.40538393777915788 0.2123952851453417 0 -0.42336320141575168 0.21609666274764849 0 -0.42071240458675369 0.1920614743917832 0 -0.40538393777915788 0.2123952851453417 0 -0.44820564853932793 0.20069426145875721 0 -0.42336320141575168 0.21609666274764849 0 -0.42071240458675369 0.1920614743917832 0 -0.44047241453070329 0.18324079402305421 0 -0.44820564853932793 0.20069426145875721 0 -0.42071240458675369 0.1920614743917832 0 -0.42071240458675369 0.1920614743917832 0 -0.40538393777915788 0.2123952851453417 0 -0.42071240458675369 0.1920614743917832 0 -0.4022878927449296 0.1970928012265635 0 -0.40298680868332198 0.18508216307238631 0 -0.42071240458675369 0.1920614743917832 0 -0.4022878927449296 0.1970928012265635 0 -0.40538393777915788 0.2123952851453417 0 -0.4022878927449296 0.1970928012265635 0 -0.39286614404695941 0.1920732104686422 0 -0.40298680868332198 0.18508216307238631 0 -0.4022878927449296 0.1970928012265635 0 -0.39286614404695941 0.1920732104686422 0 -0.39380007669083689 0.206464460861051 0 -0.38422654444444693 0.2008322729754812 0 -0.38088029112643113 0.1825210369279657 0 -0.38422654444444693 0.2008322729754812 0 -0.38088029112643113 0.1825210369279657 0 -0.36802074197771562 0.19700904511440151 0 -0.38422654444444693 0.2008322729754812 0 -0.37368745339656201 0.20924711939208951 0 -0.36802074197771562 0.19700904511440151 0 -0.39286614404695941 0.1920732104686422 0 -0.38422654444444693 0.2008322729754812 0 -0.38088029112643113 0.1825210369279657 0 -0.39286614404695941 0.1920732104686422 0 -0.38422654444444693 0.2008322729754812 0 -0.39380007669083689 0.206464460861051 0 -0.38422654444444693 0.2008322729754812 0 -0.38757279776246373 0.21914350902299659 0 -0.38757279776246373 0.21914350902299659 0 -0.36800338097472479 0.22147713987588341 0 -0.37368745339656201 0.20924711939208951 0 -0.38422654444444693 0.2008322729754812 0 -0.39380007669083689 0.206464460861051 0 -0.38757279776246373 0.21914350902299659 0 -0.38422654444444693 0.2008322729754812 0 -0.38757279776246373 0.21914350902299659 0 -0.37368745339656201 0.20924711939208951 0 -0.39141353052387118 0.2186855059784025 0 -0.39380007669083689 0.206464460861051 0 -0.38757279776246373 0.21914350902299659 0 -0.39141353052387118 0.2186855059784025 0 -0.39380007669083689 0.206464460861051 0 -0.40538393777915788 0.2123952851453417 0 -0.4022878927449296 0.1970928012265635 0 -0.39380007669083689 0.206464460861051 0 -0.40538393777915788 0.2123952851453417 0 -0.40790513800462019 0.22799805468035339 0 -0.39005547097156312 0.23272909589890109 0 -0.40367044579520373 0.24132688110038639 0 -0.39141353052387118 0.2186855059784025 0 -0.40538393777915788 0.2123952851453417 0 -0.39005547097156312 0.23272909589890109 0 -0.40790513800462019 0.22799805468035339 0 -0.40538393777915788 0.2123952851453417 0 -0.39005547097156312 0.23272909589890109 0 -0.40538393777915788 0.2123952851453417 0 -0.39005547097156312 0.23272909589890109 0 -0.38757279776246373 0.21914350902299659 0 -0.39005547097156312 0.23272909589890109 0 -0.38757279776246373 0.21914350902299659 0 -0.36800338097472479 0.22147713987588341 0 -0.39141353052387118 0.2186855059784025 0 -0.38757279776246373 0.21914350902299659 0 -0.39005547097156312 0.23272909589890109 0 -0.38757279776246373 0.21914350902299659 0 -0.37939186114838758 0.22424627805714001 0 -0.36800338097472479 0.22147713987588341 0 -0.38757279776246373 0.21914350902299659 0 -0.37939186114838758 0.22424627805714001 0 -0.39005547097156312 0.23272909589890109 0 -0.39141353052387118 0.2186855059784025 0 -0.38757279776246373 0.21914350902299659 0 -0.37939186114838758 0.22424627805714001 0 -0.37477717689163992 0.25299635056682518 0 -0.39005547097156312 0.23272909589890109 0 -0.39384597734802013 0.25347135609337229 0 -0.37477717689163992 0.25299635056682518 0 -0.37939186114838758 0.22424627805714001 0 -0.39005547097156312 0.23272909589890109 0 -0.37477717689163992 0.25299635056682518 0 -0.39005547097156312 0.23272909589890109 0 -0.37477717689163992 0.25299635056682518 0 -0.40367044579520373 0.24132688110038639 0 -0.41175872593851298 0.2549478601346914 0 -0.39384597734802013 0.25347135609337229 0 -0.39005547097156312 0.23272909589890109 0 -0.39384597734802013 0.25347135609337229 0 -0.39005547097156312 0.23272909589890109 0 -0.40367044579520373 0.24132688110038639 0 -0.39384597734802013 0.25347135609337229 0 -0.41485942150404181 0.14153864215909739 0 -0.41553858058260518 0.15317901213210369 0 -0.42574561826610652 0.14613969243370301 0 -0.41553858058260518 0.15317901213210369 0 -0.42574561826610652 0.14613969243370301 0 -0.42127399236650492 0.15770626544657529 0 -0.41485942150404181 0.14153864215909739 0 -0.41553858058260518 0.15317901213210369 0 -0.4044664398419977 0.15594807455379561 0 -0.40864304721671202 0.1107171055473533 0 -0.41485942150404181 0.14153864215909739 0 -0.43267942878230348 0.12559175737704789 0 -0.41485942150404181 0.14153864215909739 0 -0.43267942878230348 0.12559175737704789 0 -0.42574561826610652 0.14613969243370301 0 -0.43267942878230348 0.12559175737704789 0 -0.43700896048386301 0.14249666109927989 0 -0.42574561826610652 0.14613969243370301 0 -0.41485942150404181 0.14153864215909739 0 -0.43267942878230348 0.12559175737704789 0 -0.42574561826610652 0.14613969243370301 0 -0.43187713239064979 0.1573343508491826 0 -0.42127399236650492 0.15770626544657529 0 -0.43700896048386301 0.14249666109927989 0 -0.42574561826610652 0.14613969243370301 0 -0.43187713239064979 0.1573343508491826 0 -0.43187713239064979 0.1573343508491826 0 -0.42946357341586749 0.17496324995209989 0 -0.4216380035134229 0.16659483191912641 0 -0.44174290600336708 0.16173144065936321 0 -0.43187713239064979 0.1573343508491826 0 -0.42946357341586749 0.17496324995209989 0 -0.43187713239064979 0.1573343508491826 0 -0.42127399236650492 0.15770626544657529 0 -0.4216380035134229 0.16659483191912641 0 -0.44047241453070329 0.18324079402305421 0 -0.44174290600336708 0.16173144065936321 0 -0.42946357341586749 0.17496324995209989 0 -0.44047241453070329 0.18324079402305421 0 -0.42071240458675369 0.1920614743917832 0 -0.42946357341586749 0.17496324995209989 0 -0.42071240458675369 0.1920614743917832 0 -0.42946357341586749 0.17496324995209989 0 -0.41235879422937732 0.17543682721938669 0 -0.42071240458675369 0.1920614743917832 0 -0.41235879422937732 0.17543682721938669 0 -0.40298680868332198 0.18508216307238631 0 -0.42946357341586749 0.17496324995209989 0 -0.41235879422937732 0.17543682721938669 0 -0.4216380035134229 0.16659483191912641 0 -0.41553858058260518 0.15317901213210369 0 -0.42127399236650492 0.15770626544657529 0 -0.41302135350813218 0.1630654313638546 0 -0.42127399236650492 0.15770626544657529 0 -0.4216380035134229 0.16659483191912641 0 -0.41302135350813218 0.1630654313638546 0 -0.41235879422937732 0.17543682721938669 0 -0.4216380035134229 0.16659483191912641 0 -0.41302135350813218 0.1630654313638546 0 -0.41235879422937732 0.17543682721938669 0 -0.41302135350813218 0.1630654313638546 0 -0.40449990094882532 0.16792382984329149 0 -0.41302135350813218 0.1630654313638546 0 -0.40449990094882532 0.16792382984329149 0 -0.4044664398419977 0.15594807455379561 0 -0.41553858058260518 0.15317901213210369 0 -0.41302135350813218 0.1630654313638546 0 -0.4044664398419977 0.15594807455379561 0 -0.3926733654842145 0.1692345557408807 0 -0.4044664398419977 0.15594807455379561 0 -0.40449990094882532 0.16792382984329149 0 -0.3926733654842145 0.1692345557408807 0 -0.40078474618547688 0.17571320347163299 0 -0.40449990094882532 0.16792382984329149 0 -0.3926733654842145 0.1692345557408807 0 -0.4044664398419977 0.15594807455379561 0 -0.3926733654842145 0.1692345557408807 0 -0.39703941422577987 0.15748552694114659 0 -0.4044664398419977 0.15594807455379561 0 -0.40298680868332198 0.18508216307238631 0 -0.40078474618547688 0.17571320347163299 0 -0.39301525059178999 0.18044652774840561 0 -0.41235879422937732 0.17543682721938669 0 -0.40298680868332198 0.18508216307238631 0 -0.40078474618547688 0.17571320347163299 0 -0.41235879422937732 0.17543682721938669 0 -0.40449990094882532 0.16792382984329149 0 -0.40078474618547688 0.17571320347163299 0 -0.3926733654842145 0.1692345557408807 0 -0.40078474618547688 0.17571320347163299 0 -0.39301525059178999 0.18044652774840561 0 -0.39286614404695941 0.1920732104686422 0 -0.40298680868332198 0.18508216307238631 0 -0.39301525059178999 0.18044652774840561 0 -0.39286614404695941 0.1920732104686422 0 -0.39301525059178999 0.18044652774840561 0 -0.38088029112643113 0.1825210369279657 0 -0.3926733654842145 0.1692345557408807 0 -0.38088029112643113 0.1825210369279657 0 -0.3926733654842145 0.1692345557408807 0 -0.39301525059178999 0.18044652774840561 0 -0.38088029112643113 0.1825210369279657 0 -0.3926733654842145 0.1692345557408807 0 -0.37921940694751782 0.17343241172319571 0 -0.38088029112643113 0.1825210369279657 0 -0.37921940694751782 0.17343241172319571 0 -0.38088029112643113 0.1825210369279657 0 -0.37921940694751782 0.17343241172319571 0 -0.38088029112643113 0.1825210369279657 0 -0.37283571032282492 0.1791450959532255 0 -0.3784015845151173 0.16895715591276281 0 -0.37283571032282492 0.1791450959532255 0 -0.37921940694751782 0.17343241172319571 0 -0.3784015845151173 0.16895715591276281 0 -0.37283571032282492 0.1791450959532255 0 -0.37921940694751782 0.17343241172319571 0 -0.37283571032282492 0.1791450959532255 0 -0.39703941422577987 0.15748552694114659 0 -0.37921940694751782 0.17343241172319571 0 -0.38193020105096481 0.16249827228531991 0 -0.3784015845151173 0.16895715591276281 0 -0.38193020105096481 0.16249827228531991 0 -0.37372345991800282 0.14335770613522919 0 -0.39703941422577987 0.15748552694114659 0 -0.37921940694751782 0.17343241172319571 0 -0.3926733654842145 0.1692345557408807 0 -0.39703941422577987 0.15748552694114659 0 -0.37921940694751782 0.17343241172319571 0 -0.39703941422577987 0.15748552694114659 0 -0.38193020105096481 0.16249827228531991 0 -0.38598126975628672 0.1494316781992327 0 -0.37921940694751782 0.17343241172319571 0 -0.3784015845151173 0.16895715591276281 0 -0.38193020105096481 0.16249827228531991 0 -0.3784015845151173 0.16895715591276281 0 -0.38193020105096481 0.16249827228531991 0 -0.37921940694751782 0.17343241172319571 0 -0.3784015845151173 0.16895715591276281 0 -0.38598126975628672 0.1494316781992327 0 -0.39401402549175851 0.1361747599337243 0 -0.37372345991800282 0.14335770613522919 0 -0.38193020105096481 0.16249827228531991 0 -0.38598126975628672 0.1494316781992327 0 -0.37372345991800282 0.14335770613522919 0 -0.3784015845151173 0.16895715591276281 0 -0.37372345991800282 0.14335770613522919 0 -0.39703941422577987 0.15748552694114659 0 -0.38598126975628672 0.1494316781992327 0 -0.39401402549175851 0.1361747599337243 0 -0.41485942150404181 0.14153864215909739 0 -0.39703941422577987 0.15748552694114659 0 -0.39401402549175851 0.1361747599337243 0 -0.41485942150404181 0.14153864215909739 0 -0.39703941422577987 0.15748552694114659 0 -0.4044664398419977 0.15594807455379561 0 -0.41485942150404181 0.14153864215909739 0 -0.39703941422577987 0.15748552694114659 0 -0.40864304721671202 0.1107171055473533 0 -0.41485942150404181 0.14153864215909739 0 -0.39401402549175851 0.1361747599337243 0 -0.38750957741872682 0.11885909540365321 0 -0.37372345991800282 0.14335770613522919 0 -0.36904533532088801 0.1177582563576956 0 -0.38750957741872682 0.11885909540365321 0 -0.39401402549175851 0.1361747599337243 0 -0.37372345991800282 0.14335770613522919 0 -0.35823941519022368 0.13573745574644491 0 -0.37372345991800282 0.14335770613522919 0 -0.36904533532088801 0.1177582563576956 0 -0.37372345991800282 0.14335770613522919 0 -0.36904533532088801 0.1177582563576956 0 -0.35823941519022368 0.13573745574644491 0 -0.34455851703438989 0.13305210298766909 0 -0.35158166360451942 0.11704707172714621 0 -0.35823941519022368 0.13573745574644491 0 -0.34455851703438989 0.13305210298766909 0 -0.34873147585397152 0.15030858297792049 0 -0.35823941519022368 0.13573745574644491 0 -0.34873147585397152 0.15030858297792049 0 -0.36179603940957061 0.15290101429300901 0 -0.34873147585397152 0.15030858297792049 0 -0.34720568730415252 0.1616956217090188 0 -0.33647431770126862 0.14798842126345041 0 -0.34873147585397152 0.15030858297792049 0 -0.36179603940957061 0.15290101429300901 0 -0.35552330674067661 0.16014073544654131 0 -0.35823941519022368 0.13573745574644491 0 -0.36179603940957061 0.15290101429300901 0 -0.37372345991800282 0.14335770613522919 0 -0.3784015845151173 0.16895715591276281 0 -0.36179603940957061 0.15290101429300901 0 -0.37372345991800282 0.14335770613522919 0 -0.3784015845151173 0.16895715591276281 0 -0.36179603940957061 0.15290101429300901 0 -0.3628088848288224 0.16705289795690309 0 -0.3784015845151173 0.16895715591276281 0 -0.3628088848288224 0.16705289795690309 0 -0.36959790597703868 0.17377317275203899 0 -0.36179603940957061 0.15290101429300901 0 -0.3628088848288224 0.16705289795690309 0 -0.35552330674067661 0.16014073544654131 0 -0.38088029112643113 0.1825210369279657 0 -0.37283571032282492 0.1791450959532255 0 -0.36802074197771562 0.19700904511440151 0 -0.37283571032282492 0.1791450959532255 0 -0.36399845157591232 0.19532107462703119 0 -0.37283571032282492 0.1791450959532255 0 -0.36261880381503758 0.18828806813974089 0 -0.3784015845151173 0.16895715591276281 0 -0.36959790597703868 0.17377317275203899 0 -0.37283571032282492 0.1791450959532255 0 -0.36959790597703868 0.17377317275203899 0 -0.37283571032282492 0.1791450959532255 0 -0.36409588864576692 0.17933358541092431 0 -0.3628088848288224 0.16705289795690309 0 -0.36959790597703868 0.17377317275203899 0 -0.36409588864576692 0.17933358541092431 0 -0.3628088848288224 0.16705289795690309 0 -0.36409588864576692 0.17933358541092431 0 -0.35614161380151321 0.17761165346375071 0 -0.36409588864576692 0.17933358541092431 0 -0.35797279878738592 0.18411861580098379 0 -0.35614161380151321 0.17761165346375071 0 -0.36409588864576692 0.17933358541092431 0 -0.35797279878738592 0.18411861580098379 0 -0.36261880381503758 0.18828806813974089 0 -0.37283571032282492 0.1791450959532255 0 -0.36409588864576692 0.17933358541092431 0 -0.36261880381503758 0.18828806813974089 0 -0.35797279878738592 0.18411861580098379 0 -0.35614161380151321 0.17761165346375071 0 -0.35065229879255438 0.18593262723135329 0 -0.35797279878738592 0.18411861580098379 0 -0.35065229879255438 0.18593262723135329 0 -0.35645772166264922 0.19211102842263869 0 -0.35614161380151321 0.17761165346375071 0 -0.34811061985946878 0.17434540014992381 0 -0.35436851446084039 0.1683048517912053 0 -0.35614161380151321 0.17761165346375071 0 -0.34811061985946878 0.17434540014992381 0 -0.35065229879255438 0.18593262723135329 0 -0.35065229879255438 0.18593262723135329 0 -0.34227569468909552 0.1811403169530669 0 -0.33993633525554889 0.19055096072852831 0 -0.34811061985946878 0.17434540014992381 0 -0.35065229879255438 0.18593262723135329 0 -0.34227569468909552 0.1811403169530669 0 -0.35552330674067661 0.16014073544654131 0 -0.35436851446084039 0.1683048517912053 0 -0.34720568730415252 0.1616956217090188 0 -0.3628088848288224 0.16705289795690309 0 -0.35614161380151321 0.17761165346375071 0 -0.35436851446084039 0.1683048517912053 0 -0.3628088848288224 0.16705289795690309 0 -0.35552330674067661 0.16014073544654131 0 -0.35436851446084039 0.1683048517912053 0 -0.34811061985946878 0.17434540014992381 0 -0.34720568730415252 0.1616956217090188 0 -0.33801991010865667 0.17138732975114751 0 -0.34811061985946878 0.17434540014992381 0 -0.35436851446084039 0.1683048517912053 0 -0.34720568730415252 0.1616956217090188 0 -0.34873147585397152 0.15030858297792049 0 -0.35552330674067661 0.16014073544654131 0 -0.34720568730415252 0.1616956217090188 0 -0.34720568730415252 0.1616956217090188 0 -0.33801991010865667 0.17138732975114751 0 -0.33092539158612982 0.1609515407851054 0 -0.34720568730415252 0.1616956217090188 0 -0.33092539158612982 0.1609515407851054 0 -0.33647431770126862 0.14798842126345041 0 -0.33801991010865667 0.17138732975114751 0 -0.33092539158612982 0.1609515407851054 0 -0.3265778886375873 0.17202186172735501 0 -0.34227569468909552 0.1811403169530669 0 -0.33183788287013261 0.1831818366374682 0 -0.33993633525554889 0.19055096072852831 0 -0.34811061985946878 0.17434540014992381 0 -0.33801991010865667 0.17138732975114751 0 -0.34227569468909552 0.1811403169530669 0 -0.33801991010865667 0.17138732975114751 0 -0.34227569468909552 0.1811403169530669 0 -0.33183788287013261 0.1831818366374682 0 -0.33801991010865667 0.17138732975114751 0 -0.33183788287013261 0.1831818366374682 0 -0.3265778886375873 0.17202186172735501 0 -0.3265778886375873 0.17202186172735501 0 -0.31632076704925127 0.18575639557221951 0 -0.3167678101826048 0.16359462978275929 0 -0.33183788287013261 0.1831818366374682 0 -0.3265778886375873 0.17202186172735501 0 -0.31632076704925127 0.18575639557221951 0 -0.33092539158612982 0.1609515407851054 0 -0.3167678101826048 0.16359462978275929 0 -0.32050673558250908 0.1490213804769015 0 -0.33092539158612982 0.1609515407851054 0 -0.3265778886375873 0.17202186172735501 0 -0.3167678101826048 0.16359462978275929 0 -0.32050673558250908 0.1490213804769015 0 -0.30739524272803709 0.15185112365938391 0 -0.31211500736378339 0.1240031522641292 0 -0.3167678101826048 0.16359462978275929 0 -0.32050673558250908 0.1490213804769015 0 -0.30739524272803709 0.15185112365938391 0 -0.32050673558250908 0.1490213804769015 0 -0.30739524272803709 0.15185112365938391 0 -0.32919359534549508 0.13424827028365749 0 -0.31211500736378339 0.1240031522641292 0 -0.33231339904552459 0.1171762944261375 0 -0.32050673558250908 0.1490213804769015 0 -0.32919359534549508 0.13424827028365749 0 -0.31211500736378339 0.1240031522641292 0 -0.34455851703438989 0.13305210298766909 0 -0.32919359534549508 0.13424827028365749 0 -0.33231339904552459 0.1171762944261375 0 -0.34455851703438989 0.13305210298766909 0 -0.32919359534549508 0.13424827028365749 0 -0.33647431770126862 0.14798842126345041 0 -0.32050673558250908 0.1490213804769015 0 -0.32919359534549508 0.13424827028365749 0 -0.33647431770126862 0.14798842126345041 0 -0.33092539158612982 0.1609515407851054 0 -0.32050673558250908 0.1490213804769015 0 -0.33647431770126862 0.14798842126345041 0 -0.34455851703438989 0.13305210298766909 0 -0.34873147585397152 0.15030858297792049 0 -0.33647431770126862 0.14798842126345041 0 -0.35416421148584648 0.23888623464626721 0 -0.34843396418698602 0.22381077072877051 0 -0.33845336435013867 0.242079554605789 0 -0.35416421148584648 0.23888623464626721 0 -0.33845336435013867 0.242079554605789 0 -0.35464358931248319 0.25491115920099722 0 -0.37939186114838758 0.22424627805714001 0 -0.37013679196984273 0.23750613219799629 0 -0.37477717689163992 0.25299635056682518 0 -0.37013679196984273 0.23750613219799629 0 -0.35464358931248319 0.25491115920099722 0 -0.37477717689163992 0.25299635056682518 0 -0.35416421148584648 0.23888623464626721 0 -0.37013679196984273 0.23750613219799629 0 -0.35464358931248319 0.25491115920099722 0 -0.35416421148584648 0.23888623464626721 0 -0.37013679196984273 0.23750613219799629 0 -0.36148561266771267 0.2305011068434443 0 -0.36148561266771267 0.2305011068434443 0 -0.36975441169016687 0.228432664243616 0 -0.36800338097472479 0.22147713987588341 0 -0.37013679196984273 0.23750613219799629 0 -0.36148561266771267 0.2305011068434443 0 -0.36975441169016687 0.228432664243616 0 -0.37939186114838758 0.22424627805714001 0 -0.37013679196984273 0.23750613219799629 0 -0.36975441169016687 0.228432664243616 0 -0.37939186114838758 0.22424627805714001 0 -0.36975441169016687 0.228432664243616 0 -0.36800338097472479 0.22147713987588341 0 -0.36800338097472479 0.22147713987588341 0 -0.34843396418698602 0.22381077072877051 0 -0.35516119282899983 0.21149705330083701 0 -0.36148561266771267 0.2305011068434443 0 -0.36800338097472479 0.22147713987588341 0 -0.34843396418698602 0.22381077072877051 0 -0.36800338097472479 0.22147713987588341 0 -0.34843396418698602 0.22381077072877051 0 -0.35416421148584648 0.23888623464626721 0 -0.36148561266771267 0.2305011068434443 0 -0.34843396418698602 0.22381077072877051 0 -0.34843396418698602 0.22381077072877051 0 -0.34802604401402371 0.21953575615482759 0 -0.33982416592956399 0.21665757569738961 0 -0.34802604401402371 0.21953575615482759 0 -0.34581283434165899 0.20861347152532789 0 -0.33982416592956399 0.21665757569738961 0 -0.34802604401402371 0.21953575615482759 0 -0.34581283434165899 0.20861347152532789 0 -0.35516119282899983 0.21149705330083701 0 -0.34843396418698602 0.22381077072877051 0 -0.34802604401402371 0.21953575615482759 0 -0.35516119282899983 0.21149705330083701 0 -0.34581283434165899 0.20861347152532789 0 -0.35516119282899983 0.21149705330083701 0 -0.35389383475621161 0.20092716755479181 0 -0.34802604401402371 0.21953575615482759 0 -0.35516119282899983 0.21149705330083701 0 -0.34843396418698602 0.22381077072877051 0 -0.35516119282899983 0.21149705330083701 0 -0.36800338097472479 0.22147713987588341 0 -0.35516119282899983 0.21149705330083701 0 -0.37368745339656201 0.20924711939208951 0 -0.35516119282899983 0.21149705330083701 0 -0.37368745339656201 0.20924711939208951 0 -0.36802074197771562 0.19700904511440151 0 -0.35516119282899983 0.21149705330083701 0 -0.36399845157591232 0.19532107462703119 0 -0.35516119282899983 0.21149705330083701 0 -0.36802074197771562 0.19700904511440151 0 -0.37283571032282492 0.1791450959532255 0 -0.36399845157591232 0.19532107462703119 0 -0.36261880381503758 0.18828806813974089 0 -0.37283571032282492 0.1791450959532255 0 -0.36399845157591232 0.19532107462703119 0 -0.36802074197771562 0.19700904511440151 0 -0.35516119282899983 0.21149705330083701 0 -0.36399845157591232 0.19532107462703119 0 -0.36802074197771562 0.19700904511440151 0 -0.38088029112643113 0.1825210369279657 0 -0.36802074197771562 0.19700904511440151 0 -0.36399845157591232 0.19532107462703119 0 -0.36261880381503758 0.18828806813974089 0 -0.35645772166264922 0.19211102842263869 0 -0.35797279878738592 0.18411861580098379 0 -0.36261880381503758 0.18828806813974089 0 -0.35645772166264922 0.19211102842263869 0 -0.35065229879255438 0.18593262723135329 0 -0.35645772166264922 0.19211102842263869 0 -0.34803897337183792 0.19709320989812409 0 -0.35516119282899983 0.21149705330083701 0 -0.36399845157591232 0.19532107462703119 0 -0.35389383475621161 0.20092716755479181 0 -0.35645772166264922 0.19211102842263869 0 -0.35389383475621161 0.20092716755479181 0 -0.34803897337183792 0.19709320989812409 0 -0.36399845157591232 0.19532107462703119 0 -0.35645772166264922 0.19211102842263869 0 -0.35389383475621161 0.20092716755479181 0 -0.34581283434165899 0.20861347152532789 0 -0.35389383475621161 0.20092716755479181 0 -0.34803897337183792 0.19709320989812409 0 -0.34581283434165899 0.20861347152532789 0 -0.34803897337183792 0.19709320989812409 0 -0.33933674095816863 0.19971543786353729 0 -0.35065229879255438 0.18593262723135329 0 -0.34803897337183792 0.19709320989812409 0 -0.33993633525554889 0.19055096072852831 0 -0.33993633525554889 0.19055096072852831 0 -0.33933674095816863 0.19971543786353729 0 -0.33069942903629101 0.19625725860753851 0 -0.34803897337183792 0.19709320989812409 0 -0.33993633525554889 0.19055096072852831 0 -0.33933674095816863 0.19971543786353729 0 -0.33933674095816863 0.19971543786353729 0 -0.33069942903629101 0.19625725860753851 0 -0.33422481296465362 0.2080963853910347 0 -0.33183788287013261 0.1831818366374682 0 -0.33993633525554889 0.19055096072852831 0 -0.33069942903629101 0.19625725860753851 0 -0.31632076704925127 0.18575639557221951 0 -0.33069942903629101 0.19625725860753851 0 -0.32036655352850157 0.2095523693350691 0 -0.33183788287013261 0.1831818366374682 0 -0.31632076704925127 0.18575639557221951 0 -0.33069942903629101 0.19625725860753851 0 -0.32036655352850157 0.2095523693350691 0 -0.32458589997660492 0.2266546254550818 0 -0.30779163400160159 0.21927945841494459 0 -0.32036655352850157 0.2095523693350691 0 -0.32934906837639222 0.21536895119528529 0 -0.32458589997660492 0.2266546254550818 0 -0.32036655352850157 0.2095523693350691 0 -0.32934906837639222 0.21536895119528529 0 -0.33422481296465362 0.2080963853910347 0 -0.32934906837639222 0.21536895119528529 0 -0.33422481296465362 0.2080963853910347 0 -0.33982416592956399 0.21665757569738961 0 -0.33069942903629101 0.19625725860753851 0 -0.32036655352850157 0.2095523693350691 0 -0.33422481296465362 0.2080963853910347 0 -0.34581283434165899 0.20861347152532789 0 -0.33933674095816863 0.19971543786353729 0 -0.33422481296465362 0.2080963853910347 0 -0.34581283434165899 0.20861347152532789 0 -0.33422481296465362 0.2080963853910347 0 -0.33982416592956399 0.21665757569738961 0 -0.34843396418698602 0.22381077072877051 0 -0.33982416592956399 0.21665757569738961 0 -0.32458589997660492 0.2266546254550818 0 -0.34843396418698602 0.22381077072877051 0 -0.32458589997660492 0.2266546254550818 0 -0.34843396418698602 0.22381077072877051 0 -0.32458589997660492 0.2266546254550818 0 -0.33845336435013867 0.242079554605789 0 -0.34843396418698602 0.22381077072877051 0 -0.33845336435013867 0.242079554605789 0 -0.32934906837639222 0.21536895119528529 0 -0.33982416592956399 0.21665757569738961 0 -0.32458589997660492 0.2266546254550818 0 -0.32458589997660492 0.2266546254550818 0 -0.30073783576622393 0.22949848018139329 0 -0.32458589997660492 0.2266546254550818 0 -0.32455092720978362 0.24357057421839101 0 -0.31122576982003303 0.23714335435801151 0 -0.32455092720978362 0.24357057421839101 0 -0.311575650220281 0.24878047680599949 0 -0.31122576982003303 0.23714335435801151 0 -0.32458589997660492 0.2266546254550818 0 -0.32455092720978362 0.24357057421839101 0 -0.33845336435013867 0.242079554605789 0 -0.32455092720978362 0.24357057421839101 0 -0.33845336435013867 0.242079554605789 0 -0.32847276451329022 0.26034833848280681 0 -0.29310990672191722 0.23613872254877591 0 -0.29467853592727078 0.23721261512919359 0 -0.28985028671148488 0.25537141990030859 0 -0.29310990672191722 0.23613872254877591 0 -0.27131573767068418 0.22826101281380451 0 -0.28058301219108422 0.24181621635705669 0 -0.29310990672191722 0.23613872254877591 0 -0.28985028671148488 0.25537141990030859 0 -0.29310990672191722 0.23613872254877591 0 -0.28058301219108422 0.24181621635705669 0 -0.28985028671148488 0.25537141990030859 0 -0.28058301219108422 0.24181621635705669 0 -0.28985028671148488 0.25537141990030859 0 -0.29310990672191722 0.23613872254877591 0 -0.29467853592727078 0.23721261512919359 0 -0.29467853592727078 0.23721261512919359 0 -0.31122576982003303 0.23714335435801151 0 -0.30073783576622393 0.22949848018139329 0 -0.29467853592727078 0.23721261512919359 0 -0.311575650220281 0.24878047680599949 0 -0.31122576982003303 0.23714335435801151 0 -0.29467853592727078 0.23721261512919359 0 -0.311575650220281 0.24878047680599949 0 -0.29467853592727078 0.23721261512919359 0 -0.311575650220281 0.24878047680599949 0 -0.29523766041035199 0.26325150879709891 0 -0.32458589997660492 0.2266546254550818 0 -0.30073783576622393 0.22949848018139329 0 -0.30779163400160159 0.21927945841494459 0 -0.32458589997660492 0.2266546254550818 0 -0.31122576982003303 0.23714335435801151 0 -0.30073783576622393 0.22949848018139329 0 -0.30073783576622393 0.22949848018139329 0 -0.30779163400160159 0.21927945841494459 0 -0.29448167989639912 0.22804486553003031 0 -0.29310990672191722 0.23613872254877591 0 -0.29448167989639912 0.22804486553003031 0 -0.27369133376421262 0.22284465576077489 0 -0.29448167989639912 0.22804486553003031 0 -0.2838712618875629 0.21479465795795599 0 -0.27369133376421262 0.22284465576077489 0 -0.29448167989639912 0.22804486553003031 0 -0.29413635243235581 0.21196267741475219 0 -0.29310990672191722 0.23613872254877591 0 -0.27369133376421262 0.22284465576077489 0 -0.29467853592727078 0.23721261512919359 0 -0.30073783576622393 0.22949848018139329 0 -0.29448167989639912 0.22804486553003031 0 -0.29310990672191722 0.23613872254877591 0 -0.29467853592727078 0.23721261512919359 0 -0.29448167989639912 0.22804486553003031 0 -0.29467853592727078 0.23721261512919359 0 -0.29448167989639912 0.22804486553003031 0 -0.29310990672191722 0.23613872254877591 0 -0.29448167989639912 0.22804486553003031 0 -0.29413635243235581 0.21196267741475219 0 -0.29878620084027852 0.20264695157314819 0 -0.29379102496831272 0.19588048929947419 0 -0.29448167989639912 0.22804486553003031 0 -0.29413635243235581 0.21196267741475219 0 -0.29878620084027852 0.20264695157314819 0 -0.29448167989639912 0.22804486553003031 0 -0.29878620084027852 0.20264695157314819 0 -0.29413635243235581 0.21196267741475219 0 -0.29379102496831272 0.19588048929947419 0 -0.28522308967114912 0.20452327137286261 0 -0.29413635243235581 0.21196267741475219 0 -0.29379102496831272 0.19588048929947419 0 -0.29448167989639912 0.22804486553003031 0 -0.2838712618875629 0.21479465795795599 0 -0.29413635243235581 0.21196267741475219 0 -0.2838712618875629 0.21479465795795599 0 -0.28522308967114912 0.20452327137286261 0 -0.29413635243235581 0.21196267741475219 0 -0.32036655352850157 0.2095523693350691 0 -0.30779163400160159 0.21927945841494459 0 -0.29878620084027852 0.20264695157314819 0 -0.30779163400160159 0.21927945841494459 0 -0.29448167989639912 0.22804486553003031 0 -0.29878620084027852 0.20264695157314819 0 -0.29878620084027852 0.20264695157314819 0 -0.29379102496831272 0.19588048929947419 0 -0.30309072178415769 0.17724903761626601 0 -0.31632076704925127 0.18575639557221951 0 -0.29878620084027852 0.20264695157314819 0 -0.30309072178415769 0.17724903761626601 0 -0.31632076704925127 0.18575639557221951 0 -0.32036655352850157 0.2095523693350691 0 -0.29878620084027852 0.20264695157314819 0 -0.29878620084027852 0.20264695157314819 0 -0.30309072178415769 0.17724903761626601 0 -0.28522308967114912 0.20452327137286261 0 -0.29379102496831272 0.19588048929947419 0 -0.28124953787461371 0.1935735916895788 0 -0.29379102496831272 0.19588048929947419 0 -0.28124953787461371 0.1935735916895788 0 -0.28752446549241689 0.1832489647230989 0 -0.28124953787461371 0.1935735916895788 0 -0.2659766044530758 0.19238405035351089 0 -0.27494974420821611 0.1793112011395637 0 -0.28522308967114912 0.20452327137286261 0 -0.28124953787461371 0.1935735916895788 0 -0.27431068871210279 0.20621206129374381 0 -0.28124953787461371 0.1935735916895788 0 -0.2659766044530758 0.19238405035351089 0 -0.27431068871210279 0.20621206129374381 0 -0.25427276080650663 0.20955058897277601 0 -0.24947341468037071 0.1874691479585941 0 -0.2659766044530758 0.19238405035351089 0 -0.25427276080650663 0.20955058897277601 0 -0.24947341468037071 0.1874691479585941 0 -0.2659766044530758 0.19238405035351089 0 -0.25427276080650663 0.20955058897277601 0 -0.27431068871210279 0.20621206129374381 0 -0.25427276080650663 0.20955058897277601 0 -0.27369133376421262 0.22284465576077489 0 -0.25427276080650663 0.20955058897277601 0 -0.25977281016601761 0.2185578892770178 0 -0.27369133376421262 0.22284465576077489 0 -0.25427276080650663 0.20955058897277601 0 -0.25561524088587501 0.21572724177218369 0 -0.25977281016601761 0.2185578892770178 0 -0.25427276080650663 0.20955058897277601 0 -0.25561524088587501 0.21572724177218369 0 -0.24333230173327219 0.21221501244476959 0 -0.25427276080650663 0.20955058897277601 0 -0.25561524088587501 0.21572724177218369 0 -0.25427276080650663 0.20955058897277601 0 -0.27431068871210279 0.20621206129374381 0 -0.27369133376421262 0.22284465576077489 0 -0.2838712618875629 0.21479465795795599 0 -0.27431068871210279 0.20621206129374381 0 -0.27369133376421262 0.22284465576077489 0 -0.2838712618875629 0.21479465795795599 0 -0.28522308967114912 0.20452327137286261 0 -0.27431068871210279 0.20621206129374381 0 -0.29310990672191722 0.23613872254877591 0 -0.27369133376421262 0.22284465576077489 0 -0.27131573767068418 0.22826101281380451 0 -0.27131573767068418 0.22826101281380451 0 -0.26439065681250729 0.2289784260688752 0 -0.26819560602517328 0.23507842756581021 0 -0.27131573767068418 0.22826101281380451 0 -0.26675876456119929 0.22568570462696191 0 -0.26439065681250729 0.2289784260688752 0 -0.27369133376421262 0.22284465576077489 0 -0.26675876456119929 0.22568570462696191 0 -0.26371349664181459 0.22286429712754721 0 -0.25977281016601761 0.2185578892770178 0 -0.27369133376421262 0.22284465576077489 0 -0.26371349664181459 0.22286429712754721 0 -0.27369133376421262 0.22284465576077489 0 -0.27131573767068418 0.22826101281380451 0 -0.26675876456119929 0.22568570462696191 0 -0.26675876456119929 0.22568570462696191 0 -0.26371349664181459 0.22286429712754721 0 -0.26068259791677789 0.22548013136380779 0 -0.26068259791677789 0.22548013136380779 0 -0.25678634991227811 0.22260498734460241 0 -0.2574101570832959 0.22971939663687391 0 -0.26371349664181459 0.22286429712754721 0 -0.26068259791677789 0.22548013136380779 0 -0.25678634991227811 0.22260498734460241 0 -0.25977281016601761 0.2185578892770178 0 -0.26371349664181459 0.22286429712754721 0 -0.25678634991227811 0.22260498734460241 0 -0.25561524088587501 0.21572724177218369 0 -0.25977281016601761 0.2185578892770178 0 -0.25678634991227811 0.22260498734460241 0 -0.25678634991227811 0.22260498734460241 0 -0.249817319625419 0.2274340479663062 0 -0.24904636230289101 0.22050689045355901 0 -0.25561524088587501 0.21572724177218369 0 -0.25678634991227811 0.22260498734460241 0 -0.24904636230289101 0.22050689045355901 0 -0.25109603964961891 0.234366577265785 0 -0.2574101570832959 0.22971939663687391 0 -0.249817319625419 0.2274340479663062 0 -0.25678634991227811 0.22260498734460241 0 -0.2574101570832959 0.22971939663687391 0 -0.249817319625419 0.2274340479663062 0 -0.2574101570832959 0.22971939663687391 0 -0.26439065681250729 0.2289784260688752 0 -0.26193406046231932 0.2344272911270443 0 -0.26068259791677789 0.22548013136380779 0 -0.2574101570832959 0.22971939663687391 0 -0.26439065681250729 0.2289784260688752 0 -0.26675876456119929 0.22568570462696191 0 -0.26068259791677789 0.22548013136380779 0 -0.26439065681250729 0.2289784260688752 0 -0.26439065681250729 0.2289784260688752 0 -0.26193406046231932 0.2344272911270443 0 -0.26819560602517328 0.23507842756581021 0 -0.26193406046231932 0.2344272911270443 0 -0.26614348890836192 0.24293385421211869 0 -0.26819560602517328 0.23507842756581021 0 -0.2574101570832959 0.22971939663687391 0 -0.26193406046231932 0.2344272911270443 0 -0.25699538715464082 0.23905233796863981 0 -0.26193406046231932 0.2344272911270443 0 -0.25699538715464082 0.23905233796863981 0 -0.26614348890836192 0.24293385421211869 0 -0.25109603964961891 0.234366577265785 0 -0.25699538715464082 0.23905233796863981 0 -0.2470081454867771 0.2422065880623451 0 -0.25109603964961891 0.234366577265785 0 -0.2574101570832959 0.22971939663687391 0 -0.25699538715464082 0.23905233796863981 0 -0.25699538715464082 0.23905233796863981 0 -0.25693865295534157 0.25278860643768353 0 -0.2470081454867771 0.2422065880623451 0 -0.25699538715464082 0.23905233796863981 0 -0.26614348890836192 0.24293385421211869 0 -0.25693865295534157 0.25278860643768353 0 -0.26614348890836192 0.24293385421211869 0 -0.2724296921133022 0.25217156250687062 0 -0.25693865295534157 0.25278860643768353 0 -0.26614348890836192 0.24293385421211869 0 -0.28058301219108422 0.24181621635705669 0 -0.2724296921133022 0.25217156250687062 0 -0.28058301219108422 0.24181621635705669 0 -0.28985028671148488 0.25537141990030859 0 -0.2724296921133022 0.25217156250687062 0 -0.26614348890836192 0.24293385421211869 0 -0.26819560602517328 0.23507842756581021 0 -0.28058301219108422 0.24181621635705669 0 -0.27131573767068418 0.22826101281380451 0 -0.26819560602517328 0.23507842756581021 0 -0.28058301219108422 0.24181621635705669 0 -0.27131573767068418 0.22826101281380451 0 -0.28058301219108422 0.24181621635705669 0 -0.29326612220823411 0.13512644163735801 0 -0.28648818467010168 0.15636331808772699 0 -0.27141175194646833 0.1445184244171912 0 -0.29326612220823411 0.13512644163735801 0 -0.30739524272803709 0.15185112365938391 0 -0.28648818467010168 0.15636331808772699 0 -0.30739524272803709 0.15185112365938391 0 -0.31211500736378339 0.1240031522641292 0 -0.29326612220823411 0.13512644163735801 0 -0.30739524272803709 0.15185112365938391 0 -0.31211500736378339 0.1240031522641292 0 -0.30739524272803709 0.15185112365938391 0 -0.28648818467010168 0.15636331808772699 0 -0.30739524272803709 0.15185112365938391 0 -0.30309072178415769 0.17724903761626601 0 -0.3167678101826048 0.16359462978275929 0 -0.30739524272803709 0.15185112365938391 0 -0.30309072178415769 0.17724903761626601 0 -0.30739524272803709 0.15185112365938391 0 -0.30309072178415769 0.17724903761626601 0 -0.28648818467010168 0.15636331808772699 0 -0.31632076704925127 0.18575639557221951 0 -0.3167678101826048 0.16359462978275929 0 -0.30309072178415769 0.17724903761626601 0 -0.30309072178415769 0.17724903761626601 0 -0.28752446549241689 0.1832489647230989 0 -0.28381669143151822 0.17107272026056419 0 -0.29379102496831272 0.19588048929947419 0 -0.30309072178415769 0.17724903761626601 0 -0.28752446549241689 0.1832489647230989 0 -0.28752446549241689 0.1832489647230989 0 -0.28381669143151822 0.17107272026056419 0 -0.27494974420821611 0.1793112011395637 0 -0.30309072178415769 0.17724903761626601 0 -0.28648818467010168 0.15636331808772699 0 -0.28381669143151822 0.17107272026056419 0 -0.28648818467010168 0.15636331808772699 0 -0.28381669143151822 0.17107272026056419 0 -0.26558112661216632 0.16087551251606999 0 -0.28381669143151822 0.17107272026056419 0 -0.27494974420821611 0.1793112011395637 0 -0.26558112661216632 0.16087551251606999 0 -0.28648818467010168 0.15636331808772699 0 -0.26558112661216632 0.16087551251606999 0 -0.27494974420821611 0.1793112011395637 0 -0.26084394980388648 0.17618123618614701 0 -0.26558112661216632 0.16087551251606999 0 -0.2659766044530758 0.19238405035351089 0 -0.27494974420821611 0.1793112011395637 0 -0.26084394980388648 0.17618123618614701 0 -0.28124953787461371 0.1935735916895788 0 -0.28752446549241689 0.1832489647230989 0 -0.27494974420821611 0.1793112011395637 0 -0.2659766044530758 0.19238405035351089 0 -0.26084394980388648 0.17618123618614701 0 -0.24947341468037071 0.1874691479585941 0 -0.26084394980388648 0.17618123618614701 0 -0.24467406855423091 0.1653877069444131 0 -0.24947341468037071 0.1874691479585941 0 -0.26558112661216632 0.16087551251606999 0 -0.24467406855423091 0.1653877069444131 0 -0.26558112661216632 0.16087551251606999 0 -0.2543915534089356 0.15018751405662761 0 -0.24467406855423091 0.1653877069444131 0 -0.26084394980388648 0.17618123618614701 0 -0.26558112661216632 0.16087551251606999 0 -0.24467406855423091 0.1653877069444131 0 -0.26558112661216632 0.16087551251606999 0 -0.2543915534089356 0.15018751405662761 0 -0.27141175194646833 0.1445184244171912 0 -0.2543915534089356 0.15018751405662761 0 -0.27141175194646833 0.1445184244171912 0 -0.25477231595188199 0.13792181725732239 0 -0.28648818467010168 0.15636331808772699 0 -0.26558112661216632 0.16087551251606999 0 -0.27141175194646833 0.1445184244171912 0 -0.29326612220823411 0.13512644163735801 0 -0.27141175194646833 0.1445184244171912 0 -0.27545980130109921 0.1239996051278405 0 -0.27141175194646833 0.1445184244171912 0 -0.25477231595188199 0.13792181725732239 0 -0.27545980130109921 0.1239996051278405 0 -0.25477231595188199 0.13792181725732239 0 -0.27545980130109921 0.1239996051278405 0 -0.25477231595188199 0.13792181725732239 0 -0.27545980130109921 0.1239996051278405 0 -0.2495823492922267 0.12121763785839371 0 -0.25610310449345419 0.1041046972302731 0 -0.27545980130109921 0.1239996051278405 0 -0.2495823492922267 0.12121763785839371 0 -0.25610310449345419 0.1041046972302731 0 -0.25413031243694739 0.089521027236778197 0 -0.2427234934652894 0.090762762990284518 0 -0.25610310449345419 0.1041046972302731 0 -0.26471001572300679 0.091779207982481292 0 -0.25413031243694739 0.089521027236778197 0 -0.25610310449345419 0.1041046972302731 0 -0.27632390472144541 0.10600366135062909 0 -0.26471001572300679 0.091779207982481292 0 -0.27632390472144541 0.10600366135062909 0 -0.27815219556391091 0.091433986845849968 0 -0.26471001572300679 0.091779207982481292 0 -0.27632390472144541 0.10600366135062909 0 -0.28783094919658059 0.096999283795453681 0 -0.27815219556391091 0.091433986845849968 0 -0.25610310449345419 0.1041046972302731 0 -0.27632390472144541 0.10600366135062909 0 -0.27545980130109921 0.1239996051278405 0 -0.27545980130109921 0.1239996051278405 0 -0.29614728665031642 0.1100773929983587 0 -0.29326612220823411 0.13512644163735801 0 -0.27545980130109921 0.1239996051278405 0 -0.29614728665031642 0.1100773929983587 0 -0.27632390472144541 0.10600366135062909 0 -0.27545980130109921 0.1239996051278405 0 -0.29614728665031642 0.1100773929983587 0 -0.27632390472144541 0.10600366135062909 0 -0.29614728665031642 0.1100773929983587 0 -0.28783094919658059 0.096999283795453681 0 -0.29614728665031642 0.1100773929983587 0 -0.28783094919658059 0.096999283795453681 0 -0.29903425758953422 0.090155638130954882 0 -0.29614728665031642 0.1100773929983587 0 -0.29903425758953422 0.090155638130954882 0 -0.31683477199953253 0.096155180868875256 0 -0.29614728665031642 0.1100773929983587 0 -0.31683477199953253 0.096155180868875256 0 -0.29614728665031642 0.1100773929983587 0 -0.31211500736378339 0.1240031522641292 0 -0.31683477199953253 0.096155180868875256 0 -0.29326612220823411 0.13512644163735801 0 -0.29614728665031642 0.1100773929983587 0 -0.31211500736378339 0.1240031522641292 0 -0.30635830999651792 0.07761242167179265 0 -0.30189037325813839 0.060543452134012458 0 -0.32146679815367007 0.068824891797761426 0 -0.30635830999651792 0.07761242167179265 0 -0.29256534898171721 0.072382945427359638 0 -0.30189037325813839 0.060543452134012458 0 -0.30635830999651792 0.07761242167179265 0 -0.29903425758953422 0.090155638130954882 0 -0.29256534898171721 0.072382945427359638 0 -0.30635830999651792 0.07761242167179265 0 -0.29903425758953422 0.090155638130954882 0 -0.31683477199953253 0.096155180868875256 0 -0.29903425758953422 0.090155638130954882 0 -0.28572263353681682 0.08337299634339973 0 -0.29256534898171721 0.072382945427359638 0 -0.28783094919658059 0.096999283795453681 0 -0.29903425758953422 0.090155638130954882 0 -0.28572263353681682 0.08337299634339973 0 -0.28783094919658059 0.096999283795453681 0 -0.28572263353681682 0.08337299634339973 0 -0.27815219556391091 0.091433986845849968 0 -0.28572263353681682 0.08337299634339973 0 -0.29256534898171721 0.072382945427359638 0 -0.28059357561043269 0.073644623599786935 0 -0.29256534898171721 0.072382945427359638 0 -0.29088471103165969 0.062671374321780771 0 -0.30189037325813839 0.060543452134012458 0 -0.29256534898171721 0.072382945427359638 0 -0.29088471103165969 0.062671374321780771 0 -0.28261649390190829 0.064291953838756216 0 -0.29256534898171721 0.072382945427359638 0 -0.28261649390190829 0.064291953838756216 0 -0.28059357561043269 0.073644623599786935 0 -0.28261649390190829 0.064291953838756216 0 -0.27678196032587499 0.069585006034529676 0 -0.27195195811963518 0.06635492754641531 0 -0.26855373331756138 0.063547936276670339 0 -0.27195195811963518 0.06635492754641531 0 -0.25743728825439521 0.07924270920583569 0 -0.28261649390190829 0.064291953838756216 0 -0.27678196032587499 0.069585006034529676 0 -0.28059357561043269 0.073644623599786935 0 -0.27678196032587499 0.069585006034529676 0 -0.27196581367152378 0.074048519153160283 0 -0.27195195811963518 0.06635492754641531 0 -0.27678196032587499 0.069585006034529676 0 -0.28059357561043269 0.073644623599786935 0 -0.27196581367152378 0.074048519153160283 0 -0.28059357561043269 0.073644623599786935 0 -0.27196581367152378 0.074048519153160283 0 -0.27303575277029413 0.081855029780232597 0 -0.27196581367152378 0.074048519153160283 0 -0.27195195811963518 0.06635492754641531 0 -0.25743728825439521 0.07924270920583569 0 -0.28572263353681682 0.08337299634339973 0 -0.27815219556391091 0.091433986845849968 0 -0.27303575277029413 0.081855029780232597 0 -0.28572263353681682 0.08337299634339973 0 -0.28059357561043269 0.073644623599786935 0 -0.27303575277029413 0.081855029780232597 0 -0.27196581367152378 0.074048519153160283 0 -0.27303575277029413 0.081855029780232597 0 -0.25743728825439521 0.07924270920583569 0 -0.27815219556391091 0.091433986845849968 0 -0.27303575277029413 0.081855029780232597 0 -0.26471001572300679 0.091779207982481292 0 -0.26471001572300679 0.091779207982481292 0 -0.25743728825439521 0.07924270920583569 0 -0.25413031243694739 0.089521027236778197 0 -0.27303575277029413 0.081855029780232597 0 -0.26471001572300679 0.091779207982481292 0 -0.25743728825439521 0.07924270920583569 0 -0.25743728825439521 0.07924270920583569 0 -0.25064083865024739 0.073628726666345984 0 -0.24857020570659841 0.081659589420377987 0 -0.25743728825439521 0.07924270920583569 0 -0.25413031243694739 0.089521027236778197 0 -0.24857020570659841 0.081659589420377987 0 -0.26855373331756138 0.063547936276670339 0 -0.25743728825439521 0.07924270920583569 0 -0.25064083865024739 0.073628726666345984 0 -0.26855373331756138 0.063547936276670339 0 -0.25064083865024739 0.073628726666345984 0 -0.2562734301216873 0.062061687155910393 0 -0.26855373331756138 0.063547936276670339 0 -0.25064083865024739 0.073628726666345984 0 -0.27195195811963518 0.06635492754641531 0 -0.25743728825439521 0.07924270920583569 0 -0.25064083865024739 0.073628726666345984 0 -0.2562734301216873 0.062061687155910393 0 -0.24829977196364941 0.065213336215906109 0 -0.2623477931936597 0.053657636987073307 0 -0.25116276906762952 0.054241108780248931 0 -0.26153642505613889 0.036367366133998442 0 -0.2562734301216873 0.062061687155910393 0 -0.2623477931936597 0.053657636987073307 0 -0.25116276906762952 0.054241108780248931 0 -0.2562734301216873 0.062061687155910393 0 -0.25116276906762952 0.054241108780248931 0 -0.24829977196364941 0.065213336215906109 0 -0.26855373331756138 0.063547936276670339 0 -0.2562734301216873 0.062061687155910393 0 -0.2623477931936597 0.053657636987073307 0 -0.25116276906762952 0.054241108780248931 0 -0.26153642505613889 0.036367366133998442 0 -0.239388393447095 0.04766651035075449 0 -0.2623477931936597 0.053657636987073307 0 -0.26153642505613889 0.036367366133998442 0 -0.27323710809808138 0.049716314049096537 0 -0.26153642505613889 0.036367366133998442 0 -0.28732673365434691 0.040933413293477772 0 -0.26153642505613889 0.036367366133998442 0 -0.2825074511423824 0.030310297232740709 0 -0.28732673365434691 0.040933413293477772 0 -0.26153642505613889 0.036367366133998442 0 -0.27323710809808138 0.049716314049096537 0 -0.28732673365434691 0.040933413293477772 0 -0.26855373331756138 0.063547936276670339 0 -0.27195195811963518 0.06635492754641531 0 -0.28646662798487532 0.053467145886994819 0 -0.26855373331756138 0.063547936276670339 0 -0.28646662798487532 0.053467145886994819 0 -0.26855373331756138 0.063547936276670339 0 -0.27323710809808138 0.049716314049096537 0 -0.28646662798487532 0.053467145886994819 0 -0.27195195811963518 0.06635492754641531 0 -0.28646662798487532 0.053467145886994819 0 -0.28261649390190829 0.064291953838756216 0 -0.27195195811963518 0.06635492754641531 0 -0.28646662798487532 0.053467145886994819 0 -0.26855373331756138 0.063547936276670339 0 -0.2623477931936597 0.053657636987073307 0 -0.27323710809808138 0.049716314049096537 0 -0.26176261374782622 0.0098260211376069873 0 -0.24854849079604721 0.020569936005881421 0 -0.24598119983726671 0.0037338506766126851 0 -0.26003022337954462 -0.0038093911555793728 0 -0.26176261374782622 0.0098260211376069873 0 -0.24598119983726671 0.0037338506766126851 0 -0.26003022337954462 -0.0038093911555793728 0 -0.27433688946420332 -0.0007833753365484626 0 -0.26176261374782622 0.0098260211376069873 0 -0.26153642505613889 0.036367366133998442 0 -0.26176261374782622 0.0098260211376069873 0 -0.24854849079604721 0.020569936005881421 0 -0.26153642505613889 0.036367366133998442 0 -0.26176261374782622 0.0098260211376069873 0 -0.27684491432135683 0.017453585025194441 0 -0.26153642505613889 0.036367366133998442 0 -0.27684491432135683 0.017453585025194441 0 -0.2825074511423824 0.030310297232740709 0 -0.27433688946420332 -0.0007833753365484626 0 -0.26176261374782622 0.0098260211376069873 0 -0.27684491432135683 0.017453585025194441 0 -0.27433688946420332 -0.0007833753365484626 0 -0.27684491432135683 0.017453585025194441 0 -0.28842838408131971 0.0076205693905790281 0 -0.28842838408131971 0.0076205693905790281 0 -0.29131927560690712 0.022062190579302341 0 -0.29989828236451899 0.011495108916467369 0 -0.27684491432135683 0.017453585025194441 0 -0.29131927560690712 0.022062190579302341 0 -0.2825074511423824 0.030310297232740709 0 -0.27684491432135683 0.017453585025194441 0 -0.28842838408131971 0.0076205693905790281 0 -0.29131927560690712 0.022062190579302341 0 -0.29131927560690712 0.022062190579302341 0 -0.2825074511423824 0.030310297232740709 0 -0.29550990707316249 0.034734931131730561 0 -0.29131927560690712 0.022062190579302341 0 -0.30587597075389272 0.02137954460474218 0 -0.29550990707316249 0.034734931131730561 0 -0.30587597075389272 0.02137954460474218 0 -0.29550990707316249 0.034734931131730561 0 -0.30859873922341308 0.03381572977126493 0 -0.29131927560690712 0.022062190579302341 0 -0.30587597075389272 0.02137954460474218 0 -0.29989828236451899 0.011495108916467369 0 -0.3025805037907468 -0.0027432771802810229 0 -0.3204068892458079 -0.0014125807301150939 0 -0.31128727758972891 0.0091565171879943417 0 -0.30587597075389272 0.02137954460474218 0 -0.29989828236451899 0.011495108916467369 0 -0.31128727758972891 0.0091565171879943417 0 -0.3025805037907468 -0.0027432771802810229 0 -0.29989828236451899 0.011495108916467369 0 -0.31128727758972891 0.0091565171879943417 0 -0.3025805037907468 -0.0027432771802810229 0 -0.28842838408131971 0.0076205693905790281 0 -0.29989828236451899 0.011495108916467369 0 -0.28646662798487532 0.053467145886994819 0 -0.304010183261538 0.043594207608826187 0 -0.29088471103165969 0.062671374321780771 0 -0.28646662798487532 0.053467145886994819 0 -0.30189037325813839 0.060543452134012458 0 -0.29088471103165969 0.062671374321780771 0 -0.28261649390190829 0.064291953838756216 0 -0.28646662798487532 0.053467145886994819 0 -0.27323710809808138 0.049716314049096537 0 -0.28646662798487532 0.053467145886994819 0 -0.28732673365434691 0.040933413293477772 0 -0.28646662798487532 0.053467145886994819 0 -0.29550990707316249 0.034734931131730561 0 -0.30859873922341308 0.03381572977126493 0 -0.28646662798487532 0.053467145886994819 0 -0.28732673365434691 0.040933413293477772 0 -0.29550990707316249 0.034734931131730561 0 -0.2825074511423824 0.030310297232740709 0 -0.28732673365434691 0.040933413293477772 0 -0.29550990707316249 0.034734931131730561 0 -0.28646662798487532 0.053467145886994819 0 -0.30859873922341308 0.03381572977126493 0 -0.28646662798487532 0.053467145886994819 0 -0.304010183261538 0.043594207608826187 0 -0.30859873922341308 0.03381572977126493 0 -0.304010183261538 0.043594207608826187 0 -0.30859873922341308 0.03381572977126493 0 -0.32155373853820057 0.033721269330657687 0 -0.304010183261538 0.043594207608826187 0 -0.3137915997446068 0.051476736654279882 0 -0.31549181974187701 0.042926529004151233 0 -0.28646662798487532 0.053467145886994819 0 -0.304010183261538 0.043594207608826187 0 -0.30189037325813839 0.060543452134012458 0 -0.30189037325813839 0.060543452134012458 0 -0.3137915997446068 0.051476736654279882 0 -0.32146679815367007 0.068824891797761426 0 -0.304010183261538 0.043594207608826187 0 -0.30189037325813839 0.060543452134012458 0 -0.3137915997446068 0.051476736654279882 0 -0.3137915997446068 0.051476736654279882 0 -0.32609882430781029 0.041494602726648067 0 -0.32146679815367007 0.068824891797761426 0 -0.32609882430781029 0.041494602726648067 0 -0.32146679815367007 0.068824891797761426 0 -0.3137915997446068 0.051476736654279882 0 -0.31549181974187701 0.042926529004151233 0 -0.32609882430781029 0.041494602726648067 0 -0.304010183261538 0.043594207608826187 0 -0.31549181974187701 0.042926529004151233 0 -0.32155373853820057 0.033721269330657687 0 -0.304010183261538 0.043594207608826187 0 -0.32155373853820057 0.033721269330657687 0 -0.31549181974187701 0.042926529004151233 0 -0.32155373853820057 0.033721269330657687 0 -0.32609882430781029 0.041494602726648067 0 -0.32609882430781029 0.041494602726648067 0 -0.34385517732675519 0.031131612817745031 0 -0.35163198926140088 0.046228739452983239 0 -0.32609882430781029 0.041494602726648067 0 -0.338272543408071 0.060603673933957783 0 -0.32146679815367007 0.068824891797761426 0 -0.32609882430781029 0.041494602726648067 0 -0.338272543408071 0.060603673933957783 0 -0.35163198926140088 0.046228739452983239 0 -0.3204068892458079 -0.0014125807301150939 0 -0.31128727758972891 0.0091565171879943417 0 -0.33073085046195078 0.01416431365553468 0 -0.30587597075389272 0.02137954460474218 0 -0.31128727758972891 0.0091565171879943417 0 -0.33073085046195078 0.01416431365553468 0 -0.30859873922341308 0.03381572977126493 0 -0.33073085046195078 0.01416431365553468 0 -0.30587597075389272 0.02137954460474218 0 -0.30859873922341308 0.03381572977126493 0 -0.33073085046195078 0.01416431365553468 0 -0.32155373853820057 0.033721269330657687 0 -0.32609882430781029 0.041494602726648067 0 -0.33073085046195078 0.01416431365553468 0 -0.30859873922341308 0.03381572977126493 0 -0.32155373853820057 0.033721269330657687 0 -0.33073085046195078 0.01416431365553468 0 -0.32609882430781029 0.041494602726648067 0 -0.33073085046195078 0.01416431365553468 0 -0.33073085046195078 0.01416431365553468 0 -0.34385517732675519 0.031131612817745031 0 -0.35381837275022032 0.01853105722209741 0 -0.32609882430781029 0.041494602726648067 0 -0.33073085046195078 0.01416431365553468 0 -0.34385517732675519 0.031131612817745031 0 -0.33540629353460438 -0.01342214774580049 0 -0.33073085046195078 0.01416431365553468 0 -0.35221409618436439 -0.0049109655465913588 0 -0.33073085046195078 0.01416431365553468 0 -0.35221409618436439 -0.0049109655465913588 0 -0.34857824671955512 -0.007874197240844389 0 -0.33073085046195078 0.01416431365553468 0 -0.35221409618436439 -0.0049109655465913588 0 -0.33073085046195078 0.01416431365553468 0 -0.34939877662876639 0.0070576099193848619 0 -0.33073085046195078 0.01416431365553468 0 -0.34939877662876639 0.0070576099193848619 0 -0.35381837275022032 0.01853105722209741 0 -0.35900139338342918 0.0020097317905480609 0 -0.34939877662876639 0.0070576099193848619 0 -0.35834074471334648 0.0096788928264882005 0 -0.35509488683577939 -0.0004162838960613095 0 -0.35900139338342918 0.0020097317905480609 0 -0.34939877662876639 0.0070576099193848619 0 -0.35509488683577939 -0.0004162838960613095 0 -0.35221409618436439 -0.0049109655465913588 0 -0.34939877662876639 0.0070576099193848619 0 -0.34939877662876639 0.0070576099193848619 0 -0.35834074471334648 0.0096788928264882005 0 -0.35381837275022032 0.01853105722209741 0 -0.34385517732675519 0.031131612817745031 0 -0.35381837275022032 0.01853105722209741 0 -0.36551724687399623 0.028318485711261141 0 -0.37937813184432773 0.031366277704107569 0 -0.36551724687399623 0.028318485711261141 0 -0.37479293228070759 0.022502646493578662 0 -0.36551724687399623 0.028318485711261141 0 -0.37479293228070759 0.022502646493578662 0 -0.36730783543836809 0.01519693074799966 0 -0.3778438638662554 0.014761087644765769 0 -0.37479293228070759 0.022502646493578662 0 -0.36730783543836809 0.01519693074799966 0 -0.35381837275022032 0.01853105722209741 0 -0.36551724687399623 0.028318485711261141 0 -0.36730783543836809 0.01519693074799966 0 -0.35834074471334648 0.0096788928264882005 0 -0.36730783543836809 0.01519693074799966 0 -0.36603012090457948 0.0050917054244422654 0 -0.35834074471334648 0.0096788928264882005 0 -0.35381837275022032 0.01853105722209741 0 -0.36730783543836809 0.01519693074799966 0 -0.36730783543836809 0.01519693074799966 0 -0.37464316483836829 0.0066416053135349984 0 -0.36603012090457948 0.0050917054244422654 0 -0.3778438638662554 0.014761087644765769 0 -0.36730783543836809 0.01519693074799966 0 -0.37464316483836829 0.0066416053135349984 0 -0.37126952376897032 -0.00085078512189483576 0 -0.37774077980655368 -0.001289555558904682 0 -0.37464316483836829 0.0066416053135349984 0 -0.37126952376897032 -0.00085078512189483576 0 -0.37464316483836829 0.0066416053135349984 0 -0.36603012090457948 0.0050917054244422654 0 -0.37126952376897032 -0.00085078512189483576 0 -0.36494834593608783 -0.001298186014321303 0 -0.36603012090457948 0.0050917054244422654 0 -0.36494834593608783 -0.001298186014321303 0 -0.35900139338342918 0.0020097317905480609 0 -0.36603012090457948 0.0050917054244422654 0 -0.35900139338342918 0.0020097317905480609 0 -0.35834074471334648 0.0096788928264882005 0 -0.36603012090457948 0.0050917054244422654 0 -0.35163198926140088 0.046228739452983239 0 -0.36891219827968119 0.060077996683558232 0 -0.35298131256760962 0.063034912088641357 0 -0.338272543408071 0.060603673933957783 0 -0.35163198926140088 0.046228739452983239 0 -0.35298131256760962 0.063034912088641357 0 -0.34385517732675519 0.031131612817745031 0 -0.36551724687399623 0.028318485711261141 0 -0.35163198926140088 0.046228739452983239 0 -0.36551724687399623 0.028318485711261141 0 -0.35163198926140088 0.046228739452983239 0 -0.37261014177358448 0.043145835856899219 0 -0.37937813184432773 0.031366277704107569 0 -0.36551724687399623 0.028318485711261141 0 -0.37261014177358448 0.043145835856899219 0 -0.35163198926140088 0.046228739452983239 0 -0.37261014177358448 0.043145835856899219 0 -0.36891219827968119 0.060077996683558232 0 -0.38207463336695202 0.051047668856640811 0 -0.37261014177358448 0.043145835856899219 0 -0.36891219827968119 0.060077996683558232 0 -0.37929074908003868 0.077603726490867345 0 -0.35694138538550352 0.073855345321458488 0 -0.37929074908003868 0.077603726490867345 0 -0.36891219827968119 0.060077996683558232 0 -0.35694138538550352 0.073855345321458488 0 -0.36891219827968119 0.060077996683558232 0 -0.35298131256760962 0.063034912088641357 0 -0.35694138538550352 0.073855345321458488 0 -0.35298131256760962 0.063034912088641357 0 -0.35694138538550352 0.073855345321458488 0 -0.34914844650339177 0.074408805051249083 0 -0.35694138538550352 0.073855345321458488 0 -0.34914844650339177 0.074408805051249083 0 -0.35387282561504041 0.085789381247760657 0 -0.338272543408071 0.060603673933957783 0 -0.35298131256760962 0.063034912088641357 0 -0.34914844650339177 0.074408805051249083 0 -0.34914844650339177 0.074408805051249083 0 -0.35387282561504041 0.085789381247760657 0 -0.33299160925146271 0.085281992960062933 0 -0.35694138538550352 0.073855345321458488 0 -0.35387282561504041 0.085789381247760657 0 -0.36438159895332511 0.085691586513687634 0 -0.35387282561504041 0.085789381247760657 0 -0.36438159895332511 0.085691586513687634 0 -0.35579278546844412 0.098564625017930646 0 -0.37929074908003868 0.077603726490867345 0 -0.35694138538550352 0.073855345321458488 0 -0.36438159895332511 0.085691586513687634 0 -0.37929074908003868 0.077603726490867345 0 -0.36438159895332511 0.085691586513687634 0 -0.37090825683648998 0.098456277756480637 0 -0.37090825683648998 0.098456277756480637 0 -0.36904533532088801 0.1177582563576956 0 -0.35579278546844412 0.098564625017930646 0 -0.36438159895332511 0.085691586513687634 0 -0.37090825683648998 0.098456277756480637 0 -0.35579278546844412 0.098564625017930646 0 -0.35823941519022368 0.13573745574644491 0 -0.36904533532088801 0.1177582563576956 0 -0.35158166360451942 0.11704707172714621 0 -0.36904533532088801 0.1177582563576956 0 -0.35158166360451942 0.11704707172714621 0 -0.35579278546844412 0.098564625017930646 0 -0.35158166360451942 0.11704707172714621 0 -0.35579278546844412 0.098564625017930646 0 -0.34047962299512569 0.099373871294989508 0 -0.35387282561504041 0.085789381247760657 0 -0.35579278546844412 0.098564625017930646 0 -0.34047962299512569 0.099373871294989508 0 -0.34047962299512569 0.099373871294989508 0 -0.33231339904552459 0.1171762944261375 0 -0.31683477199953253 0.096155180868875256 0 -0.34455851703438989 0.13305210298766909 0 -0.35158166360451942 0.11704707172714621 0 -0.33231339904552459 0.1171762944261375 0 -0.35158166360451942 0.11704707172714621 0 -0.34047962299512569 0.099373871294989508 0 -0.33231339904552459 0.1171762944261375 0 -0.31211500736378339 0.1240031522641292 0 -0.31683477199953253 0.096155180868875256 0 -0.31211500736378339 0.1240031522641292 0 -0.33231339904552459 0.1171762944261375 0 -0.31683477199953253 0.096155180868875256 0 -0.30635830999651792 0.07761242167179265 0 -0.31683477199953253 0.096155180868875256 0 -0.32146679815367007 0.068824891797761426 0 -0.31683477199953253 0.096155180868875256 0 -0.32146679815367007 0.068824891797761426 0 -0.33299160925146271 0.085281992960062933 0 -0.31683477199953253 0.096155180868875256 0 -0.32146679815367007 0.068824891797761426 0 -0.31683477199953253 0.096155180868875256 0 -0.33299160925146271 0.085281992960062933 0 -0.338272543408071 0.060603673933957783 0 -0.32146679815367007 0.068824891797761426 0 -0.33576809196089219 0.072507027900731907 0 -0.32146679815367007 0.068824891797761426 0 -0.33576809196089219 0.072507027900731907 0 -0.33299160925146271 0.085281992960062933 0 -0.34914844650339177 0.074408805051249083 0 -0.33576809196089219 0.072507027900731907 0 -0.33299160925146271 0.085281992960062933 0 -0.338272543408071 0.060603673933957783 0 -0.34914844650339177 0.074408805051249083 0 -0.33576809196089219 0.072507027900731907 0 -0.35387282561504041 0.085789381247760657 0 -0.34047962299512569 0.099373871294989508 0 -0.33299160925146271 0.085281992960062933 0 -0.34914844650339177 0.074408805051249083 0 -0.33299160925146271 0.085281992960062933 0 -0.34047962299512569 0.099373871294989508 0 -0.31683477199953253 0.096155180868875256 0 -0.33299160925146271 0.085281992960062933 0 -0.3938434845513461 0.48000301234504228 0 -0.4154786193197833 0.47000451851756458 0 -0.40908183102320411 0.4845696213484928 0 -0.3938434845513461 0.48000301234504228 0 -0.40110135887996978 0.47332954189399812 0 -0.4154786193197833 0.47000451851756458 0 -0.3938434845513461 0.48000301234504228 0 -0.4154786193197833 0.47000451851756458 0 -0.3938434845513461 0.48000301234504228 0 -0.40110135887996978 0.47332954189399812 0 -0.38930270813857232 0.46778113184491188 0 -0.3938434845513461 0.48000301234504228 0 -0.39546946259238258 0.49128185561313598 0 -0.40908183102320411 0.4845696213484928 0 -0.40521342881326272 0.5 0 -0.39546946259238258 0.49128185561313598 0 -0.37789332191386737 0.5 0 -0.40521342881326272 0.5 0 -0.39546946259238258 0.49128185561313598 0 -0.40908183102320411 0.4845696213484928 0 -0.3938434845513461 0.48000301234504228 0 -0.39546946259238258 0.49128185561313598 0 -0.38517353549973538 0.49039659604947999 0 -0.3938434845513461 0.48000301234504228 0 -0.37220834978290879 0.49000150617251997 0 -0.39546946259238258 0.49128185561313598 0 -0.38517353549973538 0.49039659604947999 0 -0.37789332191386737 0.5 0 -0.3938434845513461 0.48000301234504228 0 -0.38517353549973538 0.49039659604947999 0 -0.37220834978290879 0.49000150617251997 0 -0.38517353549973538 0.49039659604947999 0 -0.37789332191386737 0.5 0 -0.37220834978290879 0.49000150617251997 0 -0.3938434845513461 0.48000301234504228 0 -0.37805640255927542 0.47903421333972468 0 -0.3842367001720054 0.47454362448235632 0 -0.3938434845513461 0.48000301234504228 0 -0.37805640255927542 0.47903421333972468 0 -0.37220834978290879 0.49000150617251997 0 -0.3842367001720054 0.47454362448235632 0 -0.37701653082709469 0.46900635458093531 0 -0.38930270813857232 0.46778113184491188 0 -0.3938434845513461 0.48000301234504228 0 -0.3842367001720054 0.47454362448235632 0 -0.38930270813857232 0.46778113184491188 0 -0.37805640255927542 0.47903421333972468 0 -0.3842367001720054 0.47454362448235632 0 -0.37701653082709469 0.46900635458093531 0 -0.37701653082709469 0.46900635458093531 0 -0.38677844954541418 0.45747132953460651 0 -0.37376195539900242 0.45249759326054367 0 -0.37701653082709469 0.46900635458093531 0 -0.38677844954541418 0.45747132953460651 0 -0.38930270813857232 0.46778113184491188 0 -0.38473584783684761 0.44354080077547992 0 -0.36778315087773072 0.43214877602771662 0 -0.37376195539900242 0.45249759326054367 0 -0.38677844954541418 0.45747132953460651 0 -0.38473584783684761 0.44354080077547992 0 -0.37376195539900242 0.45249759326054367 0 -0.38677844954541418 0.45747132953460651 0 -0.38473584783684761 0.44354080077547992 0 -0.39843898125590987 0.45231631840454728 0 -0.39843898125590987 0.45231631840454728 0 -0.4072920944712265 0.44499890251068641 0 -0.39856520721893041 0.43647578570475237 0 -0.38473584783684761 0.44354080077547992 0 -0.39843898125590987 0.45231631840454728 0 -0.39856520721893041 0.43647578570475237 0 -0.39843898125590987 0.45231631840454728 0 -0.39841490533913748 0.46178879282826651 0 -0.41709791082295028 0.45456801136960878 0 -0.40110135887996978 0.47332954189399812 0 -0.39841490533913748 0.46178879282826651 0 -0.41709791082295028 0.45456801136960878 0 -0.38677844954541418 0.45747132953460651 0 -0.38930270813857232 0.46778113184491188 0 -0.39841490533913748 0.46178879282826651 0 -0.40110135887996978 0.47332954189399812 0 -0.38930270813857232 0.46778113184491188 0 -0.39841490533913748 0.46178879282826651 0 -0.38677844954541418 0.45747132953460651 0 -0.39843898125590987 0.45231631840454728 0 -0.39841490533913748 0.46178879282826651 0 -0.40110135887996978 0.47332954189399812 0 -0.41709791082295028 0.45456801136960878 0 -0.4154786193197833 0.47000451851756458 0 -0.40110135887996978 0.47332954189399812 0 -0.41709791082295028 0.45456801136960878 0 -0.41709791082295028 0.45456801136960878 0 -0.42692569345801529 0.46340213249295897 0 -0.4154786193197833 0.47000451851756458 0 -0.41709791082295028 0.45456801136960878 0 -0.43309446276593089 0.43580648084521972 0 -0.41506627858711548 0.4366354945638371 0 -0.39843898125590987 0.45231631840454728 0 -0.41709791082295028 0.45456801136960878 0 -0.4072920944712265 0.44499890251068641 0 -0.4072920944712265 0.44499890251068641 0 -0.41506627858711548 0.4366354945638371 0 -0.39856520721893041 0.43647578570475237 0 -0.41709791082295028 0.45456801136960878 0 -0.4072920944712265 0.44499890251068641 0 -0.41506627858711548 0.4366354945638371 0 -0.41709791082295028 0.45456801136960878 0 -0.43251943231727258 0.45189802077753072 0 -0.43309446276593089 0.43580648084521972 0 -0.41709791082295028 0.45456801136960878 0 -0.43309446276593089 0.43580648084521972 0 -0.43251943231727258 0.45189802077753072 0 -0.44285055445462801 0.44408738363144917 0 -0.43309446276593089 0.43580648084521972 0 -0.43251943231727258 0.45189802077753072 0 -0.42692569345801529 0.46340213249295897 0 -0.44262854008483871 0.46162609554841733 0 -0.42692569345801529 0.46340213249295897 0 -0.43014133963940671 0.47900644757454591 0 -0.44262854008483871 0.46162609554841733 0 -0.41709791082295028 0.45456801136960878 0 -0.43251943231727258 0.45189802077753072 0 -0.42692569345801529 0.46340213249295897 0 -0.42692569345801529 0.46340213249295897 0 -0.43014133963940671 0.47900644757454591 0 -0.4154786193197833 0.47000451851756458 0 -0.43014133963940671 0.47900644757454591 0 -0.4154786193197833 0.47000451851756458 0 -0.40908183102320411 0.4845696213484928 0 -0.40521342881326272 0.5 0 -0.40908183102320411 0.4845696213484928 0 -0.43253353571265801 0.5 0 -0.43014133963940671 0.47900644757454591 0 -0.40908183102320411 0.4845696213484928 0 -0.43253353571265801 0.5 0 -0.43014133963940671 0.47900644757454591 0 -0.43253353571265801 0.5 0 -0.44984012809851409 0.48033494727474779 0 -0.43253353571265801 0.5 0 -0.44984012809851409 0.48033494727474779 0 -0.45985364261205308 0.50000000000000111 0 -0.43014133963940671 0.47900644757454591 0 -0.44984012809851409 0.48033494727474779 0 -0.44262854008483871 0.46162609554841733 0 -0.44984012809851409 0.48033494727474779 0 -0.47312811744354261 0.47395110078869013 0 -0.45820768181792781 0.46325373185340701 0 -0.45985364261205308 0.50000000000000111 0 -0.47312811744354261 0.47395110078869013 0 -0.44984012809851409 0.48033494727474779 0 -0.45985364261205308 0.50000000000000111 0 -0.47312811744354261 0.47395110078869013 0 -0.5 0.5 0 -0.47312811744354261 0.47395110078869013 0 -0.49999999999999972 0.44664233614409321 0 -0.45985364261205308 0.50000000000000111 0 -0.5 0.5 0 -0.47312811744354261 0.47395110078869013 0 -0.48640259227503152 0.44790220157737892 0 -0.49999999999999972 0.44664233614409321 0 -0.47883616718389621 0.43347798499105172 0 -0.49999999999999972 0.44664233614409321 0 -0.47883616718389621 0.43347798499105172 0 -0.47312811744354261 0.47395110078869013 0 -0.48640259227503152 0.44790220157737892 0 -0.49999999999999972 0.44664233614409321 0 -0.47312811744354261 0.47395110078869013 0 -0.48640259227503152 0.44790220157737892 0 -0.47312811744354261 0.47395110078869013 0 -0.48640259227503152 0.44790220157737892 0 -0.46932328621444303 0.45009797021529852 0 -0.46932328621444303 0.45009797021529852 0 -0.46288197751253979 0.435741310408158 0 -0.47883616718389621 0.43347798499105172 0 -0.48640259227503152 0.44790220157737892 0 -0.46932328621444303 0.45009797021529852 0 -0.47883616718389621 0.43347798499105172 0 -0.46932328621444303 0.45009797021529852 0 -0.45653044061400749 0.44574373859450739 0 -0.46288197751253979 0.435741310408158 0 -0.46932328621444303 0.45009797021529852 0 -0.45653044061400749 0.44574373859450739 0 -0.45820768181792781 0.46325373185340701 0 -0.45653044061400749 0.44574373859450739 0 -0.44988321330808601 0.43264183945635343 0 -0.46288197751253979 0.435741310408158 0 -0.47312811744354261 0.47395110078869013 0 -0.46932328621444303 0.45009797021529852 0 -0.45820768181792781 0.46325373185340701 0 -0.45653044061400749 0.44574373859450739 0 -0.45820768181792781 0.46325373185340701 0 -0.44262854008483871 0.46162609554841733 0 -0.44984012809851409 0.48033494727474779 0 -0.45820768181792781 0.46325373185340701 0 -0.44262854008483871 0.46162609554841733 0 -0.43251943231727258 0.45189802077753072 0 -0.44262854008483871 0.46162609554841733 0 -0.44285055445462801 0.44408738363144917 0 -0.45653044061400749 0.44574373859450739 0 -0.44262854008483871 0.46162609554841733 0 -0.44285055445462801 0.44408738363144917 0 -0.44285055445462801 0.44408738363144917 0 -0.44988321330808601 0.43264183945635343 0 -0.43309446276593089 0.43580648084521972 0 -0.45653044061400749 0.44574373859450739 0 -0.44285055445462801 0.44408738363144917 0 -0.44988321330808601 0.43264183945635343 0 -0.44909101470891138 0.41704495032083061 0 -0.43309446276593089 0.43580648084521972 0 -0.44988321330808601 0.43264183945635343 0 -0.44909101470891138 0.41704495032083061 0 -0.43309446276593089 0.43580648084521972 0 -0.44988321330808601 0.43264183945635343 0 -0.44909101470891138 0.41704495032083061 0 -0.45767233436779298 0.42031363383801013 0 -0.44909101470891138 0.41704495032083061 0 -0.43642708593841462 0.41129790334070748 0 -0.43309446276593089 0.43580648084521972 0 -0.44909101470891138 0.41704495032083061 0 -0.44923652684218601 0.40651161443480333 0 -0.43642708593841462 0.41129790334070748 0 -0.44909101470891138 0.41704495032083061 0 -0.46310762304278369 0.4136785712167641 0 -0.46508756665189233 0.39828341979644161 0 -0.44909101470891138 0.41704495032083061 0 -0.46508756665189233 0.39828341979644161 0 -0.44909101470891138 0.41704495032083061 0 -0.44923652684218601 0.40651161443480333 0 -0.46508756665189233 0.39828341979644161 0 -0.44909101470891138 0.41704495032083061 0 -0.45767233436779298 0.42031363383801013 0 -0.46310762304278369 0.4136785712167641 0 -0.45767233436779298 0.42031363383801013 0 -0.46310762304278369 0.4136785712167641 0 -0.4689935185142321 0.42014913325858988 0 -0.46310762304278369 0.4136785712167641 0 -0.47635794946245552 0.41312634298853379 0 -0.46508756665189233 0.39828341979644161 0 -0.45767233436779298 0.42031363383801013 0 -0.47883616718389621 0.43347798499105172 0 -0.4689935185142321 0.42014913325858988 0 -0.45767233436779298 0.42031363383801013 0 -0.46288197751253979 0.435741310408158 0 -0.47883616718389621 0.43347798499105172 0 -0.45767233436779298 0.42031363383801013 0 -0.47883616718389621 0.43347798499105172 0 -0.44988321330808601 0.43264183945635343 0 -0.45767233436779298 0.42031363383801013 0 -0.46288197751253979 0.435741310408158 0 -0.47883616718389621 0.43347798499105172 0 -0.47635794946245552 0.41312634298853379 0 -0.48714440641974271 0.42351608680749347 0 -0.47883616718389621 0.43347798499105172 0 -0.4689935185142321 0.42014913325858988 0 -0.47635794946245552 0.41312634298853379 0 -0.46310762304278369 0.4136785712167641 0 -0.4689935185142321 0.42014913325858988 0 -0.47635794946245552 0.41312634298853379 0 -0.47635794946245552 0.41312634298853379 0 -0.48901457958177968 0.41012265573874179 0 -0.48254378332594611 0.39722493186941499 0 -0.47635794946245552 0.41312634298853379 0 -0.48901457958177968 0.41012265573874179 0 -0.48714440641974271 0.42351608680749347 0 -0.48901457958177968 0.41012265573874179 0 -0.5 0.42140439004324071 0 -0.49999999999999978 0.39616644394238798 0 -0.48901457958177968 0.41012265573874179 0 -0.5 0.42140439004324071 0 -0.48714440641974271 0.42351608680749347 0 -0.49999999999999972 0.44664233614409321 0 -0.47883616718389621 0.43347798499105172 0 -0.48714440641974271 0.42351608680749347 0 -0.49999999999999972 0.44664233614409321 0 -0.5 0.42140439004324071 0 -0.48714440641974271 0.42351608680749347 0 -0.49007778645481631 0.38142997617552599 0 -0.49999999999999978 0.39616644394238798 0 -0.50000000000000311 0.3685517992903854 0 -0.49007778645481631 0.38142997617552599 0 -0.47611467569506138 0.38535029247959018 0 -0.48714178473823078 0.37241716516273898 0 -0.49999999999999978 0.39616644394238798 0 -0.48254378332594611 0.39722493186941499 0 -0.48901457958177968 0.41012265573874179 0 -0.49999999999999978 0.39616644394238798 0 -0.48254378332594611 0.39722493186941499 0 -0.49007778645481631 0.38142997617552599 0 -0.49999999999999978 0.39616644394238798 0 -0.48254378332594611 0.39722493186941499 0 -0.48254378332594611 0.39722493186941499 0 -0.46508756665189233 0.39828341979644161 0 -0.47635794946245552 0.41312634298853379 0 -0.48254378332594611 0.39722493186941499 0 -0.46508756665189233 0.39828341979644161 0 -0.48254378332594611 0.39722493186941499 0 -0.47611467569506138 0.38535029247959018 0 -0.46508756665189233 0.39828341979644161 0 -0.47611467569506138 0.38535029247959018 0 -0.46508756665189233 0.39828341979644161 0 -0.49007778645481631 0.38142997617552599 0 -0.48254378332594611 0.39722493186941499 0 -0.47611467569506138 0.38535029247959018 0 -0.47611467569506138 0.38535029247959018 0 -0.47397397291215421 0.37493689296344251 0 -0.48714178473823078 0.37241716516273898 0 -0.47611467569506138 0.38535029247959018 0 -0.48714178473823078 0.37241716516273898 0 -0.46871814716203669 0.37906981455344119 0 -0.46360543106569913 0.37231654924431878 0 -0.47397397291215421 0.37493689296344251 0 -0.47611467569506138 0.38535029247959018 0 -0.46871814716203669 0.37906981455344119 0 -0.47397397291215421 0.37493689296344251 0 -0.46871814716203669 0.37906981455344119 0 -0.46117850897523233 0.38367552352641338 0 -0.46360543106569913 0.37231654924431878 0 -0.47611467569506138 0.38535029247959018 0 -0.46871814716203669 0.37906981455344119 0 -0.46117850897523233 0.38367552352641338 0 -0.47611467569506138 0.38535029247959018 0 -0.46117850897523233 0.38367552352641338 0 -0.46508756665189233 0.39828341979644161 0 -0.46117850897523233 0.38367552352641338 0 -0.45400385251667602 0.39093091030285698 0 -0.45110956684876158 0.38402681738971201 0 -0.46117850897523233 0.38367552352641338 0 -0.45110956684876158 0.38402681738971201 0 -0.44813402172652672 0.37354371539476261 0 -0.46117850897523233 0.38367552352641338 0 -0.44813402172652672 0.37354371539476261 0 -0.46360543106569913 0.37231654924431878 0 -0.44923652684218601 0.40651161443480333 0 -0.46508756665189233 0.39828341979644161 0 -0.44634044006952572 0.39942018428123321 0 -0.46508756665189233 0.39828341979644161 0 -0.45400385251667602 0.39093091030285698 0 -0.44634044006952572 0.39942018428123321 0 -0.46508756665189233 0.39828341979644161 0 -0.44634044006952572 0.39942018428123321 0 -0.46117850897523233 0.38367552352641338 0 -0.46508756665189233 0.39828341979644161 0 -0.45400385251667602 0.39093091030285698 0 -0.45400385251667602 0.39093091030285698 0 -0.44634044006952572 0.39942018428123321 0 -0.44518347515021223 0.38837251913440451 0 -0.44634044006952572 0.39942018428123321 0 -0.44518347515021223 0.38837251913440451 0 -0.43728617553129168 0.39370672697544878 0 -0.44923652684218601 0.40651161443480333 0 -0.44634044006952572 0.39942018428123321 0 -0.43642708593841462 0.41129790334070748 0 -0.45110956684876158 0.38402681738971201 0 -0.44480856609964842 0.38185924381796288 0 -0.44813402172652672 0.37354371539476261 0 -0.45400385251667602 0.39093091030285698 0 -0.45110956684876158 0.38402681738971201 0 -0.44518347515021223 0.38837251913440451 0 -0.45110956684876158 0.38402681738971201 0 -0.44518347515021223 0.38837251913440451 0 -0.44480856609964842 0.38185924381796288 0 -0.44518347515021223 0.38837251913440451 0 -0.43913693036841173 0.38484964203092692 0 -0.43002747341826991 0.3864772557201327 0 -0.44518347515021223 0.38837251913440451 0 -0.43002747341826991 0.3864772557201327 0 -0.44518347515021223 0.38837251913440451 0 -0.43913693036841173 0.38484964203092692 0 -0.44480856609964842 0.38185924381796288 0 -0.44480856609964842 0.38185924381796288 0 -0.4393591315165738 0.37762743775392832 0 -0.44813402172652672 0.37354371539476261 0 -0.43913693036841173 0.38484964203092692 0 -0.44480856609964842 0.38185924381796288 0 -0.4393591315165738 0.37762743775392832 0 -0.43913693036841173 0.38484964203092692 0 -0.43173797726570751 0.37658334167695551 0 -0.43913693036841173 0.38484964203092692 0 -0.43173797726570751 0.37658334167695551 0 -0.43002747341826991 0.3864772557201327 0 -0.43913693036841173 0.38484964203092692 0 -0.4393591315165738 0.37762743775392832 0 -0.43173797726570751 0.37658334167695551 0 -0.4393591315165738 0.37762743775392832 0 -0.43173797726570751 0.37658334167695551 0 -0.4325639091043616 0.37180597819459837 0 -0.43173797726570751 0.37658334167695551 0 -0.43002747341826991 0.3864772557201327 0 -0.44518347515021223 0.38837251913440451 0 -0.43002747341826991 0.3864772557201327 0 -0.43728617553129168 0.39370672697544878 0 -0.43002747341826991 0.3864772557201327 0 -0.41472776448615789 0.38456402166930481 0 -0.42117367656598032 0.39254991666010941 0 -0.43002747341826991 0.3864772557201327 0 -0.41472776448615789 0.38456402166930481 0 -0.43002747341826991 0.3864772557201327 0 -0.42328890360694349 0.38021744503538613 0 -0.41472776448615789 0.38456402166930481 0 -0.43173797726570751 0.37658334167695551 0 -0.43002747341826991 0.3864772557201327 0 -0.42328890360694349 0.38021744503538613 0 -0.43173797726570751 0.37658334167695551 0 -0.42328890360694349 0.38021744503538613 0 -0.42689564018809201 0.37117335838025439 0 -0.40881671944059661 0.37920357314115732 0 -0.42689564018809201 0.37117335838025439 0 -0.42328890360694349 0.38021744503538613 0 -0.40881671944059661 0.37920357314115732 0 -0.42689564018809201 0.37117335838025439 0 -0.42328890360694349 0.38021744503538613 0 -0.41472776448615789 0.38456402166930481 0 -0.40881671944059661 0.37920357314115732 0 -0.41472776448615789 0.38456402166930481 0 -0.40724106840129259 0.39428871981441299 0 -0.42117367656598032 0.39254991666010941 0 -0.41472776448615789 0.38456402166930481 0 -0.40826438028753348 0.3817067557430866 0 -0.39942805555404642 0.38265078761847338 0 -0.41472776448615789 0.38456402166930481 0 -0.40724106840129259 0.39428871981441299 0 -0.39942805555404642 0.38265078761847338 0 -0.41472776448615789 0.38456402166930481 0 -0.39942805555404642 0.38265078761847338 0 -0.40881671944059661 0.37920357314115732 0 -0.39942805555404642 0.38265078761847338 0 -0.41098055992701871 0.3693971202961519 0 -0.40826438028753348 0.3817067557430866 0 -0.40881671944059661 0.37920357314115732 0 -0.41472776448615789 0.38456402166930481 0 -0.40826438028753348 0.3817067557430866 0 -0.40881671944059661 0.37920357314115732 0 -0.40724106840129259 0.39428871981441299 0 -0.4157685575788832 0.40127396331749671 0 -0.40157856791931718 0.40704460823596672 0 -0.42117367656598032 0.39254991666010941 0 -0.4157685575788832 0.40127396331749671 0 -0.42759331348715912 0.40055694876602499 0 -0.40724106840129259 0.39428871981441299 0 -0.42117367656598032 0.39254991666010941 0 -0.4157685575788832 0.40127396331749671 0 -0.4157685575788832 0.40127396331749671 0 -0.42759331348715912 0.40055694876602499 0 -0.44634044006952572 0.39942018428123321 0 -0.42759331348715912 0.40055694876602499 0 -0.44634044006952572 0.39942018428123321 0 -0.42759331348715912 0.40055694876602499 0 -0.43728617553129168 0.39370672697544878 0 -0.44634044006952572 0.39942018428123321 0 -0.42759331348715912 0.40055694876602499 0 -0.43642708593841462 0.41129790334070748 0 -0.43002747341826991 0.3864772557201327 0 -0.42117367656598032 0.39254991666010941 0 -0.42759331348715912 0.40055694876602499 0 -0.43002747341826991 0.3864772557201327 0 -0.42759331348715912 0.40055694876602499 0 -0.43002747341826991 0.3864772557201327 0 -0.42759331348715912 0.40055694876602499 0 -0.43728617553129168 0.39370672697544878 0 -0.43642708593841462 0.41129790334070748 0 -0.42449994900394461 0.41844961959922572 0 -0.43309446276593089 0.43580648084521972 0 -0.42759331348715912 0.40055694876602499 0 -0.43642708593841462 0.41129790334070748 0 -0.42449994900394461 0.41844961959922572 0 -0.4157685575788832 0.40127396331749671 0 -0.42759331348715912 0.40055694876602499 0 -0.42449994900394461 0.41844961959922572 0 -0.42759331348715912 0.40055694876602499 0 -0.42449994900394461 0.41844961959922572 0 -0.42449994900394461 0.41844961959922572 0 -0.43309446276593089 0.43580648084521972 0 -0.41506627858711548 0.4366354945638371 0 -0.42449994900394461 0.41844961959922572 0 -0.41506627858711548 0.4366354945638371 0 -0.40746949035714619 0.42222882353716701 0 -0.41506627858711548 0.4366354945638371 0 -0.40746949035714619 0.42222882353716701 0 -0.39856520721893041 0.43647578570475237 0 -0.42449994900394461 0.41844961959922572 0 -0.40746949035714619 0.42222882353716701 0 -0.41232914121482278 0.41224925367246401 0 -0.4157685575788832 0.40127396331749671 0 -0.42449994900394461 0.41844961959922572 0 -0.41232914121482278 0.41224925367246401 0 -0.4157685575788832 0.40127396331749671 0 -0.41232914121482278 0.41224925367246401 0 -0.40157856791931718 0.40704460823596672 0 -0.40746949035714619 0.42222882353716701 0 -0.41232914121482278 0.41224925367246401 0 -0.40157856791931718 0.40704460823596672 0 -0.40746949035714619 0.42222882353716701 0 -0.40157856791931718 0.40704460823596672 0 -0.39298749241221759 0.42119507937603923 0 -0.40746949035714619 0.42222882353716701 0 -0.39298749241221759 0.42119507937603923 0 -0.39856520721893041 0.43647578570475237 0 -0.39298749241221759 0.42119507937603923 0 -0.39856520721893041 0.43647578570475237 0 -0.38373994498284608 0.43043669407259588 0 -0.38373994498284608 0.43043669407259588 0 -0.37668454372729859 0.41206883315114529 0 -0.36778315087773072 0.43214877602771662 0 -0.38473584783684761 0.44354080077547992 0 -0.38373994498284608 0.43043669407259588 0 -0.36778315087773072 0.43214877602771662 0 -0.38473584783684761 0.44354080077547992 0 -0.39856520721893041 0.43647578570475237 0 -0.38373994498284608 0.43043669407259588 0 -0.40157856791931718 0.40704460823596672 0 -0.39298749241221759 0.42119507937603923 0 -0.37668454372729859 0.41206883315114529 0 -0.39298749241221759 0.42119507937603923 0 -0.38373994498284608 0.43043669407259588 0 -0.37668454372729859 0.41206883315114529 0 -0.40157856791931718 0.40704460823596672 0 -0.37668454372729859 0.41206883315114529 0 -0.37668454372729859 0.41206883315114529 0 -0.37844474563582792 0.390355182046278 0 -0.39076978830337122 0.39764902138512792 0 -0.40157856791931718 0.40704460823596672 0 -0.37668454372729859 0.41206883315114529 0 -0.39076978830337122 0.39764902138512792 0 -0.38141148745950948 0.38039780936179463 0 -0.39942805555404642 0.38265078761847338 0 -0.37844474563582792 0.390355182046278 0 -0.39942805555404642 0.38265078761847338 0 -0.38141148745950948 0.38039780936179463 0 -0.37844474563582792 0.390355182046278 0 -0.39942805555404642 0.38265078761847338 0 -0.37844474563582792 0.390355182046278 0 -0.39942805555404642 0.38265078761847338 0 -0.39076978830337122 0.39764902138512792 0 -0.38141148745950948 0.38039780936179463 0 -0.39942805555404642 0.38265078761847338 0 -0.39128338495032239 0.36719877308275878 0 -0.40826438028753348 0.3817067557430866 0 -0.40881671944059661 0.37920357314115732 0 -0.39942805555404642 0.38265078761847338 0 -0.40881671944059661 0.37920357314115732 0 -0.39942805555404642 0.38265078761847338 0 -0.40724106840129259 0.39428871981441299 0 -0.40157856791931718 0.40704460823596672 0 -0.39076978830337122 0.39764902138512792 0 -0.40724106840129259 0.39428871981441299 0 -0.39942805555404642 0.38265078761847338 0 -0.39076978830337122 0.39764902138512792 0 -0.39259889148010241 0.34864188780489069 0 -0.39999637464883392 0.35559476271013252 0 -0.38966798311544332 0.35610238881872369 0 -0.39259889148010241 0.34864188780489069 0 -0.39999637464883392 0.35559476271013252 0 -0.40046159691170069 0.34164056661102238 0 -0.39999637464883392 0.35559476271013252 0 -0.40046159691170069 0.34164056661102238 0 -0.41381361947694889 0.35655778899711688 0 -0.39999637464883392 0.35559476271013252 0 -0.40397412088998857 0.3623881668075713 0 -0.41381361947694889 0.35655778899711688 0 -0.39128338495032239 0.36719877308275878 0 -0.41098055992701871 0.3693971202961519 0 -0.40397412088998857 0.3623881668075713 0 -0.39128338495032239 0.36719877308275878 0 -0.41098055992701871 0.3693971202961519 0 -0.39942805555404642 0.38265078761847338 0 -0.39128338495032239 0.36719877308275878 0 -0.41098055992701871 0.3693971202961519 0 -0.39999637464883392 0.35559476271013252 0 -0.39128338495032239 0.36719877308275878 0 -0.38966798311544332 0.35610238881872369 0 -0.39999637464883392 0.35559476271013252 0 -0.40397412088998857 0.3623881668075713 0 -0.39128338495032239 0.36719877308275878 0 -0.39128338495032239 0.36719877308275878 0 -0.38070440212728118 0.35956436367519867 0 -0.38966798311544332 0.35610238881872369 0 -0.39128338495032239 0.36719877308275878 0 -0.38070440212728118 0.35956436367519867 0 -0.37158620997362618 0.36500042586936587 0 -0.39128338495032239 0.36719877308275878 0 -0.37158620997362618 0.36500042586936587 0 -0.38141148745950948 0.38039780936179463 0 -0.39128338495032239 0.36719877308275878 0 -0.37158620997362618 0.36500042586936587 0 -0.38070440212728118 0.35956436367519867 0 -0.38259242285128608 0.34975193996759602 0 -0.36960199921418602 0.35731180584905542 0 -0.38259242285128608 0.34975193996759602 0 -0.37580907906339922 0.33647878059299557 0 -0.36960199921418602 0.35731180584905542 0 -0.38070440212728118 0.35956436367519867 0 -0.38966798311544332 0.35610238881872369 0 -0.38259242285128608 0.34975193996759602 0 -0.39259889148010241 0.34864188780489069 0 -0.38966798311544332 0.35610238881872369 0 -0.38259242285128608 0.34975193996759602 0 -0.39259889148010241 0.34864188780489069 0 -0.38259242285128608 0.34975193996759602 0 -0.38794720083446621 0.34059934721089508 0 -0.38259242285128608 0.34975193996759602 0 -0.37580907906339922 0.33647878059299557 0 -0.38794720083446621 0.34059934721089508 0 -0.37580907906339922 0.33647878059299557 0 -0.38794720083446621 0.34059934721089508 0 -0.38710957434645199 0.32672334422492838 0 -0.37580907906339922 0.33647878059299557 0 -0.38201615891261242 0.31564575533693578 0 -0.38201615891261242 0.31564575533693578 0 -0.38336946241093189 0.30974931290420182 0 -0.36531193472093021 0.32454274932608829 0 -0.37580907906339922 0.33647878059299557 0 -0.38201615891261242 0.31564575533693578 0 -0.38710957434645199 0.32672334422492838 0 -0.38201615891261242 0.31564575533693578 0 -0.39350880394476312 0.31593875705230262 0 -0.38336946241093189 0.30974931290420182 0 -0.38201615891261242 0.31564575533693578 0 -0.38710957434645199 0.32672334422492838 0 -0.39350880394476312 0.31593875705230262 0 -0.38710957434645199 0.32672334422492838 0 -0.39350880394476312 0.31593875705230262 0 -0.39921774374196328 0.327754485124091 0 -0.39350880394476312 0.31593875705230262 0 -0.39921774374196328 0.327754485124091 0 -0.40602554896887638 0.32011992980008452 0 -0.39921774374196328 0.327754485124091 0 -0.40602554896887638 0.32011992980008452 0 -0.40814721749945931 0.33505042297199122 0 -0.38794720083446621 0.34059934721089508 0 -0.38710957434645199 0.32672334422492838 0 -0.40046159691170069 0.34164056661102238 0 -0.39259889148010241 0.34864188780489069 0 -0.38794720083446621 0.34059934721089508 0 -0.40046159691170069 0.34164056661102238 0 -0.38710957434645199 0.32672334422492838 0 -0.39921774374196328 0.327754485124091 0 -0.40046159691170069 0.34164056661102238 0 -0.38710957434645199 0.32672334422492838 0 -0.40046159691170069 0.34164056661102238 0 -0.39921774374196328 0.327754485124091 0 -0.40046159691170069 0.34164056661102238 0 -0.40814721749945931 0.33505042297199122 0 -0.40814721749945931 0.33505042297199122 0 -0.41954562432067788 0.33058053440738988 0 -0.41381361947694889 0.35655778899711688 0 -0.41954562432067788 0.33058053440738988 0 -0.41381361947694889 0.35655778899711688 0 -0.40602554896887638 0.32011992980008452 0 -0.40814721749945931 0.33505042297199122 0 -0.41954562432067788 0.33058053440738988 0 -0.40602554896887638 0.32011992980008452 0 -0.41954562432067788 0.33058053440738988 0 -0.42527762916440792 0.30460327981766322 0 -0.41954562432067788 0.33058053440738988 0 -0.42527762916440792 0.30460327981766322 0 -0.41954562432067788 0.33058053440738988 0 -0.44001701522470671 0.31606260091672289 0 -0.42527762916440792 0.30460327981766322 0 -0.41954562432067788 0.33058053440738988 0 -0.42420657124029282 0.3485159257420361 0 -0.43843079740841773 0.33787066219507811 0 -0.41954562432067788 0.33058053440738988 0 -0.43843079740841773 0.33787066219507811 0 -0.44001701522470671 0.31606260091672289 0 -0.42420657124029282 0.3485159257420361 0 -0.43459164588172849 0.36007712215754689 0 -0.43843079740841773 0.33787066219507811 0 -0.42420657124029282 0.3485159257420361 0 -0.41381361947694889 0.35655778899711688 0 -0.43459164588172849 0.36007712215754689 0 -0.41381361947694889 0.35655778899711688 0 -0.43459164588172849 0.36007712215754689 0 -0.43459164588172849 0.36007712215754689 0 -0.43843079740841773 0.33787066219507811 0 -0.40046159691170069 0.34164056661102238 0 -0.40814721749945931 0.33505042297199122 0 -0.41381361947694889 0.35655778899711688 0 -0.41954562432067788 0.33058053440738988 0 -0.42420657124029282 0.3485159257420361 0 -0.41381361947694889 0.35655778899711688 0 -0.39999637464883392 0.35559476271013252 0 -0.41381361947694889 0.35655778899711688 0 -0.40046159691170069 0.34164056661102238 0 -0.41381361947694889 0.35655778899711688 0 -0.41381361947694889 0.35655778899711688 0 -0.41098055992701871 0.3693971202961519 0 -0.42689564018809201 0.37117335838025439 0 -0.41098055992701871 0.3693971202961519 0 -0.42689564018809201 0.37117335838025439 0 -0.40881671944059661 0.37920357314115732 0 -0.41098055992701871 0.3693971202961519 0 -0.42689564018809201 0.37117335838025439 0 -0.40881671944059661 0.37920357314115732 0 -0.41098055992701871 0.3693971202961519 0 -0.40397412088998857 0.3623881668075713 0 -0.41381361947694889 0.35655778899711688 0 -0.41098055992701871 0.3693971202961519 0 -0.41381361947694889 0.35655778899711688 0 -0.41098055992701871 0.3693971202961519 0 -0.41381361947694889 0.35655778899711688 0 -0.42689564018809201 0.37117335838025439 0 -0.41381361947694889 0.35655778899711688 0 -0.42907199843085347 0.36486274908666949 0 -0.43459164588172849 0.36007712215754689 0 -0.42689564018809201 0.37117335838025439 0 -0.42907199843085347 0.36486274908666949 0 -0.42980351636605002 0.37149789839679431 0 -0.43173797726570751 0.37658334167695551 0 -0.42689564018809201 0.37117335838025439 0 -0.43173797726570751 0.37658334167695551 0 -0.42689564018809201 0.37117335838025439 0 -0.42980351636605002 0.37149789839679431 0 -0.42689564018809201 0.37117335838025439 0 -0.42980351636605002 0.37149789839679431 0 -0.41381361947694889 0.35655778899711688 0 -0.42689564018809201 0.37117335838025439 0 -0.42907199843085347 0.36486274908666949 0 -0.43459164588172849 0.36007712215754689 0 -0.4325639091043616 0.37180597819459837 0 -0.42907199843085347 0.36486274908666949 0 -0.43459164588172849 0.36007712215754689 0 -0.4325639091043616 0.37180597819459837 0 -0.43173797726570751 0.37658334167695551 0 -0.4325639091043616 0.37180597819459837 0 -0.43173797726570751 0.37658334167695551 0 -0.4325639091043616 0.37180597819459837 0 -0.42980351636605002 0.37149789839679431 0 -0.4325639091043616 0.37180597819459837 0 -0.42980351636605002 0.37149789839679431 0 -0.42907199843085347 0.36486274908666949 0 -0.4325639091043616 0.37180597819459837 0 -0.42980351636605002 0.37149789839679431 0 -0.4393591315165738 0.37762743775392832 0 -0.4325639091043616 0.37180597819459837 0 -0.44813402172652672 0.37354371539476261 0 -0.4325639091043616 0.37180597819459837 0 -0.44813402172652672 0.37354371539476261 0 -0.4325639091043616 0.37180597819459837 0 -0.44813402172652672 0.37354371539476261 0 -0.45404419213644692 0.3625975043188554 0 -0.43459164588172849 0.36007712215754689 0 -0.45404419213644692 0.3625975043188554 0 -0.43459164588172849 0.36007712215754689 0 -0.4325639091043616 0.37180597819459837 0 -0.45404419213644692 0.3625975043188554 0 -0.4325639091043616 0.37180597819459837 0 -0.45404419213644692 0.3625975043188554 0 -0.43459164588172849 0.36007712215754689 0 -0.44549025602952702 0.35300777224981977 0 -0.45404419213644692 0.3625975043188554 0 -0.44549025602952702 0.35300777224981977 0 -0.45575207180717081 0.34762579988211101 0 -0.43843079740841773 0.33787066219507811 0 -0.43459164588172849 0.36007712215754689 0 -0.44549025602952702 0.35300777224981977 0 -0.43843079740841773 0.33787066219507811 0 -0.44549025602952702 0.35300777224981977 0 -0.45575207180717081 0.34762579988211101 0 -0.45404419213644692 0.3625975043188554 0 -0.45575207180717081 0.34762579988211101 0 -0.46674234051517471 0.35793515390827568 0 -0.45404419213644692 0.3625975043188554 0 -0.45575207180717081 0.34762579988211101 0 -0.46674234051517471 0.35793515390827568 0 -0.46933267881425472 0.34565439271282838 0 -0.45404419213644692 0.3625975043188554 0 -0.47441064506165659 0.36523629740895902 0 -0.46674234051517471 0.35793515390827568 0 -0.45404419213644692 0.3625975043188554 0 -0.47441064506165659 0.36523629740895902 0 -0.45404419213644692 0.3625975043188554 0 -0.46360543106569913 0.37231654924431878 0 -0.47441064506165659 0.36523629740895902 0 -0.44813402172652672 0.37354371539476261 0 -0.45404419213644692 0.3625975043188554 0 -0.46360543106569913 0.37231654924431878 0 -0.46674234051517471 0.35793515390827568 0 -0.45404419213644692 0.3625975043188554 0 -0.46360543106569913 0.37231654924431878 0 -0.47397397291215421 0.37493689296344251 0 -0.47441064506165659 0.36523629740895902 0 -0.47441064506165659 0.36523629740895902 0 -0.48058358620238051 0.35168401037216412 0 -0.49477709798686631 0.36787509049906381 0 -0.47397397291215421 0.37493689296344251 0 -0.47441064506165659 0.36523629740895902 0 -0.48714178473823078 0.37241716516273898 0 -0.46674234051517471 0.35793515390827568 0 -0.47441064506165659 0.36523629740895902 0 -0.48058358620238051 0.35168401037216412 0 -0.46674234051517471 0.35793515390827568 0 -0.46933267881425472 0.34565439271282838 0 -0.48058358620238051 0.35168401037216412 0 -0.46933267881425472 0.34565439271282838 0 -0.48058358620238051 0.35168401037216412 0 -0.48121002056386808 0.3369363626790518 0 -0.48058358620238051 0.35168401037216412 0 -0.49703354506598713 0.34759711953555122 0 -0.48121002056386808 0.3369363626790518 0 -0.49703354506598713 0.34759711953555122 0 -0.5 0.34812631329607491 0 -0.49477709798686631 0.36787509049906381 0 -0.48058358620238051 0.35168401037216412 0 -0.49703354506598713 0.34759711953555122 0 -0.49477709798686631 0.36787509049906381 0 -0.49703354506598713 0.34759711953555122 0 -0.49477709798686631 0.36787509049906381 0 -0.5 0.34812631329607491 0 -0.50000000000000311 0.3685517992903854 0 -0.49477709798686631 0.36787509049906381 0 -0.47441064506165659 0.36523629740895902 0 -0.49477709798686631 0.36787509049906381 0 -0.48714178473823078 0.37241716516273898 0 -0.47441064506165659 0.36523629740895902 0 -0.49477709798686631 0.36787509049906381 0 -0.49007778645481631 0.38142997617552599 0 -0.50000000000000311 0.3685517992903854 0 -0.49477709798686631 0.36787509049906381 0 -0.50000000000000311 0.3685517992903854 0 -0.49477709798686631 0.36787509049906381 0 -0.49007778645481631 0.38142997617552599 0 -0.49477709798686631 0.36787509049906381 0 -0.48714178473823078 0.37241716516273898 0 -0.4992899921451075 0.32731914857203848 0 -0.47890896772952718 0.31636292681222472 0 -0.4992899921451075 0.32731914857203848 0 -0.48121002056386808 0.3369363626790518 0 -0.47890896772952718 0.31636292681222472 0 -0.49999999999999989 0.32093853419885771 0 -0.47890896772952718 0.31636292681222472 0 -0.48920120729889771 0.30786362236022019 0 -0.49999999999999989 0.32093853419885771 0 -0.4992899921451075 0.32731914857203848 0 -0.47890896772952718 0.31636292681222472 0 -0.49999999999999989 0.32093853419885771 0 -0.4992899921451075 0.32731914857203848 0 -0.49703354506598713 0.34759711953555122 0 -0.4992899921451075 0.32731914857203848 0 -0.49703354506598713 0.34759711953555122 0 -0.4992899921451075 0.32731914857203848 0 -0.48121002056386808 0.3369363626790518 0 -0.49703354506598713 0.34759711953555122 0 -0.5 0.34812631329607491 0 -0.4992899921451075 0.32731914857203848 0 -0.46933267881425472 0.34565439271282838 0 -0.48121002056386808 0.3369363626790518 0 -0.46237537498267961 0.3340906367225393 0 -0.48121002056386808 0.3369363626790518 0 -0.47890896772952718 0.31636292681222472 0 -0.46237537498267961 0.3340906367225393 0 -0.47890896772952718 0.31636292681222472 0 -0.45636509730576869 0.32029680939338251 0 -0.45852794331394758 0.30540670505240958 0 -0.47890896772952718 0.31636292681222472 0 -0.45636509730576869 0.32029680939338251 0 -0.46237537498267961 0.3340906367225393 0 -0.45575207180717081 0.34762579988211101 0 -0.46933267881425472 0.34565439271282838 0 -0.46237537498267961 0.3340906367225393 0 -0.45575207180717081 0.34762579988211101 0 -0.46237537498267961 0.3340906367225393 0 -0.43843079740841773 0.33787066219507811 0 -0.45636509730576869 0.32029680939338251 0 -0.46237537498267961 0.3340906367225393 0 -0.43843079740841773 0.33787066219507811 0 -0.45636509730576869 0.32029680939338251 0 -0.43843079740841773 0.33787066219507811 0 -0.44001701522470671 0.31606260091672289 0 -0.45636509730576869 0.32029680939338251 0 -0.44001701522470671 0.31606260091672289 0 -0.45852794331394758 0.30540670505240958 0 -0.4381469188983681 0.2944504832925946 0 -0.45852794331394758 0.30540670505240958 0 -0.44001701522470671 0.31606260091672289 0 -0.4381469188983681 0.2944504832925946 0 -0.45852794331394758 0.30540670505240958 0 -0.4381469188983681 0.2944504832925946 0 -0.4447805513699985 0.27737231294201392 0 -0.43100963400813791 0.27862602522793672 0 -0.4381469188983681 0.2944504832925946 0 -0.45724976864254441 0.28334965182257721 0 -0.4447805513699985 0.27737231294201392 0 -0.4381469188983681 0.2944504832925946 0 -0.45724976864254441 0.28334965182257721 0 -0.45852794331394758 0.30540670505240958 0 -0.45724976864254441 0.28334965182257721 0 -0.45852794331394758 0.30540670505240958 0 -0.47789586146606378 0.29814868652574811 0 -0.47890896772952718 0.31636292681222472 0 -0.45852794331394758 0.30540670505240958 0 -0.47890896772952718 0.31636292681222472 0 -0.47789586146606378 0.29814868652574811 0 -0.48920120729889771 0.30786362236022019 0 -0.47890896772952718 0.31636292681222472 0 -0.45852794331394758 0.30540670505240958 0 -0.47789586146606378 0.29814868652574811 0 -0.45724976864254441 0.28334965182257721 0 -0.47789586146606378 0.29814868652574811 0 -0.48102565218130672 0.27929705551177292 0 -0.5 0.29600434190405073 0 -0.5 0.27107014960924369 0 -0.48102565218130672 0.27929705551177292 0 -0.47789586146606378 0.29814868652574811 0 -0.5 0.29600434190405073 0 -0.48102565218130672 0.27929705551177292 0 -0.47789586146606378 0.29814868652574811 0 -0.5 0.29600434190405073 0 -0.48920120729889771 0.30786362236022019 0 -0.49999999999999989 0.32093853419885771 0 -0.5 0.29600434190405073 0 -0.48920120729889771 0.30786362236022019 0 -0.48177750529808522 0.24619974485466931 0 -0.5 0.2461359573144368 0 -0.48654709528280549 0.26072196503438649 0 -0.5 0.2461359573144368 0 -0.48654709528280549 0.26072196503438649 0 -0.5 0.27107014960924369 0 -0.48654709528280549 0.26072196503438649 0 -0.5 0.27107014960924369 0 -0.48102565218130672 0.27929705551177292 0 -0.48654709528280549 0.26072196503438649 0 -0.48102565218130672 0.27929705551177292 0 -0.46993231893463527 0.26090691788180947 0 -0.45724976864254441 0.28334965182257721 0 -0.48102565218130672 0.27929705551177292 0 -0.46993231893463527 0.26090691788180947 0 -0.48177750529808522 0.24619974485466931 0 -0.48654709528280549 0.26072196503438649 0 -0.46993231893463527 0.26090691788180947 0 -0.45710504060219709 0.23686107433279269 0 -0.46993231893463527 0.26090691788180947 0 -0.44707755271196942 0.2637365605125353 0 -0.45724976864254441 0.28334965182257721 0 -0.46993231893463527 0.26090691788180947 0 -0.44707755271196942 0.2637365605125353 0 -0.45724976864254441 0.28334965182257721 0 -0.4447805513699985 0.27737231294201392 0 -0.44707755271196942 0.2637365605125353 0 -0.4447805513699985 0.27737231294201392 0 -0.44707755271196942 0.2637365605125353 0 -0.43100963400813791 0.27862602522793672 0 -0.45710504060219709 0.23686107433279269 0 -0.44707755271196942 0.2637365605125353 0 -0.44707755271196942 0.2637365605125353 0 -0.4367416388518679 0.25264877063821017 0 -0.43100963400813791 0.27862602522793672 0 -0.45710504060219709 0.23686107433279269 0 -0.44707755271196942 0.2637365605125353 0 -0.4367416388518679 0.25264877063821017 0 -0.4367416388518679 0.25264877063821017 0 -0.41175872593851298 0.2549478601346914 0 -0.41885046316002428 0.26850948483906401 0 -0.41175872593851298 0.2549478601346914 0 -0.41885046316002428 0.26850948483906401 0 -0.3976364837244763 0.27421361628784369 0 -0.41885046316002428 0.26850948483906401 0 -0.41710583327712653 0.28211115190663788 0 -0.3976364837244763 0.27421361628784369 0 -0.41885046316002428 0.26850948483906401 0 -0.43100963400813791 0.27862602522793672 0 -0.41710583327712653 0.28211115190663788 0 -0.4367416388518679 0.25264877063821017 0 -0.43100963400813791 0.27862602522793672 0 -0.4367416388518679 0.25264877063821017 0 -0.41885046316002428 0.26850948483906401 0 -0.43100963400813791 0.27862602522793672 0 -0.4381469188983681 0.2944504832925946 0 -0.43100963400813791 0.27862602522793672 0 -0.42527762916440792 0.30460327981766322 0 -0.43100963400813791 0.27862602522793672 0 -0.42527762916440792 0.30460327981766322 0 -0.41710583327712653 0.28211115190663788 0 -0.43100963400813791 0.27862602522793672 0 -0.42527762916440792 0.30460327981766322 0 -0.44001701522470671 0.31606260091672289 0 -0.4381469188983681 0.2944504832925946 0 -0.42527762916440792 0.30460327981766322 0 -0.40602554896887638 0.32011992980008452 0 -0.42527762916440792 0.30460327981766322 0 -0.4014269901009333 0.29495587648231503 0 -0.41710583327712653 0.28211115190663788 0 -0.4014269901009333 0.29495587648231503 0 -0.42527762916440792 0.30460327981766322 0 -0.41710583327712653 0.28211115190663788 0 -0.4014269901009333 0.29495587648231503 0 -0.41710583327712653 0.28211115190663788 0 -0.4014269901009333 0.29495587648231503 0 -0.3976364837244763 0.27421361628784369 0 -0.4014269901009333 0.29495587648231503 0 -0.38389766901197209 0.2919764357376447 0 -0.3976364837244763 0.27421361628784369 0 -0.4014269901009333 0.29495587648231503 0 -0.3976364837244763 0.27421361628784369 0 -0.39350880394476312 0.31593875705230262 0 -0.40602554896887638 0.32011992980008452 0 -0.4014269901009333 0.29495587648231503 0 -0.4014269901009333 0.29495587648231503 0 -0.38336946241093189 0.30974931290420182 0 -0.40602554896887638 0.32011992980008452 0 -0.4014269901009333 0.29495587648231503 0 -0.39350880394476312 0.31593875705230262 0 -0.4014269901009333 0.29495587648231503 0 -0.38336946241093189 0.30974931290420182 0 -0.38336946241093189 0.30974931290420182 0 -0.38389766901197209 0.2919764357376447 0 -0.36596935852520629 0.30787018431111951 0 -0.4014269901009333 0.29495587648231503 0 -0.38336946241093189 0.30974931290420182 0 -0.38389766901197209 0.2919764357376447 0 -0.38389766901197209 0.2919764357376447 0 -0.3839238193794226 0.27871888045260418 0 -0.3976364837244763 0.27421361628784369 0 -0.38389766901197209 0.2919764357376447 0 -0.3839238193794226 0.27871888045260418 0 -0.3703732677084236 0.2804332674389724 0 -0.3839238193794226 0.27871888045260418 0 -0.38378785707281859 0.2682522023459562 0 -0.3703732677084236 0.2804332674389724 0 -0.38378785707281859 0.2682522023459562 0 -0.37477717689163992 0.25299635056682518 0 -0.3703732677084236 0.2804332674389724 0 -0.3839238193794226 0.27871888045260418 0 -0.38378785707281859 0.2682522023459562 0 -0.3976364837244763 0.27421361628784369 0 -0.38378785707281859 0.2682522023459562 0 -0.39384597734802013 0.25347135609337229 0 -0.37477717689163992 0.25299635056682518 0 -0.39384597734802013 0.25347135609337229 0 -0.3976364837244763 0.27421361628784369 0 -0.41175872593851298 0.2549478601346914 0 -0.39384597734802013 0.25347135609337229 0 -0.3976364837244763 0.27421361628784369 0 -0.38378785707281859 0.2682522023459562 0 -0.39384597734802013 0.25347135609337229 0 -0.3976364837244763 0.27421361628784369 0 -0.35834524103505527 0.27479395617319979 0 -0.34490227433735798 0.27909378963084902 0 -0.35045174428906722 0.28677843618767362 0 -0.35834524103505527 0.27479395617319979 0 -0.34490227433735798 0.27909378963084902 0 -0.34728570068091402 0.2661688508290645 0 -0.34728570068091402 0.2661688508290645 0 -0.35464358931248319 0.25491115920099722 0 -0.34150965816976359 0.25817059719828012 0 -0.33845336435013867 0.242079554605789 0 -0.35464358931248319 0.25491115920099722 0 -0.34150965816976359 0.25817059719828012 0 -0.35834524103505527 0.27479395617319979 0 -0.34728570068091402 0.2661688508290645 0 -0.35464358931248319 0.25491115920099722 0 -0.35834524103505527 0.27479395617319979 0 -0.37477717689163992 0.25299635056682518 0 -0.35834524103505527 0.27479395617319979 0 -0.35464358931248319 0.25491115920099722 0 -0.37477717689163992 0.25299635056682518 0 -0.37477717689163992 0.25299635056682518 0 -0.3703732677084236 0.2804332674389724 0 -0.35834524103505527 0.27479395617319979 0 -0.37477717689163992 0.25299635056682518 0 -0.3703732677084236 0.2804332674389724 0 -0.3703732677084236 0.2804332674389724 0 -0.36596935852520629 0.30787018431111951 0 -0.38389766901197209 0.2919764357376447 0 -0.3703732677084236 0.2804332674389724 0 -0.36596935852520629 0.30787018431111951 0 -0.35834524103505527 0.27479395617319979 0 -0.3703732677084236 0.2804332674389724 0 -0.35925388220638338 0.290827281626163 0 -0.3703732677084236 0.2804332674389724 0 -0.36596935852520629 0.30787018431111951 0 -0.35925388220638338 0.290827281626163 0 -0.36596935852520629 0.30787018431111951 0 -0.35645499353340299 0.30154574554434233 0 -0.35925388220638338 0.290827281626163 0 -0.36596935852520629 0.30787018431111951 0 -0.35645499353340299 0.30154574554434233 0 -0.35774913989266272 0.31391262040183171 0 -0.35645499353340299 0.30154574554434233 0 -0.35013945535461871 0.3105838988596446 0 -0.35774913989266272 0.31391262040183171 0 -0.35645499353340299 0.30154574554434233 0 -0.34780240298166087 0.30288468022079579 0 -0.35285886900803182 0.29452238055293539 0 -0.34780240298166087 0.30288468022079579 0 -0.34622635383862083 0.29383585221412489 0 -0.33932813284697128 0.29730713825443927 0 -0.34780240298166087 0.30288468022079579 0 -0.35285886900803182 0.29452238055293539 0 -0.34622635383862083 0.29383585221412489 0 -0.34780240298166087 0.30288468022079579 0 -0.34514961405368982 0.30758965292055213 0 -0.33997231501418312 0.30473657218964828 0 -0.35645499353340299 0.30154574554434233 0 -0.34780240298166087 0.30288468022079579 0 -0.35013945535461871 0.3105838988596446 0 -0.34780240298166087 0.30288468022079579 0 -0.34514961405368982 0.30758965292055213 0 -0.35013945535461871 0.3105838988596446 0 -0.34514961405368982 0.30758965292055213 0 -0.35013945535461871 0.3105838988596446 0 -0.34268428286429659 0.31215346041211978 0 -0.35834524103505527 0.27479395617319979 0 -0.35925388220638338 0.290827281626163 0 -0.35045174428906722 0.28677843618767362 0 -0.35645499353340299 0.30154574554434233 0 -0.35925388220638338 0.290827281626163 0 -0.35285886900803182 0.29452238055293539 0 -0.35925388220638338 0.290827281626163 0 -0.35285886900803182 0.29452238055293539 0 -0.35045174428906722 0.28677843618767362 0 -0.35285886900803182 0.29452238055293539 0 -0.34622635383862083 0.29383585221412489 0 -0.35045174428906722 0.28677843618767362 0 -0.34622635383862083 0.29383585221412489 0 -0.35045174428906722 0.28677843618767362 0 -0.34088660642111013 0.2879281286912172 0 -0.34490227433735798 0.27909378963084902 0 -0.35045174428906722 0.28677843618767362 0 -0.34088660642111013 0.2879281286912172 0 -0.34490227433735798 0.27909378963084902 0 -0.34088660642111013 0.2879281286912172 0 -0.33262910378125132 0.278293493462413 0 -0.34088660642111013 0.2879281286912172 0 -0.33227483086849752 0.29261385498347509 0 -0.33932813284697128 0.29730713825443927 0 -0.34622635383862083 0.29383585221412489 0 -0.34088660642111013 0.2879281286912172 0 -0.33932813284697128 0.29730713825443927 0 -0.33227483086849752 0.29261385498347509 0 -0.32398535199451511 0.28524421774589648 0 -0.33262910378125132 0.278293493462413 0 -0.34088660642111013 0.2879281286912172 0 -0.33227483086849752 0.29261385498347509 0 -0.33262910378125132 0.278293493462413 0 -0.33718535734333338 0.30882123026638569 0 -0.34268428286429659 0.31215346041211978 0 -0.33477104767585758 0.31524888829805342 0 -0.33718535734333338 0.30882123026638569 0 -0.34268428286429659 0.31215346041211978 0 -0.33997231501418312 0.30473657218964828 0 -0.34514961405368982 0.30758965292055213 0 -0.34268428286429659 0.31215346041211978 0 -0.33997231501418312 0.30473657218964828 0 -0.33718535734333338 0.30882123026638569 0 -0.33997231501418312 0.30473657218964828 0 -0.33396296217470239 0.30554582684384218 0 -0.33997231501418312 0.30473657218964828 0 -0.33932813284697128 0.29730713825443927 0 -0.33396296217470239 0.30554582684384218 0 -0.34780240298166087 0.30288468022079579 0 -0.33997231501418312 0.30473657218964828 0 -0.33932813284697128 0.29730713825443927 0 -0.33227483086849752 0.29261385498347509 0 -0.33396296217470239 0.30554582684384218 0 -0.32251037119006698 0.3031431883822347 0 -0.33227483086849752 0.29261385498347509 0 -0.33932813284697128 0.29730713825443927 0 -0.33396296217470239 0.30554582684384218 0 -0.33718535734333338 0.30882123026638569 0 -0.33396296217470239 0.30554582684384218 0 -0.33477104767585758 0.31524888829805342 0 -0.33396296217470239 0.30554582684384218 0 -0.32251037119006698 0.3031431883822347 0 -0.33219148171911272 0.31730370811833031 0 -0.32251037119006698 0.3031431883822347 0 -0.31456388983813333 0.31636814557902659 0 -0.33219148171911272 0.31730370811833031 0 -0.32251037119006698 0.3031431883822347 0 -0.31282926066102218 0.28898266864613842 0 -0.30402337591517081 0.3051012194244167 0 -0.32251037119006698 0.3031431883822347 0 -0.30402337591517081 0.3051012194244167 0 -0.31456388983813333 0.31636814557902659 0 -0.32251037119006698 0.3031431883822347 0 -0.33219148171911272 0.31730370811833031 0 -0.33227483086849752 0.29261385498347509 0 -0.32251037119006698 0.3031431883822347 0 -0.32398535199451511 0.28524421774589648 0 -0.32251037119006698 0.3031431883822347 0 -0.32398535199451511 0.28524421774589648 0 -0.31282926066102218 0.28898266864613842 0 -0.32251037119006698 0.3031431883822347 0 -0.31282926066102218 0.28898266864613842 0 -0.31282926066102218 0.28898266864613842 0 -0.32065101258715689 0.274665503564473 0 -0.32398535199451511 0.28524421774589648 0 -0.31282926066102218 0.28898266864613842 0 -0.32065101258715689 0.274665503564473 0 -0.32065101258715689 0.274665503564473 0 -0.32847276451329022 0.26034833848280681 0 -0.31199410965335322 0.26463258327439948 0 -0.32065101258715689 0.274665503564473 0 -0.33262910378125132 0.278293493462413 0 -0.32847276451329022 0.26034833848280681 0 -0.31282926066102218 0.28898266864613842 0 -0.32065101258715689 0.274665503564473 0 -0.30403346053568642 0.27611708872161922 0 -0.32065101258715689 0.274665503564473 0 -0.32847276451329022 0.26034833848280681 0 -0.32398535199451511 0.28524421774589648 0 -0.32065101258715689 0.274665503564473 0 -0.33262910378125132 0.278293493462413 0 -0.33262910378125132 0.278293493462413 0 -0.33869287199199061 0.26734508287274228 0 -0.32847276451329022 0.26034833848280681 0 -0.34490227433735798 0.27909378963084902 0 -0.34728570068091402 0.2661688508290645 0 -0.33869287199199061 0.26734508287274228 0 -0.34490227433735798 0.27909378963084902 0 -0.33262910378125132 0.278293493462413 0 -0.33869287199199061 0.26734508287274228 0 -0.33845336435013867 0.242079554605789 0 -0.34150965816976359 0.25817059719828012 0 -0.32847276451329022 0.26034833848280681 0 -0.33845336435013867 0.242079554605789 0 -0.32847276451329022 0.26034833848280681 0 -0.34728570068091402 0.2661688508290645 0 -0.33869287199199061 0.26734508287274228 0 -0.34150965816976359 0.25817059719828012 0 -0.33869287199199061 0.26734508287274228 0 -0.34150965816976359 0.25817059719828012 0 -0.32847276451329022 0.26034833848280681 0 -0.33869287199199061 0.26734508287274228 0 -0.32847276451329022 0.26034833848280681 0 -0.311575650220281 0.24878047680599949 0 -0.32847276451329022 0.26034833848280681 0 -0.311575650220281 0.24878047680599949 0 -0.32847276451329022 0.26034833848280681 0 -0.31199410965335322 0.26463258327439948 0 -0.32455092720978362 0.24357057421839101 0 -0.311575650220281 0.24878047680599949 0 -0.32847276451329022 0.26034833848280681 0 -0.311575650220281 0.24878047680599949 0 -0.31199410965335322 0.26463258327439948 0 -0.29523766041035199 0.26325150879709891 0 -0.30403346053568642 0.27611708872161922 0 -0.29523766041035199 0.26325150879709891 0 -0.29574151564778611 0.28671646758259889 0 -0.31199410965335322 0.26463258327439948 0 -0.30403346053568642 0.27611708872161922 0 -0.29523766041035199 0.26325150879709891 0 -0.32065101258715689 0.274665503564473 0 -0.31199410965335322 0.26463258327439948 0 -0.30403346053568642 0.27611708872161922 0 -0.30403346053568642 0.27611708872161922 0 -0.29523766041035199 0.26325150879709891 0 -0.28985028671148488 0.25537141990030859 0 -0.26863301980023729 0.26794771562718522 0 -0.28534189936007232 0.28197220440765719 0 -0.29523766041035199 0.26325150879709891 0 -0.29574151564778611 0.28671646758259889 0 -0.29523766041035199 0.26325150879709891 0 -0.29574151564778611 0.28671646758259889 0 -0.28534189936007232 0.28197220440765719 0 -0.28985028671148488 0.25537141990030859 0 -0.29523766041035199 0.26325150879709891 0 -0.28534189936007232 0.28197220440765719 0 -0.28985028671148488 0.25537141990030859 0 -0.28534189936007232 0.28197220440765719 0 -0.29467853592727078 0.23721261512919359 0 -0.29523766041035199 0.26325150879709891 0 -0.29467853592727078 0.23721261512919359 0 -0.28985028671148488 0.25537141990030859 0 -0.29523766041035199 0.26325150879709891 0 -0.28985028671148488 0.25537141990030859 0 -0.29523766041035199 0.26325150879709891 0 -0.28985028671148488 0.25537141990030859 0 -0.2724296921133022 0.25217156250687062 0 -0.26863301980023729 0.26794771562718522 0 -0.2724296921133022 0.25217156250687062 0 -0.26863301980023729 0.26794771562718522 0 -0.25693865295534157 0.25278860643768353 0 -0.26863301980023729 0.26794771562718522 0 -0.26277913973510902 0.29023342414179659 0 -0.28534189936007232 0.28197220440765719 0 -0.26277913973510902 0.29023342414179659 0 -0.2447247674615598 0.2718938593685879 0 -0.26863301980023729 0.26794771562718522 0 -0.26277913973510902 0.29023342414179659 0 -0.2447247674615598 0.2718938593685879 0 -0.26863301980023729 0.26794771562718522 0 -0.25693865295534157 0.25278860643768353 0 -0.2447247674615598 0.2718938593685879 0 -0.26277913973510902 0.29023342414179659 0 -0.25757488899104952 0.31786411623381933 0 -0.2366570207200871 0.30010935915934539 0 -0.26277913973510902 0.29023342414179659 0 -0.28083351200865853 0.30857298891500562 0 -0.28534189936007232 0.28197220440765719 0 -0.26277913973510902 0.29023342414179659 0 -0.28083351200865853 0.30857298891500562 0 -0.26277913973510902 0.29023342414179659 0 -0.28083351200865853 0.30857298891500562 0 -0.25757488899104952 0.31786411623381933 0 -0.28083351200865853 0.30857298891500562 0 -0.29574151564778611 0.28671646758259889 0 -0.30402337591517081 0.3051012194244167 0 -0.28083351200865853 0.30857298891500562 0 -0.29574151564778611 0.28671646758259889 0 -0.28534189936007232 0.28197220440765719 0 -0.28083351200865853 0.30857298891500562 0 -0.28534189936007232 0.28197220440765719 0 -0.31282926066102218 0.28898266864613842 0 -0.29574151564778611 0.28671646758259889 0 -0.30402337591517081 0.3051012194244167 0 -0.31282926066102218 0.28898266864613842 0 -0.30403346053568642 0.27611708872161922 0 -0.29574151564778611 0.28671646758259889 0 -0.31282926066102218 0.28898266864613842 0 -0.30403346053568642 0.27611708872161922 0 -0.31282926066102218 0.28898266864613842 0 -0.30402337591517081 0.3051012194244167 0 -0.30402337591517081 0.3051012194244167 0 -0.29932851783868691 0.32736014762988469 0 -0.31456388983813333 0.31636814557902659 0 -0.29932851783868691 0.32736014762988469 0 -0.31400963374603508 0.33178692824556621 0 -0.31456388983813333 0.31636814557902659 0 -0.29582778577295937 0.3462701483728044 0 -0.31354931950312093 0.34747342072874071 0 -0.31400963374603508 0.33178692824556621 0 -0.29582778577295937 0.3462701483728044 0 -0.31400963374603508 0.33178692824556621 0 -0.29932851783868691 0.32736014762988469 0 -0.29582778577295937 0.3462701483728044 0 -0.31400963374603508 0.33178692824556621 0 -0.29932851783868691 0.32736014762988469 0 -0.27670802547122531 0.33291454828341721 0 -0.29582778577295937 0.3462701483728044 0 -0.27670802547122531 0.33291454828341721 0 -0.29582778577295937 0.3462701483728044 0 -0.28186865011063378 0.34863084123191301 0 -0.28083351200865853 0.30857298891500562 0 -0.30402337591517081 0.3051012194244167 0 -0.29932851783868691 0.32736014762988469 0 -0.28083351200865853 0.30857298891500562 0 -0.29932851783868691 0.32736014762988469 0 -0.28083351200865853 0.30857298891500562 0 -0.29932851783868691 0.32736014762988469 0 -0.27670802547122531 0.33291454828341721 0 -0.28083351200865853 0.30857298891500562 0 -0.27670802547122531 0.33291454828341721 0 -0.25757488899104952 0.31786411623381933 0 -0.28083351200865853 0.30857298891500562 0 -0.27670802547122531 0.33291454828341721 0 -0.27670802547122531 0.33291454828341721 0 -0.25757488899104952 0.31786411623381933 0 -0.25368472498167011 0.34420349485172652 0 -0.2613799420943046 0.36179346951182628 0 -0.25453646971320443 0.37462232419521813 0 -0.26689531734350652 0.36931705260985792 0 -0.2613799420943046 0.36179346951182628 0 -0.25453646971320443 0.37462232419521813 0 -0.24822911175635759 0.36217347122335058 0 -0.25368472498167011 0.34420349485172652 0 -0.27258253893379292 0.35725610765182902 0 -0.2613799420943046 0.36179346951182628 0 -0.25368472498167011 0.34420349485172652 0 -0.24822911175635759 0.36217347122335058 0 -0.2613799420943046 0.36179346951182628 0 -0.25368472498167011 0.34420349485172652 0 -0.27258253893379292 0.35725610765182902 0 -0.27670802547122531 0.33291454828341721 0 -0.27258253893379292 0.35725610765182902 0 -0.27670802547122531 0.33291454828341721 0 -0.27258253893379292 0.35725610765182902 0 -0.28186865011063378 0.34863084123191301 0 -0.27670802547122531 0.33291454828341721 0 -0.25368472498167011 0.34420349485172652 0 -0.27258253893379292 0.35725610765182902 0 -0.27258253893379292 0.35725610765182902 0 -0.27764593779988228 0.36075336850004069 0 -0.28186865011063378 0.34863084123191301 0 -0.27258253893379292 0.35725610765182902 0 -0.27764593779988228 0.36075336850004069 0 -0.27764593779988228 0.36075336850004069 0 -0.27110701654299552 0.36596211494311248 0 -0.28943519450698252 0.3688961411714532 0 -0.27110701654299552 0.36596211494311248 0 -0.28943519450698252 0.3688961411714532 0 -0.27110701654299552 0.36596211494311248 0 -0.28943519450698252 0.3688961411714532 0 -0.28084635904778937 0.37544065550995409 0 -0.27258253893379292 0.35725610765182902 0 -0.27764593779988228 0.36075336850004069 0 -0.27110701654299552 0.36596211494311248 0 -0.27764593779988228 0.36075336850004069 0 -0.27110701654299552 0.36596211494311248 0 -0.2613799420943046 0.36179346951182628 0 -0.27258253893379292 0.35725610765182902 0 -0.27110701654299552 0.36596211494311248 0 -0.2613799420943046 0.36179346951182628 0 -0.27110701654299552 0.36596211494311248 0 -0.26689531734350652 0.36931705260985792 0 -0.27258253893379292 0.35725610765182902 0 -0.27110701654299552 0.36596211494311248 0 -0.27110701654299552 0.36596211494311248 0 -0.26689531734350652 0.36931705260985792 0 -0.27110701654299552 0.36596211494311248 0 -0.28084635904778937 0.37544065550995409 0 -0.27663284499009211 0.37939207802828528 0 -0.28943519450698252 0.3688961411714532 0 -0.28685204816290072 0.37621819500323123 0 -0.28084635904778937 0.37544065550995409 0 -0.27764593779988228 0.36075336850004069 0 -0.28943519450698252 0.3688961411714532 0 -0.29551252006441958 0.37309371542857861 0 -0.28943519450698252 0.3688961411714532 0 -0.28685204816290072 0.37621819500323123 0 -0.29551252006441958 0.37309371542857861 0 -0.28943519450698252 0.3688961411714532 0 -0.27764593779988228 0.36075336850004069 0 -0.29582778577295937 0.3462701483728044 0 -0.27764593779988228 0.36075336850004069 0 -0.29582778577295937 0.3462701483728044 0 -0.28186865011063378 0.34863084123191301 0 -0.28943519450698252 0.3688961411714532 0 -0.29582778577295937 0.3462701483728044 0 -0.30300283950081008 0.36051339397403093 0 -0.27764593779988228 0.36075336850004069 0 -0.28943519450698252 0.3688961411714532 0 -0.29582778577295937 0.3462701483728044 0 -0.29582778577295937 0.3462701483728044 0 -0.30300283950081008 0.36051339397403093 0 -0.31354931950312093 0.34747342072874071 0 -0.28943519450698252 0.3688961411714532 0 -0.31408843612631249 0.37197903781600761 0 -0.28943519450698252 0.3688961411714532 0 -0.30300283950081008 0.36051339397403093 0 -0.31408843612631249 0.37197903781600761 0 -0.29551252006441958 0.37309371542857861 0 -0.28943519450698252 0.3688961411714532 0 -0.31408843612631249 0.37197903781600761 0 -0.30300283950081008 0.36051339397403093 0 -0.31408843612631249 0.37197903781600761 0 -0.32472866683278162 0.35786931268145811 0 -0.31408843612631249 0.37197903781600761 0 -0.32472866683278162 0.35786931268145811 0 -0.33874167774564268 0.3750619344605613 0 -0.31408843612631249 0.37197903781600761 0 -0.33874167774564268 0.3750619344605613 0 -0.33942470910854639 0.36092010030626542 0 -0.32472866683278162 0.35786931268145811 0 -0.33874167774564268 0.3750619344605613 0 -0.33942470910854639 0.36092010030626542 0 -0.3497530714632448 0.36534695126967459 0 -0.33874167774564268 0.3750619344605613 0 -0.33815763529499693 0.35089104021064632 0 -0.32472866683278162 0.35786931268145811 0 -0.33017767166301859 0.34092732036984391 0 -0.33815763529499693 0.35089104021064632 0 -0.33017767166301859 0.34092732036984391 0 -0.34251680356524339 0.34321741671518669 0 -0.33815763529499693 0.35089104021064632 0 -0.3460879504978186 0.35511096805544279 0 -0.34556584107983002 0.34849125976349993 0 -0.33815763529499693 0.35089104021064632 0 -0.34251680356524339 0.34321741671518669 0 -0.34556584107983002 0.34849125976349993 0 -0.33942470910854639 0.36092010030626542 0 -0.33815763529499693 0.35089104021064632 0 -0.3460879504978186 0.35511096805544279 0 -0.33942470910854639 0.36092010030626542 0 -0.33815763529499693 0.35089104021064632 0 -0.32472866683278162 0.35786931268145811 0 -0.31354931950312093 0.34747342072874071 0 -0.32472866683278162 0.35786931268145811 0 -0.33017767166301859 0.34092732036984391 0 -0.30300283950081008 0.36051339397403093 0 -0.31354931950312093 0.34747342072874071 0 -0.32472866683278162 0.35786931268145811 0 -0.31400963374603508 0.33178692824556621 0 -0.33219148171911272 0.31730370811833031 0 -0.33017767166301859 0.34092732036984391 0 -0.31354931950312093 0.34747342072874071 0 -0.31400963374603508 0.33178692824556621 0 -0.33017767166301859 0.34092732036984391 0 -0.31400963374603508 0.33178692824556621 0 -0.33219148171911272 0.31730370811833031 0 -0.31400963374603508 0.33178692824556621 0 -0.31456388983813333 0.31636814557902659 0 -0.33219148171911272 0.31730370811833031 0 -0.33477104767585758 0.31524888829805342 0 -0.33219148171911272 0.31730370811833031 0 -0.34795343649956839 0.3209401758966518 0 -0.33219148171911272 0.31730370811833031 0 -0.34725440703092858 0.33933618574797492 0 -0.34795343649956839 0.3209401758966518 0 -0.33396296217470239 0.30554582684384218 0 -0.33477104767585758 0.31524888829805342 0 -0.33219148171911272 0.31730370811833031 0 -0.33477104767585758 0.31524888829805342 0 -0.33219148171911272 0.31730370811833031 0 -0.34268428286429659 0.31215346041211978 0 -0.33477104767585758 0.31524888829805342 0 -0.34795343649956839 0.3209401758966518 0 -0.33219148171911272 0.31730370811833031 0 -0.34725440703092858 0.33933618574797492 0 -0.33219148171911272 0.31730370811833031 0 -0.33017767166301859 0.34092732036984391 0 -0.34725440703092858 0.33933618574797492 0 -0.33017767166301859 0.34092732036984391 0 -0.34251680356524339 0.34321741671518669 0 -0.34725440703092858 0.33933618574797492 0 -0.34725440703092858 0.33933618574797492 0 -0.34795343649956839 0.3209401758966518 0 -0.36531193472093021 0.32454274932608829 0 -0.34251680356524339 0.34321741671518669 0 -0.35002774160894051 0.34339273059465159 0 -0.34725440703092858 0.33933618574797492 0 -0.34725440703092858 0.33933618574797492 0 -0.35848812135385522 0.33902175933596412 0 -0.36531193472093021 0.32454274932608829 0 -0.34725440703092858 0.33933618574797492 0 -0.36531193472093021 0.32454274932608829 0 -0.34251680356524339 0.34321741671518669 0 -0.34725440703092858 0.33933618574797492 0 -0.35002774160894051 0.34339273059465159 0 -0.34725440703092858 0.33933618574797492 0 -0.35002774160894051 0.34339273059465159 0 -0.35848812135385522 0.33902175933596412 0 -0.35712059876301439 0.34740413424876382 0 -0.35002774160894051 0.34339273059465159 0 -0.34725440703092858 0.33933618574797492 0 -0.35848812135385522 0.33902175933596412 0 -0.34795343649956839 0.3209401758966518 0 -0.35774913989266272 0.31391262040183171 0 -0.36531193472093021 0.32454274932608829 0 -0.35013945535461871 0.3105838988596446 0 -0.34268428286429659 0.31215346041211978 0 -0.34795343649956839 0.3209401758966518 0 -0.35013945535461871 0.3105838988596446 0 -0.34795343649956839 0.3209401758966518 0 -0.35774913989266272 0.31391262040183171 0 -0.38336946241093189 0.30974931290420182 0 -0.36596935852520629 0.30787018431111951 0 -0.36531193472093021 0.32454274932608829 0 -0.36596935852520629 0.30787018431111951 0 -0.35774913989266272 0.31391262040183171 0 -0.36531193472093021 0.32454274932608829 0 -0.37580907906339922 0.33647878059299557 0 -0.38201615891261242 0.31564575533693578 0 -0.36531193472093021 0.32454274932608829 0 -0.38336946241093189 0.30974931290420182 0 -0.36531193472093021 0.32454274932608829 0 -0.35848812135385522 0.33902175933596412 0 -0.36629538785756799 0.33494858662202331 0 -0.36491865814174967 0.34450616947628299 0 -0.35848812135385522 0.33902175933596412 0 -0.36491865814174967 0.34450616947628299 0 -0.35712059876301439 0.34740413424876382 0 -0.35848812135385522 0.33902175933596412 0 -0.36531193472093021 0.32454274932608829 0 -0.36629538785756799 0.33494858662202331 0 -0.37580907906339922 0.33647878059299557 0 -0.36531193472093021 0.32454274932608829 0 -0.36629538785756799 0.33494858662202331 0 -0.37580907906339922 0.33647878059299557 0 -0.36629538785756799 0.33494858662202331 0 -0.36491865814174967 0.34450616947628299 0 -0.37580907906339922 0.33647878059299557 0 -0.36491865814174967 0.34450616947628299 0 -0.36960199921418602 0.35731180584905542 0 -0.37580907906339922 0.33647878059299557 0 -0.36960199921418602 0.35731180584905542 0 -0.36491865814174967 0.34450616947628299 0 -0.36204010283369881 0.35293053614415609 0 -0.35712059876301439 0.34740413424876382 0 -0.36491865814174967 0.34450616947628299 0 -0.36204010283369881 0.35293053614415609 0 -0.36960199921418602 0.35731180584905542 0 -0.36231373349064938 0.3583368008115923 0 -0.36204010283369881 0.35293053614415609 0 -0.35577634304253192 0.35617190760009498 0 -0.36231373349064938 0.3583368008115923 0 -0.36204010283369881 0.35293053614415609 0 -0.36960199921418602 0.35731180584905542 0 -0.36960199921418602 0.35731180584905542 0 -0.36339491936497281 0.37814483110511521 0 -0.36960199921418602 0.35731180584905542 0 -0.37158620997362618 0.36500042586936587 0 -0.36339491936497281 0.37814483110511521 0 -0.36960199921418602 0.35731180584905542 0 -0.36108579844600058 0.36545797327707619 0 -0.36339491936497281 0.37814483110511521 0 -0.38141148745950948 0.38039780936179463 0 -0.37158620997362618 0.36500042586936587 0 -0.36339491936497281 0.37814483110511521 0 -0.38070440212728118 0.35956436367519867 0 -0.36960199921418602 0.35731180584905542 0 -0.37158620997362618 0.36500042586936587 0 -0.36231373349064938 0.3583368008115923 0 -0.36108579844600058 0.36545797327707619 0 -0.35577634304253192 0.35617190760009498 0 -0.36231373349064938 0.3583368008115923 0 -0.36960199921418602 0.35731180584905542 0 -0.36108579844600058 0.36545797327707619 0 -0.36108579844600058 0.36545797327707619 0 -0.3497530714632448 0.36534695126967459 0 -0.35577634304253192 0.35617190760009498 0 -0.3497530714632448 0.36534695126967459 0 -0.36339491936497281 0.37814483110511521 0 -0.33874167774564268 0.3750619344605613 0 -0.36108579844600058 0.36545797327707619 0 -0.3497530714632448 0.36534695126967459 0 -0.36339491936497281 0.37814483110511521 0 -0.33942470910854639 0.36092010030626542 0 -0.3497530714632448 0.36534695126967459 0 -0.3460879504978186 0.35511096805544279 0 -0.3497530714632448 0.36534695126967459 0 -0.3460879504978186 0.35511096805544279 0 -0.35577634304253192 0.35617190760009498 0 -0.3460879504978186 0.35511096805544279 0 -0.35103907443215082 0.34984414324157243 0 -0.35577634304253192 0.35617190760009498 0 -0.3460879504978186 0.35511096805544279 0 -0.34556584107983002 0.34849125976349993 0 -0.35103907443215082 0.34984414324157243 0 -0.34251680356524339 0.34321741671518669 0 -0.35002774160894051 0.34339273059465159 0 -0.34556584107983002 0.34849125976349993 0 -0.35002774160894051 0.34339273059465159 0 -0.34556584107983002 0.34849125976349993 0 -0.35103907443215082 0.34984414324157243 0 -0.35103907443215082 0.34984414324157243 0 -0.35712059876301439 0.34740413424876382 0 -0.35577634304253192 0.35617190760009498 0 -0.35002774160894051 0.34339273059465159 0 -0.35103907443215082 0.34984414324157243 0 -0.35712059876301439 0.34740413424876382 0 -0.36204010283369881 0.35293053614415609 0 -0.35712059876301439 0.34740413424876382 0 -0.35577634304253192 0.35617190760009498 0 -0.35746143571760969 0.39805957647408341 0 -0.33700984602307921 0.4055687403903776 0 -0.35746143571760969 0.39805957647408341 0 -0.36339491936497281 0.37814483110511521 0 -0.33874167774564268 0.3750619344605613 0 -0.36339491936497281 0.37814483110511521 0 -0.33874167774564268 0.3750619344605613 0 -0.38141148745950948 0.38039780936179463 0 -0.37844474563582792 0.390355182046278 0 -0.36339491936497281 0.37814483110511521 0 -0.37844474563582792 0.390355182046278 0 -0.35746143571760969 0.39805957647408341 0 -0.36339491936497281 0.37814483110511521 0 -0.35746143571760969 0.39805957647408341 0 -0.36339491936497281 0.37814483110511521 0 -0.38141148745950948 0.38039780936179463 0 -0.36339491936497281 0.37814483110511521 0 -0.37668454372729859 0.41206883315114529 0 -0.37844474563582792 0.390355182046278 0 -0.35746143571760969 0.39805957647408341 0 -0.37844474563582792 0.390355182046278 0 -0.35746143571760969 0.39805957647408341 0 -0.37668454372729859 0.41206883315114529 0 -0.36778315087773072 0.43214877602771662 0 -0.35179051953527918 0.41709305806631919 0 -0.37668454372729859 0.41206883315114529 0 -0.35746143571760969 0.39805957647408341 0 -0.35179051953527918 0.41709305806631919 0 -0.37668454372729859 0.41206883315114529 0 -0.35179051953527918 0.41709305806631919 0 -0.36778315087773072 0.43214877602771662 0 -0.35179051953527918 0.41709305806631919 0 -0.34355933144160938 0.44471966407244162 0 -0.35179051953527918 0.41709305806631919 0 -0.34355933144160938 0.44471966407244162 0 -0.35746143571760969 0.39805957647408341 0 -0.35179051953527918 0.41709305806631919 0 -0.33700984602307921 0.4055687403903776 0 -0.35746143571760969 0.39805957647408341 0 -0.35179051953527918 0.41709305806631919 0 -0.35179051953527918 0.41709305806631919 0 -0.33092261172728182 0.42130471390500562 0 -0.33700984602307921 0.4055687403903776 0 -0.35179051953527918 0.41709305806631919 0 -0.33092261172728182 0.42130471390500562 0 -0.33092261172728182 0.42130471390500562 0 -0.31655825632854873 0.41307790430667191 0 -0.33700984602307921 0.4055687403903776 0 -0.35179051953527918 0.41709305806631919 0 -0.33092261172728182 0.42130471390500562 0 -0.34355933144160938 0.44471966407244162 0 -0.33092261172728182 0.42130471390500562 0 -0.32304151796324199 0.43794530689545591 0 -0.34355933144160938 0.44471966407244162 0 -0.33092261172728182 0.42130471390500562 0 -0.31005470391928353 0.42551636974368717 0 -0.32304151796324199 0.43794530689545591 0 -0.33092261172728182 0.42130471390500562 0 -0.31005470391928353 0.42551636974368717 0 -0.31005470391928353 0.42551636974368717 0 -0.30636015846579262 0.44081646755455739 0 -0.32304151796324199 0.43794530689545591 0 -0.31655825632854873 0.41307790430667191 0 -0.32178824989383492 0.40044082628072353 0 -0.33700984602307921 0.4055687403903776 0 -0.33092261172728182 0.42130471390500562 0 -0.31655825632854873 0.41307790430667191 0 -0.31005470391928353 0.42551636974368717 0 -0.31655825632854873 0.41307790430667191 0 -0.33700984602307921 0.4055687403903776 0 -0.31655825632854873 0.41307790430667191 0 -0.32178824989383492 0.40044082628072353 0 -0.30820761894760612 0.40180007281058999 0 -0.31589124725359768 0.39098578459502642 0 -0.32178824989383492 0.40044082628072353 0 -0.30820761894760612 0.40180007281058999 0 -0.31589124725359768 0.39098578459502642 0 -0.32178824989383492 0.40044082628072353 0 -0.33127428091634248 0.39077162930095188 0 -0.35746143571760969 0.39805957647408341 0 -0.33127428091634248 0.39077162930095188 0 -0.33700984602307921 0.4055687403903776 0 -0.32178824989383492 0.40044082628072353 0 -0.33127428091634248 0.39077162930095188 0 -0.33700984602307921 0.4055687403903776 0 -0.35746143571760969 0.39805957647408341 0 -0.33127428091634248 0.39077162930095188 0 -0.33874167774564268 0.3750619344605613 0 -0.31408843612631249 0.37197903781600761 0 -0.33127428091634248 0.39077162930095188 0 -0.33874167774564268 0.3750619344605613 0 -0.31408843612631249 0.37197903781600761 0 -0.31589124725359768 0.39098578459502642 0 -0.33127428091634248 0.39077162930095188 0 -0.29551252006441958 0.37309371542857861 0 -0.31408843612631249 0.37197903781600761 0 -0.30568017353146049 0.38157918508743732 0 -0.31408843612631249 0.37197903781600761 0 -0.31589124725359768 0.39098578459502642 0 -0.30568017353146049 0.38157918508743732 0 -0.31589124725359768 0.39098578459502642 0 -0.30568017353146049 0.38157918508743732 0 -0.30603649680964828 0.39194203915736708 0 -0.30568017353146049 0.38157918508743732 0 -0.29743858983336929 0.38628170497916159 0 -0.30603649680964828 0.39194203915736708 0 -0.29551252006441958 0.37309371542857861 0 -0.30568017353146049 0.38157918508743732 0 -0.29743858983336929 0.38628170497916159 0 -0.31589124725359768 0.39098578459502642 0 -0.30820761894760612 0.40180007281058999 0 -0.30603649680964828 0.39194203915736708 0 -0.30820761894760612 0.40180007281058999 0 -0.30603649680964828 0.39194203915736708 0 -0.29604813782321171 0.40003827384795049 0 -0.29743858983336929 0.38628170497916159 0 -0.30603649680964828 0.39194203915736708 0 -0.29604813782321171 0.40003827384795049 0 -0.30820761894760612 0.40180007281058999 0 -0.29604813782321171 0.40003827384795049 0 -0.2987408814332651 0.40933989620534528 0 -0.29604813782321171 0.40003827384795049 0 -0.28905057763704689 0.40562835892549581 0 -0.28392778011776681 0.39892722844600809 0 -0.29604813782321171 0.40003827384795049 0 -0.28905057763704689 0.40562835892549581 0 -0.2987408814332651 0.40933989620534528 0 -0.29604813782321171 0.40003827384795049 0 -0.28980128107673031 0.39400368344191522 0 -0.28392778011776681 0.39892722844600809 0 -0.29743858983336929 0.38628170497916159 0 -0.29604813782321171 0.40003827384795049 0 -0.28980128107673031 0.39400368344191522 0 -0.28980128107673031 0.39400368344191522 0 -0.28179061653257348 0.3907675264945405 0 -0.28392778011776681 0.39892722844600809 0 -0.28905057763704689 0.40562835892549581 0 -0.28392778011776681 0.39892722844600809 0 -0.27817781655911977 0.40726136879628272 0 -0.29743858983336929 0.38628170497916159 0 -0.28980128107673031 0.39400368344191522 0 -0.28179061653257348 0.3907675264945405 0 -0.29743858983336929 0.38628170497916159 0 -0.28179061653257348 0.3907675264945405 0 -0.28819376848868639 0.38228739672622841 0 -0.29743858983336929 0.38628170497916159 0 -0.28179061653257348 0.3907675264945405 0 -0.29551252006441958 0.37309371542857861 0 -0.29743858983336929 0.38628170497916159 0 -0.28819376848868639 0.38228739672622841 0 -0.29551252006441958 0.37309371542857861 0 -0.28819376848868639 0.38228739672622841 0 -0.28685204816290072 0.37621819500323123 0 -0.28179061653257348 0.3907675264945405 0 -0.28158428542699082 0.38279668863870758 0 -0.28819376848868639 0.38228739672622841 0 -0.28158428542699082 0.38279668863870758 0 -0.28819376848868639 0.38228739672622841 0 -0.28685204816290072 0.37621819500323123 0 -0.28158428542699082 0.38279668863870758 0 -0.28685204816290072 0.37621819500323123 0 -0.28084635904778937 0.37544065550995409 0 -0.27110701654299552 0.36596211494311248 0 -0.26614264323177789 0.39525334800991979 0 -0.27110701654299552 0.36596211494311248 0 -0.27663284499009211 0.37939207802828528 0 -0.27229768174870289 0.38438446135480281 0 -0.27110701654299552 0.36596211494311248 0 -0.27229768174870289 0.38438446135480281 0 -0.26614264323177789 0.39525334800991979 0 -0.27110701654299552 0.36596211494311248 0 -0.26689531734350652 0.36931705260985792 0 -0.26614264323177789 0.39525334800991979 0 -0.28158428542699082 0.38279668863870758 0 -0.28084635904778937 0.37544065550995409 0 -0.27663284499009211 0.37939207802828528 0 -0.27229768174870289 0.38438446135480281 0 -0.27641046434025379 0.38710393959788297 0 -0.26614264323177789 0.39525334800991979 0 -0.28179061653257348 0.3907675264945405 0 -0.28158428542699082 0.38279668863870758 0 -0.27641046434025379 0.38710393959788297 0 -0.27663284499009211 0.37939207802828528 0 -0.27229768174870289 0.38438446135480281 0 -0.27641046434025379 0.38710393959788297 0 -0.28158428542699082 0.38279668863870758 0 -0.27663284499009211 0.37939207802828528 0 -0.27641046434025379 0.38710393959788297 0 -0.28179061653257348 0.3907675264945405 0 -0.27641046434025379 0.38710393959788297 0 -0.26614264323177789 0.39525334800991979 0 -0.28179061653257348 0.3907675264945405 0 -0.27661435207820328 0.39472461325581981 0 -0.26614264323177789 0.39525334800991979 0 -0.28179061653257348 0.3907675264945405 0 -0.28392778011776681 0.39892722844600809 0 -0.27661435207820328 0.39472461325581981 0 -0.28179061653257348 0.3907675264945405 0 -0.26614264323177789 0.39525334800991979 0 -0.28392778011776681 0.39892722844600809 0 -0.27661435207820328 0.39472461325581981 0 -0.27572094251528112 0.40196054452149499 0 -0.28392778011776681 0.39892722844600809 0 -0.27572094251528112 0.40196054452149499 0 -0.27817781655911977 0.40726136879628272 0 -0.27572094251528112 0.40196054452149499 0 -0.26416382130603389 0.40692896758786917 0 -0.27817781655911977 0.40726136879628272 0 -0.27661435207820328 0.39472461325581981 0 -0.27572094251528112 0.40196054452149499 0 -0.26416382130603389 0.40692896758786917 0 -0.27661435207820328 0.39472461325581981 0 -0.26614264323177789 0.39525334800991979 0 -0.26416382130603389 0.40692896758786917 0 -0.27661435207820328 0.39472461325581981 0 -0.26416382130603389 0.40692896758786917 0 -0.26614264323177789 0.39525334800991979 0 -0.24781733580734391 0.38604582424895789 0 -0.24388213391773941 0.40163479241199579 0 -0.26614264323177789 0.39525334800991979 0 -0.25157066981256843 0.40894445920752592 0 -0.24388213391773941 0.40163479241199579 0 -0.26614264323177789 0.39525334800991979 0 -0.24388213391773941 0.40163479241199579 0 -0.26614264323177789 0.39525334800991979 0 -0.26416382130603389 0.40692896758786917 0 -0.26614264323177789 0.39525334800991979 0 -0.25157066981256843 0.40894445920752592 0 -0.26416382130603389 0.40692896758786917 0 -0.25453646971320443 0.37462232419521813 0 -0.26614264323177789 0.39525334800991979 0 -0.24781733580734391 0.38604582424895789 0 -0.25453646971320443 0.37462232419521813 0 -0.26689531734350652 0.36931705260985792 0 -0.26614264323177789 0.39525334800991979 0 -0.26107936510946472 0.42512814796255138 0 -0.25799490891289278 0.4433273283372331 0 -0.26107936510946472 0.42512814796255138 0 -0.27138668263498972 0.43431468825499642 0 -0.25799490891289278 0.4433273283372331 0 -0.26107936510946472 0.42512814796255138 0 -0.25799490891289278 0.4433273283372331 0 -0.24263019791012411 0.42803682032005991 0 -0.25799490891289278 0.4433273283372331 0 -0.24263019791012411 0.42803682032005991 0 -0.26107936510946472 0.42512814796255138 0 -0.26416382130603389 0.40692896758786917 0 -0.26107936510946472 0.42512814796255138 0 -0.26416382130603389 0.40692896758786917 0 -0.24263019791012411 0.42803682032005991 0 -0.26416382130603389 0.40692896758786917 0 -0.24263019791012411 0.42803682032005991 0 -0.25157066981256843 0.40894445920752592 0 -0.26416382130603389 0.40692896758786917 0 -0.24263019791012411 0.42803682032005991 0 -0.26107936510946472 0.42512814796255138 0 -0.26416382130603389 0.40692896758786917 0 -0.27370875903762831 0.41905129137381081 0 -0.26416382130603389 0.40692896758786917 0 -0.27817781655911977 0.40726136879628272 0 -0.27370875903762831 0.41905129137381081 0 -0.27817781655911977 0.40726136879628272 0 -0.27370875903762831 0.41905129137381081 0 -0.28647403122915938 0.41490769911839809 0 -0.27370875903762831 0.41905129137381081 0 -0.27138668263498972 0.43431468825499642 0 -0.28359142860916292 0.42646623900898489 0 -0.26107936510946472 0.42512814796255138 0 -0.27370875903762831 0.41905129137381081 0 -0.27138668263498972 0.43431468825499642 0 -0.27138668263498972 0.43431468825499642 0 -0.28359142860916292 0.42646623900898489 0 -0.28426041238301858 0.43930471826406531 0 -0.28359142860916292 0.42646623900898489 0 -0.29576073289665422 0.43347565529899762 0 -0.28426041238301858 0.43930471826406531 0 -0.28359142860916292 0.42646623900898489 0 -0.29576073289665422 0.43347565529899762 0 -0.29610666663401819 0.4205870682229661 0 -0.28905057763704689 0.40562835892549581 0 -0.27817781655911977 0.40726136879628272 0 -0.28647403122915938 0.41490769911839809 0 -0.27370875903762831 0.41905129137381081 0 -0.28359142860916292 0.42646623900898489 0 -0.28647403122915938 0.41490769911839809 0 -0.28359142860916292 0.42646623900898489 0 -0.28647403122915938 0.41490769911839809 0 -0.29610666663401819 0.4205870682229661 0 -0.28647403122915938 0.41490769911839809 0 -0.29610666663401819 0.4205870682229661 0 -0.2987408814332651 0.40933989620534528 0 -0.28905057763704689 0.40562835892549581 0 -0.28647403122915938 0.41490769911839809 0 -0.2987408814332651 0.40933989620534528 0 -0.31655825632854873 0.41307790430667191 0 -0.29610666663401819 0.4205870682229661 0 -0.2987408814332651 0.40933989620534528 0 -0.31655825632854873 0.41307790430667191 0 -0.29610666663401819 0.4205870682229661 0 -0.31005470391928353 0.42551636974368717 0 -0.31655825632854873 0.41307790430667191 0 -0.29610666663401819 0.4205870682229661 0 -0.31655825632854873 0.41307790430667191 0 -0.30820761894760612 0.40180007281058999 0 -0.2987408814332651 0.40933989620534528 0 -0.29576073289665422 0.43347565529899762 0 -0.31005470391928353 0.42551636974368717 0 -0.30636015846579262 0.44081646755455739 0 -0.29576073289665422 0.43347565529899762 0 -0.29610666663401819 0.4205870682229661 0 -0.31005470391928353 0.42551636974368717 0 -0.29576073289665422 0.43347565529899762 0 -0.30636015846579262 0.44081646755455739 0 -0.2944743431310044 0.45228094752776682 0 -0.30636015846579262 0.44081646755455739 0 -0.30512100021830008 0.46490456032657962 0 -0.30636015846579262 0.44081646755455739 0 -0.30512100021830008 0.46490456032657962 0 -0.2944743431310044 0.45228094752776682 0 -0.30636015846579262 0.44081646755455739 0 -0.30512100021830008 0.46490456032657962 0 -0.32381548421637429 0.45642326981327008 0 -0.30512100021830008 0.46490456032657962 0 -0.2944743431310044 0.45228094752776682 0 -0.28858619761816889 0.47377087817814589 0 -0.2944743431310044 0.45228094752776682 0 -0.27329055326553048 0.45854910325768988 0 -0.28858619761816889 0.47377087817814589 0 -0.2944743431310044 0.45228094752776682 0 -0.28426041238301858 0.43930471826406531 0 -0.27329055326553048 0.45854910325768988 0 -0.29576073289665422 0.43347565529899762 0 -0.2944743431310044 0.45228094752776682 0 -0.28426041238301858 0.43930471826406531 0 -0.27138668263498972 0.43431468825499642 0 -0.28426041238301858 0.43930471826406531 0 -0.27329055326553048 0.45854910325768988 0 -0.27138668263498972 0.43431468825499642 0 -0.27329055326553048 0.45854910325768988 0 -0.25799490891289278 0.4433273283372331 0 -0.27329055326553048 0.45854910325768988 0 -0.25799490891289278 0.4433273283372331 0 -0.27329055326553048 0.45854910325768988 0 -0.28858619761816889 0.47377087817814589 0 -0.27329055326553048 0.45854910325768988 0 -0.25438198006151169 0.46464464965965441 0 -0.25799490891289278 0.4433273283372331 0 -0.27329055326553048 0.45854910325768988 0 -0.25438198006151169 0.46464464965965441 0 -0.26859377699614329 0.4811575177290362 0 -0.25438198006151169 0.46464464965965441 0 -0.25799490891289278 0.4433273283372331 0 -0.25438198006151169 0.46464464965965441 0 -0.25799490891289278 0.4433273283372331 0 -0.24356894722331929 0.44821508210096461 0 -0.25080144613104921 0.5 0 -0.26859377699614329 0.4811575177290362 0 -0.2467553297522557 0.48147402383551691 0 -0.25080144613104921 0.5 0 -0.26859377699614329 0.4811575177290362 0 -0.27705851983630159 0.5 0 -0.25438198006151169 0.46464464965965441 0 -0.26859377699614329 0.4811575177290362 0 -0.2467553297522557 0.48147402383551691 0 -0.27329055326553048 0.45854910325768988 0 -0.26859377699614329 0.4811575177290362 0 -0.28858619761816889 0.47377087817814589 0 -0.26859377699614329 0.4811575177290362 0 -0.27705851983630159 0.5 0 -0.28830299895955541 0.48893487857068268 0 -0.27705851983630159 0.5 0 -0.28830299895955541 0.48893487857068268 0 -0.30331559354155391 0.49999999999999939 0 -0.26859377699614329 0.4811575177290362 0 -0.28830299895955541 0.48893487857068268 0 -0.28858619761816889 0.47377087817814589 0 -0.28830299895955541 0.48893487857068268 0 -0.28858619761816889 0.47377087817814589 0 -0.30388184197080759 0.48899265309860168 0 -0.28858619761816889 0.47377087817814589 0 -0.30388184197080759 0.48899265309860168 0 -0.30512100021830008 0.46490456032657962 0 -0.30388184197080759 0.48899265309860168 0 -0.30512100021830008 0.46490456032657962 0 -0.30388184197080759 0.48899265309860168 0 -0.31654611508668351 0.48621885406126381 0 -0.30512100021830008 0.46490456032657962 0 -0.28858619761816889 0.47377087817814589 0 -0.30388184197080759 0.48899265309860168 0 -0.30331559354155391 0.49999999999999939 0 -0.30388184197080759 0.48899265309860168 0 -0.28830299895955541 0.48893487857068268 0 -0.30331559354155391 0.49999999999999939 0 -0.30388184197080759 0.48899265309860168 0 -0.30388184197080759 0.48899265309860168 0 -0.31494260619507058 0.500000000000002 0 -0.31654611508668351 0.48621885406126381 0 -0.30331559354155391 0.49999999999999939 0 -0.30388184197080759 0.48899265309860168 0 -0.31494260619507058 0.500000000000002 0 -0.30388184197080759 0.48899265309860168 0 -0.31494260619507058 0.500000000000002 0 -0.31654611508668351 0.48621885406126381 0 -0.33275791060477139 0.5 0 -0.32602721644446891 0.47719705688113462 0 -0.31494260619507058 0.500000000000002 0 -0.31654611508668351 0.48621885406126381 0 -0.33275791060477139 0.5 0 -0.33275791060477139 0.5 0 -0.34200011506365208 0.48331572161184322 0 -0.32602721644446891 0.47719705688113462 0 -0.33275791060477139 0.5 0 -0.34200011506365208 0.48331572161184322 0 -0.35057321501447208 0.49999999999999872 0 -0.34200011506365208 0.48331572161184322 0 -0.32602721644446891 0.47719705688113462 0 -0.33593075250063148 0.46750731867274542 0 -0.34200011506365208 0.48331572161184322 0 -0.33593075250063148 0.46750731867274542 0 -0.35201810675435108 0.4676562019538536 0 -0.30512100021830008 0.46490456032657962 0 -0.31654611508668351 0.48621885406126381 0 -0.32602721644446891 0.47719705688113462 0 -0.30512100021830008 0.46490456032657962 0 -0.32602721644446891 0.47719705688113462 0 -0.32381548421637429 0.45642326981327008 0 -0.30636015846579262 0.44081646755455739 0 -0.32381548421637429 0.45642326981327008 0 -0.32304151796324199 0.43794530689545591 0 -0.32381548421637429 0.45642326981327008 0 -0.32304151796324199 0.43794530689545591 0 -0.34355933144160938 0.44471966407244162 0 -0.32381548421637429 0.45642326981327008 0 -0.34355933144160938 0.44471966407244162 0 -0.33593075250063148 0.46750731867274542 0 -0.32602721644446891 0.47719705688113462 0 -0.32381548421637429 0.45642326981327008 0 -0.33593075250063148 0.46750731867274542 0 -0.35201810675435108 0.4676562019538536 0 -0.36028404822733179 0.44939908513577981 0 -0.36566353784044697 0.46257036423753561 0 -0.34355933144160938 0.44471966407244162 0 -0.35201810675435108 0.4676562019538536 0 -0.36028404822733179 0.44939908513577981 0 -0.34355933144160938 0.44471966407244162 0 -0.33593075250063148 0.46750731867274542 0 -0.35201810675435108 0.4676562019538536 0 -0.36778315087773072 0.43214877602771662 0 -0.34355933144160938 0.44471966407244162 0 -0.36028404822733179 0.44939908513577981 0 -0.36778315087773072 0.43214877602771662 0 -0.36028404822733179 0.44939908513577981 0 -0.37376195539900242 0.45249759326054367 0 -0.37701653082709469 0.46900635458093531 0 -0.37376195539900242 0.45249759326054367 0 -0.36566353784044697 0.46257036423753561 0 -0.36028404822733179 0.44939908513577981 0 -0.37376195539900242 0.45249759326054367 0 -0.36566353784044697 0.46257036423753561 0 -0.36552159823955549 0.47691699748014749 0 -0.37220834978290879 0.49000150617251997 0 -0.35595833756876799 0.48470827593500232 0 -0.37701653082709469 0.46900635458093531 0 -0.36566353784044697 0.46257036423753561 0 -0.36552159823955549 0.47691699748014749 0 -0.37805640255927542 0.47903421333972468 0 -0.37701653082709469 0.46900635458093531 0 -0.36552159823955549 0.47691699748014749 0 -0.35201810675435108 0.4676562019538536 0 -0.36566353784044697 0.46257036423753561 0 -0.36552159823955549 0.47691699748014749 0 -0.37805640255927542 0.47903421333972468 0 -0.36552159823955549 0.47691699748014749 0 -0.37220834978290879 0.49000150617251997 0 -0.37220834978290879 0.49000150617251997 0 -0.35057321501447208 0.49999999999999872 0 -0.35595833756876799 0.48470827593500232 0 -0.37789332191386737 0.5 0 -0.37220834978290879 0.49000150617251997 0 -0.35057321501447208 0.49999999999999872 0 -0.37220834978290879 0.49000150617251997 0 -0.35057321501447208 0.49999999999999872 0 -0.34200011506365208 0.48331572161184322 0 -0.35057321501447208 0.49999999999999872 0 -0.35595833756876799 0.48470827593500232 0 -0.34200011506365208 0.48331572161184322 0 -0.35201810675435108 0.4676562019538536 0 -0.35595833756876799 0.48470827593500232 0 -0.35201810675435108 0.4676562019538536 0 -0.36552159823955549 0.47691699748014749 0 -0.35595833756876799 0.48470827593500232 0 -0.142080771754234 0.48212662116497451 0 -0.14744519938683801 0.47523243684594829 0 -0.1380962150490555 0.47248515407185221 0 -0.142080771754234 0.48212662116497451 0 -0.14744519938683801 0.47523243684594829 0 -0.15313912830386001 0.48632871978955722 0 -0.14744519938683801 0.47523243684594829 0 -0.1380962150490555 0.47248515407185221 0 -0.1446941887002707 0.46454185114692792 0 -0.14744519938683801 0.47523243684594829 0 -0.1446941887002707 0.46454185114692792 0 -0.15815775643206659 0.473198332503178 0 -0.14744519938683801 0.47523243684594829 0 -0.15313912830386001 0.48632871978955722 0 -0.15815775643206659 0.473198332503178 0 -0.142080771754234 0.48212662116497451 0 -0.15313912830386001 0.48632871978955722 0 -0.13803845513632401 0.5 0 -0.15313912830386001 0.48632871978955722 0 -0.13803845513632401 0.5 0 -0.1663114266205577 0.50000000000000011 0 -0.142080771754234 0.48212662116497451 0 -0.13803845513632401 0.5 0 -0.12908554574303099 0.47755934496718438 0 -0.13803845513632401 0.5 0 -0.12908554574303099 0.47755934496718438 0 -0.1160402402672886 0.48503019582547341 0 -0.142080771754234 0.48212662116497451 0 -0.12908554574303099 0.47755934496718438 0 -0.1380962150490555 0.47248515407185221 0 -0.12908554574303099 0.47755934496718438 0 -0.1380962150490555 0.47248515407185221 0 -0.13097929143795109 0.46459511115351071 0 -0.12908554574303099 0.47755934496718438 0 -0.13097929143795109 0.46459511115351071 0 -0.1176294132596279 0.46872710166108278 0 -0.13097929143795109 0.46459511115351071 0 -0.1351896940807357 0.45304119368279389 0 -0.1204057133641486 0.45504160574272429 0 -0.13097929143795109 0.46459511115351071 0 -0.1351896940807357 0.45304119368279389 0 -0.1446941887002707 0.46454185114692792 0 -0.1380962150490555 0.47248515407185221 0 -0.13097929143795109 0.46459511115351071 0 -0.1446941887002707 0.46454185114692792 0 -0.1351896940807357 0.45304119368279389 0 -0.13889501351409689 0.43598263237980822 0 -0.1242648033483075 0.43981492828754482 0 -0.1351896940807357 0.45304119368279389 0 -0.1242648033483075 0.43981492828754482 0 -0.1204057133641486 0.45504160574272429 0 -0.15017718620881049 0.45777983735391498 0 -0.13889501351409689 0.43598263237980822 0 -0.1351896940807357 0.45304119368279389 0 -0.15017718620881049 0.45777983735391498 0 -0.13889501351409689 0.43598263237980822 0 -0.15995177900170021 0.44572512983606088 0 -0.15376963845050121 0.4328235067909087 0 -0.13889501351409689 0.43598263237980822 0 -0.15017718620881049 0.45777983735391498 0 -0.15995177900170021 0.44572512983606088 0 -0.13889501351409689 0.43598263237980822 0 -0.15017718620881049 0.45777983735391498 0 -0.15995177900170021 0.44572512983606088 0 -0.1446941887002707 0.46454185114692792 0 -0.15017718620881049 0.45777983735391498 0 -0.1351896940807357 0.45304119368279389 0 -0.1446941887002707 0.46454185114692792 0 -0.15017718620881049 0.45777983735391498 0 -0.1446941887002707 0.46454185114692792 0 -0.15017718620881049 0.45777983735391498 0 -0.15815775643206659 0.473198332503178 0 -0.15017718620881049 0.45777983735391498 0 -0.15868634814382429 0.46531473325554851 0 -0.15815775643206659 0.473198332503178 0 -0.15017718620881049 0.45777983735391498 0 -0.15815775643206659 0.473198332503178 0 -0.160558198289461 0.46047642425523388 0 -0.1655661766345953 0.45099185016729298 0 -0.16585225164495951 0.46980433890986678 0 -0.1655661766345953 0.45099185016729298 0 -0.17867327812258871 0.46114583139567922 0 -0.16585225164495951 0.46980433890986678 0 -0.1655661766345953 0.45099185016729298 0 -0.16585225164495951 0.46980433890986678 0 -0.15868634814382429 0.46531473325554851 0 -0.160558198289461 0.46047642425523388 0 -0.16585225164495951 0.46980433890986678 0 -0.15017718620881049 0.45777983735391498 0 -0.15868634814382429 0.46531473325554851 0 -0.160558198289461 0.46047642425523388 0 -0.15017718620881049 0.45777983735391498 0 -0.160558198289461 0.46047642425523388 0 -0.15995177900170021 0.44572512983606088 0 -0.15995177900170021 0.44572512983606088 0 -0.1655661766345953 0.45099185016729298 0 -0.1697263717945888 0.43367042231820602 0 -0.160558198289461 0.46047642425523388 0 -0.15995177900170021 0.44572512983606088 0 -0.1655661766345953 0.45099185016729298 0 -0.15995177900170021 0.44572512983606088 0 -0.1697263717945888 0.43367042231820602 0 -0.1655661766345953 0.45099185016729298 0 -0.1926513277646352 0.45119866261047992 0 -0.1697263717945888 0.43367042231820602 0 -0.1926513277646352 0.45119866261047992 0 -0.1697263717945888 0.43367042231820602 0 -0.1926513277646352 0.45119866261047992 0 -0.18693863061853061 0.43491447939059907 0 -0.1697263717945888 0.43367042231820602 0 -0.1655661766345953 0.45099185016729298 0 -0.17867327812258871 0.46114583139567922 0 -0.1926513277646352 0.45119866261047992 0 -0.17867327812258871 0.46114583139567922 0 -0.17876854714149509 0.47093865696285842 0 -0.16585225164495951 0.46980433890986678 0 -0.17867327812258871 0.46114583139567922 0 -0.1899884502156329 0.46461586120334353 0 -0.1926513277646352 0.45119866261047992 0 -0.17867327812258871 0.46114583139567922 0 -0.17876854714149509 0.47093865696285842 0 -0.1899884502156329 0.46461586120334353 0 -0.17876854714149509 0.47093865696285842 0 -0.19138341924764241 0.47827032896460842 0 -0.1899884502156329 0.46461586120334353 0 -0.1757986315986971 0.48088398659212228 0 -0.17876854714149509 0.47093865696285842 0 -0.19138341924764241 0.47827032896460842 0 -0.1757986315986971 0.48088398659212228 0 -0.17876854714149509 0.47093865696285842 0 -0.16585225164495951 0.46980433890986678 0 -0.16585225164495951 0.46980433890986678 0 -0.16613832665532341 0.48861682765244069 0 -0.16585225164495951 0.46980433890986678 0 -0.15815775643206659 0.473198332503178 0 -0.16613832665532341 0.48861682765244069 0 -0.1757986315986971 0.48088398659212228 0 -0.16585225164495951 0.46980433890986678 0 -0.16613832665532341 0.48861682765244069 0 -0.15313912830386001 0.48632871978955722 0 -0.15815775643206659 0.473198332503178 0 -0.16613832665532341 0.48861682765244069 0 -0.15815775643206659 0.473198332503178 0 -0.16613832665532341 0.48861682765244069 0 -0.15868634814382429 0.46531473325554851 0 -0.16585225164495951 0.46980433890986678 0 -0.15815775643206659 0.473198332503178 0 -0.15313912830386001 0.48632871978955722 0 -0.16613832665532341 0.48861682765244069 0 -0.1663114266205577 0.50000000000000011 0 -0.16613832665532341 0.48861682765244069 0 -0.1720302250152923 0.50000000000000022 0 -0.16613832665532341 0.48861682765244069 0 -0.1663114266205577 0.50000000000000011 0 -0.1720302250152923 0.50000000000000022 0 -0.16613832665532341 0.48861682765244069 0 -0.1663114266205577 0.50000000000000011 0 -0.16613832665532341 0.48861682765244069 0 -0.17430115969348189 0.49501483184612438 0 -0.1720302250152923 0.50000000000000022 0 -0.17430115969348189 0.49501483184612438 0 -0.1720302250152923 0.50000000000000022 0 -0.1982872987205446 0.5 0 -0.1757986315986971 0.48088398659212228 0 -0.17430115969348189 0.49501483184612438 0 -0.19138341924764241 0.47827032896460842 0 -0.17430115969348189 0.49501483184612438 0 -0.19138341924764241 0.47827032896460842 0 -0.1757986315986971 0.48088398659212228 0 -0.16613832665532341 0.48861682765244069 0 -0.17430115969348189 0.49501483184612438 0 -0.17430115969348189 0.49501483184612438 0 -0.1982872987205446 0.5 0 -0.19138341924764241 0.47827032896460842 0 -0.1982872987205446 0.5 0 -0.19138341924764241 0.47827032896460842 0 -0.21217809917650449 0.48030286392854288 0 -0.19138341924764241 0.47827032896460842 0 -0.208465678801803 0.46152582608309223 0 -0.19138341924764241 0.47827032896460842 0 -0.21217809917650449 0.48030286392854288 0 -0.208465678801803 0.46152582608309223 0 -0.1982872987205446 0.5 0 -0.21217809917650449 0.48030286392854288 0 -0.22454437242579681 0.5 0 -0.22454437242579681 0.5 0 -0.2288960980978284 0.47674808914996208 0 -0.2467553297522557 0.48147402383551691 0 -0.21217809917650449 0.48030286392854288 0 -0.22454437242579681 0.5 0 -0.2288960980978284 0.47674808914996208 0 -0.21217809917650449 0.48030286392854288 0 -0.2288960980978284 0.47674808914996208 0 -0.22325063631842021 0.46203708915627778 0 -0.25438198006151169 0.46464464965965441 0 -0.2467553297522557 0.48147402383551691 0 -0.2372897108761052 0.46028528898629889 0 -0.2288960980978284 0.47674808914996208 0 -0.2467553297522557 0.48147402383551691 0 -0.2372897108761052 0.46028528898629889 0 -0.25080144613104921 0.5 0 -0.22454437242579681 0.5 0 -0.2467553297522557 0.48147402383551691 0 -0.24356894722331929 0.44821508210096461 0 -0.22554793835596351 0.44478132320157598 0 -0.24263019791012411 0.42803682032005991 0 -0.24356894722331929 0.44821508210096461 0 -0.2372897108761052 0.46028528898629889 0 -0.22554793835596351 0.44478132320157598 0 -0.25799490891289278 0.4433273283372331 0 -0.24356894722331929 0.44821508210096461 0 -0.24263019791012411 0.42803682032005991 0 -0.25438198006151169 0.46464464965965441 0 -0.24356894722331929 0.44821508210096461 0 -0.2372897108761052 0.46028528898629889 0 -0.2288960980978284 0.47674808914996208 0 -0.2372897108761052 0.46028528898629889 0 -0.22325063631842021 0.46203708915627778 0 -0.2372897108761052 0.46028528898629889 0 -0.22325063631842021 0.46203708915627778 0 -0.22554793835596351 0.44478132320157598 0 -0.22325063631842021 0.46203708915627778 0 -0.22554793835596351 0.44478132320157598 0 -0.208465678801803 0.46152582608309223 0 -0.22554793835596351 0.44478132320157598 0 -0.20785557032720109 0.44518798724498809 0 -0.21437917226951189 0.43588067273166847 0 -0.22554793835596351 0.44478132320157598 0 -0.20785557032720109 0.44518798724498809 0 -0.208465678801803 0.46152582608309223 0 -0.22554793835596351 0.44478132320157598 0 -0.208465678801803 0.46152582608309223 0 -0.21217809917650449 0.48030286392854288 0 -0.22325063631842021 0.46203708915627778 0 -0.208465678801803 0.46152582608309223 0 -0.19138341924764241 0.47827032896460842 0 -0.208465678801803 0.46152582608309223 0 -0.1899884502156329 0.46461586120334353 0 -0.208465678801803 0.46152582608309223 0 -0.1899884502156329 0.46461586120334353 0 -0.1926513277646352 0.45119866261047992 0 -0.20785557032720109 0.44518798724498809 0 -0.1926513277646352 0.45119866261047992 0 -0.18693863061853061 0.43491447939059907 0 -0.20785557032720109 0.44518798724498809 0 -0.208465678801803 0.46152582608309223 0 -0.1926513277646352 0.45119866261047992 0 -0.19176926968858449 0.42488004754311998 0 -0.20430089696141959 0.42856004989685992 0 -0.18693863061853061 0.43491447939059907 0 -0.20785557032720109 0.44518798724498809 0 -0.20430089696141959 0.42856004989685992 0 -0.18693863061853061 0.43491447939059907 0 -0.19176926968858449 0.42488004754311998 0 -0.19667758679306771 0.41738623802377928 0 -0.20430089696141959 0.42856004989685992 0 -0.19667758679306771 0.41738623802377928 0 -0.19460267291041519 0.40299123798476227 0 -0.182164522352502 0.41833083015148409 0 -0.19460267291041519 0.40299123798476227 0 -0.182164522352502 0.41833083015148409 0 -0.19176926968858449 0.42488004754311998 0 -0.19667758679306771 0.41738623802377928 0 -0.182164522352502 0.41833083015148409 0 -0.19667758679306771 0.41738623802377928 0 -0.2074030129404133 0.4163894186605448 0 -0.20430089696141959 0.42856004989685992 0 -0.19667758679306771 0.41738623802377928 0 -0.2074030129404133 0.4163894186605448 0 -0.19460267291041519 0.40299123798476227 0 -0.2074030129404133 0.4163894186605448 0 -0.21981228343346321 0.42499333058324978 0 -0.22162162460370111 0.40801623681407218 0 -0.2074030129404133 0.4163894186605448 0 -0.22162162460370111 0.40801623681407218 0 -0.19460267291041519 0.40299123798476227 0 -0.20785557032720109 0.44518798724498809 0 -0.20430089696141959 0.42856004989685992 0 -0.21437917226951189 0.43588067273166847 0 -0.2074030129404133 0.4163894186605448 0 -0.20430089696141959 0.42856004989685992 0 -0.21981228343346321 0.42499333058324978 0 -0.20430089696141959 0.42856004989685992 0 -0.21437917226951189 0.43588067273166847 0 -0.21981228343346321 0.42499333058324978 0 -0.22554793835596351 0.44478132320157598 0 -0.24263019791012411 0.42803682032005991 0 -0.22554793835596351 0.44478132320157598 0 -0.2313941741476824 0.42795323546389102 0 -0.24263019791012411 0.42803682032005991 0 -0.22554793835596351 0.44478132320157598 0 -0.21437917226951189 0.43588067273166847 0 -0.21981228343346321 0.42499333058324978 0 -0.22554793835596351 0.44478132320157598 0 -0.2313941741476824 0.42795323546389102 0 -0.21981228343346321 0.42499333058324978 0 -0.2313941741476824 0.42795323546389102 0 -0.21981228343346321 0.42499333058324978 0 -0.2301621318308705 0.41771135234831969 0 -0.2313941741476824 0.42795323546389102 0 -0.2301621318308705 0.41771135234831969 0 -0.23881831920799079 0.42424335086624981 0 -0.21981228343346321 0.42499333058324978 0 -0.22162162460370111 0.40801623681407218 0 -0.2301621318308705 0.41771135234831969 0 -0.22162162460370111 0.40801623681407218 0 -0.2301621318308705 0.41771135234831969 0 -0.241034552697166 0.41286836770778501 0 -0.25157066981256843 0.40894445920752592 0 -0.241034552697166 0.41286836770778501 0 -0.24263019791012411 0.42803682032005991 0 -0.241034552697166 0.41286836770778501 0 -0.24263019791012411 0.42803682032005991 0 -0.23881831920799079 0.42424335086624981 0 -0.22162162460370111 0.40801623681407218 0 -0.241034552697166 0.41286836770778501 0 -0.24388213391773941 0.40163479241199579 0 -0.2301621318308705 0.41771135234831969 0 -0.241034552697166 0.41286836770778501 0 -0.23881831920799079 0.42424335086624981 0 -0.25157066981256843 0.40894445920752592 0 -0.241034552697166 0.41286836770778501 0 -0.24388213391773941 0.40163479241199579 0 -0.2313941741476824 0.42795323546389102 0 -0.24263019791012411 0.42803682032005991 0 -0.23881831920799079 0.42424335086624981 0 -0.24263019791012411 0.42803682032005991 0 -0.23881831920799079 0.42424335086624981 0 -0.25453646971320443 0.37462232419521813 0 -0.24781733580734391 0.38604582424895789 0 -0.23735930512057779 0.37349779701461089 0 -0.2365264908337599 0.38834162546439549 0 -0.24781733580734391 0.38604582424895789 0 -0.23735930512057779 0.37349779701461089 0 -0.2365264908337599 0.38834162546439549 0 -0.24781733580734391 0.38604582424895789 0 -0.24388213391773941 0.40163479241199579 0 -0.22162162460370111 0.40801623681407218 0 -0.24388213391773941 0.40163479241199579 0 -0.22162162460370111 0.40801623681407218 0 -0.2365264908337599 0.38834162546439549 0 -0.2225569648072106 0.38059728391652659 0 -0.22162162460370111 0.40801623681407218 0 -0.2365264908337599 0.38834162546439549 0 -0.24388213391773941 0.40163479241199579 0 -0.2365264908337599 0.38834162546439549 0 -0.2225569648072106 0.38059728391652659 0 -0.23735930512057779 0.37349779701461089 0 -0.2225569648072106 0.38059728391652659 0 -0.20545957084956781 0.38789926664213359 0 -0.1994770785436861 0.36691897370504389 0 -0.22162162460370111 0.40801623681407218 0 -0.2225569648072106 0.38059728391652659 0 -0.20545957084956781 0.38789926664213359 0 -0.22162162460370111 0.40801623681407218 0 -0.20545957084956781 0.38789926664213359 0 -0.19460267291041519 0.40299123798476227 0 -0.20545957084956781 0.38789926664213359 0 -0.19460267291041519 0.40299123798476227 0 -0.18736095772118591 0.3836472042370111 0 -0.20545957084956781 0.38789926664213359 0 -0.18736095772118591 0.3836472042370111 0 -0.1994770785436861 0.36691897370504389 0 -0.18736095772118591 0.3836472042370111 0 -0.16248792359233191 0.38534127627451031 0 -0.17644948136236779 0.3976803029940168 0 -0.18736095772118591 0.3836472042370111 0 -0.16248792359233191 0.38534127627451031 0 -0.1741500565645078 0.37123080613525078 0 -0.16248792359233191 0.38534127627451031 0 -0.16330635783110381 0.4038062271485704 0 -0.14438589058212131 0.3948348353259919 0 -0.16248792359233191 0.38534127627451031 0 -0.16330635783110381 0.4038062271485704 0 -0.17644948136236779 0.3976803029940168 0 -0.19460267291041519 0.40299123798476227 0 -0.17644948136236779 0.3976803029940168 0 -0.17778078602166139 0.40821888849324761 0 -0.19460267291041519 0.40299123798476227 0 -0.18736095772118591 0.3836472042370111 0 -0.17644948136236779 0.3976803029940168 0 -0.16330635783110381 0.4038062271485704 0 -0.17644948136236779 0.3976803029940168 0 -0.17778078602166139 0.40821888849324761 0 -0.19460267291041519 0.40299123798476227 0 -0.182164522352502 0.41833083015148409 0 -0.17778078602166139 0.40821888849324761 0 -0.182164522352502 0.41833083015148409 0 -0.1723808956519178 0.41828584418740389 0 -0.17778078602166139 0.40821888849324761 0 -0.19176926968858449 0.42488004754311998 0 -0.182164522352502 0.41833083015148409 0 -0.18693863061853061 0.43491447939059907 0 -0.182164522352502 0.41833083015148409 0 -0.18693863061853061 0.43491447939059907 0 -0.1697263717945888 0.43367042231820602 0 -0.182164522352502 0.41833083015148409 0 -0.1697263717945888 0.43367042231820602 0 -0.182164522352502 0.41833083015148409 0 -0.1723808956519178 0.41828584418740389 0 -0.1697263717945888 0.43367042231820602 0 -0.15995177900170021 0.44572512983606088 0 -0.1697263717945888 0.43367042231820602 0 -0.15376963845050121 0.4328235067909087 0 -0.1697263717945888 0.43367042231820602 0 -0.14650538949161929 0.41591584262955861 0 -0.15376963845050121 0.4328235067909087 0 -0.1697263717945888 0.43367042231820602 0 -0.14650538949161929 0.41591584262955861 0 -0.1723808956519178 0.41828584418740389 0 -0.1697263717945888 0.43367042231820602 0 -0.14650538949161929 0.41591584262955861 0 -0.1723808956519178 0.41828584418740389 0 -0.14650538949161929 0.41591584262955861 0 -0.16330635783110381 0.4038062271485704 0 -0.1723808956519178 0.41828584418740389 0 -0.14650538949161929 0.41591584262955861 0 -0.16330635783110381 0.4038062271485704 0 -0.1723808956519178 0.41828584418740389 0 -0.17778078602166139 0.40821888849324761 0 -0.14650538949161929 0.41591584262955861 0 -0.15376963845050121 0.4328235067909087 0 -0.13889501351409689 0.43598263237980822 0 -0.13889501351409689 0.43598263237980822 0 -0.12761284081938409 0.41418542740570108 0 -0.14650538949161929 0.41591584262955861 0 -0.13889501351409689 0.43598263237980822 0 -0.12761284081938409 0.41418542740570108 0 -0.13889501351409689 0.43598263237980822 0 -0.12761284081938409 0.41418542740570108 0 -0.1242648033483075 0.43981492828754482 0 -0.14650538949161929 0.41591584262955861 0 -0.12761284081938409 0.41418542740570108 0 -0.12644786621320531 0.40058001872868543 0 -0.14650538949161929 0.41591584262955861 0 -0.12644786621320531 0.40058001872868543 0 -0.14650538949161929 0.41591584262955861 0 -0.12761284081938409 0.41418542740570108 0 -0.14650538949161929 0.41591584262955861 0 -0.12644786621320531 0.40058001872868543 0 -0.14438589058212131 0.3948348353259919 0 -0.12644786621320531 0.40058001872868543 0 -0.12826940643264259 0.38638828685515292 0 -0.14438589058212131 0.3948348353259919 0 -0.1399268433138337 0.37661104245066729 0 -0.12826940643264259 0.38638828685515292 0 -0.1198206075896991 0.37069234566290138 0 -0.1399268433138337 0.37661104245066729 0 -0.12826940643264259 0.38638828685515292 0 -0.14438589058212131 0.3948348353259919 0 -0.16248792359233191 0.38534127627451031 0 -0.1399268433138337 0.37661104245066729 0 -0.1571746455416145 0.36408416689185819 0 -0.16248792359233191 0.38534127627451031 0 -0.1399268433138337 0.37661104245066729 0 -0.14438589058212131 0.3948348353259919 0 -0.16330635783110381 0.4038062271485704 0 -0.14650538949161929 0.41591584262955861 0 -0.14438589058212131 0.3948348353259919 0 -0.1367685514822152 0.35851885971508118 0 -0.13367478836053351 0.33932016938713638 0 -0.15331730601663701 0.3395623532820784 0 -0.1367685514822152 0.35851885971508118 0 -0.15331730601663701 0.3395623532820784 0 -0.1571746455416145 0.36408416689185819 0 -0.1399268433138337 0.37661104245066729 0 -0.1367685514822152 0.35851885971508118 0 -0.1571746455416145 0.36408416689185819 0 -0.1399268433138337 0.37661104245066729 0 -0.1367685514822152 0.35851885971508118 0 -0.1198206075896991 0.37069234566290138 0 -0.1367685514822152 0.35851885971508118 0 -0.13367478836053351 0.33932016938713638 0 -0.1173066256070304 0.35104950557859033 0 -0.13367478836053351 0.33932016938713638 0 -0.1262409447270301 0.3211703831111522 0 -0.1175879007316586 0.33497855513245622 0 -0.13367478836053351 0.33932016938713638 0 -0.1262409447270301 0.3211703831111522 0 -0.14995133854557879 0.31573290008088639 0 -0.1262409447270301 0.3211703831111522 0 -0.14995133854557879 0.31573290008088639 0 -0.13170636281121431 0.30540396541675668 0 -0.13367478836053351 0.33932016938713638 0 -0.14995133854557879 0.31573290008088639 0 -0.15331730601663701 0.3395623532820784 0 -0.15331730601663701 0.3395623532820784 0 -0.17079439025487569 0.32494122108339912 0 -0.1763971922801616 0.3532406634935612 0 -0.14995133854557879 0.31573290008088639 0 -0.17079439025487569 0.32494122108339912 0 -0.167164841548782 0.29891422322321631 0 -0.14995133854557879 0.31573290008088639 0 -0.15331730601663701 0.3395623532820784 0 -0.17079439025487569 0.32494122108339912 0 -0.17079439025487569 0.32494122108339912 0 -0.19256976679114979 0.33165381796875049 0 -0.19699128312530151 0.30504565645142051 0 -0.17079439025487569 0.32494122108339912 0 -0.1763971922801616 0.3532406634935612 0 -0.19256976679114979 0.33165381796875049 0 -0.15331730601663701 0.3395623532820784 0 -0.1763971922801616 0.3532406634935612 0 -0.1571746455416145 0.36408416689185819 0 -0.15331730601663701 0.3395623532820784 0 -0.1763971922801616 0.3532406634935612 0 -0.1763971922801616 0.3532406634935612 0 -0.1571746455416145 0.36408416689185819 0 -0.1741500565645078 0.37123080613525078 0 -0.16248792359233191 0.38534127627451031 0 -0.1571746455416145 0.36408416689185819 0 -0.1741500565645078 0.37123080613525078 0 -0.18736095772118591 0.3836472042370111 0 -0.1741500565645078 0.37123080613525078 0 -0.1994770785436861 0.36691897370504389 0 -0.1763971922801616 0.3532406634935612 0 -0.1741500565645078 0.37123080613525078 0 -0.1994770785436861 0.36691897370504389 0 -0.1763971922801616 0.3532406634935612 0 -0.1994770785436861 0.36691897370504389 0 -0.1763971922801616 0.3532406634935612 0 -0.20127160642404629 0.34878804965207372 0 -0.19256976679114979 0.33165381796875049 0 -0.1763971922801616 0.3532406634935612 0 -0.1994770785436861 0.36691897370504389 0 -0.20127160642404629 0.34878804965207372 0 -0.1994770785436861 0.36691897370504389 0 -0.20127160642404629 0.34878804965207372 0 -0.22480168799342179 0.35512276170724633 0 -0.20127160642404629 0.34878804965207372 0 -0.22480168799342179 0.35512276170724633 0 -0.2131123065118124 0.33700403138576668 0 -0.2225569648072106 0.38059728391652659 0 -0.1994770785436861 0.36691897370504389 0 -0.2225569648072106 0.38059728391652659 0 -0.1994770785436861 0.36691897370504389 0 -0.22480168799342179 0.35512276170724633 0 -0.2225569648072106 0.38059728391652659 0 -0.22480168799342179 0.35512276170724633 0 -0.23735930512057779 0.37349779701461089 0 -0.25368472498167011 0.34420349485172652 0 -0.22480168799342179 0.35512276170724633 0 -0.24822911175635759 0.36217347122335058 0 -0.22480168799342179 0.35512276170724633 0 -0.24822911175635759 0.36217347122335058 0 -0.23735930512057779 0.37349779701461089 0 -0.25453646971320443 0.37462232419521813 0 -0.24822911175635759 0.36217347122335058 0 -0.23735930512057779 0.37349779701461089 0 -0.25757488899104952 0.31786411623381933 0 -0.23478691102954721 0.33115088205162452 0 -0.2366570207200871 0.30010935915934539 0 -0.25368472498167011 0.34420349485172652 0 -0.22480168799342179 0.35512276170724633 0 -0.23478691102954721 0.33115088205162452 0 -0.25368472498167011 0.34420349485172652 0 -0.23478691102954721 0.33115088205162452 0 -0.25757488899104952 0.31786411623381933 0 -0.25368472498167011 0.34420349485172652 0 -0.23478691102954721 0.33115088205162452 0 -0.23478691102954721 0.33115088205162452 0 -0.2158890970774244 0.31809826925152251 0 -0.2131123065118124 0.33700403138576668 0 -0.22480168799342179 0.35512276170724633 0 -0.23478691102954721 0.33115088205162452 0 -0.2131123065118124 0.33700403138576668 0 -0.23478691102954721 0.33115088205162452 0 -0.2158890970774244 0.31809826925152251 0 -0.2366570207200871 0.30010935915934539 0 -0.23478691102954721 0.33115088205162452 0 -0.2158890970774244 0.31809826925152251 0 -0.2158890970774244 0.31809826925152251 0 -0.2131123065118124 0.33700403138576668 0 -0.19256976679114979 0.33165381796875049 0 -0.20127160642404629 0.34878804965207372 0 -0.2131123065118124 0.33700403138576668 0 -0.19256976679114979 0.33165381796875049 0 -0.2158890970774244 0.31809826925152251 0 -0.19256976679114979 0.33165381796875049 0 -0.19699128312530151 0.30504565645142051 0 -0.19699128312530151 0.30504565645142051 0 -0.2044220976180971 0.2747921468301005 0 -0.18537993383704029 0.28397978744787411 0 -0.19699128312530151 0.30504565645142051 0 -0.21636901433909059 0.29447561219915308 0 -0.2044220976180971 0.2747921468301005 0 -0.2158890970774244 0.31809826925152251 0 -0.19699128312530151 0.30504565645142051 0 -0.21636901433909059 0.29447561219915308 0 -0.2158890970774244 0.31809826925152251 0 -0.19699128312530151 0.30504565645142051 0 -0.2158890970774244 0.31809826925152251 0 -0.21636901433909059 0.29447561219915308 0 -0.2366570207200871 0.30010935915934539 0 -0.21636901433909059 0.29447561219915308 0 -0.2366570207200871 0.30010935915934539 0 -0.2235041758045673 0.27405874977876837 0 -0.26277913973510902 0.29023342414179659 0 -0.2366570207200871 0.30010935915934539 0 -0.2447247674615598 0.2718938593685879 0 -0.2366570207200871 0.30010935915934539 0 -0.2447247674615598 0.2718938593685879 0 -0.2235041758045673 0.27405874977876837 0 -0.25693865295534157 0.25278860643768353 0 -0.2416444700809012 0.25186566196455601 0 -0.2447247674615598 0.2718938593685879 0 -0.2416444700809012 0.25186566196455601 0 -0.2447247674615598 0.2718938593685879 0 -0.22667039518801041 0.25355429459537898 0 -0.2447247674615598 0.2718938593685879 0 -0.22667039518801041 0.25355429459537898 0 -0.2447247674615598 0.2718938593685879 0 -0.2235041758045673 0.27405874977876837 0 -0.22667039518801041 0.25355429459537898 0 -0.2235041758045673 0.27405874977876837 0 -0.22667039518801041 0.25355429459537898 0 -0.21218175950055909 0.24952722652004439 0 -0.2044220976180971 0.2747921468301005 0 -0.1929026130837673 0.25762258695206858 0 -0.21218175950055909 0.24952722652004439 0 -0.2044220976180971 0.2747921468301005 0 -0.21218175950055909 0.24952722652004439 0 -0.2235041758045673 0.27405874977876837 0 -0.2044220976180971 0.2747921468301005 0 -0.21218175950055909 0.24952722652004439 0 -0.21636901433909059 0.29447561219915308 0 -0.2235041758045673 0.27405874977876837 0 -0.2044220976180971 0.2747921468301005 0 -0.2044220976180971 0.2747921468301005 0 -0.1929026130837673 0.25762258695206858 0 -0.18537993383704029 0.28397978744787411 0 -0.1929026130837673 0.25762258695206858 0 -0.16582228118094081 0.26466105519565358 0 -0.18651378479530609 0.23505073182760211 0 -0.1929026130837673 0.25762258695206858 0 -0.16582228118094081 0.26466105519565358 0 -0.18537993383704029 0.28397978744787411 0 -0.16582228118094081 0.26466105519565358 0 -0.167164841548782 0.29891422322321631 0 -0.14136362158270599 0.28508793949713551 0 -0.16582228118094081 0.26466105519565358 0 -0.18537993383704029 0.28397978744787411 0 -0.167164841548782 0.29891422322321631 0 -0.19699128312530151 0.30504565645142051 0 -0.18537993383704029 0.28397978744787411 0 -0.167164841548782 0.29891422322321631 0 -0.17079439025487569 0.32494122108339912 0 -0.19699128312530151 0.30504565645142051 0 -0.167164841548782 0.29891422322321631 0 -0.167164841548782 0.29891422322321631 0 -0.14136362158270599 0.28508793949713551 0 -0.14995133854557879 0.31573290008088639 0 -0.167164841548782 0.29891422322321631 0 -0.14136362158270599 0.28508793949713551 0 -0.14995133854557879 0.31573290008088639 0 -0.14136362158270599 0.28508793949713551 0 -0.13170636281121431 0.30540396541675668 0 -0.1262409447270301 0.3211703831111522 0 -0.13170636281121431 0.30540396541675668 0 -0.1173504618646501 0.30916380798395637 0 -0.14136362158270599 0.28508793949713551 0 -0.13170636281121431 0.30540396541675668 0 -0.1202787732923796 0.29457691953651272 0 -0.14136362158270599 0.28508793949713551 0 -0.1196693143642453 0.28329908912575552 0 -0.1202787732923796 0.29457691953651272 0 -0.14136362158270599 0.28508793949713551 0 -0.1155624016166297 0.27126165577105521 0 -0.1196693143642453 0.28329908912575552 0 -0.14136362158270599 0.28508793949713551 0 -0.1155624016166297 0.27126165577105521 0 -0.12872708527658799 0.25991420809329241 0 -0.1416417428525672 0.26777243923482702 0 -0.1155624016166297 0.27126165577105521 0 -0.14136362158270599 0.28508793949713551 0 -0.1416417428525672 0.26777243923482702 0 -0.1155624016166297 0.27126165577105521 0 -0.12872708527658799 0.25991420809329241 0 -0.14534546737678511 0.25129379472131641 0 -0.1416417428525672 0.26777243923482702 0 -0.12872708527658799 0.25991420809329241 0 -0.14534546737678511 0.25129379472131641 0 -0.12470300375741469 0.2457033751303839 0 -0.16582228118094081 0.26466105519565358 0 -0.14534546737678511 0.25129379472131641 0 -0.1416417428525672 0.26777243923482702 0 -0.16582228118094081 0.26466105519565358 0 -0.14136362158270599 0.28508793949713551 0 -0.1416417428525672 0.26777243923482702 0 -0.1083690905562489 0.27746201143443072 0 -0.10470287070229969 0.27376422074294909 0 -0.09206590757372593 0.27740472432850488 0 -0.099741497972773749 0.27068482051400677 0 -0.1098053558875477 0.27272524579145851 0 -0.092391857727521592 0.25884509119311472 0 -0.1155624016166297 0.27126165577105521 0 -0.1098053558875477 0.27272524579145851 0 -0.092391857727521592 0.25884509119311472 0 -0.099741497972773749 0.27068482051400677 0 -0.09206590757372593 0.27740472432850488 0 -0.092391857727521592 0.25884509119311472 0 -0.10470287070229969 0.27376422074294909 0 -0.099741497972773749 0.27068482051400677 0 -0.1098053558875477 0.27272524579145851 0 -0.1083690905562489 0.27746201143443072 0 -0.1098053558875477 0.27272524579145851 0 -0.1083690905562489 0.27746201143443072 0 -0.10470287070229969 0.27376422074294909 0 -0.1098053558875477 0.27272524579145851 0 -0.10470287070229969 0.27376422074294909 0 -0.099741497972773749 0.27068482051400677 0 -0.09206590757372593 0.27740472432850488 0 -0.1155624016166297 0.27126165577105521 0 -0.092391857727521592 0.25884509119311472 0 -0.11076524853809321 0.25238606884059173 0 -0.1155624016166297 0.27126165577105521 0 -0.092391857727521592 0.25884509119311472 0 -0.11076524853809321 0.25238606884059173 0 -0.1199394347971814 0.25731632695883078 0 -0.1155624016166297 0.27126165577105521 0 -0.12872708527658799 0.25991420809329241 0 -0.1199394347971814 0.25731632695883078 0 -0.12470300375741469 0.2457033751303839 0 -0.11076524853809321 0.25238606884059173 0 -0.1199394347971814 0.25731632695883078 0 -0.12470300375741469 0.2457033751303839 0 -0.12872708527658799 0.25991420809329241 0 -0.1199394347971814 0.25731632695883078 0 -0.1155624016166297 0.27126165577105521 0 -0.12872708527658799 0.25991420809329241 0 -0.1155624016166297 0.27126165577105521 0 -0.1083690905562489 0.27746201143443072 0 -0.1155624016166297 0.27126165577105521 0 -0.1196693143642453 0.28329908912575552 0 -0.1083690905562489 0.27746201143443072 0 -0.1155624016166297 0.27126165577105521 0 -0.1098053558875477 0.27272524579145851 0 -0.1083690905562489 0.27746201143443072 0 -0.1155624016166297 0.27126165577105521 0 -0.1083690905562489 0.27746201143443072 0 -0.1202787732923796 0.29457691953651272 0 -0.1003457715998239 0.30392270831765028 0 -0.1083690905562489 0.27746201143443072 0 -0.1196693143642453 0.28329908912575552 0 -0.1202787732923796 0.29457691953651272 0 -0.1202787732923796 0.29457691953651272 0 -0.1173504618646501 0.30916380798395637 0 -0.1003457715998239 0.30392270831765028 0 -0.13170636281121431 0.30540396541675668 0 -0.1202787732923796 0.29457691953651272 0 -0.1173504618646501 0.30916380798395637 0 -0.1173504618646501 0.30916380798395637 0 -0.1003457715998239 0.30392270831765028 0 -0.1081804568928026 0.32074506353771021 0 -0.1083690905562489 0.27746201143443072 0 -0.08834593029567378 0.29472120043351602 0 -0.09206590757372593 0.27740472432850488 0 -0.1083690905562489 0.27746201143443072 0 -0.1003457715998239 0.30392270831765028 0 -0.08834593029567378 0.29472120043351602 0 -0.1083690905562489 0.27746201143443072 0 -0.1003457715998239 0.30392270831765028 0 -0.1083690905562489 0.27746201143443072 0 -0.08834593029567378 0.29472120043351602 0 -0.08834593029567378 0.29472120043351602 0 -0.079344374197139078 0.28508182268507098 0 -0.09206590757372593 0.27740472432850488 0 -0.08834593029567378 0.29472120043351602 0 -0.072463929930227558 0.29930610977545041 0 -0.077617967212061698 0.29366907382828078 0 -0.08834593029567378 0.29472120043351602 0 -0.079344374197139078 0.28508182268507098 0 -0.077617967212061698 0.29366907382828078 0 -0.08834593029567378 0.29472120043351602 0 -0.087527931766016032 0.31235393694025021 0 -0.08121949171140587 0.31012908581564408 0 -0.08834593029567378 0.29472120043351602 0 -0.068322770035098762 0.31198038943260148 0 -0.1003457715998239 0.30392270831765028 0 -0.08834593029567378 0.29472120043351602 0 -0.087527931766016032 0.31235393694025021 0 -0.08834593029567378 0.29472120043351602 0 -0.08121949171140587 0.31012908581564408 0 -0.069852456288818351 0.31207980665071 0 -0.08834593029567378 0.29472120043351602 0 -0.068322770035098762 0.31198038943260148 0 -0.069852456288818351 0.31207980665071 0 -0.08834593029567378 0.29472120043351602 0 -0.072463929930227558 0.29930610977545041 0 -0.068322770035098762 0.31198038943260148 0 -0.072463929930227558 0.29930610977545041 0 -0.064179569528432873 0.29754197169583518 0 -0.063962500348327456 0.30379626580195229 0 -0.072463929930227558 0.29930610977545041 0 -0.063962500348327456 0.30379626580195229 0 -0.068322770035098762 0.31198038943260148 0 -0.068322770035098762 0.31198038943260148 0 -0.069852456288818351 0.31207980665071 0 -0.079344374197139078 0.28508182268507098 0 -0.070510141993048517 0.29225124769799787 0 -0.067485792004003509 0.28106498521306011 0 -0.079344374197139078 0.28508182268507098 0 -0.077617967212061698 0.29366907382828078 0 -0.070510141993048517 0.29225124769799787 0 -0.072463929930227558 0.29930610977545041 0 -0.077617967212061698 0.29366907382828078 0 -0.070510141993048517 0.29225124769799787 0 -0.064179569528432873 0.29754197169583518 0 -0.070510141993048517 0.29225124769799787 0 -0.059799020663136082 0.29068729405280619 0 -0.072463929930227558 0.29930610977545041 0 -0.064179569528432873 0.29754197169583518 0 -0.070510141993048517 0.29225124769799787 0 -0.070510141993048517 0.29225124769799787 0 -0.067485792004003509 0.28106498521306011 0 -0.059799020663136082 0.29068729405280619 0 -0.079344374197139078 0.28508182268507098 0 -0.077112635008727601 0.26938653581869981 0 -0.067485792004003509 0.28106498521306011 0 -0.077112635008727601 0.26938653581869981 0 -0.067485792004003509 0.28106498521306011 0 -0.060296114269721542 0.26705395206363342 0 -0.079344374197139078 0.28508182268507098 0 -0.077112635008727601 0.26938653581869981 0 -0.09206590757372593 0.27740472432850488 0 -0.077112635008727601 0.26938653581869981 0 -0.09206590757372593 0.27740472432850488 0 -0.092391857727521592 0.25884509119311472 0 -0.092391857727521592 0.25884509119311472 0 -0.069221313838413207 0.24642852661517459 0 -0.077112635008727601 0.26938653581869981 0 -0.092391857727521592 0.25884509119311472 0 -0.069221313838413207 0.24642852661517459 0 -0.077112635008727601 0.26938653581869981 0 -0.060296114269721542 0.26705395206363342 0 -0.069221313838413207 0.24642852661517459 0 -0.048126263350958612 0.25465777805589501 0 -0.060296114269721542 0.26705395206363342 0 -0.069221313838413207 0.24642852661517459 0 -0.048126263350958612 0.25465777805589501 0 -0.060296114269721542 0.26705395206363342 0 -0.041784573477856593 0.2719242686623195 0 -0.055384127889045079 0.27986410773994991 0 -0.060296114269721542 0.26705395206363342 0 -0.041784573477856593 0.2719242686623195 0 -0.055384127889045079 0.27986410773994991 0 -0.041784573477856593 0.2719242686623195 0 -0.044370237993260717 0.29032640624232281 0 -0.067485792004003509 0.28106498521306011 0 -0.055384127889045079 0.27986410773994991 0 -0.060296114269721542 0.26705395206363342 0 -0.041784573477856593 0.2719242686623195 0 -0.028053557715267439 0.25838243531431121 0 -0.02550209953536561 0.27186686885002359 0 -0.041784573477856593 0.2719242686623195 0 -0.02550209953536561 0.27186686885002359 0 -0.031040102747703489 0.28267752730564011 0 -0.048126263350958612 0.25465777805589501 0 -0.041784573477856593 0.2719242686623195 0 -0.028053557715267439 0.25838243531431121 0 -0.048126263350958612 0.25465777805589501 0 -0.028053557715267439 0.25838243531431121 0 -0.033382390283993792 0.24359412621706661 0 -0.028053557715267439 0.25838243531431121 0 -0.01504563196256534 0.26333196488375049 0 -0.01778818590069102 0.2421293126167848 0 -0.01504563196256534 0.26333196488375049 0 -0.01778818590069102 0.2421293126167848 0 -0.028053557715267439 0.25838243531431121 0 -0.02550209953536561 0.27186686885002359 0 -0.01504563196256534 0.26333196488375049 0 -0.028053557715267439 0.25838243531431121 0 -0.01504563196256534 0.26333196488375049 0 -0.02550209953536561 0.27186686885002359 0 -0.01214761008608776 0.28573653795517551 0 -0.031040102747703489 0.28267752730564011 0 -0.02550209953536561 0.27186686885002359 0 -0.01504563196256534 0.26333196488375049 0 -0.01214761008608776 0.28573653795517551 0 -0.001267499687089951 0.2776013217203892 0 -0.01504563196256534 0.26333196488375049 0 -0.01214761008608776 0.28573653795517551 0 -0.01504563196256534 0.26333196488375049 0 -0.01214761008608776 0.28573653795517551 0 -0.00067809962666212902 0.26216505597133072 0 -0.01504563196256534 0.26333196488375049 0 0.010965700908337589 0.27322930467739909 0 -0.001267499687089951 0.2776013217203892 0 -0.01504563196256534 0.26333196488375049 0 0.010965700908337589 0.27322930467739909 0 -0.01504563196256534 0.26333196488375049 0 0.010965700908337589 0.27322930467739909 0 -0.0087132352456033638 0.25173417187717928 0 -0.01504563196256534 0.26333196488375049 0 -0.01778818590069102 0.2421293126167848 0 -0.00067809962666212902 0.26216505597133072 0 -0.0087132352456033638 0.25173417187717928 0 0.0027594708259384838 0.25829047161104352 0 -0.00067809962666212902 0.26216505597133072 0 -0.0087132352456033638 0.25173417187717928 0 -0.01504563196256534 0.26333196488375049 0 -0.009249588209606344 0.30814111102660002 0 -0.01214761008608776 0.28573653795517551 0 0.0038021096493471361 0.29689124930627131 0 -0.009249588209606344 0.30814111102660002 0 -0.01214761008608776 0.28573653795517551 0 -0.01214761008608776 0.28573653795517551 0 0.002380999114604244 0.28599596302517022 0 0.0038021096493471361 0.29689124930627131 0 -0.001267499687089951 0.2776013217203892 0 -0.01214761008608776 0.28573653795517551 0 0.002380999114604244 0.28599596302517022 0 -0.009249588209606344 0.30814111102660002 0 -0.01214761008608776 0.28573653795517551 0 -0.02711874363180217 0.2953884665518679 0 -0.01214761008608776 0.28573653795517551 0 -0.031040102747703489 0.28267752730564011 0 -0.02711874363180217 0.2953884665518679 0 -0.009249588209606344 0.30814111102660002 0 -0.02711874363180217 0.2953884665518679 0 -0.038786179122352507 0.31006075022960111 0 -0.009249588209606344 0.30814111102660002 0 -0.038786179122352507 0.31006075022960111 0 -0.02711874363180217 0.2953884665518679 0 -0.038786179122352507 0.31006075022960111 0 -0.044370237993260717 0.29032640624232281 0 -0.038786179122352507 0.31006075022960111 0 -0.044370237993260717 0.29032640624232281 0 -0.054162254707424723 0.30166894115096898 0 -0.031040102747703489 0.28267752730564011 0 -0.02711874363180217 0.2953884665518679 0 -0.044370237993260717 0.29032640624232281 0 -0.041784573477856593 0.2719242686623195 0 -0.031040102747703489 0.28267752730564011 0 -0.044370237993260717 0.29032640624232281 0 -0.055384127889045079 0.27986410773994991 0 -0.044370237993260717 0.29032640624232281 0 -0.059799020663136082 0.29068729405280619 0 -0.044370237993260717 0.29032640624232281 0 -0.059799020663136082 0.29068729405280619 0 -0.054162254707424723 0.30166894115096898 0 -0.064179569528432873 0.29754197169583518 0 -0.059799020663136082 0.29068729405280619 0 -0.054162254707424723 0.30166894115096898 0 -0.067485792004003509 0.28106498521306011 0 -0.055384127889045079 0.27986410773994991 0 -0.059799020663136082 0.29068729405280619 0 -0.068322770035098762 0.31198038943260148 0 -0.038786179122352507 0.31006075022960111 0 -0.068322770035098762 0.31198038943260148 0 -0.038786179122352507 0.31006075022960111 0 -0.054162254707424723 0.30166894115096898 0 -0.064179569528432873 0.29754197169583518 0 -0.063962500348327456 0.30379626580195229 0 -0.054162254707424723 0.30166894115096898 0 -0.063962500348327456 0.30379626580195229 0 -0.068322770035098762 0.31198038943260148 0 -0.054162254707424723 0.30166894115096898 0 -0.068322770035098762 0.31198038943260148 0 -0.038786179122352507 0.31006075022960111 0 -0.053879496619987192 0.32442993198196868 0 -0.068322770035098762 0.31198038943260148 0 -0.053879496619987192 0.32442993198196868 0 -0.059045099567240703 0.33862263320968672 0 -0.059976501396798443 0.34640013057040159 0 -0.068046633572776155 0.34513696516333192 0 -0.053879496619987192 0.32442993198196868 0 -0.059045099567240703 0.33862263320968672 0 -0.06815446288386498 0.3263880450875648 0 -0.053879496619987192 0.32442993198196868 0 -0.059045099567240703 0.33862263320968672 0 -0.049717572699208172 0.33977374392884352 0 -0.053879496619987192 0.32442993198196868 0 -0.049717572699208172 0.33977374392884352 0 -0.039436223204876379 0.33687947453133682 0 -0.059045099567240703 0.33862263320968672 0 -0.049717572699208172 0.33977374392884352 0 -0.052933118771744558 0.34753778728834739 0 -0.049717572699208172 0.33977374392884352 0 -0.039436223204876379 0.33687947453133682 0 -0.045752302425533672 0.34929255203680049 0 -0.053879496619987192 0.32442993198196868 0 -0.039436223204876379 0.33687947453133682 0 -0.039359444206513459 0.32419621080282812 0 -0.053879496619987192 0.32442993198196868 0 -0.039436223204876379 0.33687947453133682 0 -0.039436223204876379 0.33687947453133682 0 -0.039359444206513459 0.32419621080282812 0 -0.02531264429424256 0.33765677836634578 0 -0.039436223204876379 0.33687947453133682 0 -0.02531264429424256 0.33765677836634578 0 -0.034795741464765127 0.3466441775467104 0 -0.038786179122352507 0.31006075022960111 0 -0.053879496619987192 0.32442993198196868 0 -0.039359444206513459 0.32419621080282812 0 -0.038786179122352507 0.31006075022960111 0 -0.039359444206513459 0.32419621080282812 0 -0.024068293084679539 0.32272721199300619 0 -0.009249588209606344 0.30814111102660002 0 -0.038786179122352507 0.31006075022960111 0 -0.024068293084679539 0.32272721199300619 0 -0.024068293084679539 0.32272721199300619 0 -0.02531264429424256 0.33765677836634578 0 -0.005758602284471958 0.33512988219008361 0 -0.039359444206513459 0.32419621080282812 0 -0.024068293084679539 0.32272721199300619 0 -0.02531264429424256 0.33765677836634578 0 -0.005758602284471958 0.33512988219008361 0 -0.0077202170519437719 0.34710906184019069 0 0.0082446038140756572 0.34376242611402219 0 -0.02531264429424256 0.33765677836634578 0 -0.005758602284471958 0.33512988219008361 0 -0.0077202170519437719 0.34710906184019069 0 -0.009249588209606344 0.30814111102660002 0 -0.005758602284471958 0.33512988219008361 0 0.0094307060340404689 0.32376070079746733 0 -0.009249588209606344 0.30814111102660002 0 -0.005758602284471958 0.33512988219008361 0 -0.009249588209606344 0.30814111102660002 0 -0.024068293084679539 0.32272721199300619 0 -0.005758602284471958 0.33512988219008361 0 -0.0045677851665312944 0.36532665559408428 0 -0.0087141207398781558 0.37710904293520409 0 0.0077169544749549623 0.36306791211952738 0 -0.0045677851665312944 0.36532665559408428 0 -0.019623601183504629 0.35541479533684739 0 -0.0087141207398781558 0.37710904293520409 0 -0.0087141207398781558 0.37710904293520409 0 0.0077169544749549623 0.36306791211952738 0 -0.0077202170519437719 0.34710906184019069 0 -0.019623601183504629 0.35541479533684739 0 0.0038095970876644218 0.35606187191015221 0 -0.019623601183504629 0.35541479533684739 0 0.0038095970876644218 0.35606187191015221 0 -0.0045677851665312944 0.36532665559408428 0 -0.019623601183504629 0.35541479533684739 0 0.0038095970876644218 0.35606187191015221 0 -0.02531264429424256 0.33765677836634578 0 -0.019623601183504629 0.35541479533684739 0 -0.034795741464765127 0.3466441775467104 0 -0.02531264429424256 0.33765677836634578 0 -0.0077202170519437719 0.34710906184019069 0 -0.019623601183504629 0.35541479533684739 0 -0.019623601183504629 0.35541479533684739 0 -0.034100997704691827 0.37295894625721099 0 -0.0087141207398781558 0.37710904293520409 0 -0.019623601183504629 0.35541479533684739 0 -0.034100997704691827 0.37295894625721099 0 -0.043056799454673583 0.35476771876354157 0 -0.034100997704691827 0.37295894625721099 0 -0.047131069669461997 0.36807368878450081 0 -0.054593457040109393 0.3822816536988497 0 -0.034100997704691827 0.37295894625721099 0 -0.043056799454673583 0.35476771876354157 0 -0.034100997704691827 0.37295894625721099 0 -0.043056799454673583 0.35476771876354157 0 -0.047131069669461997 0.36807368878450081 0 -0.019623601183504629 0.35541479533684739 0 -0.043056799454673583 0.35476771876354157 0 -0.019623601183504629 0.35541479533684739 0 -0.034795741464765127 0.3466441775467104 0 -0.043056799454673583 0.35476771876354157 0 -0.043056799454673583 0.35476771876354157 0 -0.045752302425533672 0.34929255203680049 0 -0.039436223204876379 0.33687947453133682 0 -0.034795741464765127 0.3466441775467104 0 -0.045752302425533672 0.34929255203680049 0 -0.034795741464765127 0.3466441775467104 0 -0.043056799454673583 0.35476771876354157 0 -0.045752302425533672 0.34929255203680049 0 -0.043056799454673583 0.35476771876354157 0 -0.052933118771744558 0.34753778728834739 0 -0.059881153675432383 0.35430313662024071 0 -0.043056799454673583 0.35476771876354157 0 -0.059881153675432383 0.35430313662024071 0 -0.051828064233363932 0.36038047858465339 0 -0.043056799454673583 0.35476771876354157 0 -0.059881153675432383 0.35430313662024071 0 -0.043056799454673583 0.35476771876354157 0 -0.045752302425533672 0.34929255203680049 0 -0.052933118771744558 0.34753778728834739 0 -0.049717572699208172 0.33977374392884352 0 -0.045752302425533672 0.34929255203680049 0 -0.052933118771744558 0.34753778728834739 0 -0.059881153675432383 0.35430313662024071 0 -0.051828064233363932 0.36038047858465339 0 -0.058626870601395778 0.36023180910453118 0 -0.059045099567240703 0.33862263320968672 0 -0.052933118771744558 0.34753778728834739 0 -0.059976501396798443 0.34640013057040159 0 -0.052933118771744558 0.34753778728834739 0 -0.059881153675432383 0.35430313662024071 0 -0.059976501396798443 0.34640013057040159 0 -0.047131069669461997 0.36807368878450081 0 -0.054116187566776573 0.36544526432200969 0 -0.058148679921659119 0.37186744297544022 0 -0.047131069669461997 0.36807368878450081 0 -0.058148679921659119 0.37186744297544022 0 -0.054593457040109393 0.3822816536988497 0 -0.043056799454673583 0.35476771876354157 0 -0.047131069669461997 0.36807368878450081 0 -0.051828064233363932 0.36038047858465339 0 -0.047131069669461997 0.36807368878450081 0 -0.051828064233363932 0.36038047858465339 0 -0.054116187566776573 0.36544526432200969 0 -0.054116187566776573 0.36544526432200969 0 -0.058626870601395778 0.36023180910453118 0 -0.058148679921659119 0.37186744297544022 0 -0.051828064233363932 0.36038047858465339 0 -0.054116187566776573 0.36544526432200969 0 -0.058626870601395778 0.36023180910453118 0 -0.058626870601395778 0.36023180910453118 0 -0.058148679921659119 0.37186744297544022 0 -0.076275814730551866 0.38330479896731001 0 -0.058626870601395778 0.36023180910453118 0 -0.071157696118109362 0.36170448025062218 0 -0.076275814730551866 0.38330479896731001 0 -0.071157696118109362 0.36170448025062218 0 -0.084299133686975572 0.35684410208409001 0 -0.076275814730551866 0.38330479896731001 0 -0.058626870601395778 0.36023180910453118 0 -0.076275814730551866 0.38330479896731001 0 -0.084299133686975572 0.35684410208409001 0 -0.089436666146690338 0.3774527594588406 0 -0.076275814730551866 0.38330479896731001 0 -0.084299133686975572 0.35684410208409001 0 -0.076275814730551866 0.38330479896731001 0 -0.093494049974744503 0.36523362229143391 0 -0.084299133686975572 0.35684410208409001 0 -0.089436666146690338 0.3774527594588406 0 -0.084299133686975572 0.35684410208409001 0 -0.076705507896191183 0.35383855447693902 0 -0.080753986599573127 0.33990497651870988 0 -0.084299133686975572 0.35684410208409001 0 -0.092322452643399749 0.33038340520087017 0 -0.095141502753968779 0.35097174187852381 0 -0.093494049974744503 0.36523362229143391 0 -0.084299133686975572 0.35684410208409001 0 -0.095141502753968779 0.35097174187852381 0 -0.059881153675432383 0.35430313662024071 0 -0.071157696118109362 0.36170448025062218 0 -0.076705507896191183 0.35383855447693902 0 -0.076705507896191183 0.35383855447693902 0 -0.068046633572776155 0.34513696516333192 0 -0.080753986599573127 0.33990497651870988 0 -0.059881153675432383 0.35430313662024071 0 -0.076705507896191183 0.35383855447693902 0 -0.068046633572776155 0.34513696516333192 0 -0.059881153675432383 0.35430313662024071 0 -0.076705507896191183 0.35383855447693902 0 -0.071157696118109362 0.36170448025062218 0 -0.084299133686975572 0.35684410208409001 0 -0.076705507896191183 0.35383855447693902 0 -0.059881153675432383 0.35430313662024071 0 -0.058626870601395778 0.36023180910453118 0 -0.071157696118109362 0.36170448025062218 0 -0.059881153675432383 0.35430313662024071 0 -0.059976501396798443 0.34640013057040159 0 -0.068046633572776155 0.34513696516333192 0 -0.06815446288386498 0.3263880450875648 0 -0.079151648495115301 0.32136139923810009 0 -0.080753986599573127 0.33990497651870988 0 -0.068046633572776155 0.34513696516333192 0 -0.06815446288386498 0.3263880450875648 0 -0.080753986599573127 0.33990497651870988 0 -0.059045099567240703 0.33862263320968672 0 -0.068046633572776155 0.34513696516333192 0 -0.06815446288386498 0.3263880450875648 0 -0.068322770035098762 0.31198038943260148 0 -0.069852456288818351 0.31207980665071 0 -0.06815446288386498 0.3263880450875648 0 -0.068322770035098762 0.31198038943260148 0 -0.053879496619987192 0.32442993198196868 0 -0.06815446288386498 0.3263880450875648 0 -0.08121949171140587 0.31012908581564408 0 -0.069852456288818351 0.31207980665071 0 -0.079151648495115301 0.32136139923810009 0 -0.069852456288818351 0.31207980665071 0 -0.06815446288386498 0.3263880450875648 0 -0.079151648495115301 0.32136139923810009 0 -0.087527931766016032 0.31235393694025021 0 -0.079151648495115301 0.32136139923810009 0 -0.092322452643399749 0.33038340520087017 0 -0.1003457715998239 0.30392270831765028 0 -0.087527931766016032 0.31235393694025021 0 -0.092322452643399749 0.33038340520087017 0 -0.087527931766016032 0.31235393694025021 0 -0.08121949171140587 0.31012908581564408 0 -0.079151648495115301 0.32136139923810009 0 -0.084299133686975572 0.35684410208409001 0 -0.092322452643399749 0.33038340520087017 0 -0.079151648495115301 0.32136139923810009 0 -0.092322452643399749 0.33038340520087017 0 -0.080753986599573127 0.33990497651870988 0 -0.084299133686975572 0.35684410208409001 0 -0.092322452643399749 0.33038340520087017 0 -0.080753986599573127 0.33990497651870988 0 -0.092322452643399749 0.33038340520087017 0 -0.10472406897533799 0.34168768652513631 0 -0.095141502753968779 0.35097174187852381 0 -0.092322452643399749 0.33038340520087017 0 -0.10472406897533799 0.34168768652513631 0 -0.1081804568928026 0.32074506353771021 0 -0.1003457715998239 0.30392270831765028 0 -0.092322452643399749 0.33038340520087017 0 -0.1003457715998239 0.30392270831765028 0 -0.092322452643399749 0.33038340520087017 0 -0.1081804568928026 0.32074506353771021 0 -0.1262409447270301 0.3211703831111522 0 -0.1173504618646501 0.30916380798395637 0 -0.1081804568928026 0.32074506353771021 0 -0.1262409447270301 0.3211703831111522 0 -0.1081804568928026 0.32074506353771021 0 -0.1175879007316586 0.33497855513245622 0 -0.13367478836053351 0.33932016938713638 0 -0.1175879007316586 0.33497855513245622 0 -0.1173066256070304 0.35104950557859033 0 -0.10472406897533799 0.34168768652513631 0 -0.1081804568928026 0.32074506353771021 0 -0.1175879007316586 0.33497855513245622 0 -0.10472406897533799 0.34168768652513631 0 -0.1175879007316586 0.33497855513245622 0 -0.1173066256070304 0.35104950557859033 0 -0.1173066256070304 0.35104950557859033 0 -0.1198206075896991 0.37069234566290138 0 -0.1030551893938276 0.35978992576853291 0 -0.1367685514822152 0.35851885971508118 0 -0.1173066256070304 0.35104950557859033 0 -0.1198206075896991 0.37069234566290138 0 -0.1198206075896991 0.37069234566290138 0 -0.1030551893938276 0.35978992576853291 0 -0.10026372758235801 0.37465761506622741 0 -0.093494049974744503 0.36523362229143391 0 -0.10026372758235801 0.37465761506622741 0 -0.089436666146690338 0.3774527594588406 0 -0.093494049974744503 0.36523362229143391 0 -0.1030551893938276 0.35978992576853291 0 -0.10026372758235801 0.37465761506622741 0 -0.10472406897533799 0.34168768652513631 0 -0.1030551893938276 0.35978992576853291 0 -0.095141502753968779 0.35097174187852381 0 -0.093494049974744503 0.36523362229143391 0 -0.1030551893938276 0.35978992576853291 0 -0.095141502753968779 0.35097174187852381 0 -0.10472406897533799 0.34168768652513631 0 -0.1173066256070304 0.35104950557859033 0 -0.1030551893938276 0.35978992576853291 0 -0.101128536279416 0.3977608810528192 0 -0.11378235269799521 0.38746486633725291 0 -0.11258596611237601 0.40408595479252452 0 -0.101128536279416 0.3977608810528192 0 -0.095244926421122186 0.38729621463576269 0 -0.11378235269799521 0.38746486633725291 0 -0.101128536279416 0.3977608810528192 0 -0.11258596611237601 0.40408595479252452 0 -0.097808874238227678 0.41145560844912898 0 -0.101128536279416 0.3977608810528192 0 -0.097808874238227678 0.41145560844912898 0 -0.087042344484389883 0.39738020370821953 0 -0.101128536279416 0.3977608810528192 0 -0.095244926421122186 0.38729621463576269 0 -0.087042344484389883 0.39738020370821953 0 -0.10026372758235801 0.37465761506622741 0 -0.095244926421122186 0.38729621463576269 0 -0.11378235269799521 0.38746486633725291 0 -0.10026372758235801 0.37465761506622741 0 -0.095244926421122186 0.38729621463576269 0 -0.089436666146690338 0.3774527594588406 0 -0.1198206075896991 0.37069234566290138 0 -0.10026372758235801 0.37465761506622741 0 -0.11378235269799521 0.38746486633725291 0 -0.12826940643264259 0.38638828685515292 0 -0.1198206075896991 0.37069234566290138 0 -0.11378235269799521 0.38746486633725291 0 -0.12644786621320531 0.40058001872868543 0 -0.12826940643264259 0.38638828685515292 0 -0.11378235269799521 0.38746486633725291 0 -0.12761284081938409 0.41418542740570108 0 -0.11378235269799521 0.38746486633725291 0 -0.12761284081938409 0.41418542740570108 0 -0.12644786621320531 0.40058001872868543 0 -0.11378235269799521 0.38746486633725291 0 -0.12761284081938409 0.41418542740570108 0 -0.11378235269799521 0.38746486633725291 0 -0.11258596611237601 0.40408595479252452 0 -0.12761284081938409 0.41418542740570108 0 -0.11258596611237601 0.40408595479252452 0 -0.097808874238227678 0.41145560844912898 0 -0.12761284081938409 0.41418542740570108 0 -0.1126245701039178 0.4308246085444013 0 -0.097808874238227678 0.41145560844912898 0 -0.12761284081938409 0.41418542740570108 0 -0.097808874238227678 0.41145560844912898 0 -0.12761284081938409 0.41418542740570108 0 -0.1126245701039178 0.4308246085444013 0 -0.1242648033483075 0.43981492828754482 0 -0.1126245701039178 0.4308246085444013 0 -0.096605527178418776 0.42311346390882398 0 -0.097170403390676049 0.43571281837191522 0 -0.1126245701039178 0.4308246085444013 0 -0.097170403390676049 0.43571281837191522 0 -0.10338783084247161 0.44098956532991213 0 -0.1126245701039178 0.4308246085444013 0 -0.097808874238227678 0.41145560844912898 0 -0.1126245701039178 0.4308246085444013 0 -0.096605527178418776 0.42311346390882398 0 -0.097808874238227678 0.41145560844912898 0 -0.096605527178418776 0.42311346390882398 0 -0.097808874238227678 0.41145560844912898 0 -0.090623427087895073 0.41079747558654428 0 -0.097808874238227678 0.41145560844912898 0 -0.090623427087895073 0.41079747558654428 0 -0.096605527178418776 0.42311346390882398 0 -0.090623427087895073 0.41079747558654428 0 -0.084800361071377284 0.4267768085921303 0 -0.090623427087895073 0.41079747558654428 0 -0.084347825254610875 0.40943513047528779 0 -0.084800361071377284 0.4267768085921303 0 -0.084800361071377284 0.4267768085921303 0 -0.074925168374781331 0.40278603401425761 0 -0.084347825254610875 0.40943513047528779 0 -0.084800361071377284 0.4267768085921303 0 -0.074925168374781331 0.40278603401425761 0 -0.097808874238227678 0.41145560844912898 0 -0.090623427087895073 0.41079747558654428 0 -0.087042344484389883 0.39738020370821953 0 -0.096605527178418776 0.42311346390882398 0 -0.097170403390676049 0.43571281837191522 0 -0.084800361071377284 0.4267768085921303 0 -0.084800361071377284 0.4267768085921303 0 -0.077689053426030094 0.43734830183904833 0 -0.073740177733494089 0.43015549729097768 0 -0.084800361071377284 0.4267768085921303 0 -0.077689053426030094 0.43734830183904833 0 -0.085627028266785254 0.44117175463919189 0 -0.077689053426030094 0.43734830183904833 0 -0.073740177733494089 0.43015549729097768 0 -0.069373851585076945 0.43677151010665521 0 -0.084800361071377284 0.4267768085921303 0 -0.073740177733494089 0.43015549729097768 0 -0.074963529381557356 0.42372471124402672 0 -0.084800361071377284 0.4267768085921303 0 -0.074963529381557356 0.42372471124402672 0 -0.074207610301873977 0.415826985147286 0 -0.073740177733494089 0.43015549729097768 0 -0.07134827269677288 0.42521816639912852 0 -0.067010261651664849 0.42692585223643509 0 -0.073740177733494089 0.43015549729097768 0 -0.074963529381557356 0.42372471124402672 0 -0.07134827269677288 0.42521816639912852 0 -0.074963529381557356 0.42372471124402672 0 -0.07134827269677288 0.42521816639912852 0 -0.069903249343569923 0.42035209495099629 0 -0.06803153127557314 0.42418340705062968 0 -0.063864341410284964 0.42423751461595932 0 -0.069903249343569923 0.42035209495099629 0 -0.07134827269677288 0.42521816639912852 0 -0.06803153127557314 0.42418340705062968 0 -0.067010261651664849 0.42692585223643509 0 -0.07134827269677288 0.42521816639912852 0 -0.06803153127557314 0.42418340705062968 0 -0.069903249343569923 0.42035209495099629 0 -0.06803153127557314 0.42418340705062968 0 -0.063864341410284964 0.42423751461595932 0 -0.067010261651664849 0.42692585223643509 0 -0.063864341410284964 0.42423751461595932 0 -0.067010261651664849 0.42692585223643509 0 -0.067010261651664849 0.42692585223643509 0 -0.06657591115514655 0.43192586875325267 0 -0.062357688865182517 0.42920641545622512 0 -0.063864341410284964 0.42423751461595932 0 -0.067010261651664849 0.42692585223643509 0 -0.062357688865182517 0.42920641545622512 0 -0.063864341410284964 0.42423751461595932 0 -0.062357688865182517 0.42920641545622512 0 -0.073740177733494089 0.43015549729097768 0 -0.067010261651664849 0.42692585223643509 0 -0.06657591115514655 0.43192586875325267 0 -0.073740177733494089 0.43015549729097768 0 -0.06657591115514655 0.43192586875325267 0 -0.069373851585076945 0.43677151010665521 0 -0.06657591115514655 0.43192586875325267 0 -0.062750456602468974 0.43554137489064498 0 -0.062357688865182517 0.42920641545622512 0 -0.06657591115514655 0.43192586875325267 0 -0.062750456602468974 0.43554137489064498 0 -0.069373851585076945 0.43677151010665521 0 -0.063864341410284964 0.42423751461595932 0 -0.069903249343569923 0.42035209495099629 0 -0.070070078070418332 0.40377115679163461 0 -0.074207610301873977 0.415826985147286 0 -0.069903249343569923 0.42035209495099629 0 -0.070070078070418332 0.40377115679163461 0 -0.063864341410284964 0.42423751461595932 0 -0.070070078070418332 0.40377115679163461 0 -0.058881304157308093 0.40804381518971672 0 -0.063864341410284964 0.42423751461595932 0 -0.070070078070418332 0.40377115679163461 0 -0.084800361071377284 0.4267768085921303 0 -0.074207610301873977 0.415826985147286 0 -0.074925168374781331 0.40278603401425761 0 -0.074207610301873977 0.415826985147286 0 -0.070070078070418332 0.40377115679163461 0 -0.074925168374781331 0.40278603401425761 0 -0.074963529381557356 0.42372471124402672 0 -0.074207610301873977 0.415826985147286 0 -0.069903249343569923 0.42035209495099629 0 -0.070070078070418332 0.40377115679163461 0 -0.064506344576777661 0.39145758865641178 0 -0.076275814730551866 0.38330479896731001 0 -0.070070078070418332 0.40377115679163461 0 -0.074925168374781331 0.40278603401425761 0 -0.076275814730551866 0.38330479896731001 0 -0.070070078070418332 0.40377115679163461 0 -0.076275814730551866 0.38330479896731001 0 -0.070070078070418332 0.40377115679163461 0 -0.064506344576777661 0.39145758865641178 0 -0.057086028466031037 0.39647274516785291 0 -0.074925168374781331 0.40278603401425761 0 -0.087042344484389883 0.39738020370821953 0 -0.076275814730551866 0.38330479896731001 0 -0.084347825254610875 0.40943513047528779 0 -0.074925168374781331 0.40278603401425761 0 -0.087042344484389883 0.39738020370821953 0 -0.097808874238227678 0.41145560844912898 0 -0.087042344484389883 0.39738020370821953 0 -0.090623427087895073 0.41079747558654428 0 -0.084347825254610875 0.40943513047528779 0 -0.087042344484389883 0.39738020370821953 0 -0.087042344484389883 0.39738020370821953 0 -0.089436666146690338 0.3774527594588406 0 -0.076275814730551866 0.38330479896731001 0 -0.095244926421122186 0.38729621463576269 0 -0.087042344484389883 0.39738020370821953 0 -0.089436666146690338 0.3774527594588406 0 -0.087042344484389883 0.39738020370821953 0 -0.076275814730551866 0.38330479896731001 0 -0.064506344576777661 0.39145758865641178 0 -0.076275814730551866 0.38330479896731001 0 -0.054593457040109393 0.3822816536988497 0 -0.058148679921659119 0.37186744297544022 0 -0.076275814730551866 0.38330479896731001 0 -0.054593457040109393 0.3822816536988497 0 -0.064506344576777661 0.39145758865641178 0 -0.054593457040109393 0.3822816536988497 0 -0.057086028466031037 0.39647274516785291 0 -0.054593457040109393 0.3822816536988497 0 -0.057086028466031037 0.39647274516785291 0 -0.042391572779214973 0.39096282696345341 0 -0.057086028466031037 0.39647274516785291 0 -0.042391572779214973 0.39096282696345341 0 -0.044504768682498037 0.40769384418342008 0 -0.070070078070418332 0.40377115679163461 0 -0.057086028466031037 0.39647274516785291 0 -0.058881304157308093 0.40804381518971672 0 -0.057086028466031037 0.39647274516785291 0 -0.044504768682498037 0.40769384418342008 0 -0.058881304157308093 0.40804381518971672 0 -0.02514519595471108 0.39115017375088101 0 -0.044504768682498037 0.40769384418342008 0 -0.042391572779214973 0.39096282696345341 0 -0.02514519595471108 0.39115017375088101 0 -0.044504768682498037 0.40769384418342008 0 -0.034100997704691827 0.37295894625721099 0 -0.054593457040109393 0.3822816536988497 0 -0.042391572779214973 0.39096282696345341 0 -0.034100997704691827 0.37295894625721099 0 -0.042391572779214973 0.39096282696345341 0 -0.02514519595471108 0.39115017375088101 0 -0.034100997704691827 0.37295894625721099 0 -0.02514519595471108 0.39115017375088101 0 -0.034100997704691827 0.37295894625721099 0 -0.02514519595471108 0.39115017375088101 0 -0.0087141207398781558 0.37710904293520409 0 -0.02514519595471108 0.39115017375088101 0 -0.0087141207398781558 0.37710904293520409 0 -0.02514519595471108 0.39115017375088101 0 -0.014810785045769751 0.41214166341376801 0 -0.02514519595471108 0.39115017375088101 0 -0.014810785045769751 0.41214166341376801 0 -0.044504768682498037 0.40769384418342008 0 -0.0068648610501423502 0.39382000907293813 0 -0.014810785045769751 0.41214166341376801 0 0.0046995574085186929 0.41194005205042061 0 -0.02514519595471108 0.39115017375088101 0 -0.0068648610501423502 0.39382000907293813 0 -0.014810785045769751 0.41214166341376801 0 -0.02514519595471108 0.39115017375088101 0 -0.0068648610501423502 0.39382000907293813 0 -0.0087141207398781558 0.37710904293520409 0 -0.0068648610501423502 0.39382000907293813 0 -0.0087141207398781558 0.37710904293520409 0 0.0053185270157129726 0.37689571945341471 0 -0.0044763741368290672 0.43313315307665529 0 -0.014810785045769751 0.41214166341376801 0 -0.0044763741368290672 0.43313315307665529 0 -0.014810785045769751 0.41214166341376801 0 -0.026116443713473419 0.4246575807879529 0 -0.0044763741368290672 0.43313315307665529 0 -0.014810785045769751 0.41214166341376801 0 0.0046995574085186929 0.41194005205042061 0 -0.014810785045769751 0.41214166341376801 0 -0.026116443713473419 0.4246575807879529 0 -0.044504768682498037 0.40769384418342008 0 -0.0044763741368290672 0.43313315307665529 0 -0.026116443713473419 0.4246575807879529 0 -0.02623027688729573 0.44118750916919391 0 -0.026116443713473419 0.4246575807879529 0 -0.040560013814974517 0.42913173409672722 0 -0.02623027688729573 0.44118750916919391 0 -0.040560013814974517 0.42913173409672722 0 -0.048293098329248912 0.43867666423002288 0 -0.039090066940739521 0.44352471403713711 0 -0.026116443713473419 0.4246575807879529 0 -0.040560013814974517 0.42913173409672722 0 -0.044504768682498037 0.40769384418342008 0 -0.040560013814974517 0.42913173409672722 0 -0.044504768682498037 0.40769384418342008 0 -0.051886787429848112 0.42350176277299723 0 -0.063864341410284964 0.42423751461595932 0 -0.044504768682498037 0.40769384418342008 0 -0.058881304157308093 0.40804381518971672 0 -0.063864341410284964 0.42423751461595932 0 -0.044504768682498037 0.40769384418342008 0 -0.051886787429848112 0.42350176277299723 0 -0.063864341410284964 0.42423751461595932 0 -0.044504768682498037 0.40769384418342008 0 -0.053936434918908913 0.43159717611494758 0 -0.057641003333182179 0.44086754716312743 0 -0.048293098329248912 0.43867666423002288 0 -0.040560013814974517 0.42913173409672722 0 -0.053936434918908913 0.43159717611494758 0 -0.048293098329248912 0.43867666423002288 0 -0.040560013814974517 0.42913173409672722 0 -0.053936434918908913 0.43159717611494758 0 -0.051886787429848112 0.42350176277299723 0 -0.053936434918908913 0.43159717611494758 0 -0.051886787429848112 0.42350176277299723 0 -0.062357688865182517 0.42920641545622512 0 -0.063864341410284964 0.42423751461595932 0 -0.051886787429848112 0.42350176277299723 0 -0.062357688865182517 0.42920641545622512 0 -0.062750456602468974 0.43554137489064498 0 -0.053936434918908913 0.43159717611494758 0 -0.062357688865182517 0.42920641545622512 0 -0.062750456602468974 0.43554137489064498 0 -0.053936434918908913 0.43159717611494758 0 -0.057641003333182179 0.44086754716312743 0 -0.062750456602468974 0.43554137489064498 0 -0.057641003333182179 0.44086754716312743 0 -0.065491549478626135 0.44200233464982802 0 -0.057641003333182179 0.44086754716312743 0 -0.062398417199954148 0.4499603094023914 0 -0.065491549478626135 0.44200233464982802 0 -0.057641003333182179 0.44086754716312743 0 -0.062398417199954148 0.4499603094023914 0 -0.050237972638439453 0.44826214973817502 0 -0.057641003333182179 0.44086754716312743 0 -0.050237972638439453 0.44826214973817502 0 -0.048293098329248912 0.43867666423002288 0 -0.062398417199954148 0.4499603094023914 0 -0.050230730183752688 0.46259696058471089 0 -0.064501224992871267 0.46542691543905351 0 -0.062398417199954148 0.4499603094023914 0 -0.050237972638439453 0.44826214973817502 0 -0.050230730183752688 0.46259696058471089 0 -0.050230730183752688 0.46259696058471089 0 -0.035748626011326709 0.45858167758110602 0 -0.046040344352481867 0.47841272498986082 0 -0.050237972638439453 0.44826214973817502 0 -0.050230730183752688 0.46259696058471089 0 -0.035748626011326709 0.45858167758110602 0 -0.035748626011326709 0.45858167758110602 0 -0.039090066940739521 0.44352471403713711 0 -0.02623027688729573 0.44118750916919391 0 -0.050237972638439453 0.44826214973817502 0 -0.048293098329248912 0.43867666423002288 0 -0.039090066940739521 0.44352471403713711 0 -0.050237972638439453 0.44826214973817502 0 -0.035748626011326709 0.45858167758110602 0 -0.039090066940739521 0.44352471403713711 0 -0.040560013814974517 0.42913173409672722 0 -0.039090066940739521 0.44352471403713711 0 -0.02623027688729573 0.44118750916919391 0 -0.035748626011326709 0.45858167758110602 0 -0.02623027688729573 0.44118750916919391 0 -0.01728298942402769 0.45556140426229003 0 -0.0044763741368290672 0.43313315307665529 0 -0.02623027688729573 0.44118750916919391 0 -0.01728298942402769 0.45556140426229003 0 -0.035748626011326709 0.45858167758110602 0 -0.01728298942402769 0.45556140426229003 0 -0.022784747477638551 0.4775754860453762 0 -0.01728298942402769 0.45556140426229003 0 -0.0062093312902834459 0.46527566221073008 0 0.006403582431216831 0.45126676372832991 0 -0.01728298942402769 0.45556140426229003 0 -0.0062093312902834459 0.46527566221073008 0 -0.022784747477638551 0.4775754860453762 0 -0.0044763741368290672 0.43313315307665529 0 -0.01728298942402769 0.45556140426229003 0 0.006403582431216831 0.45126676372832991 0 -0.0062093312902834459 0.46527566221073008 0 -0.022784747477638551 0.4775754860453762 0 0.0095498935665802413 0.47810272379952351 0 -0.022784747477638551 0.4775754860453762 0 -0.021427984417146221 0.5 0 0.0095498935665802413 0.47810272379952351 0 -0.021427984417146221 0.5 0 0.0095498935665802413 0.47810272379952351 0 0.0086042794582089632 0.5 0 -0.022784747477638551 0.4775754860453762 0 -0.021427984417146221 0.5 0 -0.046040344352481867 0.47841272498986082 0 -0.021427984417146221 0.5 0 -0.046040344352481867 0.47841272498986082 0 -0.051460248292501398 0.5 0 -0.035748626011326709 0.45858167758110602 0 -0.022784747477638551 0.4775754860453762 0 -0.046040344352481867 0.47841272498986082 0 -0.046040344352481867 0.47841272498986082 0 -0.067939054777113927 0.48291587414950521 0 -0.064501224992871267 0.46542691543905351 0 -0.050230730183752688 0.46259696058471089 0 -0.046040344352481867 0.47841272498986082 0 -0.064501224992871267 0.46542691543905351 0 -0.046040344352481867 0.47841272498986082 0 -0.051460248292501398 0.5 0 -0.067939054777113927 0.48291587414950521 0 -0.051460248292501398 0.5 0 -0.081492512167856565 0.50000000000000011 0 -0.067939054777113927 0.48291587414950521 0 -0.081492512167856565 0.50000000000000011 0 -0.085878896958769185 0.47675925450649242 0 -0.067939054777113927 0.48291587414950521 0 -0.081492512167856565 0.50000000000000011 0 -0.085878896958769185 0.47675925450649242 0 -0.099362977551805121 0.48745008538217821 0 -0.081492512167856565 0.50000000000000011 0 -0.085878896958769185 0.47675925450649242 0 -0.085878896958769185 0.47675925450649242 0 -0.075452149305044958 0.46933040044586682 0 -0.067939054777113927 0.48291587414950521 0 -0.075452149305044958 0.46933040044586682 0 -0.067939054777113927 0.48291587414950521 0 -0.064501224992871267 0.46542691543905351 0 -0.064501224992871267 0.46542691543905351 0 -0.075214053997903707 0.45912990264989012 0 -0.070315415620740368 0.45334812155980347 0 -0.062398417199954148 0.4499603094023914 0 -0.064501224992871267 0.46542691543905351 0 -0.070315415620740368 0.45334812155980347 0 -0.075214053997903707 0.45912990264989012 0 -0.070315415620740368 0.45334812155980347 0 -0.081419329692844739 0.44979703694502599 0 -0.075452149305044958 0.46933040044586682 0 -0.064501224992871267 0.46542691543905351 0 -0.075214053997903707 0.45912990264989012 0 -0.075452149305044958 0.46933040044586682 0 -0.075214053997903707 0.45912990264989012 0 -0.082509194984251868 0.46007906520350089 0 -0.069373851585076945 0.43677151010665521 0 -0.065491549478626135 0.44200233464982802 0 -0.073041418115067244 0.44511613748665291 0 -0.062750456602468974 0.43554137489064498 0 -0.069373851585076945 0.43677151010665521 0 -0.065491549478626135 0.44200233464982802 0 -0.062398417199954148 0.4499603094023914 0 -0.065491549478626135 0.44200233464982802 0 -0.073041418115067244 0.44511613748665291 0 -0.062398417199954148 0.4499603094023914 0 -0.070315415620740368 0.45334812155980347 0 -0.073041418115067244 0.44511613748665291 0 -0.070315415620740368 0.45334812155980347 0 -0.073041418115067244 0.44511613748665291 0 -0.081419329692844739 0.44979703694502599 0 -0.073041418115067244 0.44511613748665291 0 -0.07941018481149445 0.44345804230003222 0 -0.081419329692844739 0.44979703694502599 0 -0.077689053426030094 0.43734830183904833 0 -0.069373851585076945 0.43677151010665521 0 -0.073041418115067244 0.44511613748665291 0 -0.077689053426030094 0.43734830183904833 0 -0.073041418115067244 0.44511613748665291 0 -0.07941018481149445 0.44345804230003222 0 -0.097170403390676049 0.43571281837191522 0 -0.084800361071377284 0.4267768085921303 0 -0.094675553767973264 0.45076758317000298 0 -0.084800361071377284 0.4267768085921303 0 -0.094675553767973264 0.45076758317000298 0 -0.084800361071377284 0.4267768085921303 0 -0.085627028266785254 0.44117175463919189 0 -0.094675553767973264 0.45076758317000298 0 -0.085627028266785254 0.44117175463919189 0 -0.07941018481149445 0.44345804230003222 0 -0.081419329692844739 0.44979703694502599 0 -0.077689053426030094 0.43734830183904833 0 -0.085627028266785254 0.44117175463919189 0 -0.07941018481149445 0.44345804230003222 0 -0.085627028266785254 0.44117175463919189 0 -0.081419329692844739 0.44979703694502599 0 -0.088082484801868088 0.44854024150695748 0 -0.081419329692844739 0.44979703694502599 0 -0.086047819819581178 0.45134535453790131 0 -0.088082484801868088 0.44854024150695748 0 -0.085627028266785254 0.44117175463919189 0 -0.088082484801868088 0.44854024150695748 0 -0.094675553767973264 0.45076758317000298 0 -0.086047819819581178 0.45134535453790131 0 -0.088082484801868088 0.44854024150695748 0 -0.090265281749681819 0.45351850901298468 0 -0.088082484801868088 0.44854024150695748 0 -0.090265281749681819 0.45351850901298468 0 -0.094675553767973264 0.45076758317000298 0 -0.085878896958769185 0.47675925450649242 0 -0.075452149305044958 0.46933040044586682 0 -0.082509194984251868 0.46007906520350089 0 -0.085878896958769185 0.47675925450649242 0 -0.090265281749681819 0.45351850901298468 0 -0.085878896958769185 0.47675925450649242 0 -0.090265281749681819 0.45351850901298468 0 -0.093944937474792503 0.46462082789344678 0 -0.085878896958769185 0.47675925450649242 0 -0.082509194984251868 0.46007906520350089 0 -0.090265281749681819 0.45351850901298468 0 -0.081419329692844739 0.44979703694502599 0 -0.086047819819581178 0.45134535453790131 0 -0.082509194984251868 0.46007906520350089 0 -0.075214053997903707 0.45912990264989012 0 -0.081419329692844739 0.44979703694502599 0 -0.082509194984251868 0.46007906520350089 0 -0.090265281749681819 0.45351850901298468 0 -0.093944937474792503 0.46462082789344678 0 -0.094675553767973264 0.45076758317000298 0 -0.086047819819581178 0.45134535453790131 0 -0.082509194984251868 0.46007906520350089 0 -0.090265281749681819 0.45351850901298468 0 -0.093944937474792503 0.46462082789344678 0 -0.094675553767973264 0.45076758317000298 0 -0.1045507464645692 0.47475835774787573 0 -0.094675553767973264 0.45076758317000298 0 -0.1045507464645692 0.47475835774787573 0 -0.1087715055698807 0.4588247561088431 0 -0.094675553767973264 0.45076758317000298 0 -0.1045507464645692 0.47475835774787573 0 -0.1126245701039178 0.4308246085444013 0 -0.1090807961073193 0.44665325123332839 0 -0.10338783084247161 0.44098956532991213 0 -0.097170403390676049 0.43571281837191522 0 -0.094675553767973264 0.45076758317000298 0 -0.10338783084247161 0.44098956532991213 0 -0.1087715055698807 0.4588247561088431 0 -0.094675553767973264 0.45076758317000298 0 -0.1090807961073193 0.44665325123332839 0 -0.094675553767973264 0.45076758317000298 0 -0.1090807961073193 0.44665325123332839 0 -0.10338783084247161 0.44098956532991213 0 -0.1126245701039178 0.4308246085444013 0 -0.1090807961073193 0.44665325123332839 0 -0.1242648033483075 0.43981492828754482 0 -0.1090807961073193 0.44665325123332839 0 -0.1242648033483075 0.43981492828754482 0 -0.1204057133641486 0.45504160574272429 0 -0.1087715055698807 0.4588247561088431 0 -0.1176294132596279 0.46872710166108278 0 -0.1045507464645692 0.47475835774787573 0 -0.1087715055698807 0.4588247561088431 0 -0.1204057133641486 0.45504160574272429 0 -0.1176294132596279 0.46872710166108278 0 -0.1087715055698807 0.4588247561088431 0 -0.1090807961073193 0.44665325123332839 0 -0.1204057133641486 0.45504160574272429 0 -0.13097929143795109 0.46459511115351071 0 -0.1204057133641486 0.45504160574272429 0 -0.1176294132596279 0.46872710166108278 0 -0.12908554574303099 0.47755934496718438 0 -0.1176294132596279 0.46872710166108278 0 -0.1160402402672886 0.48503019582547341 0 -0.1176294132596279 0.46872710166108278 0 -0.1160402402672886 0.48503019582547341 0 -0.1045507464645692 0.47475835774787573 0 -0.13803845513632401 0.5 0 -0.1097654836520903 0.5 0 -0.1160402402672886 0.48503019582547341 0 -0.1097654836520903 0.5 0 -0.1160402402672886 0.48503019582547341 0 -0.099362977551805121 0.48745008538217821 0 -0.081492512167856565 0.50000000000000011 0 -0.1097654836520903 0.5 0 -0.099362977551805121 0.48745008538217821 0 -0.085878896958769185 0.47675925450649242 0 -0.093944937474792503 0.46462082789344678 0 -0.1045507464645692 0.47475835774787573 0 -0.085878896958769185 0.47675925450649242 0 -0.099362977551805121 0.48745008538217821 0 -0.1045507464645692 0.47475835774787573 0 -0.1160402402672886 0.48503019582547341 0 -0.099362977551805121 0.48745008538217821 0 -0.1045507464645692 0.47475835774787573 0 -0.15850742705232401 0.077073165420907211 0 -0.17832815471062741 0.080370175701138483 0 -0.15596223049933161 0.089669487892629185 0 -0.17128916945913089 0.092189477241546317 0 -0.17832815471062741 0.080370175701138483 0 -0.15596223049933161 0.089669487892629185 0 -0.17832815471062741 0.080370175701138483 0 -0.15596223049933161 0.089669487892629185 0 -0.15850742705232401 0.077073165420907211 0 -0.16907692184479731 0.071953328836937142 0 -0.17832815471062741 0.080370175701138483 0 -0.15850742705232401 0.077073165420907211 0 -0.15722519427174569 0.065058312825911402 0 -0.16907692184479731 0.071953328836937142 0 -0.16907692184479731 0.071953328836937142 0 -0.1809864334298861 0.069780609401686525 0 -0.17832815471062741 0.080370175701138483 0 -0.16907692184479731 0.071953328836937142 0 -0.1809864334298861 0.069780609401686525 0 -0.18167022033174851 0.056262687610226528 0 -0.1809864334298861 0.069780609401686525 0 -0.17832815471062741 0.080370175701138483 0 -0.20069407892192309 0.071070863509647808 0 -0.1809864334298861 0.069780609401686525 0 -0.18167022033174851 0.056262687610226528 0 -0.1876556690991136 0.063313821709693935 0 -0.17128916945913089 0.092189477241546317 0 -0.18444466814129201 0.081023499242751457 0 -0.17631468167186989 0.1066384650542631 0 -0.17128916945913089 0.092189477241546317 0 -0.18444466814129201 0.081023499242751457 0 -0.17832815471062741 0.080370175701138483 0 -0.18444466814129201 0.081023499242751457 0 -0.17631468167186989 0.1066384650542631 0 -0.19937405773042491 0.1071019237599893 0 -0.17631468167186989 0.1066384650542631 0 -0.16393492635195239 0.1245978723337525 0 -0.1795193575176991 0.1294692331289829 0 -0.17631468167186989 0.1066384650542631 0 -0.19937405773042491 0.1071019237599893 0 -0.1795193575176991 0.1294692331289829 0 -0.16393492635195239 0.1245978723337525 0 -0.16139611227253359 0.1032457583169494 0 -0.15311233888185891 0.1152965378839053 0 -0.17631468167186989 0.1066384650542631 0 -0.16393492635195239 0.1245978723337525 0 -0.16139611227253359 0.1032457583169494 0 -0.17128916945913089 0.092189477241546317 0 -0.17631468167186989 0.1066384650542631 0 -0.16139611227253359 0.1032457583169494 0 -0.17128916945913089 0.092189477241546317 0 -0.16139611227253359 0.1032457583169494 0 -0.15596223049933161 0.089669487892629185 0 -0.16139611227253359 0.1032457583169494 0 -0.13359630628803579 0.098968800084119873 0 -0.15596223049933161 0.089669487892629185 0 -0.16139611227253359 0.1032457583169494 0 -0.15311233888185891 0.1152965378839053 0 -0.13359630628803579 0.098968800084119873 0 -0.13359630628803579 0.098968800084119873 0 -0.15596223049933161 0.089669487892629185 0 -0.15311233888185891 0.1152965378839053 0 -0.13930859898956699 0.1145050369687237 0 -0.153752621985453 0.14073392350839439 0 -0.15311233888185891 0.1152965378839053 0 -0.13930859898956699 0.1145050369687237 0 -0.13359630628803579 0.098968800084119873 0 -0.13930859898956699 0.1145050369687237 0 -0.12607259725238279 0.11330641960449821 0 -0.12916618827146031 0.12390190950899049 0 -0.13930859898956699 0.1145050369687237 0 -0.12607259725238279 0.11330641960449821 0 -0.13359630628803579 0.098968800084119873 0 -0.13359630628803579 0.098968800084119873 0 -0.12697672020224329 0.087309090757334687 0 -0.14089006822782121 0.082531143958766096 0 -0.12697672020224329 0.087309090757334687 0 -0.14089006822782121 0.082531143958766096 0 -0.12697985749263241 0.07630636069427757 0 -0.15850742705232401 0.077073165420907211 0 -0.14089006822782121 0.082531143958766096 0 -0.15596223049933161 0.089669487892629185 0 -0.13359630628803579 0.098968800084119873 0 -0.14089006822782121 0.082531143958766096 0 -0.15596223049933161 0.089669487892629185 0 -0.15850742705232401 0.077073165420907211 0 -0.14089006822782121 0.082531143958766096 0 -0.14764327064684279 0.071644858797684771 0 -0.15722519427174569 0.065058312825911402 0 -0.14764327064684279 0.071644858797684771 0 -0.1471722955607111 0.059591957907519158 0 -0.15850742705232401 0.077073165420907211 0 -0.15722519427174569 0.065058312825911402 0 -0.14764327064684279 0.071644858797684771 0 -0.14089006822782121 0.082531143958766096 0 -0.14764327064684279 0.071644858797684771 0 -0.13666502121529681 0.069478967649866344 0 -0.14764327064684279 0.071644858797684771 0 -0.13666502121529681 0.069478967649866344 0 -0.1471722955607111 0.059591957907519158 0 -0.14089006822782121 0.082531143958766096 0 -0.13666502121529681 0.069478967649866344 0 -0.12697985749263241 0.07630636069427757 0 -0.13666502121529681 0.069478967649866344 0 -0.12697985749263241 0.07630636069427757 0 -0.12509646681095879 0.065597408261105467 0 -0.13666502121529681 0.069478967649866344 0 -0.12509646681095879 0.065597408261105467 0 -0.13233523162579211 0.057527865090889828 0 -0.13233523162579211 0.057527865090889828 0 -0.1197320338084647 0.057760070231756527 0 -0.1244920148619628 0.050381604022983993 0 -0.12509646681095879 0.065597408261105467 0 -0.13233523162579211 0.057527865090889828 0 -0.1197320338084647 0.057760070231756527 0 -0.13666502121529681 0.069478967649866344 0 -0.13233523162579211 0.057527865090889828 0 -0.1471722955607111 0.059591957907519158 0 -0.13233523162579211 0.057527865090889828 0 -0.131277092146349 0.043237905602295942 0 -0.1435202772377579 0.047601805401877667 0 -0.13233523162579211 0.057527865090889828 0 -0.131277092146349 0.043237905602295942 0 -0.1244920148619628 0.050381604022983993 0 -0.131277092146349 0.043237905602295942 0 -0.14194951185496399 0.035172378083737049 0 -0.12424451236807239 0.027069144312366941 0 -0.131277092146349 0.043237905602295942 0 -0.12424451236807239 0.027069144312366941 0 -0.12075472355362291 0.04122338309529356 0 -0.131277092146349 0.043237905602295942 0 -0.12075472355362291 0.04122338309529356 0 -0.1244920148619628 0.050381604022983993 0 -0.131277092146349 0.043237905602295942 0 -0.14194951185496399 0.035172378083737049 0 -0.1435202772377579 0.047601805401877667 0 -0.14194951185496399 0.035172378083737049 0 -0.15126073753592009 0.02487777788828089 0 -0.1637260562540532 0.045028253166508762 0 -0.14194951185496399 0.035172378083737049 0 -0.1435202772377579 0.047601805401877667 0 -0.1637260562540532 0.045028253166508762 0 -0.15722519427174569 0.065058312825911402 0 -0.1471722955607111 0.059591957907519158 0 -0.1637260562540532 0.045028253166508762 0 -0.1471722955607111 0.059591957907519158 0 -0.1435202772377579 0.047601805401877667 0 -0.1637260562540532 0.045028253166508762 0 -0.13233523162579211 0.057527865090889828 0 -0.1471722955607111 0.059591957907519158 0 -0.1435202772377579 0.047601805401877667 0 -0.1244522405185825 -0.00038769298458709092 0 -0.1310798501921922 0.016754836893075501 0 -0.12424451236807239 0.027069144312366941 0 -0.1244522405185825 -0.00038769298458709092 0 -0.13302987177733741 0.0072862060594841918 0 -0.1310798501921922 0.016754836893075501 0 -0.13796817939809339 -7.5853332940862265e-05 0 -0.13302987177733741 0.0072862060594841918 0 -0.13861921700048169 0.01285353366238922 0 -0.1244522405185825 -0.00038769298458709092 0 -0.13796817939809339 -7.5853332940862265e-05 0 -0.13302987177733741 0.0072862060594841918 0 -0.13302987177733741 0.0072862060594841918 0 -0.13861921700048169 0.01285353366238922 0 -0.1310798501921922 0.016754836893075501 0 -0.14194951185496399 0.035172378083737049 0 -0.1395360945068517 0.023372288850015029 0 -0.12424451236807239 0.027069144312366941 0 -0.13861921700048169 0.01285353366238922 0 -0.1395360945068517 0.023372288850015029 0 -0.1310798501921922 0.016754836893075501 0 -0.1395360945068517 0.023372288850015029 0 -0.1310798501921922 0.016754836893075501 0 -0.12424451236807239 0.027069144312366941 0 -0.14194951185496399 0.035172378083737049 0 -0.1395360945068517 0.023372288850015029 0 -0.15126073753592009 0.02487777788828089 0 -0.15126073753592009 0.02487777788828089 0 -0.15188271994169991 0.01786916074884114 0 -0.14657132146084931 0.01677767438903701 0 -0.15126073753592009 0.02487777788828089 0 -0.15837519066330749 0.018103177496080571 0 -0.1567842680697151 0.017821512483746641 0 -0.15126073753592009 0.02487777788828089 0 -0.15188271994169991 0.01786916074884114 0 -0.1567842680697151 0.017821512483746641 0 -0.1543123506052223 0.01567032783345056 0 -0.15188271994169991 0.01786916074884114 0 -0.1567842680697151 0.017821512483746641 0 -0.13861921700048169 0.01285353366238922 0 -0.1395360945068517 0.023372288850015029 0 -0.14657132146084931 0.01677767438903701 0 -0.1395360945068517 0.023372288850015029 0 -0.15126073753592009 0.02487777788828089 0 -0.14657132146084931 0.01677767438903701 0 -0.15381676672243971 -0.0048344028756085976 0 -0.13796817939809339 -7.5853332940862265e-05 0 -0.14598604308907309 0.0075397954886723484 0 -0.15381676672243971 -0.0048344028756085976 0 -0.15837519066330749 0.018103177496080571 0 -0.15381676672243971 -0.0048344028756085976 0 -0.15182406541376531 0.011854288846745499 0 -0.15837519066330749 0.018103177496080571 0 -0.15381676672243971 -0.0048344028756085976 0 -0.15182406541376531 0.011854288846745499 0 -0.14598604308907309 0.0075397954886723484 0 -0.13861921700048169 0.01285353366238922 0 -0.14657132146084931 0.01677767438903701 0 -0.14598604308907309 0.0075397954886723484 0 -0.14657132146084931 0.01677767438903701 0 -0.15182406541376531 0.011854288846745499 0 -0.14598604308907309 0.0075397954886723484 0 -0.15188271994169991 0.01786916074884114 0 -0.14657132146084931 0.01677767438903701 0 -0.15182406541376531 0.011854288846745499 0 -0.1543123506052223 0.01567032783345056 0 -0.15182406541376531 0.011854288846745499 0 -0.15837519066330749 0.018103177496080571 0 -0.1543123506052223 0.01567032783345056 0 -0.15188271994169991 0.01786916074884114 0 -0.15182406541376531 0.011854288846745499 0 -0.13796817939809339 -7.5853332940862265e-05 0 -0.13861921700048169 0.01285353366238922 0 -0.14598604308907309 0.0075397954886723484 0 -0.15381676672243971 -0.0048344028756085976 0 -0.16872927738725291 0.0066655648670224509 0 -0.15837519066330749 0.018103177496080571 0 -0.16872927738725291 0.0066655648670224509 0 -0.15837519066330749 0.018103177496080571 0 -0.17312315274812851 0.016956976572924821 0 -0.15837519066330749 0.018103177496080571 0 -0.17088268452158301 0.030303691123205939 0 -0.18416549926151529 0.022669224655560441 0 -0.15837519066330749 0.018103177496080571 0 -0.17088268452158301 0.030303691123205939 0 -0.1637260562540532 0.045028253166508762 0 -0.15126073753592009 0.02487777788828089 0 -0.15837519066330749 0.018103177496080571 0 -0.1637260562540532 0.045028253166508762 0 -0.15837519066330749 0.018103177496080571 0 -0.18416549926151529 0.022669224655560441 0 -0.1543123506052223 0.01567032783345056 0 -0.15837519066330749 0.018103177496080571 0 -0.1567842680697151 0.017821512483746641 0 -0.15837519066330749 0.018103177496080571 0 -0.1567842680697151 0.017821512483746641 0 -0.15837519066330749 0.018103177496080571 0 -0.18416549926151529 0.022669224655560441 0 -0.17312315274812851 0.016956976572924821 0 -0.17088268452158301 0.030303691123205939 0 -0.18416549926151529 0.022669224655560441 0 -0.1815242396402782 0.037713578252632912 0 -0.18416549926151529 0.022669224655560441 0 -0.17919408738426101 0.017592611389363012 0 -0.18518118592807509 0.0154377595936586 0 -0.18416549926151529 0.022669224655560441 0 -0.17312315274812851 0.016956976572924821 0 -0.17919408738426101 0.017592611389363012 0 -0.1785064095432054 -0.0066611219507198768 0 -0.16872927738725291 0.0066655648670224509 0 -0.193034969706537 0.00064734206737222756 0 -0.16872927738725291 0.0066655648670224509 0 -0.193034969706537 0.00064734206737222756 0 -0.16872927738725291 0.0066655648670224509 0 -0.18518118592807509 0.0154377595936586 0 -0.193034969706537 0.00064734206737222756 0 -0.16872927738725291 0.0066655648670224509 0 -0.17919408738426101 0.017592611389363012 0 -0.18518118592807509 0.0154377595936586 0 -0.16872927738725291 0.0066655648670224509 0 -0.17312315274812851 0.016956976572924821 0 -0.17919408738426101 0.017592611389363012 0 -0.16907692184479731 0.071953328836937142 0 -0.1637260562540532 0.045028253166508762 0 -0.18167022033174851 0.056262687610226528 0 -0.15722519427174569 0.065058312825911402 0 -0.16907692184479731 0.071953328836937142 0 -0.1637260562540532 0.045028253166508762 0 -0.16907692184479731 0.071953328836937142 0 -0.1637260562540532 0.045028253166508762 0 -0.15837519066330749 0.018103177496080571 0 -0.1637260562540532 0.045028253166508762 0 -0.17088268452158301 0.030303691123205939 0 -0.1637260562540532 0.045028253166508762 0 -0.1815242396402782 0.037713578252632912 0 -0.1815242396402782 0.037713578252632912 0 -0.18167022033174851 0.056262687610226528 0 -0.1948999673891425 0.045815662425189529 0 -0.1637260562540532 0.045028253166508762 0 -0.1815242396402782 0.037713578252632912 0 -0.18167022033174851 0.056262687610226528 0 -0.18416549926151529 0.022669224655560441 0 -0.1815242396402782 0.037713578252632912 0 -0.19539241544158811 0.034915353149486399 0 -0.19598386328254799 0.058823167906541372 0 -0.20873259774339259 0.055173182954087172 0 -0.20069407892192309 0.071070863509647808 0 -0.18167022033174851 0.056262687610226528 0 -0.19598386328254799 0.058823167906541372 0 -0.1876556690991136 0.063313821709693935 0 -0.19598386328254799 0.058823167906541372 0 -0.1948999673891425 0.045815662425189529 0 -0.20873259774339259 0.055173182954087172 0 -0.18167022033174851 0.056262687610226528 0 -0.19598386328254799 0.058823167906541372 0 -0.1948999673891425 0.045815662425189529 0 -0.1815242396402782 0.037713578252632912 0 -0.1948999673891425 0.045815662425189529 0 -0.19539241544158811 0.034915353149486399 0 -0.1948999673891425 0.045815662425189529 0 -0.19539241544158811 0.034915353149486399 0 -0.20641656305728129 0.041143028599009299 0 -0.20641656305728129 0.041143028599009299 0 -0.20995580785972329 0.027235271815039791 0 -0.22080882119384479 0.043900986742667819 0 -0.19539241544158811 0.034915353149486399 0 -0.20641656305728129 0.041143028599009299 0 -0.20995580785972329 0.027235271815039791 0 -0.20641656305728129 0.041143028599009299 0 -0.20873259774339259 0.055173182954087172 0 -0.22080882119384479 0.043900986742667819 0 -0.20873259774339259 0.055173182954087172 0 -0.2267202713125637 0.058975611642501508 0 -0.2176358721649875 0.072186860311035453 0 -0.1948999673891425 0.045815662425189529 0 -0.20641656305728129 0.041143028599009299 0 -0.20873259774339259 0.055173182954087172 0 -0.20993853639106591 -0.0035380738047605968 0 -0.2009137908539024 0.01431144198083124 0 -0.193034969706537 0.00064734206737222756 0 -0.18518118592807509 0.0154377595936586 0 -0.2009137908539024 0.01431144198083124 0 -0.193034969706537 0.00064734206737222756 0 -0.18518118592807509 0.0154377595936586 0 -0.193034969706537 0.00064734206737222756 0 -0.18416549926151529 0.022669224655560441 0 -0.20995580785972329 0.027235271815039791 0 -0.18416549926151529 0.022669224655560441 0 -0.18518118592807509 0.0154377595936586 0 -0.2009137908539024 0.01431144198083124 0 -0.18416549926151529 0.022669224655560441 0 -0.2009137908539024 0.01431144198083124 0 -0.20995580785972329 0.027235271815039791 0 -0.18416549926151529 0.022669224655560441 0 -0.19539241544158811 0.034915353149486399 0 -0.20995580785972329 0.027235271815039791 0 -0.2009137908539024 0.01431144198083124 0 -0.20995580785972329 0.027235271815039791 0 -0.21568563774484731 0.0082874278720449449 0 -0.20993853639106591 -0.0035380738047605968 0 -0.2009137908539024 0.01431144198083124 0 -0.21568563774484731 0.0082874278720449449 0 -0.22684210307559549 -0.0077234896768903086 0 -0.21568563774484731 0.0082874278720449449 0 -0.23077795054394901 0.01115198904600462 0 -0.22684210307559549 -0.0077234896768903086 0 -0.23077795054394901 0.01115198904600462 0 -0.20995580785972329 0.027235271815039791 0 -0.21568563774484731 0.0082874278720449449 0 -0.23077795054394901 0.01115198904600462 0 -0.20995580785972329 0.027235271815039791 0 -0.2357461164579312 0.03180131897451912 0 -0.20995580785972329 0.027235271815039791 0 -0.23077795054394901 0.01115198904600462 0 -0.2357461164579312 0.03180131897451912 0 -0.23077795054394901 0.01115198904600462 0 -0.24854849079604721 0.020569936005881421 0 -0.2357461164579312 0.03180131897451912 0 -0.26153642505613889 0.036367366133998442 0 -0.24854849079604721 0.020569936005881421 0 -0.2357461164579312 0.03180131897451912 0 -0.23077795054394901 0.01115198904600462 0 -0.24854849079604721 0.020569936005881421 0 -0.24598119983726671 0.0037338506766126851 0 -0.22684210307559549 -0.0077234896768903086 0 -0.23077795054394901 0.01115198904600462 0 -0.24598119983726671 0.0037338506766126851 0 -0.20873259774339259 0.055173182954087172 0 -0.2267202713125637 0.058975611642501508 0 -0.22080882119384479 0.043900986742667819 0 -0.2267202713125637 0.058975611642501508 0 -0.22080882119384479 0.043900986742667819 0 -0.239388393447095 0.04766651035075449 0 -0.22080882119384479 0.043900986742667819 0 -0.2357461164579312 0.03180131897451912 0 -0.239388393447095 0.04766651035075449 0 -0.20995580785972329 0.027235271815039791 0 -0.22080882119384479 0.043900986742667819 0 -0.2357461164579312 0.03180131897451912 0 -0.26153642505613889 0.036367366133998442 0 -0.2357461164579312 0.03180131897451912 0 -0.26153642505613889 0.036367366133998442 0 -0.2357461164579312 0.03180131897451912 0 -0.239388393447095 0.04766651035075449 0 -0.25116276906762952 0.054241108780248931 0 -0.239388393447095 0.04766651035075449 0 -0.24035595759446179 0.060712669830591162 0 -0.2267202713125637 0.058975611642501508 0 -0.239388393447095 0.04766651035075449 0 -0.24035595759446179 0.060712669830591162 0 -0.25116276906762952 0.054241108780248931 0 -0.24035595759446179 0.060712669830591162 0 -0.24829977196364941 0.065213336215906109 0 -0.2267202713125637 0.058975611642501508 0 -0.24035595759446179 0.060712669830591162 0 -0.23791909572611269 0.075142721002645518 0 -0.24035595759446179 0.060712669830591162 0 -0.24829977196364941 0.065213336215906109 0 -0.23791909572611269 0.075142721002645518 0 -0.25064083865024739 0.073628726666345984 0 -0.23791909572611269 0.075142721002645518 0 -0.24857020570659841 0.081659589420377987 0 -0.25064083865024739 0.073628726666345984 0 -0.24829977196364941 0.065213336215906109 0 -0.23791909572611269 0.075142721002645518 0 -0.23791909572611269 0.075142721002645518 0 -0.2427234934652894 0.090762762990284518 0 -0.22646138453880821 0.085461994072224837 0 -0.25413031243694739 0.089521027236778197 0 -0.2427234934652894 0.090762762990284518 0 -0.24857020570659841 0.081659589420377987 0 -0.23791909572611269 0.075142721002645518 0 -0.2427234934652894 0.090762762990284518 0 -0.24857020570659841 0.081659589420377987 0 -0.2267202713125637 0.058975611642501508 0 -0.23791909572611269 0.075142721002645518 0 -0.2176358721649875 0.072186860311035453 0 -0.23791909572611269 0.075142721002645518 0 -0.22646138453880821 0.085461994072224837 0 -0.2176358721649875 0.072186860311035453 0 -0.20873259774339259 0.055173182954087172 0 -0.2176358721649875 0.072186860311035453 0 -0.20069407892192309 0.071070863509647808 0 -0.2176358721649875 0.072186860311035453 0 -0.20525373999263671 0.08640341449760941 0 -0.20069407892192309 0.071070863509647808 0 -0.22646138453880821 0.085461994072224837 0 -0.2176358721649875 0.072186860311035453 0 -0.20525373999263671 0.08640341449760941 0 -0.22646138453880821 0.085461994072224837 0 -0.20525373999263671 0.08640341449760941 0 -0.2161514522581473 0.1006972439961434 0 -0.18444466814129201 0.081023499242751457 0 -0.20525373999263671 0.08640341449760941 0 -0.20069407892192309 0.071070863509647808 0 -0.18444466814129201 0.081023499242751457 0 -0.20525373999263671 0.08640341449760941 0 -0.19937405773042491 0.1071019237599893 0 -0.17832815471062741 0.080370175701138483 0 -0.20069407892192309 0.071070863509647808 0 -0.18444466814129201 0.081023499242751457 0 -0.17832815471062741 0.080370175701138483 0 -0.20069407892192309 0.071070863509647808 0 -0.1809864334298861 0.069780609401686525 0 -0.1876556690991136 0.063313821709693935 0 -0.20069407892192309 0.071070863509647808 0 -0.19598386328254799 0.058823167906541372 0 -0.1876556690991136 0.063313821709693935 0 -0.20069407892192309 0.071070863509647808 0 -0.19937405773042491 0.1071019237599893 0 -0.2161514522581473 0.1006972439961434 0 -0.21430344731955769 0.133180348277227 0 -0.19937405773042491 0.1071019237599893 0 -0.19727411993202021 0.1275714443648302 0 -0.1795193575176991 0.1294692331289829 0 -0.18444466814129201 0.081023499242751457 0 -0.19937405773042491 0.1071019237599893 0 -0.20525373999263671 0.08640341449760941 0 -0.19937405773042491 0.1071019237599893 0 -0.2161514522581473 0.1006972439961434 0 -0.19937405773042491 0.1071019237599893 0 -0.21430344731955769 0.133180348277227 0 -0.19937405773042491 0.1071019237599893 0 -0.19727411993202021 0.1275714443648302 0 -0.21430344731955769 0.133180348277227 0 -0.2161514522581473 0.1006972439961434 0 -0.23231730930006211 0.10853516007106349 0 -0.21430344731955769 0.133180348277227 0 -0.2427234934652894 0.090762762990284518 0 -0.22646138453880821 0.085461994072224837 0 -0.23231730930006211 0.10853516007106349 0 -0.22646138453880821 0.085461994072224837 0 -0.2161514522581473 0.1006972439961434 0 -0.23231730930006211 0.10853516007106349 0 -0.25610310449345419 0.1041046972302731 0 -0.2427234934652894 0.090762762990284518 0 -0.23231730930006211 0.10853516007106349 0 -0.25610310449345419 0.1041046972302731 0 -0.23231730930006211 0.10853516007106349 0 -0.2495823492922267 0.12121763785839371 0 -0.23231730930006211 0.10853516007106349 0 -0.2495823492922267 0.12121763785839371 0 -0.23849568892714909 0.13696143350773771 0 -0.23231730930006211 0.10853516007106349 0 -0.23849568892714909 0.13696143350773771 0 -0.25477231595188199 0.13792181725732239 0 -0.2495823492922267 0.12121763785839371 0 -0.23849568892714909 0.13696143350773771 0 -0.23231730930006211 0.10853516007106349 0 -0.23849568892714909 0.13696143350773771 0 -0.21430344731955769 0.133180348277227 0 -0.23849568892714909 0.13696143350773771 0 -0.22923283690869051 0.15925877279446471 0 -0.21430344731955769 0.133180348277227 0 -0.22923283690869051 0.15925877279446471 0 -0.21430344731955769 0.133180348277227 0 -0.2543915534089356 0.15018751405662761 0 -0.23849568892714909 0.13696143350773771 0 -0.24467406855423091 0.1653877069444131 0 -0.23849568892714909 0.13696143350773771 0 -0.24467406855423091 0.1653877069444131 0 -0.22923283690869051 0.15925877279446471 0 -0.2543915534089356 0.15018751405662761 0 -0.25477231595188199 0.13792181725732239 0 -0.23849568892714909 0.13696143350773771 0 -0.23849568892714909 0.13696143350773771 0 -0.24467406855423091 0.1653877069444131 0 -0.24467406855423091 0.1653877069444131 0 -0.2350219134637796 0.18103954803765679 0 -0.22379977898383499 0.16989282922580509 0 -0.24467406855423091 0.1653877069444131 0 -0.24947341468037071 0.1874691479585941 0 -0.2350219134637796 0.18103954803765679 0 -0.24467406855423091 0.1653877069444131 0 -0.24947341468037071 0.1874691479585941 0 -0.2350219134637796 0.18103954803765679 0 -0.22004124654446131 0.18611549732905991 0 -0.22379977898383499 0.16989282922580509 0 -0.24467406855423091 0.1653877069444131 0 -0.22379977898383499 0.16989282922580509 0 -0.22923283690869051 0.15925877279446471 0 -0.22379977898383499 0.16989282922580509 0 -0.22923283690869051 0.15925877279446471 0 -0.20989634202023699 0.1560844752241346 0 -0.24467406855423091 0.1653877069444131 0 -0.22379977898383499 0.16989282922580509 0 -0.22379977898383499 0.16989282922580509 0 -0.20292548941343971 0.17439795150720031 0 -0.20989634202023699 0.1560844752241346 0 -0.20292548941343971 0.17439795150720031 0 -0.20989634202023699 0.1560844752241346 0 -0.17833905569944569 0.15756593750779829 0 -0.22379977898383499 0.16989282922580509 0 -0.20292548941343971 0.17439795150720031 0 -0.22004124654446131 0.18611549732905991 0 -0.22379977898383499 0.16989282922580509 0 -0.20292548941343971 0.17439795150720031 0 -0.22004124654446131 0.18611549732905991 0 -0.20292548941343971 0.17439795150720031 0 -0.22004124654446131 0.18611549732905991 0 -0.20292548941343971 0.17439795150720031 0 -0.20568385543668641 0.19260324117033031 0 -0.20292548941343971 0.17439795150720031 0 -0.1757122088887666 0.1802711648698879 0 -0.20292548941343971 0.17439795150720031 0 -0.1897130520823497 0.19444680225630501 0 -0.1757122088887666 0.1802711648698879 0 -0.20292548941343971 0.17439795150720031 0 -0.20568385543668641 0.19260324117033031 0 -0.1897130520823497 0.19444680225630501 0 -0.20292548941343971 0.17439795150720031 0 -0.17833905569944569 0.15756593750779829 0 -0.19589961716039911 0.1405342722931214 0 -0.20989634202023699 0.1560844752241346 0 -0.17833905569944569 0.15756593750779829 0 -0.19727411993202021 0.1275714443648302 0 -0.19589961716039911 0.1405342722931214 0 -0.1795193575176991 0.1294692331289829 0 -0.19727411993202021 0.1275714443648302 0 -0.19589961716039911 0.1405342722931214 0 -0.21430344731955769 0.133180348277227 0 -0.22923283690869051 0.15925877279446471 0 -0.21430344731955769 0.133180348277227 0 -0.20989634202023699 0.1560844752241346 0 -0.19589961716039911 0.1405342722931214 0 -0.21430344731955769 0.133180348277227 0 -0.20989634202023699 0.1560844752241346 0 -0.23288038931281729 0.23888496135878451 0 -0.21994142138302111 0.22426230620998819 0 -0.21218175950055909 0.24952722652004439 0 -0.22667039518801041 0.25355429459537898 0 -0.23288038931281729 0.23888496135878451 0 -0.21218175950055909 0.24952722652004439 0 -0.2416444700809012 0.25186566196455601 0 -0.22667039518801041 0.25355429459537898 0 -0.23288038931281729 0.23888496135878451 0 -0.2416444700809012 0.25186566196455601 0 -0.23288038931281729 0.23888496135878451 0 -0.2470081454867771 0.2422065880623451 0 -0.25693865295534157 0.25278860643768353 0 -0.2416444700809012 0.25186566196455601 0 -0.2470081454867771 0.2422065880623451 0 -0.25109603964961891 0.234366577265785 0 -0.2470081454867771 0.2422065880623451 0 -0.24424918889796191 0.23342051569475999 0 -0.23288038931281729 0.23888496135878451 0 -0.2470081454867771 0.2422065880623451 0 -0.24424918889796191 0.23342051569475999 0 -0.23288038931281729 0.23888496135878451 0 -0.24424918889796191 0.23342051569475999 0 -0.2396805993576108 0.22455316273993289 0 -0.24424918889796191 0.23342051569475999 0 -0.249817319625419 0.2274340479663062 0 -0.2396805993576108 0.22455316273993289 0 -0.25109603964961891 0.234366577265785 0 -0.24424918889796191 0.23342051569475999 0 -0.249817319625419 0.2274340479663062 0 -0.249817319625419 0.2274340479663062 0 -0.24904636230289101 0.22050689045355901 0 -0.2396805993576108 0.22455316273993289 0 -0.24904636230289101 0.22050689045355901 0 -0.2396805993576108 0.22455316273993289 0 -0.24333230173327219 0.21221501244476959 0 -0.2396805993576108 0.22455316273993289 0 -0.21994142138302111 0.22426230620998819 0 -0.23304733008138001 0.21339205942673259 0 -0.23288038931281729 0.23888496135878451 0 -0.2396805993576108 0.22455316273993289 0 -0.21994142138302111 0.22426230620998819 0 -0.21994142138302111 0.22426230620998819 0 -0.22770108326548311 0.19899738589993199 0 -0.210353022999335 0.20567537760669019 0 -0.21994142138302111 0.22426230620998819 0 -0.23304733008138001 0.21339205942673259 0 -0.22770108326548311 0.19899738589993199 0 -0.21994142138302111 0.22426230620998819 0 -0.22770108326548311 0.19899738589993199 0 -0.23304733008138001 0.21339205942673259 0 -0.2346933251094325 0.20523388649383931 0 -0.22770108326548311 0.19899738589993199 0 -0.25427276080650663 0.20955058897277601 0 -0.23715700367548431 0.1978330431509176 0 -0.2396805993576108 0.22455316273993289 0 -0.23304733008138001 0.21339205942673259 0 -0.24333230173327219 0.21221501244476959 0 -0.25427276080650663 0.20955058897277601 0 -0.24333230173327219 0.21221501244476959 0 -0.23715700367548431 0.1978330431509176 0 -0.25561524088587501 0.21572724177218369 0 -0.24904636230289101 0.22050689045355901 0 -0.24333230173327219 0.21221501244476959 0 -0.24333230173327219 0.21221501244476959 0 -0.2346933251094325 0.20523388649383931 0 -0.23715700367548431 0.1978330431509176 0 -0.23304733008138001 0.21339205942673259 0 -0.24333230173327219 0.21221501244476959 0 -0.2346933251094325 0.20523388649383931 0 -0.25427276080650663 0.20955058897277601 0 -0.24947341468037071 0.1874691479585941 0 -0.23715700367548431 0.1978330431509176 0 -0.24947341468037071 0.1874691479585941 0 -0.2350219134637796 0.18103954803765679 0 -0.23715700367548431 0.1978330431509176 0 -0.22004124654446131 0.18611549732905991 0 -0.23715700367548431 0.1978330431509176 0 -0.22004124654446131 0.18611549732905991 0 -0.23715700367548431 0.1978330431509176 0 -0.22770108326548311 0.19899738589993199 0 -0.2350219134637796 0.18103954803765679 0 -0.22004124654446131 0.18611549732905991 0 -0.23715700367548431 0.1978330431509176 0 -0.2346933251094325 0.20523388649383931 0 -0.23715700367548431 0.1978330431509176 0 -0.22770108326548311 0.19899738589993199 0 -0.22004124654446131 0.18611549732905991 0 -0.22770108326548311 0.19899738589993199 0 -0.21594480206149139 0.19584787550150309 0 -0.22770108326548311 0.19899738589993199 0 -0.21594480206149139 0.19584787550150309 0 -0.210353022999335 0.20567537760669019 0 -0.22004124654446131 0.18611549732905991 0 -0.21594480206149139 0.19584787550150309 0 -0.20568385543668641 0.19260324117033031 0 -0.21594480206149139 0.19584787550150309 0 -0.20568385543668641 0.19260324117033031 0 -0.210353022999335 0.20567537760669019 0 -0.20568385543668641 0.19260324117033031 0 -0.19800517532583911 0.2033181044808495 0 -0.210353022999335 0.20567537760669019 0 -0.20568385543668641 0.19260324117033031 0 -0.1897130520823497 0.19444680225630501 0 -0.19800517532583911 0.2033181044808495 0 -0.1897130520823497 0.19444680225630501 0 -0.19800517532583911 0.2033181044808495 0 -0.1863200837324982 0.20555600776477401 0 -0.19800517532583911 0.2033181044808495 0 -0.19795586237832599 0.21830909360614789 0 -0.210353022999335 0.20567537760669019 0 -0.19800517532583911 0.2033181044808495 0 -0.19795586237832599 0.21830909360614789 0 -0.1863200837324982 0.20555600776477401 0 -0.19795586237832599 0.21830909360614789 0 -0.18240126852579899 0.21930684119835961 0 -0.1863200837324982 0.20555600776477401 0 -0.21994142138302111 0.22426230620998819 0 -0.19795586237832599 0.21830909360614789 0 -0.210353022999335 0.20567537760669019 0 -0.21994142138302111 0.22426230620998819 0 -0.19795586237832599 0.21830909360614789 0 -0.20314208847108339 0.23556135501649109 0 -0.19795586237832599 0.21830909360614789 0 -0.18651378479530609 0.23505073182760211 0 -0.18240126852579899 0.21930684119835961 0 -0.19795586237832599 0.21830909360614789 0 -0.20314208847108339 0.23556135501649109 0 -0.18651378479530609 0.23505073182760211 0 -0.1929026130837673 0.25762258695206858 0 -0.20314208847108339 0.23556135501649109 0 -0.18651378479530609 0.23505073182760211 0 -0.1929026130837673 0.25762258695206858 0 -0.20314208847108339 0.23556135501649109 0 -0.21218175950055909 0.24952722652004439 0 -0.21994142138302111 0.22426230620998819 0 -0.21218175950055909 0.24952722652004439 0 -0.21994142138302111 0.22426230620998819 0 -0.20314208847108339 0.23556135501649109 0 -0.21218175950055909 0.24952722652004439 0 -0.16582228118094081 0.26466105519565358 0 -0.18651378479530609 0.23505073182760211 0 -0.1608218935138386 0.23306973899941771 0 -0.16582228118094081 0.26466105519565358 0 -0.14534546737678511 0.25129379472131641 0 -0.1608218935138386 0.23306973899941771 0 -0.18651378479530609 0.23505073182760211 0 -0.1608218935138386 0.23306973899941771 0 -0.18651378479530609 0.23505073182760211 0 -0.18240126852579899 0.21930684119835961 0 -0.1608218935138386 0.23306973899941771 0 -0.1608218935138386 0.23306973899941771 0 -0.16716432822862029 0.21469463307327219 0 -0.14537567171977789 0.21373021027012479 0 -0.18240126852579899 0.21930684119835961 0 -0.1608218935138386 0.23306973899941771 0 -0.16716432822862029 0.21469463307327219 0 -0.16716432822862029 0.21469463307327219 0 -0.15728284033457929 0.19872471446884221 0 -0.14537567171977789 0.21373021027012479 0 -0.16716432822862029 0.21469463307327219 0 -0.1863200837324982 0.20555600776477401 0 -0.15728284033457929 0.19872471446884221 0 -0.18240126852579899 0.21930684119835961 0 -0.16716432822862029 0.21469463307327219 0 -0.1863200837324982 0.20555600776477401 0 -0.1863200837324982 0.20555600776477401 0 -0.1747365466553682 0.1940095109997643 0 -0.15728284033457929 0.19872471446884221 0 -0.1897130520823497 0.19444680225630501 0 -0.1863200837324982 0.20555600776477401 0 -0.1747365466553682 0.1940095109997643 0 -0.1897130520823497 0.19444680225630501 0 -0.1747365466553682 0.1940095109997643 0 -0.1757122088887666 0.1802711648698879 0 -0.1747365466553682 0.1940095109997643 0 -0.16534449221108169 0.19019064904669619 0 -0.1757122088887666 0.1802711648698879 0 -0.1863200837324982 0.20555600776477401 0 -0.15728284033457929 0.19872471446884221 0 -0.1747365466553682 0.1940095109997643 0 -0.16534449221108169 0.19019064904669619 0 -0.15728284033457929 0.19872471446884221 0 -0.16534449221108169 0.19019064904669619 0 -0.15728284033457929 0.19872471446884221 0 -0.15629575781976141 0.184461654133797 0 -0.15728284033457929 0.19872471446884221 0 -0.12824559693666041 0.19189342117291039 0 -0.15629575781976141 0.184461654133797 0 -0.15728284033457929 0.19872471446884221 0 -0.12824559693666041 0.19189342117291039 0 -0.14537567171977789 0.21373021027012479 0 -0.15728284033457929 0.19872471446884221 0 -0.12824559693666041 0.19189342117291039 0 -0.12824559693666041 0.19189342117291039 0 -0.14537567171977789 0.21373021027012479 0 -0.1242544958201173 0.21504107598638081 0 -0.1608218935138386 0.23306973899941771 0 -0.14537567171977789 0.21373021027012479 0 -0.13513000223237101 0.23108874617123329 0 -0.1608218935138386 0.23306973899941771 0 -0.13513000223237101 0.23108874617123329 0 -0.14537567171977789 0.21373021027012479 0 -0.13513000223237101 0.23108874617123329 0 -0.1242544958201173 0.21504107598638081 0 -0.14534546737678511 0.25129379472131641 0 -0.13513000223237101 0.23108874617123329 0 -0.12470300375741469 0.2457033751303839 0 -0.14534546737678511 0.25129379472131641 0 -0.1608218935138386 0.23306973899941771 0 -0.13513000223237101 0.23108874617123329 0 -0.17833905569944569 0.15756593750779829 0 -0.1561619761378806 0.16047685630827471 0 -0.153752621985453 0.14073392350839439 0 -0.1795193575176991 0.1294692331289829 0 -0.17833905569944569 0.15756593750779829 0 -0.153752621985453 0.14073392350839439 0 -0.17833905569944569 0.15756593750779829 0 -0.153752621985453 0.14073392350839439 0 -0.16393492635195239 0.1245978723337525 0 -0.15311233888185891 0.1152965378839053 0 -0.153752621985453 0.14073392350839439 0 -0.16393492635195239 0.1245978723337525 0 -0.1795193575176991 0.1294692331289829 0 -0.153752621985453 0.14073392350839439 0 -0.19589961716039911 0.1405342722931214 0 -0.1795193575176991 0.1294692331289829 0 -0.17833905569944569 0.15756593750779829 0 -0.20292548941343971 0.17439795150720031 0 -0.17833905569944569 0.15756593750779829 0 -0.1757122088887666 0.1802711648698879 0 -0.1897130520823497 0.19444680225630501 0 -0.1757122088887666 0.1802711648698879 0 -0.16534449221108169 0.19019064904669619 0 -0.1757122088887666 0.1802711648698879 0 -0.15629575781976141 0.184461654133797 0 -0.1757122088887666 0.1802711648698879 0 -0.15629575781976141 0.184461654133797 0 -0.1757122088887666 0.1802711648698879 0 -0.15629575781976141 0.184461654133797 0 -0.1561619761378806 0.16047685630827471 0 -0.17833905569944569 0.15756593750779829 0 -0.1757122088887666 0.1802711648698879 0 -0.1561619761378806 0.16047685630827471 0 -0.1757122088887666 0.1802711648698879 0 -0.1561619761378806 0.16047685630827471 0 -0.1561619761378806 0.16047685630827471 0 -0.14126926821389521 0.17232478353634881 0 -0.1371080151487378 0.15864895140394189 0 -0.15629575781976141 0.184461654133797 0 -0.1561619761378806 0.16047685630827471 0 -0.14126926821389521 0.17232478353634881 0 -0.12824559693666041 0.19189342117291039 0 -0.15629575781976141 0.184461654133797 0 -0.14126926821389521 0.17232478353634881 0 -0.12824559693666041 0.19189342117291039 0 -0.14126926821389521 0.17232478353634881 0 -0.1248941403316576 0.1686438139500778 0 -0.14126926821389521 0.17232478353634881 0 -0.1371080151487378 0.15864895140394189 0 -0.1248941403316576 0.1686438139500778 0 -0.1371080151487378 0.15864895140394189 0 -0.1239269324459726 0.1539154783358255 0 -0.1248941403316576 0.1686438139500778 0 -0.1371080151487378 0.15864895140394189 0 -0.13661174338699569 0.1406825477466605 0 -0.1239269324459726 0.1539154783358255 0 -0.1561619761378806 0.16047685630827471 0 -0.13661174338699569 0.1406825477466605 0 -0.1561619761378806 0.16047685630827471 0 -0.13661174338699569 0.1406825477466605 0 -0.153752621985453 0.14073392350839439 0 -0.1561619761378806 0.16047685630827471 0 -0.1371080151487378 0.15864895140394189 0 -0.13661174338699569 0.1406825477466605 0 -0.12916618827146031 0.12390190950899049 0 -0.153752621985453 0.14073392350839439 0 -0.13930859898956699 0.1145050369687237 0 -0.12916618827146031 0.12390190950899049 0 -0.153752621985453 0.14073392350839439 0 -0.13661174338699569 0.1406825477466605 0 -0.11706151063611089 0.1208882391850464 0 -0.12916618827146031 0.12390190950899049 0 -0.13661174338699569 0.1406825477466605 0 -0.11706151063611089 0.1208882391850464 0 -0.12916618827146031 0.12390190950899049 0 -0.13661174338699569 0.1406825477466605 0 -0.153752621985453 0.14073392350839439 0 -0.13661174338699569 0.1406825477466605 0 -0.11473911200363 0.13153944404780621 0 -0.1132109842275667 0.1430328284895945 0 -0.13661174338699569 0.1406825477466605 0 -0.11473911200363 0.13153944404780621 0 -0.11706151063611089 0.1208882391850464 0 -0.11473911200363 0.13153944404780621 0 -0.1039338124667491 0.13009472872812991 0 -0.1132109842275667 0.1430328284895945 0 -0.11473911200363 0.13153944404780621 0 -0.1039338124667491 0.13009472872812991 0 -0.10601879130899509 0.12208205668825579 0 -0.1039338124667491 0.13009472872812991 0 -0.093398168270057425 0.14218175111966569 0 -0.093946486761182085 0.1175508364221631 0 -0.1039338124667491 0.13009472872812991 0 -0.1132109842275667 0.1430328284895945 0 -0.093398168270057425 0.14218175111966569 0 -0.1078097791349048 0.15856925008885259 0 -0.089544080768145809 0.16137822361845131 0 -0.093398168270057425 0.14218175111966569 0 -0.1132109842275667 0.1430328284895945 0 -0.1078097791349048 0.15856925008885259 0 -0.093398168270057425 0.14218175111966569 0 -0.13661174338699569 0.1406825477466605 0 -0.1132109842275667 0.1430328284895945 0 -0.1239269324459726 0.1539154783358255 0 -0.1132109842275667 0.1430328284895945 0 -0.1239269324459726 0.1539154783358255 0 -0.1078097791349048 0.15856925008885259 0 -0.1248941403316576 0.1686438139500778 0 -0.099208353538741523 0.18506212787697859 0 -0.1078097791349048 0.15856925008885259 0 -0.1239269324459726 0.1539154783358255 0 -0.1248941403316576 0.1686438139500778 0 -0.1078097791349048 0.15856925008885259 0 -0.12824559693666041 0.19189342117291039 0 -0.1248941403316576 0.1686438139500778 0 -0.099208353538741523 0.18506212787697859 0 -0.099208353538741523 0.18506212787697859 0 -0.1078097791349048 0.15856925008885259 0 -0.089544080768145809 0.16137822361845131 0 -0.089544080768145809 0.16137822361845131 0 -0.070171110140822543 0.1782308345810468 0 -0.074669823138777097 0.15727584041375819 0 -0.099208353538741523 0.18506212787697859 0 -0.089544080768145809 0.16137822361845131 0 -0.070171110140822543 0.1782308345810468 0 -0.099208353538741523 0.18506212787697859 0 -0.070171110140822543 0.1782308345810468 0 -0.070171110140822543 0.1782308345810468 0 -0.074669823138777097 0.15727584041375819 0 -0.057722578482997257 0.16273086802879619 0 -0.074669823138777097 0.15727584041375819 0 -0.066369438716585821 0.14892706699039879 0 -0.057722578482997257 0.16273086802879619 0 -0.074669823138777097 0.15727584041375819 0 -0.066369438716585821 0.14892706699039879 0 -0.074733199104357148 0.14603812585323231 0 -0.074669823138777097 0.15727584041375819 0 -0.074733199104357148 0.14603812585323231 0 -0.082756465015383474 0.1492386270883771 0 -0.074733199104357148 0.14603812585323231 0 -0.067315024607703278 0.13662092079142449 0 -0.081437053795579945 0.1393191944367777 0 -0.066369438716585821 0.14892706699039879 0 -0.074733199104357148 0.14603812585323231 0 -0.067315024607703278 0.13662092079142449 0 -0.066369438716585821 0.14892706699039879 0 -0.067315024607703278 0.13662092079142449 0 -0.054361576129613079 0.15178129246158931 0 -0.067315024607703278 0.13662092079142449 0 -0.088852304720190942 0.12644129241805541 0 -0.067315024607703278 0.13662092079142449 0 -0.088852304720190942 0.12644129241805541 0 -0.075786521408142987 0.12443322189858901 0 -0.067315024607703278 0.13662092079142449 0 -0.062016764747578973 0.12884034001808189 0 -0.075786521408142987 0.12443322189858901 0 -0.088852304720190942 0.12644129241805541 0 -0.093398168270057425 0.14218175111966569 0 -0.093946486761182085 0.1175508364221631 0 -0.067315024607703278 0.13662092079142449 0 -0.081437053795579945 0.1393191944367777 0 -0.088852304720190942 0.12644129241805541 0 -0.093398168270057425 0.14218175111966569 0 -0.093946486761182085 0.1175508364221631 0 -0.081437053795579945 0.1393191944367777 0 -0.088852304720190942 0.12644129241805541 0 -0.093398168270057425 0.14218175111966569 0 -0.089544080768145809 0.16137822361845131 0 -0.093398168270057425 0.14218175111966569 0 -0.082756465015383474 0.1492386270883771 0 -0.089544080768145809 0.16137822361845131 0 -0.074669823138777097 0.15727584041375819 0 -0.082756465015383474 0.1492386270883771 0 -0.074733199104357148 0.14603812585323231 0 -0.081437053795579945 0.1393191944367777 0 -0.082756465015383474 0.1492386270883771 0 -0.081437053795579945 0.1393191944367777 0 -0.093398168270057425 0.14218175111966569 0 -0.082756465015383474 0.1492386270883771 0 -0.11076524853809321 0.25238606884059173 0 -0.1094381109509034 0.22910775334304889 0 -0.091345724210048884 0.23566487628332011 0 -0.11076524853809321 0.25238606884059173 0 -0.092391857727521592 0.25884509119311472 0 -0.091345724210048884 0.23566487628332011 0 -0.13513000223237101 0.23108874617123329 0 -0.12470300375741469 0.2457033751303839 0 -0.1094381109509034 0.22910775334304889 0 -0.11076524853809321 0.25238606884059173 0 -0.12470300375741469 0.2457033751303839 0 -0.1094381109509034 0.22910775334304889 0 -0.13513000223237101 0.23108874617123329 0 -0.1094381109509034 0.22910775334304889 0 -0.13513000223237101 0.23108874617123329 0 -0.1094381109509034 0.22910775334304889 0 -0.1242544958201173 0.21504107598638081 0 -0.1094381109509034 0.22910775334304889 0 -0.10308309726087379 0.20938524897458621 0 -0.091345724210048884 0.23566487628332011 0 -0.1094381109509034 0.22910775334304889 0 -0.10308309726087379 0.20938524897458621 0 -0.1242544958201173 0.21504107598638081 0 -0.12824559693666041 0.19189342117291039 0 -0.10308309726087379 0.20938524897458621 0 -0.1242544958201173 0.21504107598638081 0 -0.12824559693666041 0.19189342117291039 0 -0.099208353538741523 0.18506212787697859 0 -0.12824559693666041 0.19189342117291039 0 -0.099208353538741523 0.18506212787697859 0 -0.10308309726087379 0.20938524897458621 0 -0.099208353538741523 0.18506212787697859 0 -0.070171110140822543 0.1782308345810468 0 -0.078220861930521898 0.21057701145176541 0 -0.070171110140822543 0.1782308345810468 0 -0.078220861930521898 0.21057701145176541 0 -0.056949983849450658 0.19269083667038239 0 -0.099208353538741523 0.18506212787697859 0 -0.10308309726087379 0.20938524897458621 0 -0.078220861930521898 0.21057701145176541 0 -0.078220861930521898 0.21057701145176541 0 -0.056178602179823331 0.21732906463454121 0 -0.056949983849450658 0.19269083667038239 0 -0.10308309726087379 0.20938524897458621 0 -0.078220861930521898 0.21057701145176541 0 -0.091345724210048884 0.23566487628332011 0 -0.078220861930521898 0.21057701145176541 0 -0.069221313838413207 0.24642852661517459 0 -0.091345724210048884 0.23566487628332011 0 -0.078220861930521898 0.21057701145176541 0 -0.069221313838413207 0.24642852661517459 0 -0.056178602179823331 0.21732906463454121 0 -0.092391857727521592 0.25884509119311472 0 -0.069221313838413207 0.24642852661517459 0 -0.091345724210048884 0.23566487628332011 0 -0.033382390283993792 0.24359412621706661 0 -0.046050769949304807 0.23401196203723451 0 -0.025866468353912139 0.2289639569827632 0 -0.048126263350958612 0.25465777805589501 0 -0.033382390283993792 0.24359412621706661 0 -0.046050769949304807 0.23401196203723451 0 -0.048126263350958612 0.25465777805589501 0 -0.069221313838413207 0.24642852661517459 0 -0.046050769949304807 0.23401196203723451 0 -0.069221313838413207 0.24642852661517459 0 -0.046050769949304807 0.23401196203723451 0 -0.069221313838413207 0.24642852661517459 0 -0.046050769949304807 0.23401196203723451 0 -0.056178602179823331 0.21732906463454121 0 -0.046050769949304807 0.23401196203723451 0 -0.03692704292774221 0.2147422921961073 0 -0.025866468353912139 0.2289639569827632 0 -0.046050769949304807 0.23401196203723451 0 -0.03692704292774221 0.2147422921961073 0 -0.056178602179823331 0.21732906463454121 0 -0.03692704292774221 0.2147422921961073 0 -0.056178602179823331 0.21732906463454121 0 -0.044221089124866657 0.20193605474889509 0 -0.03692704292774221 0.2147422921961073 0 -0.044221089124866657 0.20193605474889509 0 -0.032331133115066808 0.19858524020914661 0 -0.056178602179823331 0.21732906463454121 0 -0.056949983849450658 0.19269083667038239 0 -0.044221089124866657 0.20193605474889509 0 -0.056949983849450658 0.19269083667038239 0 -0.040360849617421202 0.18777351164107661 0 -0.044221089124866657 0.20193605474889509 0 -0.040360849617421202 0.18777351164107661 0 -0.032331133115066808 0.19858524020914661 0 -0.026751027678188599 0.18229597604057349 0 -0.040360849617421202 0.18777351164107661 0 -0.044221089124866657 0.20193605474889509 0 -0.032331133115066808 0.19858524020914661 0 -0.016914194843479571 0.2076274745640635 0 -0.026751027678188599 0.18229597604057349 0 -0.032331133115066808 0.19858524020914661 0 -0.016914194843479571 0.2076274745640635 0 -0.026751027678188599 0.18229597604057349 0 -0.01405220631290922 0.19352016069679451 0 -0.016914194843479571 0.2076274745640635 0 -0.026751027678188599 0.18229597604057349 0 -0.01405220631290922 0.19352016069679451 0 -0.0012364494800765971 0.1960628175593882 0 -0.01891215499648707 0.1765136475382359 0 -0.01405220631290922 0.19352016069679451 0 -0.0012364494800765971 0.1960628175593882 0 -0.0064787008301582438 0.20475797647738719 0 -0.0012364494800765971 0.1960628175593882 0 -0.0064787008301582438 0.20475797647738719 0 0.003893562275735573 0.2064819102401671 0 -0.01405220631290922 0.19352016069679451 0 -0.0064787008301582438 0.20475797647738719 0 -0.016914194843479571 0.2076274745640635 0 -0.0045317147067566524 0.21522543551468479 0 -0.016914194843479571 0.2076274745640635 0 -0.0070773620087705444 0.23295897308755351 0 -0.0064787008301582438 0.20475797647738719 0 -0.0045317147067566524 0.21522543551468479 0 -0.016914194843479571 0.2076274745640635 0 -0.0064787008301582438 0.20475797647738719 0 -0.0045317147067566524 0.21522543551468479 0 0.003893562275735573 0.2064819102401671 0 -0.03692704292774221 0.2147422921961073 0 -0.016914194843479571 0.2076274745640635 0 -0.025866468353912139 0.2289639569827632 0 -0.03692704292774221 0.2147422921961073 0 -0.032331133115066808 0.19858524020914661 0 -0.016914194843479571 0.2076274745640635 0 -0.016914194843479571 0.2076274745640635 0 -0.025866468353912139 0.2289639569827632 0 -0.0070773620087705444 0.23295897308755351 0 -0.016914194843479571 0.2076274745640635 0 -0.0070773620087705444 0.23295897308755351 0 -0.0045317147067566524 0.21522543551468479 0 -0.0070773620087705444 0.23295897308755351 0 0.0038866256090455522 0.2239579318999283 0 -0.0070773620087705444 0.23295897308755351 0 0.001894876929373096 0.24743045501984201 0 0.0027594708259384838 0.25829047161104352 0 -0.0070773620087705444 0.23295897308755351 0 0.0027594708259384838 0.25829047161104352 0 -0.0087132352456033638 0.25173417187717928 0 -0.0070773620087705444 0.23295897308755351 0 -0.01778818590069102 0.2421293126167848 0 -0.0087132352456033638 0.25173417187717928 0 -0.0070773620087705444 0.23295897308755351 0 0.0027594708259384838 0.25829047161104352 0 -0.025866468353912139 0.2289639569827632 0 -0.0070773620087705444 0.23295897308755351 0 -0.01778818590069102 0.2421293126167848 0 -0.028053557715267439 0.25838243531431121 0 -0.033382390283993792 0.24359412621706661 0 -0.01778818590069102 0.2421293126167848 0 -0.033382390283993792 0.24359412621706661 0 -0.025866468353912139 0.2289639569827632 0 -0.01778818590069102 0.2421293126167848 0 -0.044416936009294992 0.14744373737619401 0 -0.030319635528424791 0.14770209815471691 0 -0.021396469969749188 0.1374028974533886 0 -0.044416936009294992 0.14744373737619401 0 -0.030319635528424791 0.14770209815471691 0 -0.027639103276038759 0.15537380566908321 0 -0.044416936009294992 0.14744373737619401 0 -0.038116788675066252 0.15302723042411279 0 -0.027639103276038759 0.15537380566908321 0 -0.044416936009294992 0.14744373737619401 0 -0.041458398192443832 0.13942314763129199 0 -0.021396469969749188 0.1374028974533886 0 -0.044416936009294992 0.14744373737619401 0 -0.027639103276038759 0.15537380566908321 0 -0.044416936009294992 0.14744373737619401 0 -0.021396469969749188 0.1374028974533886 0 -0.044416936009294992 0.14744373737619401 0 -0.036587860512897558 0.15696447751708351 0 -0.044416936009294992 0.14744373737619401 0 -0.047012455662473793 0.15786975055381819 0 -0.036587860512897558 0.15696447751708351 0 -0.044416936009294992 0.14744373737619401 0 -0.038116788675066252 0.15302723042411279 0 -0.036587860512897558 0.15696447751708351 0 -0.038116788675066252 0.15302723042411279 0 -0.036587860512897558 0.15696447751708351 0 -0.027639103276038759 0.15537380566908321 0 -0.038116788675066252 0.15302723042411279 0 -0.036587860512897558 0.15696447751708351 0 -0.037500573576258918 0.13069979942664511 0 -0.041458398192443832 0.13942314763129199 0 -0.021396469969749188 0.1374028974533886 0 -0.037500573576258918 0.13069979942664511 0 -0.028643554108799551 0.12806760582925611 0 -0.034668926388748328 0.1237436995229996 0 -0.037500573576258918 0.13069979942664511 0 -0.047589673205635397 0.1324549890601831 0 -0.046884900963607742 0.11986348336078891 0 -0.037500573576258918 0.13069979942664511 0 -0.041458398192443832 0.13942314763129199 0 -0.047589673205635397 0.1324549890601831 0 -0.044416936009294992 0.14744373737619401 0 -0.041458398192443832 0.13942314763129199 0 -0.047589673205635397 0.1324549890601831 0 -0.067315024607703278 0.13662092079142449 0 -0.044416936009294992 0.14744373737619401 0 -0.062016764747578973 0.12884034001808189 0 -0.044416936009294992 0.14744373737619401 0 -0.062016764747578973 0.12884034001808189 0 -0.044416936009294992 0.14744373737619401 0 -0.047589673205635397 0.1324549890601831 0 -0.062016764747578973 0.12884034001808189 0 -0.047589673205635397 0.1324549890601831 0 -0.062016764747578973 0.12884034001808189 0 -0.046884900963607742 0.11986348336078891 0 -0.067315024607703278 0.13662092079142449 0 -0.044416936009294992 0.14744373737619401 0 -0.054361576129613079 0.15178129246158931 0 -0.067315024607703278 0.13662092079142449 0 -0.044416936009294992 0.14744373737619401 0 -0.044416936009294992 0.14744373737619401 0 -0.054361576129613079 0.15178129246158931 0 -0.044416936009294992 0.14744373737619401 0 -0.054361576129613079 0.15178129246158931 0 -0.047012455662473793 0.15786975055381819 0 -0.066369438716585821 0.14892706699039879 0 -0.054361576129613079 0.15178129246158931 0 -0.057722578482997257 0.16273086802879619 0 -0.057722578482997257 0.16273086802879619 0 -0.050411583818504503 0.1777900037548745 0 -0.045636115300606919 0.16650756778262649 0 -0.054361576129613079 0.15178129246158931 0 -0.057722578482997257 0.16273086802879619 0 -0.047012455662473793 0.15786975055381819 0 -0.057722578482997257 0.16273086802879619 0 -0.047012455662473793 0.15786975055381819 0 -0.045636115300606919 0.16650756778262649 0 -0.070171110140822543 0.1782308345810468 0 -0.056949983849450658 0.19269083667038239 0 -0.050411583818504503 0.1777900037548745 0 -0.070171110140822543 0.1782308345810468 0 -0.057722578482997257 0.16273086802879619 0 -0.050411583818504503 0.1777900037548745 0 -0.056949983849450658 0.19269083667038239 0 -0.040360849617421202 0.18777351164107661 0 -0.050411583818504503 0.1777900037548745 0 -0.040360849617421202 0.18777351164107661 0 -0.050411583818504503 0.1777900037548745 0 -0.039949487385523758 0.17426630734724691 0 -0.050411583818504503 0.1777900037548745 0 -0.039949487385523758 0.17426630734724691 0 -0.045636115300606919 0.16650756778262649 0 -0.040360849617421202 0.18777351164107661 0 -0.039949487385523758 0.17426630734724691 0 -0.026751027678188599 0.18229597604057349 0 -0.039949487385523758 0.17426630734724691 0 -0.036587860512897558 0.15696447751708351 0 -0.026751027678188599 0.18229597604057349 0 -0.036587860512897558 0.15696447751708351 0 -0.026751027678188599 0.18229597604057349 0 -0.039949487385523758 0.17426630734724691 0 -0.045636115300606919 0.16650756778262649 0 -0.036587860512897558 0.15696447751708351 0 -0.047012455662473793 0.15786975055381819 0 -0.045636115300606919 0.16650756778262649 0 -0.036587860512897558 0.15696447751708351 0 -0.01891215499648707 0.1765136475382359 0 -0.010861270542782259 0.1633038739619718 0 -0.027639103276038759 0.15537380566908321 0 -0.010861270542782259 0.1633038739619718 0 -0.027639103276038759 0.15537380566908321 0 -0.036587860512897558 0.15696447751708351 0 -0.01891215499648707 0.1765136475382359 0 -0.036587860512897558 0.15696447751708351 0 -0.01891215499648707 0.1765136475382359 0 -0.027639103276038759 0.15537380566908321 0 -0.01405220631290922 0.19352016069679451 0 -0.01891215499648707 0.1765136475382359 0 -0.026751027678188599 0.18229597604057349 0 -0.036587860512897558 0.15696447751708351 0 -0.01891215499648707 0.1765136475382359 0 -0.026751027678188599 0.18229597604057349 0 -0.01891215499648707 0.1765136475382359 0 -0.010861270542782259 0.1633038739619718 0 0.00061104658230836653 0.17769045695541219 0 -0.0012364494800765971 0.1960628175593882 0 -0.01891215499648707 0.1765136475382359 0 0.00061104658230836653 0.17769045695541219 0 -0.0012364494800765971 0.1960628175593882 0 -0.01891215499648707 0.1765136475382359 0 -0.010861270542782259 0.1633038739619718 0 0.001788155555331062 0.1557637096651584 0 0.00061104658230836653 0.17769045695541219 0 -0.01542264584752753 0.14956457798035719 0 -0.015783289274076458 0.13495459563681389 0 0.001788155555331062 0.1557637096651584 0 -0.015783289274076458 0.13495459563681389 0 0.001788155555331062 0.1557637096651584 0 0.01185912902997375 0.14130758542593569 0 -0.010861270542782259 0.1633038739619718 0 -0.01542264584752753 0.14956457798035719 0 0.001788155555331062 0.1557637096651584 0 -0.015783289274076458 0.13495459563681389 0 0.001788155555331062 0.1557637096651584 0 -0.01542264584752753 0.14956457798035719 0 -0.023159931299824549 0.14839209377580129 0 -0.027639103276038759 0.15537380566908321 0 -0.010861270542782259 0.1633038739619718 0 -0.01542264584752753 0.14956457798035719 0 -0.027639103276038759 0.15537380566908321 0 -0.01542264584752753 0.14956457798035719 0 -0.023159931299824549 0.14839209377580129 0 -0.021396469969749188 0.1374028974533886 0 -0.01542264584752753 0.14956457798035719 0 -0.021396469969749188 0.1374028974533886 0 -0.015783289274076458 0.13495459563681389 0 -0.030319635528424791 0.14770209815471691 0 -0.021396469969749188 0.1374028974533886 0 -0.023159931299824549 0.14839209377580129 0 -0.030319635528424791 0.14770209815471691 0 -0.021396469969749188 0.1374028974533886 0 -0.023159931299824549 0.14839209377580129 0 -0.030319635528424791 0.14770209815471691 0 -0.027639103276038759 0.15537380566908321 0 -0.028643554108799551 0.12806760582925611 0 -0.017506847497941139 0.13291345901070739 0 -0.032144953111298558 0.1155781737325411 0 -0.037500573576258918 0.13069979942664511 0 -0.028643554108799551 0.12806760582925611 0 -0.021396469969749188 0.1374028974533886 0 -0.021396469969749188 0.1374028974533886 0 -0.015783289274076458 0.13495459563681389 0 -0.017506847497941139 0.13291345901070739 0 -0.021396469969749188 0.1374028974533886 0 -0.015783289274076458 0.13495459563681389 0 -0.021396469969749188 0.1374028974533886 0 -0.017506847497941139 0.13291345901070739 0 -0.015783289274076458 0.13495459563681389 0 -0.017506847497941139 0.13291345901070739 0 -0.028643554108799551 0.12806760582925611 0 -0.021396469969749188 0.1374028974533886 0 -0.017506847497941139 0.13291345901070739 0 -0.015783289274076458 0.13495459563681389 0 -0.017506847497941139 0.13291345901070739 0 -0.0052228475358298988 0.1187351519746004 0 -0.015783289274076458 0.13495459563681389 0 -0.0052228475358298988 0.1187351519746004 0 0.0081407562022233586 0.1245196413435004 0 -0.017506847497941139 0.13291345901070739 0 -0.0052228475358298988 0.1187351519746004 0 -0.015783289274076458 0.13495459563681389 0 0.0081407562022233586 0.1245196413435004 0 -0.0052228475358298988 0.1187351519746004 0 -0.0040597014752050652 0.1051126182356364 0 -0.02761291541641378 0.1090435214711212 0 -0.017506847497941139 0.13291345901070739 0 -0.0052228475358298988 0.1187351519746004 0 -0.019344259015361451 0.119617058157429 0 -0.0040597014752050652 0.1051126182356364 0 -0.01533391803445322 0.09737838425916874 0 0.0051087594610210148 0.080527692295617709 0 -0.0052228475358298988 0.1187351519746004 0 -0.0040597014752050652 0.1051126182356364 0 0.0092582498306486675 0.1020209346744549 0 -0.0040597014752050652 0.1051126182356364 0 -0.01533391803445322 0.09737838425916874 0 -0.02761291541641378 0.1090435214711212 0 -0.01533391803445322 0.09737838425916874 0 -0.027797722535604891 0.095528124355643507 0 -0.02761291541641378 0.1090435214711212 0 -0.0052228475358298988 0.1187351519746004 0 -0.02761291541641378 0.1090435214711212 0 -0.019344259015361451 0.119617058157429 0 -0.017506847497941139 0.13291345901070739 0 -0.019344259015361451 0.119617058157429 0 -0.032144953111298558 0.1155781737325411 0 -0.02761291541641378 0.1090435214711212 0 -0.019344259015361451 0.119617058157429 0 -0.032144953111298558 0.1155781737325411 0 -0.0052228475358298988 0.1187351519746004 0 -0.02761291541641378 0.1090435214711212 0 -0.017506847497941139 0.13291345901070739 0 -0.032144953111298558 0.1155781737325411 0 -0.0012292332505543029 0.06378464068123596 0 -0.011084303888442551 0.081696622097620714 0 -0.018620569400409771 0.06708533464306303 0 -0.0012292332505543029 0.06378464068123596 0 -0.011084303888442551 0.081696622097620714 0 0.0051087594610210148 0.080527692295617709 0 -0.01533391803445322 0.09737838425916874 0 -0.011084303888442551 0.081696622097620714 0 0.0051087594610210148 0.080527692295617709 0 -0.01533391803445322 0.09737838425916874 0 0.0051087594610210148 0.080527692295617709 0 -0.011084303888442551 0.081696622097620714 0 0.0051087594610210148 0.080527692295617709 0 -0.027797722535604891 0.095528124355643507 0 -0.011084303888442551 0.081696622097620714 0 -0.032921925083363349 0.0833654898886593 0 -0.01533391803445322 0.09737838425916874 0 -0.027797722535604891 0.095528124355643507 0 -0.011084303888442551 0.081696622097620714 0 -0.018620569400409771 0.06708533464306303 0 -0.031868141831282552 0.069818555696904067 0 -0.028283535649973771 0.053358049395037133 0 -0.018620569400409771 0.06708533464306303 0 -0.031868141831282552 0.069818555696904067 0 -0.032921925083363349 0.0833654898886593 0 -0.011084303888442551 0.081696622097620714 0 -0.018620569400409771 0.06708533464306303 0 -0.032921925083363349 0.0833654898886593 0 -0.046276495737503101 0.06795068115397529 0 -0.032921925083363349 0.0833654898886593 0 -0.055882409073029139 0.082732437330199013 0 -0.046276495737503101 0.06795068115397529 0 -0.031868141831282552 0.069818555696904067 0 -0.028283535649973771 0.053358049395037133 0 -0.046276495737503101 0.06795068115397529 0 -0.031868141831282552 0.069818555696904067 0 -0.032921925083363349 0.0833654898886593 0 -0.027797722535604891 0.095528124355643507 0 -0.032921925083363349 0.0833654898886593 0 -0.050002983296997462 0.099351890967641507 0 -0.032921925083363349 0.0833654898886593 0 -0.055882409073029139 0.082732437330199013 0 -0.050002983296997462 0.099351890967641507 0 -0.055882409073029139 0.082732437330199013 0 -0.050002983296997462 0.099351890967641507 0 -0.072393051177581158 0.089660260464161839 0 -0.046276495737503101 0.06795068115397529 0 -0.055882409073029139 0.082732437330199013 0 -0.062589921296568873 0.06642957971461419 0 -0.032144953111298558 0.1155781737325411 0 -0.050002983296997462 0.099351890967641507 0 -0.046884900963607742 0.11986348336078891 0 -0.037500573576258918 0.13069979942664511 0 -0.034668926388748328 0.1237436995229996 0 -0.046884900963607742 0.11986348336078891 0 -0.028643554108799551 0.12806760582925611 0 -0.034668926388748328 0.1237436995229996 0 -0.032144953111298558 0.1155781737325411 0 -0.034668926388748328 0.1237436995229996 0 -0.032144953111298558 0.1155781737325411 0 -0.046884900963607742 0.11986348336078891 0 -0.027797722535604891 0.095528124355643507 0 -0.02761291541641378 0.1090435214711212 0 -0.050002983296997462 0.099351890967641507 0 -0.02761291541641378 0.1090435214711212 0 -0.050002983296997462 0.099351890967641507 0 -0.02761291541641378 0.1090435214711212 0 -0.032144953111298558 0.1155781737325411 0 -0.050002983296997462 0.099351890967641507 0 -0.050002983296997462 0.099351890967641507 0 -0.072393051177581158 0.089660260464161839 0 -0.050002983296997462 0.099351890967641507 0 -0.062115440392200259 0.1100516779477724 0 -0.072393051177581158 0.089660260464161839 0 -0.062016764747578973 0.12884034001808189 0 -0.062115440392200259 0.1100516779477724 0 -0.046884900963607742 0.11986348336078891 0 -0.050002983296997462 0.099351890967641507 0 -0.062115440392200259 0.1100516779477724 0 -0.046884900963607742 0.11986348336078891 0 -0.062016764747578973 0.12884034001808189 0 -0.062115440392200259 0.1100516779477724 0 -0.07825578499994286 0.1108801308713713 0 -0.062016764747578973 0.12884034001808189 0 -0.07825578499994286 0.1108801308713713 0 -0.062016764747578973 0.12884034001808189 0 -0.075786521408142987 0.12443322189858901 0 -0.07825578499994286 0.1108801308713713 0 -0.088852304720190942 0.12644129241805541 0 -0.075786521408142987 0.12443322189858901 0 -0.083719546898917335 0.119699814685821 0 -0.083719546898917335 0.119699814685821 0 -0.07825578499994286 0.1108801308713713 0 -0.093946486761182085 0.1175508364221631 0 -0.075786521408142987 0.12443322189858901 0 -0.083719546898917335 0.119699814685821 0 -0.07825578499994286 0.1108801308713713 0 -0.088852304720190942 0.12644129241805541 0 -0.083719546898917335 0.119699814685821 0 -0.093946486761182085 0.1175508364221631 0 -0.07825578499994286 0.1108801308713713 0 -0.072393051177581158 0.089660260464161839 0 -0.094494805252306774 0.092919921724660626 0 -0.07825578499994286 0.1108801308713713 0 -0.094494805252306774 0.092919921724660626 0 -0.093946486761182085 0.1175508364221631 0 -0.07825578499994286 0.1108801308713713 0 -0.094494805252306774 0.092919921724660626 0 -0.062115440392200259 0.1100516779477724 0 -0.07825578499994286 0.1108801308713713 0 -0.072393051177581158 0.089660260464161839 0 -0.055882409073029139 0.082732437330199013 0 -0.072393051177581158 0.089660260464161839 0 -0.062589921296568873 0.06642957971461419 0 -0.072393051177581158 0.089660260464161839 0 -0.062589921296568873 0.06642957971461419 0 -0.079461892795990779 0.070449194571112136 0 -0.062589921296568873 0.06642957971461419 0 -0.079461892795990779 0.070449194571112136 0 -0.072380178782229632 0.053292134703331731 0 -0.079461892795990779 0.070449194571112136 0 -0.094783119058163612 0.079968629960679383 0 -0.095163193665411511 0.062895368012773595 0 -0.072393051177581158 0.089660260464161839 0 -0.079461892795990779 0.070449194571112136 0 -0.094783119058163612 0.079968629960679383 0 -0.072393051177581158 0.089660260464161839 0 -0.094494805252306774 0.092919921724660626 0 -0.094783119058163612 0.079968629960679383 0 -0.072393051177581158 0.089660260464161839 0 -0.094783119058163612 0.079968629960679383 0 -0.094494805252306774 0.092919921724660626 0 -0.1072570836689255 0.074569224449017327 0 -0.1143352617609841 0.070976556735617355 0 -0.094494805252306774 0.092919921724660626 0 -0.094783119058163612 0.079968629960679383 0 -0.1072570836689255 0.074569224449017327 0 -0.094494805252306774 0.092919921724660626 0 -0.094783119058163612 0.079968629960679383 0 -0.094494805252306774 0.092919921724660626 0 -0.1143352617609841 0.070976556735617355 0 -0.11134444788944529 0.091345452974062963 0 -0.094494805252306774 0.092919921724660626 0 -0.1143352617609841 0.070976556735617355 0 -0.094783119058163612 0.079968629960679383 0 -0.095163193665411511 0.062895368012773595 0 -0.094783119058163612 0.079968629960679383 0 -0.095163193665411511 0.062895368012773595 0 -0.1072570836689255 0.074569224449017327 0 -0.095163193665411511 0.062895368012773595 0 -0.1143352617609841 0.070976556735617355 0 -0.1079186055395126 0.059947093390224047 0 -0.095163193665411511 0.062895368012773595 0 -0.1072570836689255 0.074569224449017327 0 -0.1143352617609841 0.070976556735617355 0 -0.095163193665411511 0.062895368012773595 0 -0.1143352617609841 0.070976556735617355 0 -0.094783119058163612 0.079968629960679383 0 -0.1072570836689255 0.074569224449017327 0 -0.1131683311422218 0.062814464837820119 0 -0.1163519950294771 0.068746068028026575 0 -0.1143352617609841 0.070976556735617355 0 -0.1131683311422218 0.062814464837820119 0 -0.1143352617609841 0.070976556735617355 0 -0.1079186055395126 0.059947093390224047 0 -0.1131683311422218 0.062814464837820119 0 -0.1163519950294771 0.068746068028026575 0 -0.1185872066977806 0.063729502839677182 0 -0.1163519950294771 0.068746068028026575 0 -0.1143352617609841 0.070976556735617355 0 -0.12697985749263241 0.07630636069427757 0 -0.1143352617609841 0.070976556735617355 0 -0.12697985749263241 0.07630636069427757 0 -0.1143352617609841 0.070976556735617355 0 -0.1200161930876608 0.081776906418299489 0 -0.12697985749263241 0.07630636069427757 0 -0.1163519950294771 0.068746068028026575 0 -0.1143352617609841 0.070976556735617355 0 -0.12697985749263241 0.07630636069427757 0 -0.12509646681095879 0.065597408261105467 0 -0.1163519950294771 0.068746068028026575 0 -0.12509646681095879 0.065597408261105467 0 -0.1163519950294771 0.068746068028026575 0 -0.1185872066977806 0.063729502839677182 0 -0.13359630628803579 0.098968800084119873 0 -0.12697672020224329 0.087309090757334687 0 -0.11134444788944529 0.091345452974062963 0 -0.1143352617609841 0.070976556735617355 0 -0.11134444788944529 0.091345452974062963 0 -0.1200161930876608 0.081776906418299489 0 -0.12697672020224329 0.087309090757334687 0 -0.11134444788944529 0.091345452974062963 0 -0.1200161930876608 0.081776906418299489 0 -0.12697672020224329 0.087309090757334687 0 -0.12697985749263241 0.07630636069427757 0 -0.1200161930876608 0.081776906418299489 0 -0.12607259725238279 0.11330641960449821 0 -0.13359630628803579 0.098968800084119873 0 -0.11123038207674001 0.1082681122756106 0 -0.13359630628803579 0.098968800084119873 0 -0.11134444788944529 0.091345452974062963 0 -0.11123038207674001 0.1082681122756106 0 -0.13359630628803579 0.098968800084119873 0 -0.11123038207674001 0.1082681122756106 0 -0.11134444788944529 0.091345452974062963 0 -0.11123038207674001 0.1082681122756106 0 -0.1057361510920251 0.099277959283072717 0 -0.12607259725238279 0.11330641960449821 0 -0.11123038207674001 0.1082681122756106 0 -0.11706151063611089 0.1208882391850464 0 -0.12607259725238279 0.11330641960449821 0 -0.12916618827146031 0.12390190950899049 0 -0.11706151063611089 0.1208882391850464 0 -0.11473911200363 0.13153944404780621 0 -0.11706151063611089 0.1208882391850464 0 -0.10601879130899509 0.12208205668825579 0 -0.1036345166478785 0.1154037657297244 0 -0.093946486761182085 0.1175508364221631 0 -0.097511277885226108 0.1010939306234323 0 -0.11123038207674001 0.1082681122756106 0 -0.11706151063611089 0.1208882391850464 0 -0.097511277885226108 0.1010939306234323 0 -0.11706151063611089 0.1208882391850464 0 -0.1036345166478785 0.1154037657297244 0 -0.097511277885226108 0.1010939306234323 0 -0.11706151063611089 0.1208882391850464 0 -0.097511277885226108 0.1010939306234323 0 -0.11706151063611089 0.1208882391850464 0 -0.1036345166478785 0.1154037657297244 0 -0.10601879130899509 0.12208205668825579 0 -0.1039338124667491 0.13009472872812991 0 -0.10601879130899509 0.12208205668825579 0 -0.093946486761182085 0.1175508364221631 0 -0.1036345166478785 0.1154037657297244 0 -0.10601879130899509 0.12208205668825579 0 -0.093946486761182085 0.1175508364221631 0 -0.094494805252306774 0.092919921724660626 0 -0.11134444788944529 0.091345452974062963 0 -0.1057361510920251 0.099277959283072717 0 -0.094494805252306774 0.092919921724660626 0 -0.093946486761182085 0.1175508364221631 0 -0.094494805252306774 0.092919921724660626 0 -0.093946486761182085 0.1175508364221631 0 -0.097511277885226108 0.1010939306234323 0 -0.094494805252306774 0.092919921724660626 0 -0.097511277885226108 0.1010939306234323 0 -0.1057361510920251 0.099277959283072717 0 -0.11123038207674001 0.1082681122756106 0 -0.097511277885226108 0.1010939306234323 0 -0.1057361510920251 0.099277959283072717 0 -0.1001339578063882 0.022436777626384768 0 -0.09536928659882779 0.01424719335382847 0 -0.1128440433065038 0.01636018592503535 0 -0.1001339578063882 0.022436777626384768 0 -0.1128440433065038 0.01636018592503535 0 -0.1012358460944251 0.033108064834657697 0 -0.1128440433065038 0.01636018592503535 0 -0.11393466639619521 0.035004472642448957 0 -0.1012358460944251 0.033108064834657697 0 -0.1128440433065038 0.01636018592503535 0 -0.1012358460944251 0.033108064834657697 0 -0.1001339578063882 0.022436777626384768 0 -0.1012358460944251 0.033108064834657697 0 -0.091086655225796079 0.026031666392017531 0 -0.1001339578063882 0.022436777626384768 0 -0.09536928659882779 0.01424719335382847 0 -0.091086655225796079 0.026031666392017531 0 -0.10394313851700079 0.0020556251079679459 0 -0.09536928659882779 0.01424719335382847 0 -0.085958893623968774 0.001514634656162053 0 -0.10394313851700079 0.0020556251079679459 0 -0.09536928659882779 0.01424719335382847 0 -0.1128440433065038 0.01636018592503535 0 -0.1244522405185825 -0.00038769298458709092 0 -0.12424451236807239 0.027069144312366941 0 -0.1244522405185825 -0.00038769298458709092 0 -0.1128440433065038 0.01636018592503535 0 -0.12424451236807239 0.027069144312366941 0 -0.1244522405185825 -0.00038769298458709092 0 -0.1128440433065038 0.01636018592503535 0 -0.1244522405185825 -0.00038769298458709092 0 -0.10394313851700079 0.0020556251079679459 0 -0.1128440433065038 0.01636018592503535 0 -0.1128440433065038 0.01636018592503535 0 -0.12424451236807239 0.027069144312366941 0 -0.11393466639619521 0.035004472642448957 0 -0.12424451236807239 0.027069144312366941 0 -0.12075472355362291 0.04122338309529356 0 -0.11393466639619521 0.035004472642448957 0 -0.12075472355362291 0.04122338309529356 0 -0.1244920148619628 0.050381604022983993 0 -0.1151670195775447 0.0482238646449 0 -0.11393466639619521 0.035004472642448957 0 -0.1151670195775447 0.0482238646449 0 -0.10635909785250069 0.04125385698526951 0 -0.12075472355362291 0.04122338309529356 0 -0.11393466639619521 0.035004472642448957 0 -0.1151670195775447 0.0482238646449 0 -0.12509646681095879 0.065597408261105467 0 -0.1185872066977806 0.063729502839677182 0 -0.1197320338084647 0.057760070231756527 0 -0.1197320338084647 0.057760070231756527 0 -0.1244920148619628 0.050381604022983993 0 -0.1151670195775447 0.0482238646449 0 -0.1151670195775447 0.0482238646449 0 -0.1125210466915524 0.054978807834542787 0 -0.1051700993263314 0.050476507920077678 0 -0.1197320338084647 0.057760070231756527 0 -0.1151670195775447 0.0482238646449 0 -0.1125210466915524 0.054978807834542787 0 -0.1131683311422218 0.062814464837820119 0 -0.1197320338084647 0.057760070231756527 0 -0.1125210466915524 0.054978807834542787 0 -0.1131683311422218 0.062814464837820119 0 -0.1125210466915524 0.054978807834542787 0 -0.1079186055395126 0.059947093390224047 0 -0.1131683311422218 0.062814464837820119 0 -0.1185872066977806 0.063729502839677182 0 -0.1197320338084647 0.057760070231756527 0 -0.095163193665411511 0.062895368012773595 0 -0.1051700993263314 0.050476507920077678 0 -0.095336714328198874 0.041619114628837717 0 -0.095163193665411511 0.062895368012773595 0 -0.095336714328198874 0.041619114628837717 0 -0.1125210466915524 0.054978807834542787 0 -0.1079186055395126 0.059947093390224047 0 -0.1051700993263314 0.050476507920077678 0 -0.095163193665411511 0.062895368012773595 0 -0.1079186055395126 0.059947093390224047 0 -0.1051700993263314 0.050476507920077678 0 -0.11393466639619521 0.035004472642448957 0 -0.10635909785250069 0.04125385698526951 0 -0.1012358460944251 0.033108064834657697 0 -0.1051700993263314 0.050476507920077678 0 -0.10635909785250069 0.04125385698526951 0 -0.095336714328198874 0.041619114628837717 0 -0.1151670195775447 0.0482238646449 0 -0.1051700993263314 0.050476507920077678 0 -0.10635909785250069 0.04125385698526951 0 -0.095336714328198874 0.041619114628837717 0 -0.1012358460944251 0.033108064834657697 0 -0.08853862327275358 0.036894035852943478 0 -0.10635909785250069 0.04125385698526951 0 -0.095336714328198874 0.041619114628837717 0 -0.1012358460944251 0.033108064834657697 0 -0.095336714328198874 0.041619114628837717 0 -0.1012358460944251 0.033108064834657697 0 -0.1012358460944251 0.033108064834657697 0 -0.08853862327275358 0.036894035852943478 0 -0.091086655225796079 0.026031666392017531 0 -0.08853862327275358 0.036894035852943478 0 -0.081088353484909961 0.032020518526829703 0 -0.091086655225796079 0.026031666392017531 0 -0.08853862327275358 0.036894035852943478 0 -0.079654612676290371 0.043453985766932421 0 -0.089627648882346422 0.049855943744280047 0 -0.095336714328198874 0.041619114628837717 0 -0.08853862327275358 0.036894035852943478 0 -0.089627648882346422 0.049855943744280047 0 -0.095336714328198874 0.041619114628837717 0 -0.089627648882346422 0.049855943744280047 0 -0.08853862327275358 0.036894035852943478 0 -0.079654612676290371 0.043453985766932421 0 -0.081088353484909961 0.032020518526829703 0 -0.095163193665411511 0.062895368012773595 0 -0.089627648882346422 0.049855943744280047 0 -0.072380178782229632 0.053292134703331731 0 -0.095163193665411511 0.062895368012773595 0 -0.095336714328198874 0.041619114628837717 0 -0.089627648882346422 0.049855943744280047 0 -0.095163193665411511 0.062895368012773595 0 -0.072380178782229632 0.053292134703331731 0 -0.079461892795990779 0.070449194571112136 0 -0.095163193665411511 0.062895368012773595 0 -0.072380178782229632 0.053292134703331731 0 -0.079654612676290371 0.043453985766932421 0 -0.089627648882346422 0.049855943744280047 0 -0.072380178782229632 0.053292134703331731 0 -0.079654612676290371 0.043453985766932421 0 -0.072380178782229632 0.053292134703331731 0 -0.065785112224924183 0.037111289768743512 0 -0.072380178782229632 0.053292134703331731 0 -0.065785112224924183 0.037111289768743512 0 -0.049597163899048183 0.043688901393888827 0 -0.079654612676290371 0.043453985766932421 0 -0.081088353484909961 0.032020518526829703 0 -0.065785112224924183 0.037111289768743512 0 -0.081088353484909961 0.032020518526829703 0 -0.065785112224924183 0.037111289768743512 0 -0.069646162847898541 0.026335067629459381 0 -0.069646162847898541 0.026335067629459381 0 -0.076118231742993758 0.01527396050979404 0 -0.05559295393876626 0.02093450171247024 0 -0.065785112224924183 0.037111289768743512 0 -0.069646162847898541 0.026335067629459381 0 -0.05559295393876626 0.02093450171247024 0 -0.081088353484909961 0.032020518526829703 0 -0.069646162847898541 0.026335067629459381 0 -0.076118231742993758 0.01527396050979404 0 -0.081088353484909961 0.032020518526829703 0 -0.091086655225796079 0.026031666392017531 0 -0.076118231742993758 0.01527396050979404 0 -0.09536928659882779 0.01424719335382847 0 -0.091086655225796079 0.026031666392017531 0 -0.076118231742993758 0.01527396050979404 0 -0.09536928659882779 0.01424719335382847 0 -0.085958893623968774 0.001514634656162053 0 -0.076118231742993758 0.01527396050979404 0 -0.076118231742993758 0.01527396050979404 0 -0.065648076432031049 0.00090955339710942099 0 -0.05559295393876626 0.02093450171247024 0 -0.085958893623968774 0.001514634656162053 0 -0.076118231742993758 0.01527396050979404 0 -0.065648076432031049 0.00090955339710942099 0 -0.045118160941850949 -0.00049033847668307538 0 -0.065648076432031049 0.00090955339710942099 0 -0.05559295393876626 0.02093450171247024 0 -0.05559295393876626 0.02093450171247024 0 -0.041197297059898302 0.028587588038626519 0 -0.049597163899048183 0.043688901393888827 0 -0.05559295393876626 0.02093450171247024 0 -0.032784921385912158 0.01564128096370114 0 -0.041197297059898302 0.028587588038626519 0 -0.032784921385912158 0.01564128096370114 0 -0.041197297059898302 0.028587588038626519 0 -0.02681414901586664 0.034085668084445887 0 -0.045118160941850949 -0.00049033847668307538 0 -0.05559295393876626 0.02093450171247024 0 -0.032784921385912158 0.01564128096370114 0 -0.045118160941850949 -0.00049033847668307538 0 -0.027025641752002061 -0.0079319500279313396 0 -0.032784921385912158 0.01564128096370114 0 -0.062589921296568873 0.06642957971461419 0 -0.072380178782229632 0.053292134703331731 0 -0.049597163899048183 0.043688901393888827 0 -0.046276495737503101 0.06795068115397529 0 -0.062589921296568873 0.06642957971461419 0 -0.049597163899048183 0.043688901393888827 0 -0.072380178782229632 0.053292134703331731 0 -0.049597163899048183 0.043688901393888827 0 -0.065785112224924183 0.037111289768743512 0 -0.05559295393876626 0.02093450171247024 0 -0.049597163899048183 0.043688901393888827 0 -0.049597163899048183 0.043688901393888827 0 -0.02681414901586664 0.034085668084445887 0 -0.041197297059898302 0.028587588038626519 0 -0.049597163899048183 0.043688901393888827 0 -0.02681414901586664 0.034085668084445887 0 -0.049597163899048183 0.043688901393888827 0 -0.028283535649973771 0.053358049395037133 0 -0.02681414901586664 0.034085668084445887 0 -0.046276495737503101 0.06795068115397529 0 -0.028283535649973771 0.053358049395037133 0 -0.046276495737503101 0.06795068115397529 0 -0.049597163899048183 0.043688901393888827 0 -0.028283535649973771 0.053358049395037133 0 -0.028283535649973771 0.053358049395037133 0 -0.010290575562444429 0.038765417636098962 0 -0.0097640400442320502 0.053032197103308337 0 -0.018620569400409771 0.06708533464306303 0 -0.028283535649973771 0.053358049395037133 0 -0.0097640400442320502 0.053032197103308337 0 -0.028283535649973771 0.053358049395037133 0 -0.010290575562444429 0.038765417636098962 0 -0.02681414901586664 0.034085668084445887 0 -0.010290575562444429 0.038765417636098962 0 -0.020835528804160591 0.022374223573919171 0 -0.028283535649973771 0.053358049395037133 0 -0.02681414901586664 0.034085668084445887 0 -0.010290575562444429 0.038765417636098962 0 -0.010290575562444429 0.038765417636098962 0 0.0077023845250848884 0.024172785877160811 0 -0.010290575562444429 0.038765417636098962 0 -0.0034349793211087142 0.044893397967285961 0 0.0047272217829380687 0.036246676438490527 0 -0.010290575562444429 0.038765417636098962 0 -0.0034349793211087142 0.044893397967285961 0 -0.0097640400442320502 0.053032197103308337 0 -0.0012292332505543029 0.06378464068123596 0 -0.018620569400409771 0.06708533464306303 0 -0.0097640400442320502 0.053032197103308337 0 -0.0034349793211087142 0.044893397967285961 0 -0.0097640400442320502 0.053032197103308337 0 0.0015874765393035599 0.051529300691246019 0 -0.0012292332505543029 0.06378464068123596 0 -0.0097640400442320502 0.053032197103308337 0 0.0015874765393035599 0.051529300691246019 0 -0.027025641752002061 -0.0079319500279313396 0 -0.032784921385912158 0.01564128096370114 0 -0.01566814095190756 0.010235570601176981 0 -0.032784921385912158 0.01564128096370114 0 -0.02681414901586664 0.034085668084445887 0 -0.020835528804160591 0.022374223573919171 0 -0.032784921385912158 0.01564128096370114 0 -0.01566814095190756 0.010235570601176981 0 -0.020835528804160591 0.022374223573919171 0 -0.010290575562444429 0.038765417636098962 0 -0.020835528804160591 0.022374223573919171 0 -0.0077262750329500059 0.02266504195052366 0 -0.01566814095190756 0.010235570601176981 0 -0.020835528804160591 0.022374223573919171 0 -0.0077262750329500059 0.02266504195052366 0 -0.010290575562444429 0.038765417636098962 0 -0.0077262750329500059 0.02266504195052366 0 0.0077023845250848884 0.024172785877160811 0 -0.0091716063734174208 -0.003332990253060792 0 -0.01566814095190756 0.010235570601176981 0 0.001118487675879971 0.0096665619175221752 0 -0.0091716063734174208 -0.003332990253060792 0 0.001118487675879971 0.0096665619175221752 0 0.006935528729737548 -0.0054826371559186567 0 -0.01566814095190756 0.010235570601176981 0 -0.0077262750329500059 0.02266504195052366 0 0.001118487675879971 0.0096665619175221752 0 0.001118487675879971 0.0096665619175221752 0 0.0077023845250848884 0.024172785877160811 0 0.025695344612614111 0.0095801541182225364 0 0.001118487675879971 0.0096665619175221752 0 0.025695344612614111 0.0095801541182225364 0 0.006935528729737548 -0.0054826371559186567 0 -0.0077262750329500059 0.02266504195052366 0 0.001118487675879971 0.0096665619175221752 0 0.0077023845250848884 0.024172785877160811 0 0.0077023845250848884 0.024172785877160811 0 0.024648998497944961 0.02642224341189468 0 0.015911730558903318 0.034762274935307848 0 0.024648998497944961 0.02642224341189468 0 0.025695344612614111 0.0095801541182225364 0 0.038363400138324961 0.019751697241263279 0 0.0077023845250848884 0.024172785877160811 0 0.024648998497944961 0.02642224341189468 0 0.025695344612614111 0.0095801541182225364 0 0.0077023845250848884 0.024172785877160811 0 0.025695344612614111 0.0095801541182225364 0 0.025695344612614111 0.0095801541182225364 0 0.006935528729737548 -0.0054826371559186567 0 0.01459521235494949 0.061710637509134872 0 0.0047272217829380687 0.036246676438490527 0 -0.0012292332505543029 0.06378464068123596 0 0.01459521235494949 0.061710637509134872 0 0.0015874765393035599 0.051529300691246019 0 0.01459521235494949 0.061710637509134872 0 0.0015874765393035599 0.051529300691246019 0 0.0047272217829380687 0.036246676438490527 0 0.01459521235494949 0.061710637509134872 0 0.0047272217829380687 0.036246676438490527 0 0.016570281580619739 0.045526930476817662 0 -0.010290575562444429 0.038765417636098962 0 0.0077023845250848884 0.024172785877160811 0 0.0047272217829380687 0.036246676438490527 0 -0.0034349793211087142 0.044893397967285961 0 0.0015874765393035599 0.051529300691246019 0 0.0047272217829380687 0.036246676438490527 0 0.0047272217829380687 0.036246676438490527 0 0.015911730558903318 0.034762274935307848 0 0.016570281580619739 0.045526930476817662 0 0.0077023845250848884 0.024172785877160811 0 0.0047272217829380687 0.036246676438490527 0 0.015911730558903318 0.034762274935307848 0 0.024648998497944961 0.02642224341189468 0 0.015911730558903318 0.034762274935307848 0 0.025892041879535671 0.039420421904702428 0 0.024648998497944961 0.02642224341189468 0 0.025892041879535671 0.039420421904702428 0 0.038236142792751733 0.035111405712831077 0 0.015911730558903318 0.034762274935307848 0 0.025892041879535671 0.039420421904702428 0 0.016570281580619739 0.045526930476817662 0 0.025892041879535671 0.039420421904702428 0 0.016570281580619739 0.045526930476817662 0 0.021716339062575678 0.05448348331271597 0 0.01459521235494949 0.061710637509134872 0 0.016570281580619739 0.045526930476817662 0 0.021716339062575678 0.05448348331271597 0 0.01459521235494949 0.061710637509134872 0 0.021716339062575678 0.05448348331271597 0 0.030459386295035529 0.05963142741263059 0 0.01459521235494949 0.061710637509134872 0 0.030459386295035529 0.05963142741263059 0 0.021716339062575678 0.05448348331271597 0 0.030459386295035529 0.05963142741263059 0 0.032703710623893968 0.046893395464013943 0 0.025892041879535671 0.039420421904702428 0 0.021716339062575678 0.05448348331271597 0 0.032703710623893968 0.046893395464013943 0 0.030459386295035529 0.05963142741263059 0 0.032703710623893968 0.046893395464013943 0 0.047214643089571059 0.045820238977188371 0 0.030459386295035529 0.05963142741263059 0 0.04797297407010033 0.057336039788577382 0 0.030459386295035529 0.05963142741263059 0 0.04797297407010033 0.057336039788577382 0 0.027635028654909001 0.06907575978797427 0 0.030459386295035529 0.05963142741263059 0 0.047214643089571059 0.045820238977188371 0 0.04797297407010033 0.057336039788577382 0 0.030459386295035529 0.05963142741263059 0 0.047214643089571059 0.045820238977188371 0 0.038236142792751733 0.035111405712831077 0 0.047214643089571059 0.045820238977188371 0 0.051031455664035288 0.029923240364304559 0 0.032703710623893968 0.046893395464013943 0 0.038236142792751733 0.035111405712831077 0 0.047214643089571059 0.045820238977188371 0 0.025892041879535671 0.039420421904702428 0 0.032703710623893968 0.046893395464013943 0 0.038236142792751733 0.035111405712831077 0 0.062359133547200143 0.040731400683572692 0 0.047214643089571059 0.045820238977188371 0 0.063969899884107562 0.032009050541747332 0 0.047214643089571059 0.045820238977188371 0 0.063969899884107562 0.032009050541747332 0 0.047214643089571059 0.045820238977188371 0 0.051031455664035288 0.029923240364304559 0 0.063969899884107562 0.032009050541747332 0 0.062359133547200143 0.040731400683572692 0 0.04797297407010033 0.057336039788577382 0 0.072379857481358154 0.054137194478101919 0 0.04797297407010033 0.057336039788577382 0 0.072379857481358154 0.054137194478101919 0 0.062359133547200143 0.040731400683572692 0 0.04797297407010033 0.057336039788577382 0 0.062359133547200143 0.040731400683572692 0 0.047214643089571059 0.045820238977188371 0 0.04797297407010033 0.057336039788577382 0 0.04797297407010033 0.057336039788577382 0 0.072379857481358154 0.054137194478101919 0 0.06072113176624426 0.066105246874810966 0 0.040835927619124697 0.0088703260301804514 0 0.038363400138324961 0.019751697241263279 0 0.051939500327619889 0.017318508583630769 0 0.040835927619124697 0.0088703260301804514 0 0.046640351189982193 0.001482106492276504 0 0.040314465242246092 -0.002276229875846851 0 0.025695344612614111 0.0095801541182225364 0 0.040314465242246092 -0.002276229875846851 0 0.025695344612614111 0.0095801541182225364 0 0.040835927619124697 0.0088703260301804514 0 0.040314465242246092 -0.002276229875846851 0 0.025695344612614111 0.0095801541182225364 0 0.040835927619124697 0.0088703260301804514 0 0.038363400138324961 0.019751697241263279 0 0.025695344612614111 0.0095801541182225364 0 0.038363400138324961 0.019751697241263279 0 0.024648998497944961 0.02642224341189468 0 0.038236142792751733 0.035111405712831077 0 0.038363400138324961 0.019751697241263279 0 0.038363400138324961 0.019751697241263279 0 0.051031455664035288 0.029923240364304559 0 0.038236142792751733 0.035111405712831077 0 0.038363400138324961 0.019751697241263279 0 0.051031455664035288 0.029923240364304559 0 0.038363400138324961 0.019751697241263279 0 0.051939500327619889 0.017318508583630769 0 0.051031455664035288 0.029923240364304559 0 0.051031455664035288 0.029923240364304559 0 0.062107590562420073 0.0228568457980407 0 0.063969899884107562 0.032009050541747332 0 0.051939500327619889 0.017318508583630769 0 0.062107590562420073 0.0228568457980407 0 0.064696567818308529 0.01472149906873369 0 0.051939500327619889 0.017318508583630769 0 0.051031455664035288 0.029923240364304559 0 0.062107590562420073 0.0228568457980407 0 0.055514373943813228 0.0067304088365214816 0 0.075461568133428525 0.0044331687040122013 0 0.049896637954744763 -0.0073960790217490677 0 0.051939500327619889 0.017318508583630769 0 0.055514373943813228 0.0067304088365214816 0 0.064696567818308529 0.01472149906873369 0 0.040835927619124697 0.0088703260301804514 0 0.051939500327619889 0.017318508583630769 0 0.055514373943813228 0.0067304088365214816 0 0.046640351189982193 0.001482106492276504 0 0.055514373943813228 0.0067304088365214816 0 0.049896637954744763 -0.0073960790217490677 0 0.040835927619124697 0.0088703260301804514 0 0.046640351189982193 0.001482106492276504 0 0.055514373943813228 0.0067304088365214816 0 0.075461568133428525 0.0044331687040122013 0 0.064696567818308529 0.01472149906873369 0 0.08072515667864405 0.018197862106306289 0 0.055514373943813228 0.0067304088365214816 0 0.075461568133428525 0.0044331687040122013 0 0.064696567818308529 0.01472149906873369 0 0.075461568133428525 0.0044331687040122013 0 0.1010264983121123 0.016262416429773479 0 0.075461568133428525 0.0044331687040122013 0 0.1010264983121123 0.016262416429773479 0 0.098011391193308373 -0.0056982583262641584 0 0.075461568133428525 0.0044331687040122013 0 0.08072515667864405 0.018197862106306289 0 0.1010264983121123 0.016262416429773479 0 0.088041666307225416 0.02743399724937181 0 0.08072515667864405 0.018197862106306289 0 0.1010264983121123 0.016262416429773479 0 0.088041666307225416 0.02743399724937181 0 0.08072515667864405 0.018197862106306289 0 0.076745293024301803 0.02412676157856956 0 0.088041666307225416 0.02743399724937181 0 0.076745293024301803 0.02412676157856956 0 0.082258845210710349 0.03253561428057717 0 0.08072515667864405 0.018197862106306289 0 0.076745293024301803 0.02412676157856956 0 0.063969899884107562 0.032009050541747332 0 0.062107590562420073 0.0228568457980407 0 0.064696567818308529 0.01472149906873369 0 0.08072515667864405 0.018197862106306289 0 0.08072515667864405 0.018197862106306289 0 0.063969899884107562 0.032009050541747332 0 0.062107590562420073 0.0228568457980407 0 0.08072515667864405 0.018197862106306289 0 0.063969899884107562 0.032009050541747332 0 0.062359133547200143 0.040731400683572692 0 0.076745293024301803 0.02412676157856956 0 0.062359133547200143 0.040731400683572692 0 0.076745293024301803 0.02412676157856956 0 0.076375628159171968 0.038405412939545532 0 0.062359133547200143 0.040731400683572692 0 0.076745293024301803 0.02412676157856956 0 0.063969899884107562 0.032009050541747332 0 0.062359133547200143 0.040731400683572692 0 0.076375628159171968 0.038405412939545532 0 0.072379857481358154 0.054137194478101919 0 0.072379857481358154 0.054137194478101919 0 0.087872793352142223 0.040176285354821803 0 0.096786740892615686 0.050938349167624693 0 0.072379857481358154 0.054137194478101919 0 0.096786740892615686 0.050938349167624693 0 0.072379857481358154 0.054137194478101919 0 0.096786740892615686 0.050938349167624693 0 0.089592915186254174 0.067390154600646832 0 0.076375628159171968 0.038405412939545532 0 0.072379857481358154 0.054137194478101919 0 0.087872793352142223 0.040176285354821803 0 0.076375628159171968 0.038405412939545532 0 0.082258845210710349 0.03253561428057717 0 0.087872793352142223 0.040176285354821803 0 0.076745293024301803 0.02412676157856956 0 0.076375628159171968 0.038405412939545532 0 0.082258845210710349 0.03253561428057717 0 0.088041666307225416 0.02743399724937181 0 0.087872793352142223 0.040176285354821803 0 0.098246025398924644 0.032379674771496843 0 0.088041666307225416 0.02743399724937181 0 0.082258845210710349 0.03253561428057717 0 0.087872793352142223 0.040176285354821803 0 0.098246025398924644 0.032379674771496843 0 0.09859813872304253 0.041737690340159041 0 0.1063796333462841 0.038668109643535398 0 0.087872793352142223 0.040176285354821803 0 0.098246025398924644 0.032379674771496843 0 0.09859813872304253 0.041737690340159041 0 0.087872793352142223 0.040176285354821803 0 0.09859813872304253 0.041737690340159041 0 0.096786740892615686 0.050938349167624693 0 0.09859813872304253 0.041737690340159041 0 0.1037055006252459 0.04652603276331644 0 0.096786740892615686 0.050938349167624693 0 0.1037055006252459 0.04652603276331644 0 0.1091701701315707 0.045405346223324289 0 0.1063796333462841 0.038668109643535398 0 0.09859813872304253 0.041737690340159041 0 0.1037055006252459 0.04652603276331644 0 0.1063796333462841 0.038668109643535398 0 0.098246025398924644 0.032379674771496843 0 0.1063796333462841 0.038668109643535398 0 0.1080469394596527 0.029312409717345649 0 0.1063796333462841 0.038668109643535398 0 0.11369005285381351 0.036564640387925021 0 0.1080469394596527 0.029312409717345649 0 0.10140855114010359 0.056741753968867333 0 0.1082136550722141 0.059696613986540442 0 0.089592915186254174 0.067390154600646832 0 0.10140855114010359 0.056741753968867333 0 0.096786740892615686 0.050938349167624693 0 0.089592915186254174 0.067390154600646832 0 0.10140855114010359 0.056741753968867333 0 0.096786740892615686 0.050938349167624693 0 0.1040187002827474 0.052009313231975308 0 0.1037055006252459 0.04652603276331644 0 0.096786740892615686 0.050938349167624693 0 0.1040187002827474 0.052009313231975308 0 0.1037055006252459 0.04652603276331644 0 0.10828434687670541 0.049049973369521209 0 0.1040187002827474 0.052009313231975308 0 0.1037055006252459 0.04652603276331644 0 0.1091701701315707 0.045405346223324289 0 0.10828434687670541 0.049049973369521209 0 0.10828434687670541 0.049049973369521209 0 0.1040187002827474 0.052009313231975308 0 0.1085923347430168 0.054888678040205661 0 0.10140855114010359 0.056741753968867333 0 0.1040187002827474 0.052009313231975308 0 0.1085923347430168 0.054888678040205661 0 0.10140855114010359 0.056741753968867333 0 0.1085923347430168 0.054888678040205661 0 0.1082136550722141 0.059696613986540442 0 0.1082136550722141 0.059696613986540442 0 0.12683439495817461 0.052003073372435288 0 0.1085923347430168 0.054888678040205661 0 0.1082136550722141 0.059696613986540442 0 0.12683439495817461 0.052003073372435288 0 0.1082136550722141 0.059696613986540442 0 0.1213053233293625 0.063977455960140386 0 0.12683439495817461 0.052003073372435288 0 0.1085923347430168 0.054888678040205661 0 0.11545296983014219 0.044674578582556468 0 0.12683439495817461 0.052003073372435288 0 0.1085923347430168 0.054888678040205661 0 0.11545296983014219 0.044674578582556468 0 0.10828434687670541 0.049049973369521209 0 0.1085923347430168 0.054888678040205661 0 0.11545296983014219 0.044674578582556468 0 0.11545296983014219 0.044674578582556468 0 0.12683439495817461 0.052003073372435288 0 0.11545296983014219 0.044674578582556468 0 0.12659142849079691 0.028091664155532971 0 0.13015300311198849 0.040381385354086502 0 0.11369005285381351 0.036564640387925021 0 0.11545296983014219 0.044674578582556468 0 0.12659142849079691 0.028091664155532971 0 0.11369005285381351 0.036564640387925021 0 0.1080469394596527 0.029312409717345649 0 0.12659142849079691 0.028091664155532971 0 0.11545296983014219 0.044674578582556468 0 0.12659142849079691 0.028091664155532971 0 0.1091701701315707 0.045405346223324289 0 0.1063796333462841 0.038668109643535398 0 0.11316657253878901 0.043202368340974628 0 0.11369005285381351 0.036564640387925021 0 0.11316657253878901 0.043202368340974628 0 0.11545296983014219 0.044674578582556468 0 0.1063796333462841 0.038668109643535398 0 0.11369005285381351 0.036564640387925021 0 0.11316657253878901 0.043202368340974628 0 0.1091701701315707 0.045405346223324289 0 0.10828434687670541 0.049049973369521209 0 0.11545296983014219 0.044674578582556468 0 0.1091701701315707 0.045405346223324289 0 0.11316657253878901 0.043202368340974628 0 0.11545296983014219 0.044674578582556468 0 0.11316657253878901 0.043202368340974628 0 0.11545296983014219 0.044674578582556468 0 0.11545296983014219 0.044674578582556468 0 0.13015300311198849 0.040381385354086502 0 0.12683439495817461 0.052003073372435288 0 0.11882011836095251 0.0065886106746579649 0 0.1010264983121123 0.016262416429773479 0 0.12659142849079691 0.028091664155532971 0 0.1010264983121123 0.016262416429773479 0 0.12659142849079691 0.028091664155532971 0 0.1010264983121123 0.016262416429773479 0 0.1080469394596527 0.029312409717345649 0 0.12659142849079691 0.028091664155532971 0 0.11882011836095251 0.0065886106746579649 0 0.1010264983121123 0.016262416429773479 0 0.098011391193308373 -0.0056982583262641584 0 0.088041666307225416 0.02743399724937181 0 0.098246025398924644 0.032379674771496843 0 0.1010264983121123 0.016262416429773479 0 0.098246025398924644 0.032379674771496843 0 0.1010264983121123 0.016262416429773479 0 0.1080469394596527 0.029312409717345649 0 0.102028599401492 0.1079210482782756 0 0.1185648575779607 0.095458187827811403 0 0.097454497296707604 0.093489332089851121 0 0.102028599401492 0.1079210482782756 0 0.094862282777670462 0.1196438628042634 0 0.1117522404438802 0.12667258555115829 0 0.123281054128593 0.11724462113534739 0 0.1117522404438802 0.12667258555115829 0 0.13947052033133081 0.1245003570974072 0 0.102028599401492 0.1079210482782756 0 0.123281054128593 0.11724462113534739 0 0.1117522404438802 0.12667258555115829 0 0.102028599401492 0.1079210482782756 0 0.123281054128593 0.11724462113534739 0 0.102028599401492 0.1079210482782756 0 0.123281054128593 0.11724462113534739 0 0.1185648575779607 0.095458187827811403 0 0.1185648575779607 0.095458187827811403 0 0.10766661625946521 0.081617344394697103 0 0.12679961534922851 0.075073796793526271 0 0.1127439035567581 0.069567645006608142 0 0.10766661625946521 0.081617344394697103 0 0.12679961534922851 0.075073796793526271 0 0.1213053233293625 0.063977455960140386 0 0.1127439035567581 0.069567645006608142 0 0.12679961534922851 0.075073796793526271 0 0.1082136550722141 0.059696613986540442 0 0.1213053233293625 0.063977455960140386 0 0.1127439035567581 0.069567645006608142 0 0.1082136550722141 0.059696613986540442 0 0.089592915186254174 0.067390154600646832 0 0.1014387622560044 0.070574023901201433 0 0.10766661625946521 0.081617344394697103 0 0.08998097741878798 0.081820185866337797 0 0.1082136550722141 0.059696613986540442 0 0.1014387622560044 0.070574023901201433 0 0.089592915186254174 0.067390154600646832 0 0.1082136550722141 0.059696613986540442 0 0.1127439035567581 0.069567645006608142 0 0.1014387622560044 0.070574023901201433 0 0.1127439035567581 0.069567645006608142 0 0.1014387622560044 0.070574023901201433 0 0.10766661625946521 0.081617344394697103 0 0.1185648575779607 0.095458187827811403 0 0.097454497296707604 0.093489332089851121 0 0.10766661625946521 0.081617344394697103 0 0.097454497296707604 0.093489332089851121 0 0.10766661625946521 0.081617344394697103 0 0.08998097741878798 0.081820185866337797 0 0.097454497296707604 0.093489332089851121 0 0.08998097741878798 0.081820185866337797 0 0.080776144674391009 0.098597475421203867 0 0.08998097741878798 0.081820185866337797 0 0.071888117261322881 0.075707086101057836 0 0.080776144674391009 0.098597475421203867 0 0.08998097741878798 0.081820185866337797 0 0.089592915186254174 0.067390154600646832 0 0.071888117261322881 0.075707086101057836 0 0.1014387622560044 0.070574023901201433 0 0.08998097741878798 0.081820185866337797 0 0.089592915186254174 0.067390154600646832 0 0.072379857481358154 0.054137194478101919 0 0.089592915186254174 0.067390154600646832 0 0.071888117261322881 0.075707086101057836 0 0.072379857481358154 0.054137194478101919 0 0.071888117261322881 0.075707086101057836 0 0.06072113176624426 0.066105246874810966 0 0.071888117261322881 0.075707086101057836 0 0.080776144674391009 0.098597475421203867 0 0.059523689947290133 0.089273902564132146 0 0.069834633883481517 0.1065625652268001 0 0.059315065316452309 0.1025539410383776 0 0.059523689947290133 0.089273902564132146 0 0.080776144674391009 0.098597475421203867 0 0.059523689947290133 0.089273902564132146 0 0.069834633883481517 0.1065625652268001 0 0.080776144674391009 0.098597475421203867 0 0.081634330708880196 0.1151370033827101 0 0.069834633883481517 0.1065625652268001 0 0.080776144674391009 0.098597475421203867 0 0.059523689947290133 0.089273902564132146 0 0.069834633883481517 0.1065625652268001 0 0.064307476710745728 0.1098785041095611 0 0.059315065316452309 0.1025539410383776 0 0.102028599401492 0.1079210482782756 0 0.080776144674391009 0.098597475421203867 0 0.081634330708880196 0.1151370033827101 0 0.102028599401492 0.1079210482782756 0 0.080776144674391009 0.098597475421203867 0 0.102028599401492 0.1079210482782756 0 0.097454497296707604 0.093489332089851121 0 0.080776144674391009 0.098597475421203867 0 0.102028599401492 0.1079210482782756 0 0.094862282777670462 0.1196438628042634 0 0.081634330708880196 0.1151370033827101 0 0.094862282777670462 0.1196438628042634 0 0.081634330708880196 0.1151370033827101 0 0.084033960556429532 0.12884481400490949 0 0.081634330708880196 0.1151370033827101 0 0.071861500007931359 0.1232467005620789 0 0.084033960556429532 0.12884481400490949 0 0.081634330708880196 0.1151370033827101 0 0.071861500007931359 0.1232467005620789 0 0.068543873750645412 0.1149277749384955 0 0.069834633883481517 0.1065625652268001 0 0.081634330708880196 0.1151370033827101 0 0.068543873750645412 0.1149277749384955 0 0.068543873750645412 0.1149277749384955 0 0.064307476710745728 0.1098785041095611 0 0.059536333892403683 0.1154697352345713 0 0.069834633883481517 0.1065625652268001 0 0.068543873750645412 0.1149277749384955 0 0.064307476710745728 0.1098785041095611 0 0.071861500007931359 0.1232467005620789 0 0.068543873750645412 0.1149277749384955 0 0.059536333892403683 0.1154697352345713 0 0.056458373241313059 0.1220229844831647 0 0.046980594318971967 0.103944553472415 0 0.044984286063853948 0.1144984098979744 0 0.056458373241313059 0.1220229844831647 0 0.059536333892403683 0.1154697352345713 0 0.047111977694586651 0.095143209078012936 0 0.056458373241313059 0.1220229844831647 0 0.047823074661834691 0.1229743903388081 0 0.044984286063853948 0.1144984098979744 0 0.056458373241313059 0.1220229844831647 0 0.047111977694586651 0.095143209078012936 0 0.056458373241313059 0.1220229844831647 0 0.047111977694586651 0.095143209078012936 0 0.046980594318971967 0.103944553472415 0 0.059536333892403683 0.1154697352345713 0 0.059315065316452309 0.1025539410383776 0 0.048250118395506067 0.092934788779969885 0 0.064307476710745728 0.1098785041095611 0 0.059536333892403683 0.1154697352345713 0 0.059315065316452309 0.1025539410383776 0 0.059536333892403683 0.1154697352345713 0 0.047111977694586651 0.095143209078012936 0 0.048250118395506067 0.092934788779969885 0 0.059536333892403683 0.1154697352345713 0 0.048250118395506067 0.092934788779969885 0 0.059315065316452309 0.1025539410383776 0 0.059523689947290133 0.089273902564132146 0 0.048250118395506067 0.092934788779969885 0 0.046980594318971967 0.103944553472415 0 0.031997015267580219 0.10661530464401089 0 0.044984286063853948 0.1144984098979744 0 0.046980594318971967 0.103944553472415 0 0.039592722901722707 0.099159129702000026 0 0.031997015267580219 0.10661530464401089 0 0.047111977694586651 0.095143209078012936 0 0.046980594318971967 0.103944553472415 0 0.044236279529428407 0.098362398272746204 0 0.043259823202432338 0.095202700838556822 0 0.039592722901722707 0.099159129702000026 0 0.040006298791842428 0.091064350555588536 0 0.047111977694586651 0.095143209078012936 0 0.043259823202432338 0.095202700838556822 0 0.043326765309194368 0.091114650811160686 0 0.047111977694586651 0.095143209078012936 0 0.043259823202432338 0.095202700838556822 0 0.044236279529428407 0.098362398272746204 0 0.046980594318971967 0.103944553472415 0 0.044236279529428407 0.098362398272746204 0 0.039592722901722707 0.099159129702000026 0 0.043259823202432338 0.095202700838556822 0 0.044236279529428407 0.098362398272746204 0 0.039592722901722707 0.099159129702000026 0 0.039592722901722707 0.099159129702000026 0 0.040006298791842428 0.091064350555588536 0 0.033999193661208522 0.092549709374426317 0 0.039592722901722707 0.099159129702000026 0 0.031997015267580219 0.10661530464401089 0 0.033999193661208522 0.092549709374426317 0 0.031997015267580219 0.10661530464401089 0 0.044984286063853948 0.1144984098979744 0 0.040254683338031831 0.12792389191371131 0 0.031997015267580219 0.10661530464401089 0 0.027418588341799281 0.11951208787462859 0 0.040254683338031831 0.12792389191371131 0 0.031997015267580219 0.10661530464401089 0 0.040254683338031831 0.12792389191371131 0 0.047823074661834691 0.1229743903388081 0 0.044984286063853948 0.1144984098979744 0 0.040254683338031831 0.12792389191371131 0 0.071888117261322881 0.075707086101057836 0 0.050643578252195447 0.077240667131504986 0 0.06072113176624426 0.066105246874810966 0 0.071888117261322881 0.075707086101057836 0 0.050643578252195447 0.077240667131504986 0 0.04797297407010033 0.057336039788577382 0 0.050643578252195447 0.077240667131504986 0 0.06072113176624426 0.066105246874810966 0 0.059523689947290133 0.089273902564132146 0 0.048250118395506067 0.092934788779969885 0 0.038271235220189187 0.079950329707060411 0 0.050643578252195447 0.077240667131504986 0 0.059523689947290133 0.089273902564132146 0 0.038271235220189187 0.079950329707060411 0 0.059523689947290133 0.089273902564132146 0 0.038271235220189187 0.079950329707060411 0 0.071888117261322881 0.075707086101057836 0 0.050643578252195447 0.077240667131504986 0 0.059523689947290133 0.089273902564132146 0 0.050643578252195447 0.077240667131504986 0 0.038271235220189187 0.079950329707060411 0 0.029399039243067929 0.078774248161950916 0 0.043326765309194368 0.091114650811160686 0 0.040006298791842428 0.091064350555588536 0 0.038271235220189187 0.079950329707060411 0 0.048250118395506067 0.092934788779969885 0 0.043326765309194368 0.091114650811160686 0 0.038271235220189187 0.079950329707060411 0 0.047111977694586651 0.095143209078012936 0 0.048250118395506067 0.092934788779969885 0 0.043326765309194368 0.091114650811160686 0 0.043259823202432338 0.095202700838556822 0 0.043326765309194368 0.091114650811160686 0 0.040006298791842428 0.091064350555588536 0 0.040006298791842428 0.091064350555588536 0 0.033999193661208522 0.092549709374426317 0 0.035112272261912547 0.085996705185296951 0 0.033999193661208522 0.092549709374426317 0 0.035112272261912547 0.085996705185296951 0 0.030562463090829231 0.085656845023995995 0 0.040006298791842428 0.091064350555588536 0 0.035112272261912547 0.085996705185296951 0 0.038271235220189187 0.079950329707060411 0 0.035112272261912547 0.085996705185296951 0 0.038271235220189187 0.079950329707060411 0 0.029399039243067929 0.078774248161950916 0 0.035112272261912547 0.085996705185296951 0 0.029399039243067929 0.078774248161950916 0 0.030562463090829231 0.085656845023995995 0 0.04797297407010033 0.057336039788577382 0 0.027635028654909001 0.06907575978797427 0 0.029399039243067929 0.078774248161950916 0 0.04797297407010033 0.057336039788577382 0 0.050643578252195447 0.077240667131504986 0 0.029399039243067929 0.078774248161950916 0 0.050643578252195447 0.077240667131504986 0 0.029399039243067929 0.078774248161950916 0 0.04797297407010033 0.057336039788577382 0 0.029399039243067929 0.078774248161950916 0 0.01459521235494949 0.061710637509134872 0 0.030459386295035529 0.05963142741263059 0 0.017825248683011649 0.070045619055208203 0 0.01459521235494949 0.061710637509134872 0 0.017825248683011649 0.070045619055208203 0 0.030459386295035529 0.05963142741263059 0 0.017825248683011649 0.070045619055208203 0 0.030459386295035529 0.05963142741263059 0 0.017825248683011649 0.070045619055208203 0 0.027635028654909001 0.06907575978797427 0 0.027635028654909001 0.06907575978797427 0 0.021430743364398389 0.07934945609652827 0 0.029399039243067929 0.078774248161950916 0 0.017825248683011649 0.070045619055208203 0 0.027635028654909001 0.06907575978797427 0 0.021430743364398389 0.07934945609652827 0 0.017825248683011649 0.070045619055208203 0 0.021430743364398389 0.07934945609652827 0 0.023739347197128589 0.085306717374310406 0 0.0092582498306486675 0.1020209346744549 0 0.021430743364398389 0.07934945609652827 0 0.023739347197128589 0.085306717374310406 0 0.01369104835205702 0.085774757015682671 0 0.021430743364398389 0.07934945609652827 0 0.023739347197128589 0.085306717374310406 0 0.021430743364398389 0.07934945609652827 0 0.029399039243067929 0.078774248161950916 0 0.023739347197128589 0.085306717374310406 0 0.021430743364398389 0.07934945609652827 0 0.029399039243067929 0.078774248161950916 0 0.029399039243067929 0.078774248161950916 0 0.030562463090829231 0.085656845023995995 0 0.023739347197128589 0.085306717374310406 0 0.029399039243067929 0.078774248161950916 0 0.023739347197128589 0.085306717374310406 0 0.033999193661208522 0.092549709374426317 0 0.030562463090829231 0.085656845023995995 0 0.023739347197128589 0.085306717374310406 0 0.023739347197128589 0.085306717374310406 0 0.01369104835205702 0.085774757015682671 0 0.0092582498306486675 0.1020209346744549 0 0.0051087594610210148 0.080527692295617709 0 0.01369104835205702 0.085774757015682671 0 0.0092582498306486675 0.1020209346744549 0 0.021430743364398389 0.07934945609652827 0 0.0051087594610210148 0.080527692295617709 0 0.021430743364398389 0.07934945609652827 0 0.0051087594610210148 0.080527692295617709 0 0.01369104835205702 0.085774757015682671 0 -0.0012292332505543029 0.06378464068123596 0 0.01459521235494949 0.061710637509134872 0 -0.0012292332505543029 0.06378464068123596 0 0.01459521235494949 0.061710637509134872 0 0.0080955592782806732 0.069159055867407046 0 0.017825248683011649 0.070045619055208203 0 0.021430743364398389 0.07934945609652827 0 0.0051087594610210148 0.080527692295617709 0 -0.0012292332505543029 0.06378464068123596 0 0.0051087594610210148 0.080527692295617709 0 0.0080955592782806732 0.069159055867407046 0 0.017825248683011649 0.070045619055208203 0 0.0051087594610210148 0.080527692295617709 0 0.0080955592782806732 0.069159055867407046 0 0.017825248683011649 0.070045619055208203 0 0.0051087594610210148 0.080527692295617709 0 0.01459521235494949 0.061710637509134872 0 0.017825248683011649 0.070045619055208203 0 0.0080955592782806732 0.069159055867407046 0 0.019482067178466251 0.1107491432724047 0 0.017356945103072018 0.1204998149293544 0 0.027418588341799281 0.11951208787462859 0 0.017356945103072018 0.1204998149293544 0 0.027418588341799281 0.11951208787462859 0 0.028136896369567631 0.1331750506540591 0 0.031997015267580219 0.10661530464401089 0 0.019482067178466251 0.1107491432724047 0 0.027418588341799281 0.11951208787462859 0 0.031997015267580219 0.10661530464401089 0 0.033999193661208522 0.092549709374426317 0 0.023739347197128589 0.085306717374310406 0 0.023739347197128589 0.085306717374310406 0 0.02108550348152554 0.10082233348119581 0 0.0092582498306486675 0.1020209346744549 0 0.031997015267580219 0.10661530464401089 0 0.023739347197128589 0.085306717374310406 0 0.031997015267580219 0.10661530464401089 0 0.023739347197128589 0.085306717374310406 0 0.02108550348152554 0.10082233348119581 0 0.031997015267580219 0.10661530464401089 0 0.019482067178466251 0.1107491432724047 0 0.02108550348152554 0.10082233348119581 0 0.019482067178466251 0.1107491432724047 0 0.02108550348152554 0.10082233348119581 0 0.0092582498306486675 0.1020209346744549 0 -0.0040597014752050652 0.1051126182356364 0 0.0051087594610210148 0.080527692295617709 0 0.0092582498306486675 0.1020209346744549 0 0.019482067178466251 0.1107491432724047 0 0.0092582498306486675 0.1020209346744549 0 0.0097761010461718117 0.1150243840307837 0 -0.0052228475358298988 0.1187351519746004 0 0.0092582498306486675 0.1020209346744549 0 -0.0052228475358298988 0.1187351519746004 0 0.0092582498306486675 0.1020209346744549 0 0.0097761010461718117 0.1150243840307837 0 0.019482067178466251 0.1107491432724047 0 0.017356945103072018 0.1204998149293544 0 0.0097761010461718117 0.1150243840307837 0 0.017356945103072018 0.1204998149293544 0 0.0081407562022233586 0.1245196413435004 0 0.017356945103072018 0.1204998149293544 0 0.0097761010461718117 0.1150243840307837 0 0.0081407562022233586 0.1245196413435004 0 -0.0052228475358298988 0.1187351519746004 0 0.0097761010461718117 0.1150243840307837 0 0.0081407562022233586 0.1245196413435004 0 -0.0052228475358298988 0.1187351519746004 0 0.0081407562022233586 0.1245196413435004 0 -0.015783289274076458 0.13495459563681389 0 0.0081407562022233586 0.1245196413435004 0 0.01185912902997375 0.14130758542593569 0 0.017356945103072018 0.1204998149293544 0 0.0081407562022233586 0.1245196413435004 0 0.028136896369567631 0.1331750506540591 0 0.0081407562022233586 0.1245196413435004 0 0.028136896369567631 0.1331750506540591 0 0.0081407562022233586 0.1245196413435004 0 0.028136896369567631 0.1331750506540591 0 0.01185912902997375 0.14130758542593569 0 0.028136896369567631 0.1331750506540591 0 0.0267736462585265 0.15269096182544131 0 0.035919394343652343 0.14075559589415579 0 0.028136896369567631 0.1331750506540591 0 0.0267736462585265 0.15269096182544131 0 0.01185912902997375 0.14130758542593569 0 0.0267736462585265 0.15269096182544131 0 0.001788155555331062 0.1557637096651584 0 0.01185912902997375 0.14130758542593569 0 0.001788155555331062 0.1557637096651584 0 0.00061104658230836653 0.17769045695541219 0 0.019359600384737739 0.17657282369350361 0 0.001788155555331062 0.1557637096651584 0 0.019359600384737739 0.17657282369350361 0 0.00061104658230836653 0.17769045695541219 0 0.019359600384737739 0.17657282369350361 0 0.017852612557627559 0.19656860209324539 0 0.019359600384737739 0.17657282369350361 0 0.036931045214144441 0.19738193772184889 0 0.0267736462585265 0.15269096182544131 0 0.001788155555331062 0.1557637096651584 0 0.019359600384737739 0.17657282369350361 0 0.0267736462585265 0.15269096182544131 0 0.019359600384737739 0.17657282369350361 0 0.038399134829123632 0.17159850230738899 0 0.0267736462585265 0.15269096182544131 0 0.038399134829123632 0.17159850230738899 0 0.048512351408483409 0.1492324791834117 0 0.019359600384737739 0.17657282369350361 0 0.038399134829123632 0.17159850230738899 0 0.036931045214144441 0.19738193772184889 0 0.038399134829123632 0.17159850230738899 0 0.053915020648589329 0.181809847856817 0 0.036931045214144441 0.19738193772184889 0 0.053915020648589329 0.181809847856817 0 0.056298621576963533 0.16595151756685289 0 0.075151164334765874 0.17578253529346821 0 0.038399134829123632 0.17159850230738899 0 0.053915020648589329 0.181809847856817 0 0.056298621576963533 0.16595151756685289 0 0.038399134829123632 0.17159850230738899 0 0.056298621576963533 0.16595151756685289 0 0.048512351408483409 0.1492324791834117 0 0.048512351408483409 0.1492324791834117 0 0.055211699142625699 0.13746009370018761 0 0.065804768788039439 0.14890275988831639 0 0.056298621576963533 0.16595151756685289 0 0.048512351408483409 0.1492324791834117 0 0.065804768788039439 0.14890275988831639 0 0.048512351408483409 0.1492324791834117 0 0.055211699142625699 0.13746009370018761 0 0.049904412172306151 0.13036597214331841 0 0.056458373241313059 0.1220229844831647 0 0.059536333892403683 0.1154697352345713 0 0.070822549389301243 0.1380046816891726 0 0.056458373241313059 0.1220229844831647 0 0.055211699142625699 0.13746009370018761 0 0.065804768788039439 0.14890275988831639 0 0.056458373241313059 0.1220229844831647 0 0.065804768788039439 0.14890275988831639 0 0.056458373241313059 0.1220229844831647 0 0.047823074661834691 0.1229743903388081 0 0.049904412172306151 0.13036597214331841 0 0.056458373241313059 0.1220229844831647 0 0.055211699142625699 0.13746009370018761 0 0.049904412172306151 0.13036597214331841 0 0.048512351408483409 0.1492324791834117 0 0.040254683338031831 0.12792389191371131 0 0.048512351408483409 0.1492324791834117 0 0.040254683338031831 0.12792389191371131 0 0.035919394343652343 0.14075559589415579 0 0.048512351408483409 0.1492324791834117 0 0.049904412172306151 0.13036597214331841 0 0.040254683338031831 0.12792389191371131 0 0.047823074661834691 0.1229743903388081 0 0.049904412172306151 0.13036597214331841 0 0.040254683338031831 0.12792389191371131 0 0.027418588341799281 0.11951208787462859 0 0.028136896369567631 0.1331750506540591 0 0.040254683338031831 0.12792389191371131 0 0.028136896369567631 0.1331750506540591 0 0.040254683338031831 0.12792389191371131 0 0.035919394343652343 0.14075559589415579 0 0.0267736462585265 0.15269096182544131 0 0.048512351408483409 0.1492324791834117 0 0.035919394343652343 0.14075559589415579 0 0.020197736684044801 0.2291273398277828 0 0.034114961552744377 0.23516115760169301 0 0.036501911092354018 0.25177276941539839 0 0.018629400856135309 0.24429501886194191 0 0.020197736684044801 0.2291273398277828 0 0.02692674034290404 0.25134916217479408 0 0.020197736684044801 0.2291273398277828 0 0.02692674034290404 0.25134916217479408 0 0.036501911092354018 0.25177276941539839 0 0.020197736684044801 0.2291273398277828 0 0.036501911092354018 0.25177276941539839 0 0.018629400856135309 0.24429501886194191 0 0.0082785766384091443 0.23618007315607359 0 0.020197736684044801 0.2291273398277828 0 0.018629400856135309 0.24429501886194191 0 0.012944211518790589 0.24639919126045251 0 0.0082785766384091443 0.23618007315607359 0 0.012944211518790589 0.24639919126045251 0 0.001894876929373096 0.24743045501984201 0 0.0082785766384091443 0.23618007315607359 0 -0.0070773620087705444 0.23295897308755351 0 0.001894876929373096 0.24743045501984201 0 0.0082785766384091443 0.23618007315607359 0 0.0082785766384091443 0.23618007315607359 0 0.0038866256090455522 0.2239579318999283 0 0.020197736684044801 0.2291273398277828 0 0.0038866256090455522 0.2239579318999283 0 0.020197736684044801 0.2291273398277828 0 0.003893562275735573 0.2064819102401671 0 -0.0070773620087705444 0.23295897308755351 0 0.0082785766384091443 0.23618007315607359 0 0.0038866256090455522 0.2239579318999283 0 0.01643925603633389 0.21561198758054059 0 0.035370792182188207 0.216260201755786 0 0.034114961552744377 0.23516115760169301 0 0.020197736684044801 0.2291273398277828 0 0.01643925603633389 0.21561198758054059 0 0.034114961552744377 0.23516115760169301 0 0.01643925603633389 0.21561198758054059 0 0.034114961552744377 0.23516115760169301 0 0.017852612557627559 0.19656860209324539 0 0.036931045214144441 0.19738193772184889 0 0.035370792182188207 0.216260201755786 0 0.01643925603633389 0.21561198758054059 0 0.017852612557627559 0.19656860209324539 0 0.035370792182188207 0.216260201755786 0 0.020197736684044801 0.2291273398277828 0 0.003893562275735573 0.2064819102401671 0 -0.0045317147067566524 0.21522543551468479 0 0.0038866256090455522 0.2239579318999283 0 0.003893562275735573 0.2064819102401671 0 -0.0012364494800765971 0.1960628175593882 0 0.01643925603633389 0.21561198758054059 0 -0.0012364494800765971 0.1960628175593882 0 0.01643925603633389 0.21561198758054059 0 0.003893562275735573 0.2064819102401671 0 0.020197736684044801 0.2291273398277828 0 0.01643925603633389 0.21561198758054059 0 0.003893562275735573 0.2064819102401671 0 -0.0012364494800765971 0.1960628175593882 0 0.01643925603633389 0.21561198758054059 0 0.017852612557627559 0.19656860209324539 0 -0.0012364494800765971 0.1960628175593882 0 0.00061104658230836653 0.17769045695541219 0 0.017852612557627559 0.19656860209324539 0 0.019359600384737739 0.17657282369350361 0 0.017852612557627559 0.19656860209324539 0 0.036931045214144441 0.19738193772184889 0 0.053915020648589329 0.181809847856817 0 0.036931045214144441 0.19738193772184889 0 0.062795137287949193 0.19833474639452611 0 0.036931045214144441 0.19738193772184889 0 0.054502490043551163 0.2181910517501941 0 0.062795137287949193 0.19833474639452611 0 0.036931045214144441 0.19738193772184889 0 0.054502490043551163 0.2181910517501941 0 0.036931045214144441 0.19738193772184889 0 0.054502490043551163 0.2181910517501941 0 0.035370792182188207 0.216260201755786 0 0.054502490043551163 0.2181910517501941 0 0.035370792182188207 0.216260201755786 0 0.034114961552744377 0.23516115760169301 0 0.054502490043551163 0.2181910517501941 0 0.055174909047777811 0.2396291133956362 0 0.034114961552744377 0.23516115760169301 0 0.054502490043551163 0.2181910517501941 0 0.055174909047777811 0.2396291133956362 0 0.072073934872957782 0.23900016577853919 0 0.055174909047777811 0.2396291133956362 0 0.034114961552744377 0.23516115760169301 0 0.051790667069154861 0.2547103276228454 0 0.055174909047777811 0.2396291133956362 0 0.051790667069154861 0.2547103276228454 0 0.063392491700480919 0.2510828642249095 0 0.034114961552744377 0.23516115760169301 0 0.036501911092354018 0.25177276941539839 0 0.051790667069154861 0.2547103276228454 0 0.034114961552744377 0.23516115760169301 0 0.051790667069154861 0.2547103276228454 0 0.072073934872957782 0.23900016577853919 0 0.093843955428218759 0.229542086103772 0 0.089645379702363526 0.25980927980688501 0 0.072073934872957782 0.23900016577853919 0 0.089645379702363526 0.25980927980688501 0 0.055174909047777811 0.2396291133956362 0 0.072073934872957782 0.23900016577853919 0 0.063392491700480919 0.2510828642249095 0 0.072073934872957782 0.23900016577853919 0 0.063392491700480919 0.2510828642249095 0 0.074261774750864804 0.25289133929391111 0 0.054502490043551163 0.2181910517501941 0 0.072073934872957782 0.23900016577853919 0 0.054502490043551163 0.2181910517501941 0 0.072073934872957782 0.23900016577853919 0 0.07691655231929137 0.22036312128655 0 0.072073934872957782 0.23900016577853919 0 0.07691655231929137 0.22036312128655 0 0.093843955428218759 0.229542086103772 0 0.084497559881492323 0.20266231069862009 0 0.1011551627426199 0.2154511434485995 0 0.093843955428218759 0.229542086103772 0 0.084497559881492323 0.20266231069862009 0 0.093843955428218759 0.229542086103772 0 0.07691655231929137 0.22036312128655 0 0.084497559881492323 0.20266231069862009 0 0.093843955428218759 0.229542086103772 0 0.07691655231929137 0.22036312128655 0 0.062795137287949193 0.19833474639452611 0 0.084497559881492323 0.20266231069862009 0 0.054502490043551163 0.2181910517501941 0 0.07691655231929137 0.22036312128655 0 0.062795137287949193 0.19833474639452611 0 0.062795137287949193 0.19833474639452611 0 0.084497559881492323 0.20266231069862009 0 0.075151164334765874 0.17578253529346821 0 0.084497559881492323 0.20266231069862009 0 0.075151164334765874 0.17578253529346821 0 0.084497559881492323 0.20266231069862009 0 0.10184565838461331 0.1924014028594688 0 0.093394980383096363 0.18307457459837531 0 0.084497559881492323 0.20266231069862009 0 0.10184565838461331 0.1924014028594688 0 0.10260278643249959 0.20376756124449391 0 0.10184565838461331 0.1924014028594688 0 0.1105875138732399 0.1994169567440035 0 0.10260278643249959 0.20376756124449391 0 0.10184565838461331 0.1924014028594688 0 0.1131184160342838 0.18994185980391479 0 0.1105875138732399 0.1994169567440035 0 0.10184565838461331 0.1924014028594688 0 0.1131184160342838 0.18994185980391479 0 0.1054525685194168 0.18020148819897211 0 0.1131184160342838 0.18994185980391479 0 0.1210814068145178 0.19423580856195369 0 0.1131184160342838 0.18994185980391479 0 0.1210814068145178 0.19423580856195369 0 0.1196286990311512 0.18236386641526309 0 0.1210814068145178 0.19423580856195369 0 0.11958782189190099 0.20227867846385961 0 0.13241563583181001 0.2003476577346209 0 0.1131184160342838 0.18994185980391479 0 0.1210814068145178 0.19423580856195369 0 0.11958782189190099 0.20227867846385961 0 0.1131184160342838 0.18994185980391479 0 0.11958782189190099 0.20227867846385961 0 0.1105875138732399 0.1994169567440035 0 0.11958782189190099 0.20227867846385961 0 0.1105875138732399 0.1994169567440035 0 0.11467542950451071 0.21015036581969679 0 0.11958782189190099 0.20227867846385961 0 0.11467542950451071 0.21015036581969679 0 0.12714211421566091 0.2115365522170618 0 0.11467542950451071 0.21015036581969679 0 0.1287590091161889 0.22454109023782651 0 0.12714211421566091 0.2115365522170618 0 0.11467542950451071 0.21015036581969679 0 0.1011551627426199 0.2154511434485995 0 0.1117838155087727 0.22779371718329239 0 0.084497559881492323 0.20266231069862009 0 0.10260278643249959 0.20376756124449391 0 0.1011551627426199 0.2154511434485995 0 0.1105875138732399 0.1994169567440035 0 0.11467542950451071 0.21015036581969679 0 0.10260278643249959 0.20376756124449391 0 0.11467542950451071 0.21015036581969679 0 0.10260278643249959 0.20376756124449391 0 0.1011551627426199 0.2154511434485995 0 0.1011551627426199 0.2154511434485995 0 0.093843955428218759 0.229542086103772 0 0.1117838155087727 0.22779371718329239 0 0.11467542950451071 0.21015036581969679 0 0.1117838155087727 0.22779371718329239 0 0.1287590091161889 0.22454109023782651 0 0.1117838155087727 0.22779371718329239 0 0.1287590091161889 0.22454109023782651 0 0.116065923487036 0.25155424759680489 0 0.093843955428218759 0.229542086103772 0 0.089645379702363526 0.25980927980688501 0 0.116065923487036 0.25155424759680489 0 0.093843955428218759 0.229542086103772 0 0.1117838155087727 0.22779371718329239 0 0.116065923487036 0.25155424759680489 0 0.085867858697711436 0.14453522140638461 0 0.070822549389301243 0.1380046816891726 0 0.082108764886198796 0.1605396281437739 0 0.085867858697711436 0.14453522140638461 0 0.082108764886198796 0.1605396281437739 0 0.098061838006449922 0.1524476624703702 0 0.085867858697711436 0.14453522140638461 0 0.084033960556429532 0.12884481400490949 0 0.098019367542785563 0.1407790739484335 0 0.085867858697711436 0.14453522140638461 0 0.084033960556429532 0.12884481400490949 0 0.070822549389301243 0.1380046816891726 0 0.071861500007931359 0.1232467005620789 0 0.059536333892403683 0.1154697352345713 0 0.070822549389301243 0.1380046816891726 0 0.059536333892403683 0.1154697352345713 0 0.070822549389301243 0.1380046816891726 0 0.056458373241313059 0.1220229844831647 0 0.070822549389301243 0.1380046816891726 0 0.065804768788039439 0.14890275988831639 0 0.071861500007931359 0.1232467005620789 0 0.084033960556429532 0.12884481400490949 0 0.070822549389301243 0.1380046816891726 0 0.070822549389301243 0.1380046816891726 0 0.082108764886198796 0.1605396281437739 0 0.070822549389301243 0.1380046816891726 0 0.065804768788039439 0.14890275988831639 0 0.082108764886198796 0.1605396281437739 0 0.056298621576963533 0.16595151756685289 0 0.065804768788039439 0.14890275988831639 0 0.075151164334765874 0.17578253529346821 0 0.065804768788039439 0.14890275988831639 0 0.075151164334765874 0.17578253529346821 0 0.082108764886198796 0.1605396281437739 0 0.065804768788039439 0.14890275988831639 0 0.075151164334765874 0.17578253529346821 0 0.053915020648589329 0.181809847856817 0 0.062795137287949193 0.19833474639452611 0 0.075151164334765874 0.17578253529346821 0 0.075151164334765874 0.17578253529346821 0 0.093394980383096363 0.18307457459837531 0 0.082108764886198796 0.1605396281437739 0 0.084497559881492323 0.20266231069862009 0 0.075151164334765874 0.17578253529346821 0 0.093394980383096363 0.18307457459837531 0 0.093394980383096363 0.18307457459837531 0 0.082108764886198796 0.1605396281437739 0 0.1017810834163356 0.16778327145988009 0 0.093394980383096363 0.18307457459837531 0 0.082108764886198796 0.1605396281437739 0 0.082108764886198796 0.1605396281437739 0 0.1017810834163356 0.16778327145988009 0 0.098061838006449922 0.1524476624703702 0 0.1017810834163356 0.16778327145988009 0 0.1094413004412432 0.1568441156191657 0 0.098061838006449922 0.1524476624703702 0 0.10184565838461331 0.1924014028594688 0 0.093394980383096363 0.18307457459837531 0 0.1054525685194168 0.18020148819897211 0 0.093394980383096363 0.18307457459837531 0 0.1017810834163356 0.16778327145988009 0 0.1054525685194168 0.18020148819897211 0 0.1017810834163356 0.16778327145988009 0 0.1054525685194168 0.18020148819897211 0 0.1143103312636523 0.17467474260035151 0 0.1131184160342838 0.18994185980391479 0 0.1132877880089454 0.18182979361660931 0 0.1196286990311512 0.18236386641526309 0 0.1131184160342838 0.18994185980391479 0 0.1054525685194168 0.18020148819897211 0 0.1132877880089454 0.18182979361660931 0 0.1054525685194168 0.18020148819897211 0 0.1132877880089454 0.18182979361660931 0 0.1143103312636523 0.17467474260035151 0 0.1132877880089454 0.18182979361660931 0 0.1143103312636523 0.17467474260035151 0 0.1196286990311512 0.18236386641526309 0 0.1143103312636523 0.17467474260035151 0 0.1229466648353691 0.17360959233997481 0 0.1196286990311512 0.18236386641526309 0 0.1229466648353691 0.17360959233997481 0 0.1196286990311512 0.18236386641526309 0 0.1315359285025598 0.17914174819028489 0 0.1210814068145178 0.19423580856195369 0 0.1196286990311512 0.18236386641526309 0 0.1315359285025598 0.17914174819028489 0 0.1017810834163356 0.16778327145988009 0 0.1143103312636523 0.17467474260035151 0 0.11826309888899959 0.1638296446882945 0 0.1017810834163356 0.16778327145988009 0 0.1094413004412432 0.1568441156191657 0 0.11826309888899959 0.1638296446882945 0 0.1094413004412432 0.1568441156191657 0 0.11826309888899959 0.1638296446882945 0 0.12116198843957229 0.15461983439099389 0 0.1143103312636523 0.17467474260035151 0 0.1229466648353691 0.17360959233997481 0 0.11826309888899959 0.1638296446882945 0 0.1229466648353691 0.17360959233997481 0 0.11826309888899959 0.1638296446882945 0 0.1286748755814317 0.16568949079043779 0 0.11826309888899959 0.1638296446882945 0 0.12116198843957229 0.15461983439099389 0 0.1286748755814317 0.16568949079043779 0 0.12116198843957229 0.15461983439099389 0 0.1235319134973574 0.14279740261083959 0 0.11069945258584669 0.14552439304262721 0 0.1094413004412432 0.1568441156191657 0 0.12116198843957229 0.15461983439099389 0 0.11069945258584669 0.14552439304262721 0 0.1094413004412432 0.1568441156191657 0 0.11069945258584669 0.14552439304262721 0 0.098061838006449922 0.1524476624703702 0 0.11069945258584669 0.14552439304262721 0 0.098019367542785563 0.1407790739484335 0 0.098061838006449922 0.1524476624703702 0 0.085867858697711436 0.14453522140638461 0 0.098019367542785563 0.1407790739484335 0 0.098061838006449922 0.1524476624703702 0 0.084033960556429532 0.12884481400490949 0 0.1117522404438802 0.12667258555115829 0 0.094862282777670462 0.1196438628042634 0 0.084033960556429532 0.12884481400490949 0 0.1117522404438802 0.12667258555115829 0 0.084033960556429532 0.12884481400490949 0 0.098019367542785563 0.1407790739484335 0 0.1117522404438802 0.12667258555115829 0 0.11069945258584669 0.14552439304262721 0 0.098019367542785563 0.1407790739484335 0 0.1117522404438802 0.12667258555115829 0 0.1235319134973574 0.14279740261083959 0 0.11069945258584669 0.14552439304262721 0 0.1117522404438802 0.12667258555115829 0 0.1235319134973574 0.14279740261083959 0 0.1117522404438802 0.12667258555115829 0 0.1338250830151082 0.13680555700437169 0 0.1117522404438802 0.12667258555115829 0 0.1338250830151082 0.13680555700437169 0 0.13947052033133081 0.1245003570974072 0 0.1117522404438802 0.12667258555115829 0 0.13947052033133081 0.1245003570974072 0 0.1338250830151082 0.13680555700437169 0 0.14773514824261011 0.13994704674368119 0 0.13947052033133081 0.1245003570974072 0 0.14773514824261011 0.13994704674368119 0 0.13947052033133081 0.1245003570974072 0 0.16718880021878149 0.12232812864365609 0 0.14773514824261011 0.13994704674368119 0 0.1492794596183103 0.15557552201751701 0 0.16307655427518189 0.1461583771030025 0 0.14773514824261011 0.13994704674368119 0 0.1492794596183103 0.15557552201751701 0 0.13636128964255501 0.15303395959459851 0 0.1235319134973574 0.14279740261083959 0 0.1338250830151082 0.13680555700437169 0 0.13636128964255501 0.15303395959459851 0 0.1338250830151082 0.13680555700437169 0 0.14773514824261011 0.13994704674368119 0 0.13636128964255501 0.15303395959459851 0 0.12116198843957229 0.15461983439099389 0 0.1235319134973574 0.14279740261083959 0 0.13636128964255501 0.15303395959459851 0 0.12116198843957229 0.15461983439099389 0 0.13636128964255501 0.15303395959459851 0 0.1286748755814317 0.16568949079043779 0 0.13636128964255501 0.15303395959459851 0 0.1286748755814317 0.16568949079043779 0 0.1402599975996246 0.1687496010839549 0 0.1286748755814317 0.16568949079043779 0 0.1402599975996246 0.1687496010839549 0 0.1315359285025598 0.17914174819028489 0 0.1210814068145178 0.19423580856195369 0 0.1315359285025598 0.17914174819028489 0 0.14172685770208041 0.18088834424850889 0 0.1229466648353691 0.17360959233997481 0 0.1286748755814317 0.16568949079043779 0 0.1315359285025598 0.17914174819028489 0 0.1402599975996246 0.1687496010839549 0 0.1315359285025598 0.17914174819028489 0 0.14172685770208041 0.18088834424850889 0 0.1315359285025598 0.17914174819028489 0 0.14172685770208041 0.18088834424850889 0 0.14172685770208041 0.18088834424850889 0 0.1589643083315804 0.1699886255623487 0 0.15664227980061579 0.1834446584897341 0 0.14172685770208041 0.18088834424850889 0 0.1589643083315804 0.1699886255623487 0 0.1402599975996246 0.1687496010839549 0 0.14172685770208041 0.18088834424850889 0 0.1589643083315804 0.1699886255623487 0 0.14172685770208041 0.18088834424850889 0 0.15664227980061579 0.1834446584897341 0 0.14735069213281321 0.19092796682168489 0 0.14172685770208041 0.18088834424850889 0 0.15664227980061579 0.1834446584897341 0 0.1492794596183103 0.15557552201751701 0 0.1402599975996246 0.1687496010839549 0 0.1589643083315804 0.1699886255623487 0 0.1492794596183103 0.15557552201751701 0 0.13636128964255501 0.15303395959459851 0 0.1402599975996246 0.1687496010839549 0 0.1492794596183103 0.15557552201751701 0 0.1589643083315804 0.1699886255623487 0 0.16307655427518189 0.1461583771030025 0 0.1589643083315804 0.1699886255623487 0 0.1832181015668064 0.15465227861531949 0 0.16307655427518189 0.1461583771030025 0 0.1589643083315804 0.1699886255623487 0 0.16307655427518189 0.1461583771030025 0 0.1589643083315804 0.1699886255623487 0 0.1832181015668064 0.15465227861531949 0 0.1589643083315804 0.1699886255623487 0 0.15664227980061579 0.1834446584897341 0 0.17367876449497299 0.17356388092826039 0 0.15664227980061579 0.1834446584897341 0 0.17803712215301101 0.18711146321258301 0 0.15664227980061579 0.1834446584897341 0 0.17367876449497299 0.17356388092826039 0 0.17803712215301101 0.18711146321258301 0 0.1589643083315804 0.1699886255623487 0 0.15664227980061579 0.1834446584897341 0 0.17367876449497299 0.17356388092826039 0 0.17803712215301101 0.18711146321258301 0 0.1915320106228488 0.17262237876131631 0 0.1589643083315804 0.1699886255623487 0 0.17367876449497299 0.17356388092826039 0 0.1832181015668064 0.15465227861531949 0 0.17367876449497299 0.17356388092826039 0 0.1832181015668064 0.15465227861531949 0 0.1915320106228488 0.17262237876131631 0 0.1832181015668064 0.15465227861531949 0 0.18154761934540289 0.13534417850528041 0 0.16307655427518189 0.1461583771030025 0 0.18154761934540289 0.13534417850528041 0 0.19370351113240411 0.1202502215829211 0 0.16718880021878149 0.12232812864365609 0 0.16307655427518189 0.1461583771030025 0 0.16718880021878149 0.12232812864365609 0 0.14773514824261011 0.13994704674368119 0 0.16307655427518189 0.1461583771030025 0 0.16718880021878149 0.12232812864365609 0 0.18154761934540289 0.13534417850528041 0 0.16307655427518189 0.1461583771030025 0 0.16718880021878149 0.12232812864365609 0 0.14248646727170791 0.24329921538672239 0 0.16890701105638031 0.23504418317664161 0 0.14248646727170791 0.24329921538672239 0 0.116065923487036 0.25155424759680489 0 0.14248646727170791 0.24329921538672239 0 0.1287590091161889 0.22454109023782651 0 0.116065923487036 0.25155424759680489 0 0.14248646727170791 0.24329921538672239 0 0.1287590091161889 0.22454109023782651 0 0.14216045677169509 0.2226427774354276 0 0.1287590091161889 0.22454109023782651 0 0.14216045677169509 0.2226427774354276 0 0.13903299807830019 0.21154409335764149 0 0.14248646727170791 0.24329921538672239 0 0.14216045677169509 0.2226427774354276 0 0.16890701105638031 0.23504418317664161 0 0.14216045677169509 0.2226427774354276 0 0.1513137794066001 0.21432303737238931 0 0.16890701105638031 0.23504418317664161 0 0.15183105921464751 0.210852851725322 0 0.13241563583181001 0.2003476577346209 0 0.15183105921464751 0.210852851725322 0 0.13903299807830019 0.21154409335764149 0 0.13241563583181001 0.2003476577346209 0 0.1513137794066001 0.21432303737238931 0 0.15183105921464751 0.210852851725322 0 0.14522842943996589 0.21534193400985699 0 0.1513137794066001 0.21432303737238931 0 0.15183105921464751 0.210852851725322 0 0.15183105921464751 0.210852851725322 0 0.14522842943996589 0.21534193400985699 0 0.13903299807830019 0.21154409335764149 0 0.14216045677169509 0.2226427774354276 0 0.1513137794066001 0.21432303737238931 0 0.14522842943996589 0.21534193400985699 0 0.14216045677169509 0.2226427774354276 0 0.14522842943996589 0.21534193400985699 0 0.13903299807830019 0.21154409335764149 0 0.1287590091161889 0.22454109023782651 0 0.13903299807830019 0.21154409335764149 0 0.12714211421566091 0.2115365522170618 0 0.11958782189190099 0.20227867846385961 0 0.12714211421566091 0.2115365522170618 0 0.13241563583181001 0.2003476577346209 0 0.13903299807830019 0.21154409335764149 0 0.12714211421566091 0.2115365522170618 0 0.13241563583181001 0.2003476577346209 0 0.1210814068145178 0.19423580856195369 0 0.13241563583181001 0.2003476577346209 0 0.13808072668616231 0.19149491569441959 0 0.1210814068145178 0.19423580856195369 0 0.14172685770208041 0.18088834424850889 0 0.13808072668616231 0.19149491569441959 0 0.1210814068145178 0.19423580856195369 0 0.14172685770208041 0.18088834424850889 0 0.1210814068145178 0.19423580856195369 0 0.13241563583181001 0.2003476577346209 0 0.15664227980061579 0.1834446584897341 0 0.15183105921464751 0.210852851725322 0 0.14735069213281321 0.19092796682168489 0 0.14172685770208041 0.18088834424850889 0 0.13808072668616231 0.19149491569441959 0 0.14735069213281321 0.19092796682168489 0 0.15183105921464751 0.210852851725322 0 0.13808072668616231 0.19149491569441959 0 0.14735069213281321 0.19092796682168489 0 0.15664227980061579 0.1834446584897341 0 0.15183105921464751 0.210852851725322 0 0.15183105921464751 0.210852851725322 0 0.13241563583181001 0.2003476577346209 0 0.13808072668616231 0.19149491569441959 0 0.15183105921464751 0.210852851725322 0 0.13808072668616231 0.19149491569441959 0 0.15664227980061579 0.1834446584897341 0 0.17803712215301101 0.18711146321258301 0 0.17078007948547791 0.20461318166966591 0 0.15664227980061579 0.1834446584897341 0 0.15183105921464751 0.210852851725322 0 0.17078007948547791 0.20461318166966591 0 0.17803712215301101 0.18711146321258301 0 0.18699821765939811 0.20575379358823331 0 0.17078007948547791 0.20461318166966591 0 0.18699821765939811 0.20575379358823331 0 0.18150256540618689 0.21619068467845909 0 0.17078007948547791 0.20461318166966591 0 0.18150256540618689 0.21619068467845909 0 0.17078007948547791 0.20461318166966591 0 0.1696832039875637 0.2204437538389574 0 0.15183105921464751 0.210852851725322 0 0.1696832039875637 0.2204437538389574 0 0.15183105921464751 0.210852851725322 0 0.17078007948547791 0.20461318166966591 0 0.1696832039875637 0.2204437538389574 0 0.15183105921464751 0.210852851725322 0 0.16890701105638031 0.23504418317664161 0 0.15183105921464751 0.210852851725322 0 0.1696832039875637 0.2204437538389574 0 0.16890701105638031 0.23504418317664161 0 0.1513137794066001 0.21432303737238931 0 0.15183105921464751 0.210852851725322 0 0.16890701105638031 0.23504418317664161 0 0.1696832039875637 0.2204437538389574 0 0.1730962958839812 0.23373525170759399 0 0.16890701105638031 0.23504418317664161 0 0.18150256540618689 0.21619068467845909 0 0.1696832039875637 0.2204437538389574 0 0.1874551123034256 0.23002704556275291 0 0.1696832039875637 0.2204437538389574 0 0.1874551123034256 0.23002704556275291 0 0.1730962958839812 0.23373525170759399 0 0.1696832039875637 0.2204437538389574 0 0.1874551123034256 0.23002704556275291 0 0.16890701105638031 0.23504418317664161 0 0.18564289691528729 0.25868749876629671 0 0.1821848497420967 0.24129823675235251 0 0.16890701105638031 0.23504418317664161 0 0.18564289691528729 0.25868749876629671 0 0.1730962958839812 0.23373525170759399 0 0.1821848497420967 0.24129823675235251 0 0.16890701105638031 0.23504418317664161 0 0.1874551123034256 0.23002704556275291 0 0.1730962958839812 0.23373525170759399 0 0.1821848497420967 0.24129823675235251 0 0.14248646727170791 0.24329921538672239 0 0.16890701105638031 0.23504418317664161 0 0.1631161995596529 0.25657386530356069 0 0.1730962958839812 0.23373525170759399 0 0.16890701105638031 0.23504418317664161 0 0.2052270206192876 0.23961033728654851 0 0.2245441737887168 0.23093760545441711 0 0.21458810326103989 0.25029177234766842 0 0.2052270206192876 0.23961033728654851 0 0.2050239072751949 0.2492833193895482 0 0.21458810326103989 0.25029177234766842 0 0.2052270206192876 0.23961033728654851 0 0.2050239072751949 0.2492833193895482 0 0.1956251304139873 0.24830732682566101 0 0.1874551123034256 0.23002704556275291 0 0.1821848497420967 0.24129823675235251 0 0.1956251304139873 0.24830732682566101 0 0.1874551123034256 0.23002704556275291 0 0.2052270206192876 0.23961033728654851 0 0.1821848497420967 0.24129823675235251 0 0.1956251304139873 0.24830732682566101 0 0.18564289691528729 0.25868749876629671 0 0.1874551123034256 0.23002704556275291 0 0.2052270206192876 0.23961033728654851 0 0.1956251304139873 0.24830732682566101 0 0.1874551123034256 0.23002704556275291 0 0.2052270206192876 0.23961033728654851 0 0.20110338325899621 0.22697869990708769 0 0.18150256540618689 0.21619068467845909 0 0.1874551123034256 0.23002704556275291 0 0.19422843088031849 0.2167901493339745 0 0.1874551123034256 0.23002704556275291 0 0.20110338325899621 0.22697869990708769 0 0.19422843088031849 0.2167901493339745 0 0.20110338325899621 0.22697869990708769 0 0.2086865974780466 0.21738525977654841 0 0.19422843088031849 0.2167901493339745 0 0.2052270206192876 0.23961033728654851 0 0.21155197229915221 0.22775520817690251 0 0.2245441737887168 0.23093760545441711 0 0.20110338325899621 0.22697869990708769 0 0.21155197229915221 0.22775520817690251 0 0.2086865974780466 0.21738525977654841 0 0.2052270206192876 0.23961033728654851 0 0.20110338325899621 0.22697869990708769 0 0.21155197229915221 0.22775520817690251 0 0.21155197229915221 0.22775520817690251 0 0.2086865974780466 0.21738525977654841 0 0.22156171208109349 0.2232889965660497 0 0.211417792929007 0.20448623071467029 0 0.2086865974780466 0.21738525977654841 0 0.22411523440486891 0.2128525325182862 0 0.2086865974780466 0.21738525977654841 0 0.22411523440486891 0.2128525325182862 0 0.22156171208109349 0.2232889965660497 0 0.211417792929007 0.20448623071467029 0 0.2086865974780466 0.21738525977654841 0 0.19996516513116139 0.20542151256053021 0 0.2086865974780466 0.21738525977654841 0 0.19422843088031849 0.2167901493339745 0 0.19996516513116139 0.20542151256053021 0 0.18699821765939811 0.20575379358823331 0 0.18150256540618689 0.21619068467845909 0 0.19422843088031849 0.2167901493339745 0 0.18699821765939811 0.20575379358823331 0 0.19422843088031849 0.2167901493339745 0 0.19996516513116139 0.20542151256053021 0 0.18699821765939811 0.20575379358823331 0 0.19996516513116139 0.20542151256053021 0 0.19943196450540629 0.19077826793543179 0 0.17803712215301101 0.18711146321258301 0 0.19943196450540629 0.19077826793543179 0 0.17803712215301101 0.18711146321258301 0 0.18699821765939811 0.20575379358823331 0 0.19943196450540629 0.19077826793543179 0 0.211417792929007 0.20448623071467029 0 0.19943196450540629 0.19077826793543179 0 0.22082680685780151 0.19444507265828059 0 0.19943196450540629 0.19077826793543179 0 0.22082680685780151 0.19444507265828059 0 0.211417792929007 0.20448623071467029 0 0.19996516513116139 0.20542151256053021 0 0.19943196450540629 0.19077826793543179 0 0.22082680685780151 0.19444507265828059 0 0.2418323282778008 0.1922485172988235 0 0.23200417938957321 0.20455559625434991 0 0.22082680685780151 0.19444507265828059 0 0.2418323282778008 0.1922485172988235 0 0.2298041727050075 0.1787595393801808 0 0.2418323282778008 0.1922485172988235 0 0.24124234801782149 0.21867626254200909 0 0.2418323282778008 0.1922485172988235 0 0.24124234801782149 0.21867626254200909 0 0.25471258750952741 0.20148162901819469 0 0.2418323282778008 0.1922485172988235 0 0.24124234801782149 0.21867626254200909 0 0.23200417938957321 0.20455559625434991 0 0.24124234801782149 0.21867626254200909 0 0.25357276657721323 0.21641202867955539 0 0.25471258750952741 0.20148162901819469 0 0.24124234801782149 0.21867626254200909 0 0.22411523440486891 0.2128525325182862 0 0.2303270751280653 0.22194856436908961 0 0.211417792929007 0.20448623071467029 0 0.22082680685780151 0.19444507265828059 0 0.22411523440486891 0.2128525325182862 0 0.22082680685780151 0.19444507265828059 0 0.23200417938957321 0.20455559625434991 0 0.22411523440486891 0.2128525325182862 0 0.24124234801782149 0.21867626254200909 0 0.23200417938957321 0.20455559625434991 0 0.22411523440486891 0.2128525325182862 0 0.22411523440486891 0.2128525325182862 0 0.22156171208109349 0.2232889965660497 0 0.2303270751280653 0.22194856436908961 0 0.22156171208109349 0.2232889965660497 0 0.2245441737887168 0.23093760545441711 0 0.2301452193877111 0.22885480910105491 0 0.21155197229915221 0.22775520817690251 0 0.22156171208109349 0.2232889965660497 0 0.2245441737887168 0.23093760545441711 0 0.2301452193877111 0.22885480910105491 0 0.23408043491912681 0.23335190051361199 0 0.23787356880598759 0.22384871304106421 0 0.2301452193877111 0.22885480910105491 0 0.23408043491912681 0.23335190051361199 0 0.2258394828391487 0.23585902185418811 0 0.2245441737887168 0.23093760545441711 0 0.2301452193877111 0.22885480910105491 0 0.2258394828391487 0.23585902185418811 0 0.2301452193877111 0.22885480910105491 0 0.2303270751280653 0.22194856436908961 0 0.23787356880598759 0.22384871304106421 0 0.22156171208109349 0.2232889965660497 0 0.2301452193877111 0.22885480910105491 0 0.2303270751280653 0.22194856436908961 0 0.24124234801782149 0.21867626254200909 0 0.2303270751280653 0.22194856436908961 0 0.23787356880598759 0.22384871304106421 0 0.24124234801782149 0.21867626254200909 0 0.23787356880598759 0.22384871304106421 0 0.25357276657721323 0.21641202867955539 0 0.23408043491912681 0.23335190051361199 0 0.24868260911088891 0.2303107595792985 0 0.25357276657721323 0.21641202867955539 0 0.23408043491912681 0.23335190051361199 0 0.23787356880598759 0.22384871304106421 0 0.25357276657721323 0.21641202867955539 0 0.23408043491912681 0.23335190051361199 0 0.25357276657721323 0.21641202867955539 0 0.24868260911088891 0.2303107595792985 0 0.2392512687495113 0.23539683186585869 0 0.2471090749199483 0.2357199094212839 0 0.23408043491912681 0.23335190051361199 0 0.24868260911088891 0.2303107595792985 0 0.2392512687495113 0.23539683186585869 0 0.23408043491912681 0.23335190051361199 0 0.2356673672060029 0.23553231024254659 0 0.23369101455560959 0.23545012385447089 0 0.2356673672060029 0.23553231024254659 0 0.23652425047500741 0.24096462129343871 0 0.23369101455560959 0.23545012385447089 0 0.23652425047500741 0.24096462129343871 0 0.2392512687495113 0.23539683186585869 0 0.24523436150048811 0.24199469982198529 0 0.2356673672060029 0.23553231024254659 0 0.23652425047500741 0.24096462129343871 0 0.2392512687495113 0.23539683186585869 0 0.23408043491912681 0.23335190051361199 0 0.2356673672060029 0.23553231024254659 0 0.2392512687495113 0.23539683186585869 0 0.24523436150048811 0.24199469982198529 0 0.2471090749199483 0.2357199094212839 0 0.25452501640087027 0.2374112721999547 0 0.2392512687495113 0.23539683186585869 0 0.24523436150048811 0.24199469982198529 0 0.2471090749199483 0.2357199094212839 0 0.24523436150048811 0.24199469982198529 0 0.23995652529561701 0.25039133628829258 0 0.25404003316197471 0.25208422786308371 0 0.23652425047500741 0.24096462129343871 0 0.24523436150048811 0.24199469982198529 0 0.23995652529561701 0.25039133628829258 0 0.23652425047500741 0.24096462129343871 0 0.23169913173193779 0.25404958449575432 0 0.23995652529561701 0.25039133628829258 0 0.23369101455560959 0.23545012385447089 0 0.2170338530129477 0.25958452376210089 0 0.21458810326103989 0.25029177234766842 0 0.23408043491912681 0.23335190051361199 0 0.23369101455560959 0.23545012385447089 0 0.21458810326103989 0.25029177234766842 0 0.23408043491912681 0.23335190051361199 0 0.21458810326103989 0.25029177234766842 0 0.2245441737887168 0.23093760545441711 0 0.21458810326103989 0.25029177234766842 0 0.23408043491912681 0.23335190051361199 0 0.2258394828391487 0.23585902185418811 0 0.21458810326103989 0.25029177234766842 0 0.23369101455560959 0.23545012385447089 0 0.2170338530129477 0.25958452376210089 0 0.23169913173193779 0.25404958449575432 0 0.23652425047500741 0.24096462129343871 0 0.23369101455560959 0.23545012385447089 0 0.23169913173193779 0.25404958449575432 0 0.23369101455560959 0.23545012385447089 0 0.2170338530129477 0.25958452376210089 0 0.2245441737887168 0.23093760545441711 0 0.2258394828391487 0.23585902185418811 0 0.21458810326103989 0.25029177234766842 0 0.2074718948020329 0.13931593166829101 0 0.2035930282546865 0.1573108976369578 0 0.22801201431925219 0.15227861461809999 0 0.2074718948020329 0.13931593166829101 0 0.22815060196587239 0.13250420183309389 0 0.2202182220460269 0.1181723145221887 0 0.2074718948020329 0.13931593166829101 0 0.2202182220460269 0.1181723145221887 0 0.19370351113240411 0.1202502215829211 0 0.18154761934540289 0.13534417850528041 0 0.2074718948020329 0.13931593166829101 0 0.19370351113240411 0.1202502215829211 0 0.1832181015668064 0.15465227861531949 0 0.2074718948020329 0.13931593166829101 0 0.1832181015668064 0.15465227861531949 0 0.18154761934540289 0.13534417850528041 0 0.2074718948020329 0.13931593166829101 0 0.1832181015668064 0.15465227861531949 0 0.2074718948020329 0.13931593166829101 0 0.2035930282546865 0.1573108976369578 0 0.1832181015668064 0.15465227861531949 0 0.1915320106228488 0.17262237876131631 0 0.2035930282546865 0.1573108976369578 0 0.1915320106228488 0.17262237876131631 0 0.21309098299550949 0.1707274381193544 0 0.2035930282546865 0.1573108976369578 0 0.19943196450540629 0.19077826793543179 0 0.1915320106228488 0.17262237876131631 0 0.21309098299550949 0.1707274381193544 0 0.17803712215301101 0.18711146321258301 0 0.19943196450540629 0.19077826793543179 0 0.1915320106228488 0.17262237876131631 0 0.19943196450540629 0.19077826793543179 0 0.22082680685780151 0.19444507265828059 0 0.21309098299550949 0.1707274381193544 0 0.21309098299550949 0.1707274381193544 0 0.2035930282546865 0.1573108976369578 0 0.22801201431925219 0.15227861461809999 0 0.2298041727050075 0.1787595393801808 0 0.2424223085377801 0.16582077205563811 0 0.22801201431925219 0.15227861461809999 0 0.21309098299550949 0.1707274381193544 0 0.2298041727050075 0.1787595393801808 0 0.22801201431925219 0.15227861461809999 0 0.22082680685780151 0.19444507265828059 0 0.21309098299550949 0.1707274381193544 0 0.2298041727050075 0.1787595393801808 0 0.2418323282778008 0.1922485172988235 0 0.2424223085377801 0.16582077205563811 0 0.2418323282778008 0.1922485172988235 0 0.2424223085377801 0.16582077205563811 0 0.26032431562704572 0.18342712708893841 0 0.2418323282778008 0.1922485172988235 0 0.2298041727050075 0.1787595393801808 0 0.2424223085377801 0.16582077205563811 0 0.2424223085377801 0.16582077205563811 0 0.24301228879775941 0.13939302681245261 0 0.2424223085377801 0.16582077205563811 0 0.24301228879775941 0.13939302681245261 0 0.25486404381895789 0.1523024957907583 0 0.22801201431925219 0.15227861461809999 0 0.23648687609860089 0.13476882232929049 0 0.24301228879775941 0.13939302681245261 0 0.2424223085377801 0.16582077205563811 0 0.22801201431925219 0.15227861461809999 0 0.24301228879775941 0.13939302681245261 0 0.2074718948020329 0.13931593166829101 0 0.22801201431925219 0.15227861461809999 0 0.22815060196587239 0.13250420183309389 0 0.22815060196587239 0.13250420183309389 0 0.24420216851797599 0.1292372680552665 0 0.2202182220460269 0.1181723145221887 0 0.22801201431925219 0.15227861461809999 0 0.22815060196587239 0.13250420183309389 0 0.23648687609860089 0.13476882232929049 0 0.22815060196587239 0.13250420183309389 0 0.23648687609860089 0.13476882232929049 0 0.24420216851797599 0.1292372680552665 0 0.23648687609860089 0.13476882232929049 0 0.24301228879775941 0.13939302681245261 0 0.24420216851797599 0.1292372680552665 0 0.24646482385440791 0.1109165710353929 0 0.23770217468454991 0.11680213067385049 0 0.255186127323073 0.11543194682551421 0 0.24420216851797599 0.1292372680552665 0 0.23770217468454991 0.11680213067385049 0 0.255186127323073 0.11543194682551421 0 0.23770217468454991 0.11680213067385049 0 0.255186127323073 0.11543194682551421 0 0.23770217468454991 0.11680213067385049 0 0.24055722746134861 0.1095612663226197 0 0.23538797832625211 0.10692464088038291 0 0.24646482385440791 0.1109165710353929 0 0.23770217468454991 0.11680213067385049 0 0.24055722746134861 0.1095612663226197 0 0.24174744587836799 0.1033548466348798 0 0.22816008327650389 0.097918375238235045 0 0.24736227196270541 0.090270970101712061 0 0.22816008327650389 0.097918375238235045 0 0.24736227196270541 0.090270970101712061 0 0.24174744587836799 0.1033548466348798 0 0.24736227196270541 0.090270970101712061 0 0.25459763100830068 0.096141582858552177 0 0.24174744587836799 0.1033548466348798 0 0.25459763100830068 0.096141582858552177 0 0.24646482385440791 0.1109165710353929 0 0.24174744587836799 0.1033548466348798 0 0.25655208948606423 0.10927836717886751 0 0.24174744587836799 0.1033548466348798 0 0.25655208948606423 0.10927836717886751 0 0.24646482385440791 0.1109165710353929 0 0.24055722746134861 0.1095612663226197 0 0.24174744587836799 0.1033548466348798 0 0.23538797832625211 0.10692464088038291 0 0.24174744587836799 0.1033548466348798 0 0.22816008327650389 0.097918375238235045 0 0.24055722746134861 0.1095612663226197 0 0.23538797832625211 0.10692464088038291 0 0.24174744587836799 0.1033548466348798 0 0.23538797832625211 0.10692464088038291 0 0.24174744587836799 0.1033548466348798 0 0.24174744587836799 0.1033548466348798 0 0.22816008327650389 0.097918375238235045 0 0.23538797832625211 0.10692464088038291 0 0.22816008327650389 0.097918375238235045 0 0.22436085098549791 0.1097634104313145 0 0.23770217468454991 0.11680213067385049 0 0.2202182220460269 0.1181723145221887 0 0.23770217468454991 0.11680213067385049 0 0.2202182220460269 0.1181723145221887 0 0.22436085098549791 0.1097634104313145 0 0.24420216851797599 0.1292372680552665 0 0.23770217468454991 0.11680213067385049 0 0.2202182220460269 0.1181723145221887 0 0.24420216851797599 0.1292372680552665 0 0.2202182220460269 0.1181723145221887 0 0.23770217468454991 0.11680213067385049 0 0.23538797832625211 0.10692464088038291 0 0.22436085098549791 0.1097634104313145 0 0.2202182220460269 0.1181723145221887 0 0.20033579659415629 0.10899959084191641 0 0.19370351113240411 0.1202502215829211 0 0.2202182220460269 0.1181723145221887 0 0.20033579659415629 0.10899959084191641 0 0.2202182220460269 0.1181723145221887 0 0.19370351113240411 0.1202502215829211 0 0.2202182220460269 0.1181723145221887 0 0.22436085098549791 0.1097634104313145 0 0.20033579659415629 0.10899959084191641 0 0.22816008327650389 0.097918375238235045 0 0.22436085098549791 0.1097634104313145 0 0.20033579659415629 0.10899959084191641 0 0.22816008327650389 0.097918375238235045 0 0.20033579659415629 0.10899959084191641 0 0.2016134769563831 0.087296750559026068 0 0.22816008327650389 0.097918375238235045 0 0.20033579659415629 0.10899959084191641 0 0.20033579659415629 0.10899959084191641 0 0.18422746814952201 0.1154148446289336 0 0.1860496622757298 0.1024087067025775 0 0.20033579659415629 0.10899959084191641 0 0.2016134769563831 0.087296750559026068 0 0.1860496622757298 0.1024087067025775 0 0.20033579659415629 0.10899959084191641 0 0.1860496622757298 0.1024087067025775 0 0.20033579659415629 0.10899959084191641 0 0.19370351113240411 0.1202502215829211 0 0.18422746814952201 0.1154148446289336 0 0.20033579659415629 0.10899959084191641 0 0.18422746814952201 0.1154148446289336 0 0.19220101611619109 0.069455466931817506 0 0.2016134769563831 0.087296750559026068 0 0.22553753830923129 0.072562856517635971 0 0.19220101611619109 0.069455466931817506 0 0.22553753830923129 0.072562856517635971 0 0.20371280465575431 0.054854742933563613 0 0.19220101611619109 0.069455466931817506 0 0.2016134769563831 0.087296750559026068 0 0.17506687063626211 0.076675125879817507 0 0.2016134769563831 0.087296750559026068 0 0.17506687063626211 0.076675125879817507 0 0.2016134769563831 0.087296750559026068 0 0.1860496622757298 0.1024087067025775 0 0.17954517331912459 0.085943521096986275 0 0.22816008327650389 0.097918375238235045 0 0.2016134769563831 0.087296750559026068 0 0.22553753830923129 0.072562856517635971 0 0.22816008327650389 0.097918375238235045 0 0.2016134769563831 0.087296750559026068 0 0.22553753830923129 0.072562856517635971 0 0.20371280465575431 0.054854742933563613 0 0.22816008327650389 0.097918375238235045 0 0.22553753830923129 0.072562856517635971 0 0.24736227196270541 0.090270970101712061 0 0.22553753830923129 0.072562856517635971 0 0.24736227196270541 0.090270970101712061 0 0.22553753830923129 0.072562856517635971 0 0.24736227196270541 0.090270970101712061 0 0.24874122334595 0.07170785510379532 0 0.22553753830923129 0.072562856517635971 0 0.24874122334595 0.07170785510379532 0 0.24629062771517271 0.052820950830226497 0 0.24629062771517271 0.052820950830226497 0 0.22540450977275331 0.044226989078737088 0 0.24629062771517271 0.052820950830226497 0 0.2492733855269578 0.041579555173777823 0 0.22540450977275331 0.044226989078737088 0 0.2492733855269578 0.041579555173777823 0 0.23050941707716249 0.025621187905106171 0 0.2492733855269578 0.041579555173777823 0 0.22540450977275331 0.044226989078737088 0 0.23050941707716249 0.025621187905106171 0 0.22540450977275331 0.044226989078737088 0 0.23050941707716249 0.025621187905106171 0 0.21805144048265651 0.031797176764528597 0 0.22553753830923129 0.072562856517635971 0 0.24629062771517271 0.052820950830226497 0 0.22540450977275331 0.044226989078737088 0 0.23790413247208811 0.0091049515404343275 0 0.25322369798355371 0.0032948183560677501 0 0.2464198669495459 -0.012097030270161889 0 0.23790413247208811 0.0091049515404343275 0 0.25442723867738032 0.016379625870619269 0 0.25322369798355371 0.0032948183560677501 0 0.2492733855269578 0.041579555173777823 0 0.24818833723327199 0.02644705719899533 0 0.23050941707716249 0.025621187905106171 0 0.23790413247208811 0.0091049515404343275 0 0.24818833723327199 0.02644705719899533 0 0.25442723867738032 0.016379625870619269 0 0.23790413247208811 0.0091049515404343275 0 0.24818833723327199 0.02644705719899533 0 0.23050941707716249 0.025621187905106171 0 0.23050941707716249 0.025621187905106171 0 0.2117734432503762 0.02170750274702346 0 0.21805144048265651 0.031797176764528597 0 0.23050941707716249 0.025621187905106171 0 0.21174544862736719 0.0096628206364345465 0 0.23050941707716249 0.025621187905106171 0 0.22518260227175371 0.0072623370788317187 0 0.21174544862736719 0.0096628206364345465 0 0.23790413247208811 0.0091049515404343275 0 0.22518260227175371 0.0072623370788317187 0 0.2300866381754704 -0.0072438550720441714 0 0.23790413247208811 0.0091049515404343275 0 0.23050941707716249 0.025621187905106171 0 0.22518260227175371 0.0072623370788317187 0 0.21174544862736719 0.0096628206364345465 0 0.2117734432503762 0.02170750274702346 0 0.20589386385567829 -0.0063134785331596111 0 0.2117734432503762 0.02170750274702346 0 0.19985428483697371 0.01027601627170664 0 0.20589386385567829 -0.0063134785331596111 0 0.2117734432503762 0.02170750274702346 0 0.20589386385567829 -0.0063134785331596111 0 0.22518260227175371 0.0072623370788317187 0 0.21174544862736719 0.0096628206364345465 0 0.2185782736923042 -0.0038367730406402641 0 0.23050941707716249 0.025621187905106171 0 0.21174544862736719 0.0096628206364345465 0 0.2117734432503762 0.02170750274702346 0 0.2117734432503762 0.02170750274702346 0 0.19994459845139961 0.023663902980434019 0 0.19985428483697371 0.01027601627170664 0 0.2117734432503762 0.02170750274702346 0 0.21805144048265651 0.031797176764528597 0 0.20451839183033399 0.035633027327247678 0 0.2117734432503762 0.02170750274702346 0 0.19994459845139961 0.023663902980434019 0 0.20451839183033399 0.035633027327247678 0 0.19994459845139961 0.023663902980434019 0 0.20451839183033399 0.035633027327247678 0 0.1836322738879155 0.027039065575756291 0 0.19994459845139961 0.023663902980434019 0 0.19985428483697371 0.01027601627170664 0 0.1836322738879155 0.027039065575756291 0 0.19985428483697371 0.01027601627170664 0 0.20589386385567829 -0.0063134785331596111 0 0.18863989258252481 -0.001979820774580698 0 0.19985428483697371 0.01027601627170664 0 0.1836322738879155 0.027039065575756291 0 0.18863989258252481 -0.001979820774580698 0 0.22553753830923129 0.072562856517635971 0 0.22540450977275331 0.044226989078737088 0 0.20371280465575431 0.054854742933563613 0 0.22540450977275331 0.044226989078737088 0 0.20451839183033399 0.035633027327247678 0 0.22540450977275331 0.044226989078737088 0 0.21805144048265651 0.031797176764528597 0 0.20451839183033399 0.035633027327247678 0 0.22540450977275331 0.044226989078737088 0 0.20371280465575431 0.054854742933563613 0 0.20451839183033399 0.035633027327247678 0 0.20451839183033399 0.035633027327247678 0 0.1818880710022803 0.03714662934948755 0 0.1836322738879155 0.027039065575756291 0 0.20371280465575431 0.054854742933563613 0 0.20451839183033399 0.035633027327247678 0 0.1818880710022803 0.03714662934948755 0 0.20371280465575431 0.054854742933563613 0 0.1818880710022803 0.03714662934948755 0 0.20451839183033399 0.035633027327247678 0 0.1836322738879155 0.027039065575756291 0 0.20371280465575431 0.054854742933563613 0 0.17847747081927551 0.05691087761465332 0 0.1818880710022803 0.03714662934948755 0 0.19220101611619109 0.069455466931817506 0 0.20371280465575431 0.054854742933563613 0 0.17847747081927551 0.05691087761465332 0 0.17847747081927551 0.05691087761465332 0 0.1818880710022803 0.03714662934948755 0 0.17847747081927551 0.05691087761465332 0 0.1818880710022803 0.03714662934948755 0 0.1636569447874848 0.036789081642687432 0 0.1818880710022803 0.03714662934948755 0 0.1836322738879155 0.027039065575756291 0 0.1818880710022803 0.03714662934948755 0 0.1636569447874848 0.036789081642687432 0 0.1620242678869008 0.02102957209859084 0 0.17847747081927551 0.05691087761465332 0 0.1636569447874848 0.036789081642687432 0 0.15962551614652079 0.053115759904931073 0 0.17847747081927551 0.05691087761465332 0 0.15962551614652079 0.053115759904931073 0 0.16641746421004469 0.065589342706300277 0 0.15962551614652079 0.053115759904931073 0 0.15045482833334159 0.067212260357143019 0 0.16641746421004469 0.065589342706300277 0 0.1716695151525548 0.011722155214289249 0 0.17506184651935949 -0.0021247232161890161 0 0.18863989258252481 -0.001979820774580698 0 0.1836322738879155 0.027039065575756291 0 0.18863989258252481 -0.001979820774580698 0 0.1836322738879155 0.027039065575756291 0 0.1716695151525548 0.011722155214289249 0 0.18863989258252481 -0.001979820774580698 0 0.1818880710022803 0.03714662934948755 0 0.1730573255808272 0.02268781650565178 0 0.1620242678869008 0.02102957209859084 0 0.1818880710022803 0.03714662934948755 0 0.1620242678869008 0.02102957209859084 0 0.1730573255808272 0.02268781650565178 0 0.1836322738879155 0.027039065575756291 0 0.1716695151525548 0.011722155214289249 0 0.1730573255808272 0.02268781650565178 0 0.1836322738879155 0.027039065575756291 0 0.1818880710022803 0.03714662934948755 0 0.1730573255808272 0.02268781650565178 0 0.1836322738879155 0.027039065575756291 0 0.1636569447874848 0.036789081642687432 0 0.1620242678869008 0.02102957209859084 0 0.15032019737810451 0.03113296745297477 0 0.1730573255808272 0.02268781650565178 0 0.1620242678869008 0.02102957209859084 0 0.1716695151525548 0.011722155214289249 0 0.1620242678869008 0.02102957209859084 0 0.1716695151525548 0.011722155214289249 0 0.15871689523486121 0.010399441389301141 0 0.1716695151525548 0.011722155214289249 0 0.15871689523486121 0.010399441389301141 0 0.1628037813635097 0.0015330777282007481 0 0.15871689523486121 0.010399441389301141 0 0.1628037813635097 0.0015330777282007481 0 0.15453230216132671 0.0032055715019124438 0 0.1716695151525548 0.011722155214289249 0 0.1628037813635097 0.0015330777282007481 0 0.17506184651935949 -0.0021247232161890161 0 0.1620242678869008 0.02102957209859084 0 0.14216046477152491 0.0049125148476896544 0 0.15871689523486121 0.010399441389301141 0 0.14216046477152491 0.0049125148476896544 0 0.15453230216132671 0.0032055715019124438 0 0.14216046477152491 0.0049125148476896544 0 0.15453230216132671 0.0032055715019124438 0 0.15849764294065671 -0.0060544572746906826 0 0.1620242678869008 0.02102957209859084 0 0.15871689523486121 0.010399441389301141 0 0.14216046477152491 0.0049125148476896544 0 0.1620242678869008 0.02102957209859084 0 0.14216046477152491 0.0049125148476896544 0 0.1432298655490542 0.02239521632663263 0 0.1620242678869008 0.02102957209859084 0 0.1432298655490542 0.02239521632663263 0 0.15032019737810451 0.03113296745297477 0 0.1432298655490542 0.02239521632663263 0 0.15032019737810451 0.03113296745297477 0 0.1366405524080008 0.032741533152345258 0 0.1432298655490542 0.02239521632663263 0 0.12659142849079691 0.028091664155532971 0 0.1366405524080008 0.032741533152345258 0 0.14216046477152491 0.0049125148476896544 0 0.1432298655490542 0.02239521632663263 0 0.12659142849079691 0.028091664155532971 0 0.14216046477152491 0.0049125148476896544 0 0.12659142849079691 0.028091664155532971 0 0.1323442420055404 0.014884056975098 0 0.14216046477152491 0.0049125148476896544 0 0.12659142849079691 0.028091664155532971 0 0.11882011836095251 0.0065886106746579649 0 0.12659142849079691 0.028091664155532971 0 0.1323442420055404 0.014884056975098 0 0.12659142849079691 0.028091664155532971 0 0.1366405524080008 0.032741533152345258 0 0.11882011836095251 0.0065886106746579649 0 0.1323442420055404 0.014884056975098 0 0.13735218555535891 0.001011181807127467 0 0.1323442420055404 0.014884056975098 0 0.13735218555535891 0.001011181807127467 0 0.14216046477152491 0.0049125148476896544 0 0.1323442420055404 0.014884056975098 0 0.13735218555535891 0.001011181807127467 0 0.14216046477152491 0.0049125148476896544 0 0.13735218555535891 0.001011181807127467 0 0.15962551614652079 0.053115759904931073 0 0.1452456698728295 0.044396077507560729 0 0.15045482833334159 0.067212260357143019 0 0.1452456698728295 0.044396077507560729 0 0.12683439495817461 0.052003073372435288 0 0.15045482833334159 0.067212260357143019 0 0.1636569447874848 0.036789081642687432 0 0.15032019737810451 0.03113296745297477 0 0.1452456698728295 0.044396077507560729 0 0.1636569447874848 0.036789081642687432 0 0.15962551614652079 0.053115759904931073 0 0.1452456698728295 0.044396077507560729 0 0.1636569447874848 0.036789081642687432 0 0.1452456698728295 0.044396077507560729 0 0.15032019737810451 0.03113296745297477 0 0.1452456698728295 0.044396077507560729 0 0.1366405524080008 0.032741533152345258 0 0.1452456698728295 0.044396077507560729 0 0.13015300311198849 0.040381385354086502 0 0.12683439495817461 0.052003073372435288 0 0.1452456698728295 0.044396077507560729 0 0.1366405524080008 0.032741533152345258 0 0.13015300311198849 0.040381385354086502 0 0.12659142849079691 0.028091664155532971 0 0.1366405524080008 0.032741533152345258 0 0.13015300311198849 0.040381385354086502 0 0.12683439495817461 0.052003073372435288 0 0.13134854049252651 0.064566646620811727 0 0.15045482833334159 0.067212260357143019 0 0.1452456698728295 0.044396077507560729 0 0.12683439495817461 0.052003073372435288 0 0.12683439495817461 0.052003073372435288 0 0.15045482833334159 0.067212260357143019 0 0.1213053233293625 0.063977455960140386 0 0.12683439495817461 0.052003073372435288 0 0.13134854049252651 0.064566646620811727 0 0.13134854049252651 0.064566646620811727 0 0.12679961534922851 0.075073796793526271 0 0.15045482833334159 0.067212260357143019 0 0.1213053233293625 0.063977455960140386 0 0.13134854049252651 0.064566646620811727 0 0.12679961534922851 0.075073796793526271 0 0.12679961534922851 0.075073796793526271 0 0.15045482833334159 0.067212260357143019 0 0.1492815716532653 0.085445809678383625 0 0.1185648575779607 0.095458187827811403 0 0.12679961534922851 0.075073796793526271 0 0.13332649773741079 0.089989738391902788 0 0.1492815716532653 0.085445809678383625 0 0.13332649773741079 0.089989738391902788 0 0.13865994636918871 0.10398115926788989 0 0.12679961534922851 0.075073796793526271 0 0.1492815716532653 0.085445809678383625 0 0.12679961534922851 0.075073796793526271 0 0.1492815716532653 0.085445809678383625 0 0.13332649773741079 0.089989738391902788 0 0.123281054128593 0.11724462113534739 0 0.1185648575779607 0.095458187827811403 0 0.13865994636918871 0.10398115926788989 0 0.1185648575779607 0.095458187827811403 0 0.13332649773741079 0.089989738391902788 0 0.13865994636918871 0.10398115926788989 0 0.123281054128593 0.11724462113534739 0 0.13865994636918871 0.10398115926788989 0 0.13947052033133081 0.1245003570974072 0 0.13947052033133081 0.1245003570974072 0 0.15026369300765779 0.1129544164764977 0 0.16718880021878149 0.12232812864365609 0 0.13947052033133081 0.1245003570974072 0 0.16718880021878149 0.12232812864365609 0 0.13865994636918871 0.10398115926788989 0 0.13947052033133081 0.1245003570974072 0 0.15026369300765779 0.1129544164764977 0 0.1492815716532653 0.085445809678383625 0 0.13865994636918871 0.10398115926788989 0 0.15573550511132991 0.1010080208970377 0 0.13865994636918871 0.10398115926788989 0 0.15026369300765779 0.1129544164764977 0 0.15573550511132991 0.1010080208970377 0 0.15573550511132991 0.1010080208970377 0 0.17176352795730221 0.095817822563241214 0 0.16718880021878149 0.12232812864365609 0 0.17176352795730221 0.095817822563241214 0 0.16718880021878149 0.12232812864365609 0 0.1492815716532653 0.085445809678383625 0 0.15573550511132991 0.1010080208970377 0 0.17176352795730221 0.095817822563241214 0 0.15026369300765779 0.1129544164764977 0 0.15573550511132991 0.1010080208970377 0 0.16718880021878149 0.12232812864365609 0 0.16718880021878149 0.12232812864365609 0 0.18422746814952201 0.1154148446289336 0 0.17176352795730221 0.095817822563241214 0 0.16718880021878149 0.12232812864365609 0 0.18422746814952201 0.1154148446289336 0 0.19370351113240411 0.1202502215829211 0 0.16718880021878149 0.12232812864365609 0 0.19370351113240411 0.1202502215829211 0 0.16718880021878149 0.12232812864365609 0 0.18422746814952201 0.1154148446289336 0 0.17176352795730221 0.095817822563241214 0 0.18422746814952201 0.1154148446289336 0 0.1860496622757298 0.1024087067025775 0 0.17176352795730221 0.095817822563241214 0 0.1860496622757298 0.1024087067025775 0 0.17954517331912459 0.085943521096986275 0 0.17176352795730221 0.095817822563241214 0 0.1860496622757298 0.1024087067025775 0 0.2016134769563831 0.087296750559026068 0 0.17954517331912459 0.085943521096986275 0 0.17506687063626211 0.076675125879817507 0 0.17176352795730221 0.095817822563241214 0 0.17407526170850959 0.082421447341849294 0 0.17176352795730221 0.095817822563241214 0 0.17954517331912459 0.085943521096986275 0 0.17407526170850959 0.082421447341849294 0 0.17954517331912459 0.085943521096986275 0 0.17407526170850959 0.082421447341849294 0 0.17506687063626211 0.076675125879817507 0 0.17407526170850959 0.082421447341849294 0 0.17506687063626211 0.076675125879817507 0 0.17954517331912459 0.085943521096986275 0 0.17407526170850959 0.082421447341849294 0 0.17847747081927551 0.05691087761465332 0 0.17506687063626211 0.076675125879817507 0 0.19220101611619109 0.069455466931817506 0 0.17847747081927551 0.05691087761465332 0 0.17506687063626211 0.076675125879817507 0 0.17847747081927551 0.05691087761465332 0 0.17506687063626211 0.076675125879817507 0 0.16641746421004469 0.065589342706300277 0 0.17407526170850959 0.082421447341849294 0 0.17506687063626211 0.076675125879817507 0 0.16846263511482451 0.074032689774956653 0 0.15045482833334159 0.067212260357143019 0 0.16846263511482451 0.074032689774956653 0 0.16641746421004469 0.065589342706300277 0 0.17506687063626211 0.076675125879817507 0 0.16846263511482451 0.074032689774956653 0 0.16641746421004469 0.065589342706300277 0 0.15045482833334159 0.067212260357143019 0 0.17407526170850959 0.082421447341849294 0 0.16846263511482451 0.074032689774956653 0 0.17506687063626211 0.076675125879817507 0 0.16846263511482451 0.074032689774956653 0 0.15045482833334159 0.067212260357143019 0 0.17407526170850959 0.082421447341849294 0 0.1492815716532653 0.085445809678383625 0 0.17176352795730221 0.095817822563241214 0 0.1492815716532653 0.085445809678383625 0 0.17176352795730221 0.095817822563241214 0 0.17407526170850959 0.082421447341849294 0 0.15045482833334159 0.067212260357143019 0 0.1492815716532653 0.085445809678383625 0 0.17407526170850959 0.082421447341849294 0 0.094789198081262169 0.47221984895451657 0 0.09870107108427445 0.5 0 0.1248616532684987 0.47476888169724352 0 0.09870107108427445 0.5 0 0.1248616532684987 0.47476888169724352 0 0.1287333349596296 0.50000000000000233 0 0.1248616532684987 0.47476888169724352 0 0.1154926134483955 0.45328817880533262 0 0.094789198081262169 0.47221984895451657 0 0.1248616532684987 0.47476888169724352 0 0.1154926134483955 0.45328817880533262 0 0.1248616532684987 0.47476888169724352 0 0.1205619018159948 0.44674810255646558 0 0.1248616532684987 0.47476888169724352 0 0.1154926134483955 0.45328817880533262 0 0.1205619018159948 0.44674810255646558 0 0.1154926134483955 0.45328817880533262 0 0.106123573628292 0.43180747591342172 0 0.1154926134483955 0.45328817880533262 0 0.1205619018159948 0.44674810255646558 0 0.106123573628292 0.43180747591342172 0 0.1154926134483955 0.45328817880533262 0 0.096722182691352548 0.44869154901932268 0 0.106123573628292 0.43180747591342172 0 0.094789198081262169 0.47221984895451657 0 0.1154926134483955 0.45328817880533262 0 0.096722182691352548 0.44869154901932268 0 0.094789198081262169 0.47221984895451657 0 0.077453222292990773 0.45016302493177879 0 0.067202034968243438 0.47028323083424428 0 0.094789198081262169 0.47221984895451657 0 0.096722182691352548 0.44869154901932268 0 0.077453222292990773 0.45016302493177879 0 0.096722182691352548 0.44869154901932268 0 0.077453222292990773 0.45016302493177879 0 0.085233479690329184 0.42595657570789891 0 0.077453222292990773 0.45016302493177879 0 0.085233479690329184 0.42595657570789891 0 0.077453222292990773 0.45016302493177879 0 0.055846149836862702 0.43889490050586683 0 0.065639666334966471 0.42409002317344818 0 0.077453222292990773 0.45016302493177879 0 0.067202034968243438 0.47028323083424428 0 0.051776939420019832 0.45519588853091181 0 0.094789198081262169 0.47221984895451657 0 0.067202034968243438 0.47028323083424428 0 0.068668807208919325 0.5 0 0.094789198081262169 0.47221984895451657 0 0.09870107108427445 0.5 0 0.068668807208919325 0.5 0 0.068668807208919325 0.5 0 0.043814234576468783 0.4752156274217324 0 0.038636543333564137 0.5 0 0.067202034968243438 0.47028323083424428 0 0.068668807208919325 0.5 0 0.043814234576468783 0.4752156274217324 0 0.038636543333564137 0.5 0 0.0095498935665802413 0.47810272379952351 0 0.0086042794582089632 0.5 0 0.043814234576468783 0.4752156274217324 0 0.038636543333564137 0.5 0 0.0095498935665802413 0.47810272379952351 0 0.043814234576468783 0.4752156274217324 0 0.0095498935665802413 0.47810272379952351 0 0.02936257191825143 0.45548825099001988 0 -0.0044763741368290672 0.43313315307665529 0 0.006403582431216831 0.45126676372832991 0 0.01131617767293759 0.43066417693356068 0 0.006403582431216831 0.45126676372832991 0 0.024585063983693121 0.43937755350337049 0 0.01131617767293759 0.43066417693356068 0 -0.0062093312902834459 0.46527566221073008 0 0.0095498935665802413 0.47810272379952351 0 0.006403582431216831 0.45126676372832991 0 0.0095498935665802413 0.47810272379952351 0 0.006403582431216831 0.45126676372832991 0 0.02936257191825143 0.45548825099001988 0 0.02936257191825143 0.45548825099001988 0 0.024585063983693121 0.43937755350337049 0 0.039439570502417587 0.44016889882154447 0 0.006403582431216831 0.45126676372832991 0 0.02936257191825143 0.45548825099001988 0 0.024585063983693121 0.43937755350337049 0 0.02936257191825143 0.45548825099001988 0 0.039439570502417587 0.44016889882154447 0 0.051776939420019832 0.45519588853091181 0 0.043814234576468783 0.4752156274217324 0 0.02936257191825143 0.45548825099001988 0 0.051776939420019832 0.45519588853091181 0 0.067202034968243438 0.47028323083424428 0 0.043814234576468783 0.4752156274217324 0 0.051776939420019832 0.45519588853091181 0 0.039439570502417587 0.44016889882154447 0 0.051776939420019832 0.45519588853091181 0 0.055846149836862702 0.43889490050586683 0 0.077453222292990773 0.45016302493177879 0 0.051776939420019832 0.45519588853091181 0 0.055846149836862702 0.43889490050586683 0 0.055846149836862702 0.43889490050586683 0 0.044352211855280779 0.42435697566478181 0 0.065639666334966471 0.42409002317344818 0 0.054179592762823331 0.4124556941646933 0 0.065774511826563423 0.40583773171119408 0 0.065639666334966471 0.42409002317344818 0 0.054179592762823331 0.4124556941646933 0 0.044352211855280779 0.42435697566478181 0 0.042551786202842029 0.40583695196884878 0 0.054179592762823331 0.4124556941646933 0 0.044352211855280779 0.42435697566478181 0 0.065639666334966471 0.42409002317344818 0 0.054179592762823331 0.4124556941646933 0 0.052579787594463898 0.40215678830519391 0 0.065774511826563423 0.40583773171119408 0 0.054179592762823331 0.4124556941646933 0 0.042551786202842029 0.40583695196884878 0 0.052579787594463898 0.40215678830519391 0 0.031615607723292562 0.41237007764590089 0 0.044352211855280779 0.42435697566478181 0 0.042551786202842029 0.40583695196884878 0 0.031615607723292562 0.41237007764590089 0 0.044352211855280779 0.42435697566478181 0 0.029348552931666359 0.42650056435783129 0 0.039439570502417587 0.44016889882154447 0 0.055846149836862702 0.43889490050586683 0 0.044352211855280779 0.42435697566478181 0 0.039439570502417587 0.44016889882154447 0 0.044352211855280779 0.42435697566478181 0 0.029348552931666359 0.42650056435783129 0 0.024585063983693121 0.43937755350337049 0 0.039439570502417587 0.44016889882154447 0 0.029348552931666359 0.42650056435783129 0 0.024585063983693121 0.43937755350337049 0 0.029348552931666359 0.42650056435783129 0 0.01131617767293759 0.43066417693356068 0 0.029348552931666359 0.42650056435783129 0 0.019479081626689841 0.41692126840220728 0 0.01131617767293759 0.43066417693356068 0 0.031615607723292562 0.41237007764590089 0 0.029348552931666359 0.42650056435783129 0 0.019479081626689841 0.41692126840220728 0 0.031615607723292562 0.41237007764590089 0 0.019479081626689841 0.41692126840220728 0 0.02210553341445062 0.40298972327242938 0 0.019479081626689841 0.41692126840220728 0 0.0046995574085186929 0.41194005205042061 0 0.02210553341445062 0.40298972327242938 0 0.019479081626689841 0.41692126840220728 0 0.0046995574085186929 0.41194005205042061 0 0.01131617767293759 0.43066417693356068 0 -0.0044763741368290672 0.43313315307665529 0 0.0046995574085186929 0.41194005205042061 0 0.01131617767293759 0.43066417693356068 0 -0.0068648610501423502 0.39382000907293813 0 0.0053185270157129726 0.37689571945341471 0 0.0079727676898529512 0.39395805239723503 0 0.0053185270157129726 0.37689571945341471 0 0.0079727676898529512 0.39395805239723503 0 0.017055050774382831 0.3783760363496293 0 0.0053185270157129726 0.37689571945341471 0 0.017055050774382831 0.3783760363496293 0 0.014905446519761849 0.37011919055753012 0 -0.0068648610501423502 0.39382000907293813 0 0.0046995574085186929 0.41194005205042061 0 0.0079727676898529512 0.39395805239723503 0 0.0046995574085186929 0.41194005205042061 0 0.0079727676898529512 0.39395805239723503 0 0.02210553341445062 0.40298972327242938 0 0.0079727676898529512 0.39395805239723503 0 0.02210553341445062 0.40298972327242938 0 0.02735486101880703 0.39232044610694311 0 0.031615607723292562 0.41237007764590089 0 0.02210553341445062 0.40298972327242938 0 0.03492587150599015 0.39714318271575322 0 0.02210553341445062 0.40298972327242938 0 0.02735486101880703 0.39232044610694311 0 0.03492587150599015 0.39714318271575322 0 0.0079727676898529512 0.39395805239723503 0 0.02735486101880703 0.39232044610694311 0 0.033420514628485373 0.38302977191180709 0 0.017055050774382831 0.3783760363496293 0 0.033420514628485373 0.38302977191180709 0 0.023779055828078009 0.37097747554075361 0 0.0079727676898529512 0.39395805239723503 0 0.017055050774382831 0.3783760363496293 0 0.033420514628485373 0.38302977191180709 0 0.0079727676898529512 0.39395805239723503 0 0.033420514628485373 0.38302977191180709 0 0.02735486101880703 0.39232044610694311 0 0.032859848824407727 0.38560668074253002 0 0.033420514628485373 0.38302977191180709 0 0.02735486101880703 0.39232044610694311 0 0.032859848824407727 0.38560668074253002 0 0.032844630049655758 0.3911952656019041 0 0.033420514628485373 0.38302977191180709 0 0.040531910439000007 0.38820627445006711 0 0.055078026168592691 0.37372917012189599 0 0.033420514628485373 0.38302977191180709 0 0.055078026168592691 0.37372917012189599 0 0.032859848824407727 0.38560668074253002 0 0.033420514628485373 0.38302977191180709 0 0.032859848824407727 0.38560668074253002 0 0.040531910439000007 0.38820627445006711 0 0.032844630049655758 0.3911952656019041 0 0.032859848824407727 0.38560668074253002 0 0.033420514628485373 0.38302977191180709 0 0.040531910439000007 0.38820627445006711 0 0.031615607723292562 0.41237007764590089 0 0.03492587150599015 0.39714318271575322 0 0.042551786202842029 0.40583695196884878 0 0.040531910439000007 0.38820627445006711 0 0.03492587150599015 0.39714318271575322 0 0.032844630049655758 0.3911952656019041 0 0.02735486101880703 0.39232044610694311 0 0.03492587150599015 0.39714318271575322 0 0.032844630049655758 0.3911952656019041 0 0.040531910439000007 0.38820627445006711 0 0.03492587150599015 0.39714318271575322 0 0.044409534997012647 0.39663533348309749 0 0.040531910439000007 0.38820627445006711 0 0.044409534997012647 0.39663533348309749 0 0.05145831924276717 0.38983346997562462 0 0.044409534997012647 0.39663533348309749 0 0.042551786202842029 0.40583695196884878 0 0.052579787594463898 0.40215678830519391 0 0.03492587150599015 0.39714318271575322 0 0.044409534997012647 0.39663533348309749 0 0.042551786202842029 0.40583695196884878 0 0.052579787594463898 0.40215678830519391 0 0.065929237187869999 0.38841376689227869 0 0.065774511826563423 0.40583773171119408 0 0.044409534997012647 0.39663533348309749 0 0.052579787594463898 0.40215678830519391 0 0.05145831924276717 0.38983346997562462 0 0.052579787594463898 0.40215678830519391 0 0.05145831924276717 0.38983346997562462 0 0.065929237187869999 0.38841376689227869 0 0.05145831924276717 0.38983346997562462 0 0.065929237187869999 0.38841376689227869 0 0.055078026168592691 0.37372917012189599 0 0.040531910439000007 0.38820627445006711 0 0.05145831924276717 0.38983346997562462 0 0.055078026168592691 0.37372917012189599 0 0.065929237187869999 0.38841376689227869 0 0.07065435961583541 0.37741521318853999 0 0.055078026168592691 0.37372917012189599 0 0.065929237187869999 0.38841376689227869 0 0.07065435961583541 0.37741521318853999 0 0.084874637398179506 0.3830893474080016 0 0.065929237187869999 0.38841376689227869 0 0.084874637398179506 0.3830893474080016 0 0.078183007061163587 0.39730645121706609 0 0.084874637398179506 0.3830893474080016 0 0.09301373708766289 0.40175012648401748 0 0.1017514530376761 0.37456476915266362 0 0.084874637398179506 0.3830893474080016 0 0.1017514530376761 0.37456476915266362 0 0.089894590955766338 0.37016501712229671 0 0.084874637398179506 0.3830893474080016 0 0.09301373708766289 0.40175012648401748 0 0.084874637398179506 0.3830893474080016 0 0.09301373708766289 0.40175012648401748 0 0.078183007061163587 0.39730645121706609 0 0.09301373708766289 0.40175012648401748 0 0.078183007061163587 0.39730645121706609 0 0.0779125114683729 0.4107996813321716 0 0.065929237187869999 0.38841376689227869 0 0.078183007061163587 0.39730645121706609 0 0.065774511826563423 0.40583773171119408 0 0.078183007061163587 0.39730645121706609 0 0.065774511826563423 0.40583773171119408 0 0.0779125114683729 0.4107996813321716 0 0.065774511826563423 0.40583773171119408 0 0.0779125114683729 0.4107996813321716 0 0.065639666334966471 0.42409002317344818 0 0.0779125114683729 0.4107996813321716 0 0.065639666334966471 0.42409002317344818 0 0.085233479690329184 0.42595657570789891 0 0.077453222292990773 0.45016302493177879 0 0.065639666334966471 0.42409002317344818 0 0.085233479690329184 0.42595657570789891 0 0.09301373708766289 0.40175012648401748 0 0.085233479690329184 0.42595657570789891 0 0.09301373708766289 0.40175012648401748 0 0.0779125114683729 0.4107996813321716 0 0.085233479690329184 0.42595657570789891 0 0.09301373708766289 0.40175012648401748 0 0.085233479690329184 0.42595657570789891 0 0.096641093798834857 0.4103746730739769 0 0.096641093798834857 0.4103746730739769 0 0.106123573628292 0.43180747591342172 0 0.096641093798834857 0.4103746730739769 0 0.1162621503634904 0.41872732341568758 0 0.11303311796937431 0.39768424579749467 0 0.096641093798834857 0.4103746730739769 0 0.106123573628292 0.43180747591342172 0 0.1162621503634904 0.41872732341568758 0 0.096641093798834857 0.4103746730739769 0 0.1162621503634904 0.41872732341568758 0 0.085233479690329184 0.42595657570789891 0 0.096641093798834857 0.4103746730739769 0 0.106123573628292 0.43180747591342172 0 0.096722182691352548 0.44869154901932268 0 0.085233479690329184 0.42595657570789891 0 0.106123573628292 0.43180747591342172 0 0.1205619018159948 0.44674810255646558 0 0.1162621503634904 0.41872732341568758 0 0.1205619018159948 0.44674810255646558 0 0.106123573628292 0.43180747591342172 0 0.1162621503634904 0.41872732341568758 0 0.1162621503634904 0.41872732341568758 0 0.11303311796937431 0.39768424579749467 0 0.11303311796937431 0.39768424579749467 0 0.1231373165426977 0.3806134049577457 0 0.1271742827044339 0.39597619803598749 0 0.1162621503634904 0.41872732341568758 0 0.11303311796937431 0.39768424579749467 0 0.1271742827044339 0.39597619803598749 0 0.11303311796937431 0.39768424579749467 0 0.1098040855752573 0.37664116817930182 0 0.11303311796937431 0.39768424579749467 0 0.1098040855752573 0.37664116817930182 0 0.1231373165426977 0.3806134049577457 0 0.09301373708766289 0.40175012648401748 0 0.10162794664532369 0.38287681265592 0 0.1017514530376761 0.37456476915266362 0 0.11303311796937431 0.39768424579749467 0 0.1098040855752573 0.37664116817930182 0 0.10162794664532369 0.38287681265592 0 0.09301373708766289 0.40175012648401748 0 0.1017514530376761 0.37456476915266362 0 0.09301373708766289 0.40175012648401748 0 0.096641093798834857 0.4103746730739769 0 0.10162794664532369 0.38287681265592 0 0.096641093798834857 0.4103746730739769 0 0.10162794664532369 0.38287681265592 0 0.096641093798834857 0.4103746730739769 0 0.11303311796937431 0.39768424579749467 0 0.10162794664532369 0.38287681265592 0 0.09301373708766289 0.40175012648401748 0 0.096641093798834857 0.4103746730739769 0 0.10657505318114149 0.3555980905611088 0 0.1040837309638282 0.33936254988137232 0 0.10657505318114149 0.3555980905611088 0 0.096269577202366938 0.34885221845001108 0 0.090674694454237537 0.35844253683721511 0 0.10657505318114149 0.3555980905611088 0 0.1081370103155585 0.34698533999968961 0 0.1040837309638282 0.33936254988137232 0 0.10657505318114149 0.3555980905611088 0 0.096269577202366938 0.34885221845001108 0 0.1040837309638282 0.33936254988137232 0 0.10657505318114149 0.3555980905611088 0 0.1081370103155585 0.34698533999968961 0 0.1081370103155585 0.34698533999968961 0 0.1105857944332822 0.35159063999376577 0 0.10657505318114149 0.3555980905611088 0 0.1081370103155585 0.34698533999968961 0 0.1105857944332822 0.35159063999376577 0 0.10657505318114149 0.3555980905611088 0 0.097223947907205094 0.36469260341832099 0 0.090674694454237537 0.35844253683721511 0 0.1098040855752573 0.37664116817930182 0 0.10657505318114149 0.3555980905611088 0 0.1098040855752573 0.37664116817930182 0 0.10162794664532369 0.38287681265592 0 0.10657505318114149 0.3555980905611088 0 0.10657505318114149 0.3555980905611088 0 0.097223947907205094 0.36469260341832099 0 0.1017514530376761 0.37456476915266362 0 0.10162794664532369 0.38287681265592 0 0.10657505318114149 0.3555980905611088 0 0.10162794664532369 0.38287681265592 0 0.10657505318114149 0.3555980905611088 0 0.1017514530376761 0.37456476915266362 0 0.097223947907205094 0.36469260341832099 0 0.1017514530376761 0.37456476915266362 0 0.089894590955766338 0.37016501712229671 0 0.1231373165426977 0.3806134049577457 0 0.1176766025370503 0.36283148293627721 0 0.13271547193899449 0.36524458735671972 0 0.1098040855752573 0.37664116817930182 0 0.10657505318114149 0.3555980905611088 0 0.1176766025370503 0.36283148293627721 0 0.1098040855752573 0.37664116817930182 0 0.1231373165426977 0.3806134049577457 0 0.1176766025370503 0.36283148293627721 0 0.1176766025370503 0.36283148293627721 0 0.1232256624926347 0.35239419723674059 0 0.13271547193899449 0.36524458735671972 0 0.10657505318114149 0.3555980905611088 0 0.1176766025370503 0.36283148293627721 0 0.1105857944332822 0.35159063999376577 0 0.1176766025370503 0.36283148293627721 0 0.1232256624926347 0.35239419723674059 0 0.1105857944332822 0.35159063999376577 0 0.1081370103155585 0.34698533999968961 0 0.1105857944332822 0.35159063999376577 0 0.1168368962248217 0.34531303274388031 0 0.1232256624926347 0.35239419723674059 0 0.1105857944332822 0.35159063999376577 0 0.1168368962248217 0.34531303274388031 0 0.1232256624926347 0.35239419723674059 0 0.1168368962248217 0.34531303274388031 0 0.1260676383484185 0.3399282146226113 0 0.1081370103155585 0.34698533999968961 0 0.1173014636805894 0.33730338313169689 0 0.1117137236550247 0.32726307032677399 0 0.1081370103155585 0.34698533999968961 0 0.1117137236550247 0.32726307032677399 0 0.1168368962248217 0.34531303274388031 0 0.1173014636805894 0.33730338313169689 0 0.1260676383484185 0.3399282146226113 0 0.1173014636805894 0.33730338313169689 0 0.12375204985912221 0.32702725796552912 0 0.1260676383484185 0.3399282146226113 0 0.1173014636805894 0.33730338313169689 0 0.12375204985912221 0.32702725796552912 0 0.1117137236550247 0.32726307032677399 0 0.1081370103155585 0.34698533999968961 0 0.1168368962248217 0.34531303274388031 0 0.1173014636805894 0.33730338313169689 0 0.1117137236550247 0.32726307032677399 0 0.11529043699448981 0.30754080065385803 0 0.1117137236550247 0.32726307032677399 0 0.1095765413243488 0.31862098055757049 0 0.11529043699448981 0.30754080065385803 0 0.1214195525311879 0.31440901896845502 0 0.1117137236550247 0.32726307032677399 0 0.11529043699448981 0.30754080065385803 0 0.1214195525311879 0.31440901896845502 0 0.12375204985912221 0.32702725796552912 0 0.12817088130983889 0.317450689473041 0 0.1214195525311879 0.31440901896845502 0 0.12375204985912221 0.32702725796552912 0 0.1117137236550247 0.32726307032677399 0 0.1040837309638282 0.33936254988137232 0 0.090103400857782137 0.31307047550514489 0 0.1040837309638282 0.33936254988137232 0 0.1025673515982234 0.32948055280164651 0 0.090103400857782137 0.31307047550514489 0 0.10278173829001019 0.3206216626476312 0 0.1025673515982234 0.32948055280164651 0 0.090103400857782137 0.31307047550514489 0 0.1095765413243488 0.31862098055757049 0 0.10278173829001019 0.3206216626476312 0 0.099947674014671917 0.31467323404701991 0 0.1095765413243488 0.31862098055757049 0 0.099947674014671917 0.31467323404701991 0 0.09732687347400408 0.30507295899279041 0 0.1117137236550247 0.32726307032677399 0 0.1095765413243488 0.31862098055757049 0 0.10278173829001019 0.3206216626476312 0 0.1117137236550247 0.32726307032677399 0 0.10278173829001019 0.3206216626476312 0 0.1025673515982234 0.32948055280164651 0 0.10278173829001019 0.3206216626476312 0 0.099947674014671917 0.31467323404701991 0 0.090103400857782137 0.31307047550514489 0 0.096269577202366938 0.34885221845001108 0 0.1040837309638282 0.33936254988137232 0 0.085896102217652828 0.34083244099607402 0 0.1081370103155585 0.34698533999968961 0 0.1117137236550247 0.32726307032677399 0 0.1040837309638282 0.33936254988137232 0 0.1081370103155585 0.34698533999968961 0 0.1040837309638282 0.33936254988137232 0 0.1117137236550247 0.32726307032677399 0 0.1040837309638282 0.33936254988137232 0 0.1025673515982234 0.32948055280164651 0 0.1040837309638282 0.33936254988137232 0 0.1025673515982234 0.32948055280164651 0 0.1040837309638282 0.33936254988137232 0 0.085896102217652828 0.34083244099607402 0 0.090103400857782137 0.31307047550514489 0 0.085896102217652828 0.34083244099607402 0 0.090103400857782137 0.31307047550514489 0 0.073944851781294785 0.32640562720437011 0 0.073944851781294785 0.32640562720437011 0 0.05926959110604698 0.32438382341666039 0 0.066452600317618793 0.30933520022964911 0 0.090103400857782137 0.31307047550514489 0 0.073944851781294785 0.32640562720437011 0 0.066452600317618793 0.30933520022964911 0 0.068002564407373206 0.3444061958743222 0 0.05926959110604698 0.32438382341666039 0 0.085896102217652828 0.34083244099607402 0 0.073944851781294785 0.32640562720437011 0 0.068002564407373206 0.3444061958743222 0 0.073944851781294785 0.32640562720437011 0 0.068002564407373206 0.3444061958743222 0 0.05926959110604698 0.32438382341666039 0 0.068002564407373206 0.3444061958743222 0 0.081709153938225559 0.35166937446406898 0 0.076735537708699481 0.364428568331984 0 0.068002564407373206 0.3444061958743222 0 0.076735537708699481 0.364428568331984 0 0.068002564407373206 0.3444061958743222 0 0.076735537708699481 0.364428568331984 0 0.058880509289504487 0.35752542115937253 0 0.085896102217652828 0.34083244099607402 0 0.068002564407373206 0.3444061958743222 0 0.081709153938225559 0.35166937446406898 0 0.081709153938225559 0.35166937446406898 0 0.090674694454237537 0.35844253683721511 0 0.076735537708699481 0.364428568331984 0 0.096269577202366938 0.34885221845001108 0 0.081709153938225559 0.35166937446406898 0 0.090674694454237537 0.35844253683721511 0 0.096269577202366938 0.34885221845001108 0 0.085896102217652828 0.34083244099607402 0 0.081709153938225559 0.35166937446406898 0 0.084874637398179506 0.3830893474080016 0 0.089894590955766338 0.37016501712229671 0 0.076735537708699481 0.364428568331984 0 0.084874637398179506 0.3830893474080016 0 0.076735537708699481 0.364428568331984 0 0.097223947907205094 0.36469260341832099 0 0.090674694454237537 0.35844253683721511 0 0.089894590955766338 0.37016501712229671 0 0.090674694454237537 0.35844253683721511 0 0.089894590955766338 0.37016501712229671 0 0.076735537708699481 0.364428568331984 0 0.090674694454237537 0.35844253683721511 0 0.076735537708699481 0.364428568331984 0 0.076735537708699481 0.364428568331984 0 0.055078026168592691 0.37372917012189599 0 0.058880509289504487 0.35752542115937253 0 0.07065435961583541 0.37741521318853999 0 0.084874637398179506 0.3830893474080016 0 0.076735537708699481 0.364428568331984 0 0.07065435961583541 0.37741521318853999 0 0.076735537708699481 0.364428568331984 0 0.055078026168592691 0.37372917012189599 0 0.076735537708699481 0.364428568331984 0 0.055078026168592691 0.37372917012189599 0 0.055078026168592691 0.37372917012189599 0 0.058880509289504487 0.35752542115937253 0 0.039125882353897343 0.35680699826087081 0 0.068002564407373206 0.3444061958743222 0 0.058880509289504487 0.35752542115937253 0 0.05148455776782021 0.34576385860545072 0 0.058880509289504487 0.35752542115937253 0 0.05148455776782021 0.34576385860545072 0 0.039125882353897343 0.35680699826087081 0 0.039125882353897343 0.35680699826087081 0 0.031548662582759998 0.36398682567210089 0 0.025752053585936779 0.33511492304397028 0 0.05148455776782021 0.34576385860545072 0 0.039125882353897343 0.35680699826087081 0 0.044831250079309708 0.3305842246099347 0 0.033420514628485373 0.38302977191180709 0 0.039125882353897343 0.35680699826087081 0 0.031548662582759998 0.36398682567210089 0 0.033420514628485373 0.38302977191180709 0 0.055078026168592691 0.37372917012189599 0 0.039125882353897343 0.35680699826087081 0 0.033420514628485373 0.38302977191180709 0 0.039125882353897343 0.35680699826087081 0 0.033420514628485373 0.38302977191180709 0 0.031548662582759998 0.36398682567210089 0 0.023779055828078009 0.37097747554075361 0 0.017055050774382831 0.3783760363496293 0 0.023779055828078009 0.37097747554075361 0 0.014905446519761849 0.37011919055753012 0 0.023779055828078009 0.37097747554075361 0 0.019349684376360511 0.36318206543595072 0 0.014905446519761849 0.37011919055753012 0 0.031548662582759998 0.36398682567210089 0 0.019349684376360511 0.36318206543595072 0 0.019690074755218789 0.35178644121934483 0 0.031548662582759998 0.36398682567210089 0 0.023779055828078009 0.37097747554075361 0 0.019349684376360511 0.36318206543595072 0 0.031548662582759998 0.36398682567210089 0 0.025752053585936779 0.33511492304397028 0 0.031548662582759998 0.36398682567210089 0 0.019690074755218789 0.35178644121934483 0 0.025752053585936779 0.33511492304397028 0 0.019349684376360511 0.36318206543595072 0 0.019690074755218789 0.35178644121934483 0 0.0119730942360182 0.35563939605115702 0 0.0119730942360182 0.35563939605115702 0 0.0038095970876644218 0.35606187191015221 0 0.0077169544749549623 0.36306791211952738 0 -0.0077202170519437719 0.34710906184019069 0 0.0082446038140756572 0.34376242611402219 0 0.0038095970876644218 0.35606187191015221 0 0.0119730942360182 0.35563939605115702 0 0.0082446038140756572 0.34376242611402219 0 0.0038095970876644218 0.35606187191015221 0 0.019690074755218789 0.35178644121934483 0 0.0119730942360182 0.35563939605115702 0 0.0082446038140756572 0.34376242611402219 0 -0.0045677851665312944 0.36532665559408428 0 0.0038095970876644218 0.35606187191015221 0 0.0077169544749549623 0.36306791211952738 0 -0.0087141207398781558 0.37710904293520409 0 0.0053185270157129726 0.37689571945341471 0 0.0077169544749549623 0.36306791211952738 0 0.0053185270157129726 0.37689571945341471 0 0.0077169544749549623 0.36306791211952738 0 0.014905446519761849 0.37011919055753012 0 0.019349684376360511 0.36318206543595072 0 0.0077169544749549623 0.36306791211952738 0 0.014905446519761849 0.37011919055753012 0 0.019349684376360511 0.36318206543595072 0 0.0119730942360182 0.35563939605115702 0 0.0077169544749549623 0.36306791211952738 0 -0.009249588209606344 0.30814111102660002 0 0.0094307060340404689 0.32376070079746733 0 0.01995544458911469 0.30624302041583928 0 -0.005758602284471958 0.33512988219008361 0 0.0082446038140756572 0.34376242611402219 0 0.0094307060340404689 0.32376070079746733 0 0.0082446038140756572 0.34376242611402219 0 0.0094307060340404689 0.32376070079746733 0 0.025752053585936779 0.33511492304397028 0 0.019690074755218789 0.35178644121934483 0 0.0082446038140756572 0.34376242611402219 0 0.025752053585936779 0.33511492304397028 0 0.025752053585936779 0.33511492304397028 0 0.01995544458911469 0.30624302041583928 0 0.025752053585936779 0.33511492304397028 0 0.034898059553693392 0.31581284699138767 0 0.01995544458911469 0.30624302041583928 0 0.0094307060340404689 0.32376070079746733 0 0.025752053585936779 0.33511492304397028 0 0.01995544458911469 0.30624302041583928 0 0.034898059553693392 0.31581284699138767 0 0.044831250079309708 0.3305842246099347 0 0.05053661780472133 0.30436145095899841 0 0.025752053585936779 0.33511492304397028 0 0.034898059553693392 0.31581284699138767 0 0.044831250079309708 0.3305842246099347 0 0.039125882353897343 0.35680699826087081 0 0.025752053585936779 0.33511492304397028 0 0.044831250079309708 0.3305842246099347 0 0.039125882353897343 0.35680699826087081 0 0.044831250079309708 0.3305842246099347 0 0.068002564407373206 0.3444061958743222 0 0.05148455776782021 0.34576385860545072 0 0.05926959110604698 0.32438382341666039 0 0.05148455776782021 0.34576385860545072 0 0.044831250079309708 0.3305842246099347 0 0.05926959110604698 0.32438382341666039 0 0.044831250079309708 0.3305842246099347 0 0.05053661780472133 0.30436145095899841 0 0.044831250079309708 0.3305842246099347 0 0.05926959110604698 0.32438382341666039 0 0.05053661780472133 0.30436145095899841 0 0.05926959110604698 0.32438382341666039 0 0.05053661780472133 0.30436145095899841 0 0.05926959110604698 0.32438382341666039 0 0.05053661780472133 0.30436145095899841 0 0.066452600317618793 0.30933520022964911 0 0.059204269303370749 0.30137448027593422 0 0.05053661780472133 0.30436145095899841 0 0.066452600317618793 0.30933520022964911 0 0.04765756321016474 0.29776054867416191 0 0.05053661780472133 0.30436145095899841 0 0.052561166870736087 0.29505630281458828 0 0.059204269303370749 0.30137448027593422 0 0.05053661780472133 0.30436145095899841 0 0.052561166870736087 0.29505630281458828 0 0.05053661780472133 0.30436145095899841 0 0.052561166870736087 0.29505630281458828 0 0.04765756321016474 0.29776054867416191 0 0.05053661780472133 0.30436145095899841 0 0.052561166870736087 0.29505630281458828 0 0.036977033779240318 0.28312664447104818 0 0.062988366650143207 0.29302398426469728 0 0.036977033779240318 0.28312664447104818 0 0.048149862160842181 0.27985089866820428 0 0.062988366650143207 0.29302398426469728 0 0.036977033779240318 0.28312664447104818 0 0.062988366650143207 0.29302398426469728 0 0.048149862160842181 0.27985089866820428 0 0.054778979573680928 0.27715841955607551 0 0.062988366650143207 0.29302398426469728 0 0.059204269303370749 0.30137448027593422 0 0.052561166870736087 0.29505630281458828 0 0.062988366650143207 0.29302398426469728 0 0.04765756321016474 0.29776054867416191 0 0.036186098738389023 0.29603891009636157 0 0.036977033779240318 0.28312664447104818 0 0.04765756321016474 0.29776054867416191 0 0.052561166870736087 0.29505630281458828 0 0.036977033779240318 0.28312664447104818 0 0.036186098738389023 0.29603891009636157 0 0.036977033779240318 0.28312664447104818 0 0.027757552790527541 0.29644954410470781 0 0.034898059553693392 0.31581284699138767 0 0.05053661780472133 0.30436145095899841 0 0.039754971674175903 0.30430037111620312 0 0.04765756321016474 0.29776054867416191 0 0.05053661780472133 0.30436145095899841 0 0.039754971674175903 0.30430037111620312 0 0.04765756321016474 0.29776054867416191 0 0.036186098738389023 0.29603891009636157 0 0.039754971674175903 0.30430037111620312 0 0.036186098738389023 0.29603891009636157 0 0.039754971674175903 0.30430037111620312 0 0.028740536311392211 0.30567206060121932 0 0.034898059553693392 0.31581284699138767 0 0.039754971674175903 0.30430037111620312 0 0.028740536311392211 0.30567206060121932 0 0.034898059553693392 0.31581284699138767 0 0.028740536311392211 0.30567206060121932 0 0.01995544458911469 0.30624302041583928 0 0.028740536311392211 0.30567206060121932 0 0.01995544458911469 0.30624302041583928 0 0.01995544458911469 0.30624302041583928 0 0.027757552790527541 0.29644954410470781 0 0.016928650534501429 0.29116708493907051 0 0.01995544458911469 0.30624302041583928 0 0.016928650534501429 0.29116708493907051 0 0.036186098738389023 0.29603891009636157 0 0.028740536311392211 0.30567206060121932 0 0.027757552790527541 0.29644954410470781 0 0.028740536311392211 0.30567206060121932 0 0.01995544458911469 0.30624302041583928 0 0.027757552790527541 0.29644954410470781 0 0.036977033779240318 0.28312664447104818 0 0.016928650534501429 0.29116708493907051 0 0.013901856479889301 0.2760911494623014 0 0.036977033779240318 0.28312664447104818 0 0.027757552790527541 0.29644954410470781 0 0.016928650534501429 0.29116708493907051 0 0.016928650534501429 0.29116708493907051 0 0.0075090435902615098 0.27971283806045072 0 0.013901856479889301 0.2760911494623014 0 0.016928650534501429 0.29116708493907051 0 0.013901856479889301 0.2760911494623014 0 0.016928650534501429 0.29116708493907051 0 0.002380999114604244 0.28599596302517022 0 0.0075090435902615098 0.27971283806045072 0 0.016928650534501429 0.29116708493907051 0 0.002380999114604244 0.28599596302517022 0 0.0038021096493471361 0.29689124930627131 0 0.01995544458911469 0.30624302041583928 0 0.016928650534501429 0.29116708493907051 0 0.0038021096493471361 0.29689124930627131 0 -0.009249588209606344 0.30814111102660002 0 0.01995544458911469 0.30624302041583928 0 -0.009249588209606344 0.30814111102660002 0 0.01995544458911469 0.30624302041583928 0 0.0038021096493471361 0.29689124930627131 0 0.012944211518790589 0.24639919126045251 0 0.001894876929373096 0.24743045501984201 0 0.027350481215018482 0.26092432701142793 0 0.001894876929373096 0.24743045501984201 0 0.01235577794179212 0.26160751525750708 0 0.027350481215018482 0.26092432701142793 0 0.001894876929373096 0.24743045501984201 0 0.027350481215018482 0.26092432701142793 0 0.01235577794179212 0.26160751525750708 0 0.0066431973405819862 0.26423936680728111 0 0.01332705073189009 0.26743114199411 0 0.001894876929373096 0.24743045501984201 0 0.01235577794179212 0.26160751525750708 0 0.0027594708259384838 0.25829047161104352 0 0.01235577794179212 0.26160751525750708 0 0.0027594708259384838 0.25829047161104352 0 0.0066431973405819862 0.26423936680728111 0 -0.00067809962666212902 0.26216505597133072 0 0.0027594708259384838 0.25829047161104352 0 0.0066431973405819862 0.26423936680728111 0 -0.00067809962666212902 0.26216505597133072 0 0.0066431973405819862 0.26423936680728111 0 0.010965700908337589 0.27322930467739909 0 -0.001267499687089951 0.2776013217203892 0 0.0075090435902615098 0.27971283806045072 0 0.010965700908337589 0.27322930467739909 0 -0.001267499687089951 0.2776013217203892 0 0.002380999114604244 0.28599596302517022 0 0.0075090435902615098 0.27971283806045072 0 0.0075090435902615098 0.27971283806045072 0 0.013901856479889301 0.2760911494623014 0 0.010965700908337589 0.27322930467739909 0 0.010965700908337589 0.27322930467739909 0 0.01332705073189009 0.26743114199411 0 0.022419763759722669 0.26962443384228668 0 0.0066431973405819862 0.26423936680728111 0 0.010965700908337589 0.27322930467739909 0 0.01332705073189009 0.26743114199411 0 0.036977033779240318 0.28312664447104818 0 0.010965700908337589 0.27322930467739909 0 0.022419763759722669 0.26962443384228668 0 0.01235577794179212 0.26160751525750708 0 0.01332705073189009 0.26743114199411 0 0.022419763759722669 0.26962443384228668 0 0.036977033779240318 0.28312664447104818 0 0.013901856479889301 0.2760911494623014 0 0.010965700908337589 0.27322930467739909 0 0.036977033779240318 0.28312664447104818 0 0.010965700908337589 0.27322930467739909 0 0.036977033779240318 0.28312664447104818 0 0.022419763759722669 0.26962443384228668 0 0.032397819765571212 0.27218151163944088 0 0.022419763759722669 0.26962443384228668 0 0.027350481215018482 0.26092432701142793 0 0.032397819765571212 0.27218151163944088 0 0.018629400856135309 0.24429501886194191 0 0.012944211518790589 0.24639919126045251 0 0.027350481215018482 0.26092432701142793 0 0.018629400856135309 0.24429501886194191 0 0.027350481215018482 0.26092432701142793 0 0.02692674034290404 0.25134916217479408 0 0.01235577794179212 0.26160751525750708 0 0.022419763759722669 0.26962443384228668 0 0.027350481215018482 0.26092432701142793 0 0.027350481215018482 0.26092432701142793 0 0.02692674034290404 0.25134916217479408 0 0.036501911092354018 0.25177276941539839 0 0.027350481215018482 0.26092432701142793 0 0.036501911092354018 0.25177276941539839 0 0.052806085500663583 0.27441819900301412 0 0.036501911092354018 0.25177276941539839 0 0.052806085500663583 0.27441819900301412 0 0.027350481215018482 0.26092432701142793 0 0.039536256484267153 0.27410031615862712 0 0.052806085500663583 0.27441819900301412 0 0.027350481215018482 0.26092432701142793 0 0.052806085500663583 0.27441819900301412 0 0.036977033779240318 0.28312664447104818 0 0.032397819765571212 0.27218151163944088 0 0.039536256484267153 0.27410031615862712 0 0.027350481215018482 0.26092432701142793 0 0.032397819765571212 0.27218151163944088 0 0.039536256484267153 0.27410031615862712 0 0.039536256484267153 0.27410031615862712 0 0.048149862160842181 0.27985089866820428 0 0.052806085500663583 0.27441819900301412 0 0.036977033779240318 0.28312664447104818 0 0.039536256484267153 0.27410031615862712 0 0.048149862160842181 0.27985089866820428 0 0.052806085500663583 0.27441819900301412 0 0.051790667069154861 0.2547103276228454 0 0.069466372585565969 0.27425949764399721 0 0.052806085500663583 0.27441819900301412 0 0.054778979573680928 0.27715841955607551 0 0.076123070751733898 0.28677840112891878 0 0.048149862160842181 0.27985089866820428 0 0.052806085500663583 0.27441819900301412 0 0.054778979573680928 0.27715841955607551 0 0.052806085500663583 0.27441819900301412 0 0.054778979573680928 0.27715841955607551 0 0.051790667069154861 0.2547103276228454 0 0.069466372585565969 0.27425949764399721 0 0.036501911092354018 0.25177276941539839 0 0.052806085500663583 0.27441819900301412 0 0.051790667069154861 0.2547103276228454 0 0.051790667069154861 0.2547103276228454 0 0.062472563593505302 0.26110660749064829 0 0.069466372585565969 0.27425949764399721 0 0.051790667069154861 0.2547103276228454 0 0.062472563593505302 0.26110660749064829 0 0.063392491700480919 0.2510828642249095 0 0.07090317009537217 0.25886987532900169 0 0.089645379702363526 0.25980927980688501 0 0.066829182329119829 0.26693814307945207 0 0.063392491700480919 0.2510828642249095 0 0.07090317009537217 0.25886987532900169 0 0.074261774750864804 0.25289133929391111 0 0.062472563593505302 0.26110660749064829 0 0.063392491700480919 0.2510828642249095 0 0.07090317009537217 0.25886987532900169 0 0.062472563593505302 0.26110660749064829 0 0.07090317009537217 0.25886987532900169 0 0.066829182329119829 0.26693814307945207 0 0.07090317009537217 0.25886987532900169 0 0.074261774750864804 0.25289133929391111 0 0.089645379702363526 0.25980927980688501 0 0.072073934872957782 0.23900016577853919 0 0.074261774750864804 0.25289133929391111 0 0.089645379702363526 0.25980927980688501 0 0.089645379702363526 0.25980927980688501 0 0.066829182329119829 0.26693814307945207 0 0.089645379702363526 0.25980927980688501 0 0.084738505220855201 0.27427167124983992 0 0.066829182329119829 0.26693814307945207 0 0.084738505220855201 0.27427167124983992 0 0.069466372585565969 0.27425949764399721 0 0.085077205623658711 0.29152493742801078 0 0.084738505220855201 0.27427167124983992 0 0.095910340366493346 0.28464594086445177 0 0.099818528257267281 0.27185690653089678 0 0.089645379702363526 0.25980927980688501 0 0.084738505220855201 0.27427167124983992 0 0.099818528257267281 0.27185690653089678 0 0.084738505220855201 0.27427167124983992 0 0.066829182329119829 0.26693814307945207 0 0.069466372585565969 0.27425949764399721 0 0.052806085500663583 0.27441819900301412 0 0.069466372585565969 0.27425949764399721 0 0.076123070751733898 0.28677840112891878 0 0.052806085500663583 0.27441819900301412 0 0.076123070751733898 0.28677840112891878 0 0.069466372585565969 0.27425949764399721 0 0.076123070751733898 0.28677840112891878 0 0.062472563593505302 0.26110660749064829 0 0.069466372585565969 0.27425949764399721 0 0.062472563593505302 0.26110660749064829 0 0.066829182329119829 0.26693814307945207 0 0.069466372585565969 0.27425949764399721 0 0.069466372585565969 0.27425949764399721 0 0.085077205623658711 0.29152493742801078 0 0.069466372585565969 0.27425949764399721 0 0.076123070751733898 0.28677840112891878 0 0.085077205623658711 0.29152493742801078 0 0.062988366650143207 0.29302398426469728 0 0.076123070751733898 0.28677840112891878 0 0.066452600317618793 0.30933520022964911 0 0.054778979573680928 0.27715841955607551 0 0.062988366650143207 0.29302398426469728 0 0.076123070751733898 0.28677840112891878 0 0.090103400857782137 0.31307047550514489 0 0.076123070751733898 0.28677840112891878 0 0.066452600317618793 0.30933520022964911 0 0.059204269303370749 0.30137448027593422 0 0.062988366650143207 0.29302398426469728 0 0.066452600317618793 0.30933520022964911 0 0.090103400857782137 0.31307047550514489 0 0.076123070751733898 0.28677840112891878 0 0.085077205623658711 0.29152493742801078 0 0.090103400857782137 0.31307047550514489 0 0.076123070751733898 0.28677840112891878 0 0.090103400857782137 0.31307047550514489 0 0.085077205623658711 0.29152493742801078 0 0.09732687347400408 0.30507295899279041 0 0.085077205623658711 0.29152493742801078 0 0.09732687347400408 0.30507295899279041 0 0.084738505220855201 0.27427167124983992 0 0.085077205623658711 0.29152493742801078 0 0.095910340366493346 0.28464594086445177 0 0.076123070751733898 0.28677840112891878 0 0.085077205623658711 0.29152493742801078 0 0.085077205623658711 0.29152493742801078 0 0.095910340366493346 0.28464594086445177 0 0.10018382130907411 0.29953286904093468 0 0.085077205623658711 0.29152493742801078 0 0.10018382130907411 0.29953286904093468 0 0.095910340366493346 0.28464594086445177 0 0.10809736708577181 0.28553666446189058 0 0.10018382130907411 0.29953286904093468 0 0.10809736708577181 0.28553666446189058 0 0.10018382130907411 0.29953286904093468 0 0.10959494141679089 0.29761357018739809 0 0.099947674014671917 0.31467323404701991 0 0.090103400857782137 0.31307047550514489 0 0.09732687347400408 0.30507295899279041 0 0.085077205623658711 0.29152493742801078 0 0.09732687347400408 0.30507295899279041 0 0.10018382130907411 0.29953286904093468 0 0.09732687347400408 0.30507295899279041 0 0.10018382130907411 0.29953286904093468 0 0.1055944182754792 0.3076919023112884 0 0.10018382130907411 0.29953286904093468 0 0.11529043699448981 0.30754080065385803 0 0.10959494141679089 0.29761357018739809 0 0.10018382130907411 0.29953286904093468 0 0.11529043699448981 0.30754080065385803 0 0.1095765413243488 0.31862098055757049 0 0.09732687347400408 0.30507295899279041 0 0.1055944182754792 0.3076919023112884 0 0.10018382130907411 0.29953286904093468 0 0.1055944182754792 0.3076919023112884 0 0.11529043699448981 0.30754080065385803 0 0.1095765413243488 0.31862098055757049 0 0.09732687347400408 0.30507295899279041 0 0.1095765413243488 0.31862098055757049 0 0.1055944182754792 0.3076919023112884 0 0.11529043699448981 0.30754080065385803 0 0.11529043699448981 0.30754080065385803 0 0.11637637905870279 0.30155283343175482 0 0.11810871752106521 0.30621928700195911 0 0.11529043699448981 0.30754080065385803 0 0.10959494141679089 0.29761357018739809 0 0.11637637905870279 0.30155283343175482 0 0.10959494141679089 0.29761357018739809 0 0.11637637905870279 0.30155283343175482 0 0.1164892219926046 0.29243334627748818 0 0.11529043699448981 0.30754080065385803 0 0.11637637905870279 0.30155283343175482 0 0.11637637905870279 0.30155283343175482 0 0.1222906650571363 0.2985709440566281 0 0.1164892219926046 0.29243334627748818 0 0.1222906650571363 0.2985709440566281 0 0.1206025954822835 0.30378795350269022 0 0.1243783730770044 0.30485679470236721 0 0.11637637905870279 0.30155283343175482 0 0.1222906650571363 0.2985709440566281 0 0.1206025954822835 0.30378795350269022 0 0.11637637905870279 0.30155283343175482 0 0.1206025954822835 0.30378795350269022 0 0.11810871752106521 0.30621928700195911 0 0.1206025954822835 0.30378795350269022 0 0.11810871752106521 0.30621928700195911 0 0.1213521300308707 0.30775440284793348 0 0.11529043699448981 0.30754080065385803 0 0.11810871752106521 0.30621928700195911 0 0.11930841490252821 0.30912172642276631 0 0.11810871752106521 0.30621928700195911 0 0.1213521300308707 0.30775440284793348 0 0.11930841490252821 0.30912172642276631 0 0.1243783730770044 0.30485679470236721 0 0.1213521300308707 0.30775440284793348 0 0.1244342991148414 0.30898461385241399 0 0.1206025954822835 0.30378795350269022 0 0.1243783730770044 0.30485679470236721 0 0.1213521300308707 0.30775440284793348 0 0.1214195525311879 0.31440901896845502 0 0.1244342991148414 0.30898461385241399 0 0.12900107104525951 0.30968741412501871 0 0.1214195525311879 0.31440901896845502 0 0.1213521300308707 0.30775440284793348 0 0.1244342991148414 0.30898461385241399 0 0.1214195525311879 0.31440901896845502 0 0.11529043699448981 0.30754080065385803 0 0.11930841490252821 0.30912172642276631 0 0.1214195525311879 0.31440901896845502 0 0.1213521300308707 0.30775440284793348 0 0.11930841490252821 0.30912172642276631 0 0.10809736708577181 0.28553666446189058 0 0.1164892219926046 0.29243334627748818 0 0.1210835213650209 0.28058702695229848 0 0.10809736708577181 0.28553666446189058 0 0.10959494141679089 0.29761357018739809 0 0.1164892219926046 0.29243334627748818 0 0.1222906650571363 0.2985709440566281 0 0.1164892219926046 0.29243334627748818 0 0.12596292383497329 0.28976449579057961 0 0.1164892219926046 0.29243334627748818 0 0.1210835213650209 0.28058702695229848 0 0.12596292383497329 0.28976449579057961 0 0.10809736708577181 0.28553666446189058 0 0.1210835213650209 0.28058702695229848 0 0.1147979612748997 0.2707881575742877 0 0.1210835213650209 0.28058702695229848 0 0.1147979612748997 0.2707881575742877 0 0.12791172371537049 0.26609555254785411 0 0.1147979612748997 0.2707881575742877 0 0.116065923487036 0.25155424759680489 0 0.099818528257267281 0.27185690653089678 0 0.1147979612748997 0.2707881575742877 0 0.116065923487036 0.25155424759680489 0 0.12791172371537049 0.26609555254785411 0 0.089645379702363526 0.25980927980688501 0 0.116065923487036 0.25155424759680489 0 0.089645379702363526 0.25980927980688501 0 0.116065923487036 0.25155424759680489 0 0.099818528257267281 0.27185690653089678 0 0.089645379702363526 0.25980927980688501 0 0.099818528257267281 0.27185690653089678 0 0.095910340366493346 0.28464594086445177 0 0.10809736708577181 0.28553666446189058 0 0.099818528257267281 0.27185690653089678 0 0.10809736708577181 0.28553666446189058 0 0.1147979612748997 0.2707881575742877 0 0.099818528257267281 0.27185690653089678 0 0.14627836463393121 0.26809473379089088 0 0.14256315404166739 0.2804585798755338 0 0.1332419302865058 0.27890394506169119 0 0.14627836463393121 0.26809473379089088 0 0.14256315404166739 0.2804585798755338 0 0.15383705453569649 0.27951082009548711 0 0.14627836463393121 0.26809473379089088 0 0.15383705453569649 0.27951082009548711 0 0.1609818760820641 0.2708255403471686 0 0.14248646727170791 0.24329921538672239 0 0.14627836463393121 0.26809473379089088 0 0.1631161995596529 0.25657386530356069 0 0.14248646727170791 0.24329921538672239 0 0.116065923487036 0.25155424759680489 0 0.12791172371537049 0.26609555254785411 0 0.14248646727170791 0.24329921538672239 0 0.14627836463393121 0.26809473379089088 0 0.12791172371537049 0.26609555254785411 0 0.14627836463393121 0.26809473379089088 0 0.12791172371537049 0.26609555254785411 0 0.1332419302865058 0.27890394506169119 0 0.1210835213650209 0.28058702695229848 0 0.12791172371537049 0.26609555254785411 0 0.1332419302865058 0.27890394506169119 0 0.1332419302865058 0.27890394506169119 0 0.12596292383497329 0.28976449579057961 0 0.13463915166403909 0.29011289163129678 0 0.1210835213650209 0.28058702695229848 0 0.1332419302865058 0.27890394506169119 0 0.12596292383497329 0.28976449579057961 0 0.1222906650571363 0.2985709440566281 0 0.12596292383497329 0.28976449579057961 0 0.12923992476061211 0.29615108028493942 0 0.12596292383497329 0.28976449579057961 0 0.12923992476061211 0.29615108028493942 0 0.13463915166403909 0.29011289163129678 0 0.13463915166403909 0.29011289163129678 0 0.13544399911061031 0.29845687749894129 0 0.1416447250157222 0.29544082675589128 0 0.12923992476061211 0.29615108028493942 0 0.13463915166403909 0.29011289163129678 0 0.13544399911061031 0.29845687749894129 0 0.14256315404166739 0.2804585798755338 0 0.1332419302865058 0.27890394506169119 0 0.13463915166403909 0.29011289163129678 0 0.1243783730770044 0.30485679470236721 0 0.1244342991148414 0.30898461385241399 0 0.12900107104525951 0.30968741412501871 0 0.1243783730770044 0.30485679470236721 0 0.12900107104525951 0.30968741412501871 0 0.1290658347258283 0.30205966601357243 0 0.12900107104525951 0.30968741412501871 0 0.1290658347258283 0.30205966601357243 0 0.1340409753043473 0.30463488541353972 0 0.1222906650571363 0.2985709440566281 0 0.1243783730770044 0.30485679470236721 0 0.1290658347258283 0.30205966601357243 0 0.1222906650571363 0.2985709440566281 0 0.12923992476061211 0.29615108028493942 0 0.1290658347258283 0.30205966601357243 0 0.12923992476061211 0.29615108028493942 0 0.1290658347258283 0.30205966601357243 0 0.13544399911061031 0.29845687749894129 0 0.13544399911061031 0.29845687749894129 0 0.14170706289926879 0.30357921339911909 0 0.1416447250157222 0.29544082675589128 0 0.13544399911061031 0.29845687749894129 0 0.1340409753043473 0.30463488541353972 0 0.14170706289926879 0.30357921339911909 0 0.1290658347258283 0.30205966601357243 0 0.13544399911061031 0.29845687749894129 0 0.1340409753043473 0.30463488541353972 0 0.13598458437900529 0.30983158877234418 0 0.14130712994747449 0.31140798331507108 0 0.14170706289926879 0.30357921339911909 0 0.12900107104525951 0.30968741412501871 0 0.1340409753043473 0.30463488541353972 0 0.13598458437900529 0.30983158877234418 0 0.1340409753043473 0.30463488541353972 0 0.13598458437900529 0.30983158877234418 0 0.14170706289926879 0.30357921339911909 0 0.13598458437900529 0.30983158877234418 0 0.14130712994747449 0.31140798331507108 0 0.13528824775885559 0.3155805734405937 0 0.12900107104525951 0.30968741412501871 0 0.13598458437900529 0.30983158877234418 0 0.13528824775885559 0.3155805734405937 0 0.1483486037307668 0.31106151759990119 0 0.14130712994747449 0.31140798331507108 0 0.14170706289926879 0.30357921339911909 0 0.1483486037307668 0.31106151759990119 0 0.14170706289926879 0.30357921339911909 0 0.1513591925520972 0.30423422291399321 0 0.14170706289926879 0.30357921339911909 0 0.14924189349128261 0.29698436464102829 0 0.1513591925520972 0.30423422291399321 0 0.14170706289926879 0.30357921339911909 0 0.14924189349128261 0.29698436464102829 0 0.1416447250157222 0.29544082675589128 0 0.1513591925520972 0.30423422291399321 0 0.15847128754916129 0.30901971199088751 0 0.1567398971697517 0.30020769771567818 0 0.14924189349128261 0.29698436464102829 0 0.1513591925520972 0.30423422291399321 0 0.1567398971697517 0.30020769771567818 0 0.1483486037307668 0.31106151759990119 0 0.1513591925520972 0.30423422291399321 0 0.15847128754916129 0.30901971199088751 0 0.1483486037307668 0.31106151759990119 0 0.15847128754916129 0.30901971199088751 0 0.1531779528472626 0.31690967251270458 0 0.14256315404166739 0.2804585798755338 0 0.15383705453569649 0.27951082009548711 0 0.14728728951424691 0.28871625735014939 0 0.14256315404166739 0.2804585798755338 0 0.13463915166403909 0.29011289163129678 0 0.14728728951424691 0.28871625735014939 0 0.14924189349128261 0.29698436464102829 0 0.14728728951424691 0.28871625735014939 0 0.1416447250157222 0.29544082675589128 0 0.13463915166403909 0.29011289163129678 0 0.14728728951424691 0.28871625735014939 0 0.1416447250157222 0.29544082675589128 0 0.14924189349128261 0.29698436464102829 0 0.1576814993112734 0.29111844862325259 0 0.1567398971697517 0.30020769771567818 0 0.14924189349128261 0.29698436464102829 0 0.14728728951424691 0.28871625735014939 0 0.1576814993112734 0.29111844862325259 0 0.15383705453569649 0.27951082009548711 0 0.14728728951424691 0.28871625735014939 0 0.1576814993112734 0.29111844862325259 0 0.15383705453569649 0.27951082009548711 0 0.1576814993112734 0.29111844862325259 0 0.16532030222413041 0.28061774918364429 0 0.1576814993112734 0.29111844862325259 0 0.1689979645595176 0.28949488405725932 0 0.16532030222413041 0.28061774918364429 0 0.1576814993112734 0.29111844862325259 0 0.1689979645595176 0.28949488405725932 0 0.16694561294494401 0.29968174040922901 0 0.1689979645595176 0.28949488405725932 0 0.16694561294494401 0.29968174040922901 0 0.17866142019044989 0.29199773726540068 0 0.1689979645595176 0.28949488405725932 0 0.17498255083596301 0.28300150235233201 0 0.16532030222413041 0.28061774918364429 0 0.1576814993112734 0.29111844862325259 0 0.1567398971697517 0.30020769771567818 0 0.16694561294494401 0.29968174040922901 0 0.15847128754916129 0.30901971199088751 0 0.1567398971697517 0.30020769771567818 0 0.16694561294494401 0.29968174040922901 0 0.16694561294494401 0.29968174040922901 0 0.17666858027807311 0.3015349886251833 0 0.1707678241303611 0.31259989648156872 0 0.15847128754916129 0.30901971199088751 0 0.16694561294494401 0.29968174040922901 0 0.1707678241303611 0.31259989648156872 0 0.17666858027807311 0.3015349886251833 0 0.18371952992762389 0.30785332357736089 0 0.1707678241303611 0.31259989648156872 0 0.16694561294494401 0.29968174040922901 0 0.17666858027807311 0.3015349886251833 0 0.17866142019044989 0.29199773726540068 0 0.17666858027807311 0.3015349886251833 0 0.18371952992762389 0.30785332357736089 0 0.1898902111984884 0.29891268329407239 0 0.18371952992762389 0.30785332357736089 0 0.1898902111984884 0.29891268329407239 0 0.17666858027807311 0.3015349886251833 0 0.17866142019044989 0.29199773726540068 0 0.1898902111984884 0.29891268329407239 0 0.17498255083596301 0.28300150235233201 0 0.17866142019044989 0.29199773726540068 0 0.1849298445554361 0.28099903695767547 0 0.1689979645595176 0.28949488405725932 0 0.17498255083596301 0.28300150235233201 0 0.17866142019044989 0.29199773726540068 0 0.17866142019044989 0.29199773726540068 0 0.18677859260729601 0.28760164196875848 0 0.1898902111984884 0.29891268329407239 0 0.17866142019044989 0.29199773726540068 0 0.18677859260729601 0.28760164196875848 0 0.1849298445554361 0.28099903695767547 0 0.1849298445554361 0.28099903695767547 0 0.17528279401001801 0.2714166079934146 0 0.19094745617081291 0.27038549871767581 0 0.17528279401001801 0.2714166079934146 0 0.18564289691528729 0.25868749876629671 0 0.19094745617081291 0.27038549871767581 0 0.17498255083596301 0.28300150235233201 0 0.1849298445554361 0.28099903695767547 0 0.17528279401001801 0.2714166079934146 0 0.17528279401001801 0.2714166079934146 0 0.16532030222413041 0.28061774918364429 0 0.1609818760820641 0.2708255403471686 0 0.17498255083596301 0.28300150235233201 0 0.17528279401001801 0.2714166079934146 0 0.16532030222413041 0.28061774918364429 0 0.17528279401001801 0.2714166079934146 0 0.1609818760820641 0.2708255403471686 0 0.1631161995596529 0.25657386530356069 0 0.15383705453569649 0.27951082009548711 0 0.16532030222413041 0.28061774918364429 0 0.1609818760820641 0.2708255403471686 0 0.14627836463393121 0.26809473379089088 0 0.1609818760820641 0.2708255403471686 0 0.1631161995596529 0.25657386530356069 0 0.16890701105638031 0.23504418317664161 0 0.1631161995596529 0.25657386530356069 0 0.18564289691528729 0.25868749876629671 0 0.17528279401001801 0.2714166079934146 0 0.1631161995596529 0.25657386530356069 0 0.18564289691528729 0.25868749876629671 0 0.1956251304139873 0.24830732682566101 0 0.18564289691528729 0.25868749876629671 0 0.20465537480646501 0.25892384109831479 0 0.18564289691528729 0.25868749876629671 0 0.19094745617081291 0.27038549871767581 0 0.20465537480646501 0.25892384109831479 0 0.2050239072751949 0.2492833193895482 0 0.1956251304139873 0.24830732682566101 0 0.20465537480646501 0.25892384109831479 0 0.19094745617081291 0.27038549871767581 0 0.20212350544635149 0.27452240688285762 0 0.1917381003592612 0.28136787577326228 0 0.1849298445554361 0.28099903695767547 0 0.19094745617081291 0.27038549871767581 0 0.1917381003592612 0.28136787577326228 0 0.19094745617081291 0.27038549871767581 0 0.20212350544635149 0.27452240688285762 0 0.20465537480646501 0.25892384109831479 0 0.21559138507808229 0.27635001083075639 0 0.2170338530129477 0.25958452376210089 0 0.2223889939606305 0.26849190584137572 0 0.20212350544635149 0.27452240688285762 0 0.2170338530129477 0.25958452376210089 0 0.20037669147028589 0.28371892366973078 0 0.2170338530129477 0.25958452376210089 0 0.20037669147028589 0.28371892366973078 0 0.21559138507808229 0.27635001083075639 0 0.2170338530129477 0.25958452376210089 0 0.20037669147028589 0.28371892366973078 0 0.20212350544635149 0.27452240688285762 0 0.20465537480646501 0.25892384109831479 0 0.21458810326103989 0.25029177234766842 0 0.20212350544635149 0.27452240688285762 0 0.2170338530129477 0.25958452376210089 0 0.21458810326103989 0.25029177234766842 0 0.20212350544635149 0.27452240688285762 0 0.21458810326103989 0.25029177234766842 0 0.2050239072751949 0.2492833193895482 0 0.20465537480646501 0.25892384109831479 0 0.21458810326103989 0.25029177234766842 0 0.20465537480646501 0.25892384109831479 0 0.21458810326103989 0.25029177234766842 0 0.23169913173193779 0.25404958449575432 0 0.22942687348362151 0.26728355318502178 0 0.24090080429007341 0.26281353644332878 0 0.23169913173193779 0.25404958449575432 0 0.2249153238939712 0.26221153605608138 0 0.22942687348362151 0.26728355318502178 0 0.2170338530129477 0.25958452376210089 0 0.2249153238939712 0.26221153605608138 0 0.2223889939606305 0.26849190584137572 0 0.2170338530129477 0.25958452376210089 0 0.23169913173193779 0.25404958449575432 0 0.2249153238939712 0.26221153605608138 0 0.2223889939606305 0.26849190584137572 0 0.2255322572178127 0.27738204478537232 0 0.22942687348362151 0.26728355318502178 0 0.2249153238939712 0.26221153605608138 0 0.2223889939606305 0.26849190584137572 0 0.22942687348362151 0.26728355318502178 0 0.21559138507808229 0.27635001083075639 0 0.2255322572178127 0.27738204478537232 0 0.21985426169801439 0.28935406669317137 0 0.21559138507808229 0.27635001083075639 0 0.2223889939606305 0.26849190584137572 0 0.2255322572178127 0.27738204478537232 0 0.2255322572178127 0.27738204478537232 0 0.23621117140834261 0.27732665952701641 0 0.23095623596381579 0.2876536505458 0 0.2255322572178127 0.27738204478537232 0 0.22942687348362151 0.26728355318502178 0 0.23621117140834261 0.27732665952701641 0 0.23621117140834261 0.27732665952701641 0 0.24818821145747599 0.27522177653690871 0 0.24090080429007341 0.26281353644332878 0 0.22942687348362151 0.26728355318502178 0 0.23621117140834261 0.27732665952701641 0 0.24090080429007341 0.26281353644332878 0 0.24818821145747599 0.27522177653690871 0 0.24090080429007341 0.26281353644332878 0 0.25530776412370298 0.26639583896058622 0 0.23995652529561701 0.25039133628829258 0 0.24090080429007341 0.26281353644332878 0 0.25404003316197471 0.25208422786308371 0 0.23169913173193779 0.25404958449575432 0 0.23995652529561701 0.25039133628829258 0 0.24090080429007341 0.26281353644332878 0 0.23765651747073049 0.31117848176507701 0 0.2454028482605469 0.29267792886045368 0 0.25114017462525878 0.31153615041935723 0 0.23765651747073049 0.31117848176507701 0 0.2454028482605469 0.29267792886045368 0 0.2283396740985745 0.30195705682751389 0 0.2454028482605469 0.29267792886045368 0 0.23095623596381579 0.2876536505458 0 0.2283396740985745 0.30195705682751389 0 0.23621117140834261 0.27732665952701641 0 0.24818821145747599 0.27522177653690871 0 0.2454028482605469 0.29267792886045368 0 0.23621117140834261 0.27732665952701641 0 0.2454028482605469 0.29267792886045368 0 0.23095623596381579 0.2876536505458 0 0.2255322572178127 0.27738204478537232 0 0.23095623596381579 0.2876536505458 0 0.21985426169801439 0.28935406669317137 0 0.23095623596381579 0.2876536505458 0 0.21985426169801439 0.28935406669317137 0 0.2283396740985745 0.30195705682751389 0 0.2283396740985745 0.30195705682751389 0 0.2184758680590754 0.31184724711422762 0 0.22801070301179061 0.32060690690137728 0 0.21985426169801439 0.28935406669317137 0 0.2283396740985745 0.30195705682751389 0 0.21670572119465931 0.30172893354768798 0 0.23765651747073049 0.31117848176507701 0 0.2283396740985745 0.30195705682751389 0 0.22801070301179061 0.32060690690137728 0 0.2283396740985745 0.30195705682751389 0 0.2184758680590754 0.31184724711422762 0 0.21670572119465931 0.30172893354768798 0 0.2184758680590754 0.31184724711422762 0 0.21670572119465931 0.30172893354768798 0 0.20632342479934371 0.30585855598863948 0 0.21670572119465931 0.30172893354768798 0 0.20632342479934371 0.30585855598863948 0 0.21141614329998781 0.29390938293380992 0 0.20632342479934371 0.30585855598863948 0 0.21141614329998781 0.29390938293380992 0 0.2042452804315445 0.29308429151921322 0 0.21559138507808229 0.27635001083075639 0 0.21985426169801439 0.28935406669317137 0 0.2104384150331686 0.28649738738125968 0 0.21985426169801439 0.28935406669317137 0 0.21141614329998781 0.29390938293380992 0 0.2104384150331686 0.28649738738125968 0 0.21985426169801439 0.28935406669317137 0 0.21670572119465931 0.30172893354768798 0 0.21141614329998781 0.29390938293380992 0 0.21141614329998781 0.29390938293380992 0 0.2042452804315445 0.29308429151921322 0 0.2104384150331686 0.28649738738125968 0 0.2042452804315445 0.29308429151921322 0 0.2104384150331686 0.28649738738125968 0 0.20037669147028589 0.28371892366973078 0 0.21559138507808229 0.27635001083075639 0 0.2104384150331686 0.28649738738125968 0 0.20037669147028589 0.28371892366973078 0 0.20212350544635149 0.27452240688285762 0 0.20037669147028589 0.28371892366973078 0 0.1898902111984884 0.29891268329407239 0 0.18677859260729601 0.28760164196875848 0 0.1917381003592612 0.28136787577326228 0 0.1898902111984884 0.29891268329407239 0 0.20037669147028589 0.28371892366973078 0 0.1976595376627992 0.29976589533378561 0 0.1898902111984884 0.29891268329407239 0 0.2042452804315445 0.29308429151921322 0 0.20037669147028589 0.28371892366973078 0 0.1976595376627992 0.29976589533378561 0 0.20212350544635149 0.27452240688285762 0 0.1898902111984884 0.29891268329407239 0 0.20212350544635149 0.27452240688285762 0 0.1917381003592612 0.28136787577326228 0 0.1898902111984884 0.29891268329407239 0 0.20037669147028589 0.28371892366973078 0 0.1898902111984884 0.29891268329407239 0 0.18677859260729601 0.28760164196875848 0 0.1849298445554361 0.28099903695767547 0 0.1917381003592612 0.28136787577326228 0 0.20632342479934371 0.30585855598863948 0 0.19412409721151189 0.30848045781950378 0 0.19635424873152091 0.31866253726922511 0 0.20632342479934371 0.30585855598863948 0 0.1976595376627992 0.29976589533378561 0 0.19412409721151189 0.30848045781950378 0 0.20632342479934371 0.30585855598863948 0 0.2042452804315445 0.29308429151921322 0 0.1976595376627992 0.29976589533378561 0 0.18371952992762389 0.30785332357736089 0 0.1976595376627992 0.29976589533378561 0 0.1898902111984884 0.29891268329407239 0 0.18371952992762389 0.30785332357736089 0 0.19412409721151189 0.30848045781950378 0 0.19635424873152091 0.31866253726922511 0 0.18371952992762389 0.30785332357736089 0 0.1976595376627992 0.29976589533378561 0 0.19412409721151189 0.30848045781950378 0 0.19635424873152091 0.31866253726922511 0 0.19329834396814641 0.33328399686629978 0 0.21150607161232149 0.3245036863190196 0 0.19635424873152091 0.31866253726922511 0 0.19329834396814641 0.33328399686629978 0 0.1818581672390053 0.32281790922797782 0 0.19329834396814641 0.33328399686629978 0 0.20841238186686439 0.34472105417207632 0 0.1876990638134575 0.35190483133425488 0 0.19329834396814641 0.33328399686629978 0 0.21150607161232149 0.3245036863190196 0 0.20841238186686439 0.34472105417207632 0 0.21150607161232149 0.3245036863190196 0 0.22736457019319431 0.33776348264759248 0 0.20841238186686439 0.34472105417207632 0 0.20632342479934371 0.30585855598863948 0 0.19635424873152091 0.31866253726922511 0 0.21150607161232149 0.3245036863190196 0 0.2184758680590754 0.31184724711422762 0 0.20632342479934371 0.30585855598863948 0 0.21150607161232149 0.3245036863190196 0 0.21150607161232149 0.3245036863190196 0 0.22801070301179061 0.32060690690137728 0 0.22736457019319431 0.33776348264759248 0 0.2184758680590754 0.31184724711422762 0 0.21150607161232149 0.3245036863190196 0 0.22801070301179061 0.32060690690137728 0 0.22801070301179061 0.32060690690137728 0 0.22736457019319431 0.33776348264759248 0 0.24490867605631639 0.32967072069511189 0 0.22736457019319431 0.33776348264759248 0 0.24490867605631639 0.32967072069511189 0 0.24521693247762111 0.35027114815259558 0 0.23765651747073049 0.31117848176507701 0 0.22801070301179061 0.32060690690137728 0 0.24490867605631639 0.32967072069511189 0 0.23765651747073049 0.31117848176507701 0 0.24490867605631639 0.32967072069511189 0 0.25114017462525878 0.31153615041935723 0 0.24305895760768401 0.36641304215893011 0 0.24521693247762111 0.35027114815259558 0 0.22613265613425179 0.35680737964537468 0 0.22736457019319431 0.33776348264759248 0 0.24521693247762111 0.35027114815259558 0 0.22613265613425179 0.35680737964537468 0 0.22736457019319431 0.33776348264759248 0 0.22613265613425179 0.35680737964537468 0 0.20841238186686439 0.34472105417207632 0 0.22613265613425179 0.35680737964537468 0 0.20200890290724041 0.36500873302905812 0 0.22860253219506471 0.37841014948266538 0 0.24305895760768401 0.36641304215893011 0 0.22613265613425179 0.35680737964537468 0 0.22860253219506471 0.37841014948266538 0 0.20200890290724041 0.36500873302905812 0 0.22860253219506471 0.37841014948266538 0 0.22613265613425179 0.35680737964537468 0 0.20841238186686439 0.34472105417207632 0 0.20200890290724041 0.36500873302905812 0 0.20841238186686439 0.34472105417207632 0 0.1876990638134575 0.35190483133425488 0 0.20200890290724041 0.36500873302905812 0 0.1876990638134575 0.35190483133425488 0 0.20200890290724041 0.36500873302905812 0 0.17637045729064621 0.37495278481954358 0 0.1876990638134575 0.35190483133425488 0 0.17637045729064621 0.37495278481954358 0 0.16909864488713719 0.35514267549568418 0 0.15975417249048229 0.36968310563447321 0 0.16909864488713719 0.35514267549568418 0 0.14990537096685039 0.36070173528474042 0 0.17637045729064621 0.37495278481954358 0 0.15975417249048229 0.36968310563447321 0 0.16909864488713719 0.35514267549568418 0 0.16909864488713719 0.35514267549568418 0 0.1770056519607103 0.33831974362286749 0 0.1619384281755652 0.34052596047808847 0 0.16909864488713719 0.35514267549568418 0 0.14990537096685039 0.36070173528474042 0 0.15416632756111201 0.34898696826244741 0 0.16909864488713719 0.35514267549568418 0 0.1619384281755652 0.34052596047808847 0 0.15416632756111201 0.34898696826244741 0 0.1876990638134575 0.35190483133425488 0 0.16909864488713719 0.35514267549568418 0 0.1770056519607103 0.33831974362286749 0 0.19329834396814641 0.33328399686629978 0 0.1770056519607103 0.33831974362286749 0 0.1818581672390053 0.32281790922797782 0 0.19329834396814641 0.33328399686629978 0 0.1876990638134575 0.35190483133425488 0 0.1770056519607103 0.33831974362286749 0 0.1770056519607103 0.33831974362286749 0 0.1818581672390053 0.32281790922797782 0 0.1657389141743941 0.32607447656151611 0 0.1818581672390053 0.32281790922797782 0 0.1707678241303611 0.31259989648156872 0 0.1657389141743941 0.32607447656151611 0 0.18371952992762389 0.30785332357736089 0 0.19635424873152091 0.31866253726922511 0 0.1818581672390053 0.32281790922797782 0 0.18371952992762389 0.30785332357736089 0 0.1818581672390053 0.32281790922797782 0 0.1707678241303611 0.31259989648156872 0 0.1707678241303611 0.31259989648156872 0 0.1657389141743941 0.32607447656151611 0 0.16084478468494731 0.31759224325908281 0 0.1657389141743941 0.32607447656151611 0 0.15632698434060879 0.32309477146443721 0 0.16084478468494731 0.31759224325908281 0 0.1657389141743941 0.32607447656151611 0 0.15632698434060879 0.32309477146443721 0 0.1534459738215358 0.33116830427909388 0 0.15847128754916129 0.30901971199088751 0 0.1707678241303611 0.31259989648156872 0 0.16084478468494731 0.31759224325908281 0 0.15847128754916129 0.30901971199088751 0 0.16084478468494731 0.31759224325908281 0 0.1531779528472626 0.31690967251270458 0 0.15632698434060879 0.32309477146443721 0 0.16084478468494731 0.31759224325908281 0 0.1531779528472626 0.31690967251270458 0 0.1770056519607103 0.33831974362286749 0 0.1657389141743941 0.32607447656151611 0 0.1619384281755652 0.34052596047808847 0 0.1657389141743941 0.32607447656151611 0 0.1619384281755652 0.34052596047808847 0 0.1534459738215358 0.33116830427909388 0 0.1619384281755652 0.34052596047808847 0 0.14537830609435001 0.34101383565047871 0 0.15416632756111201 0.34898696826244741 0 0.1619384281755652 0.34052596047808847 0 0.1534459738215358 0.33116830427909388 0 0.14537830609435001 0.34101383565047871 0 0.1534459738215358 0.33116830427909388 0 0.1427633336259623 0.33140140495610498 0 0.14842729617490411 0.32372916070978858 0 0.1534459738215358 0.33116830427909388 0 0.1427633336259623 0.33140140495610498 0 0.14537830609435001 0.34101383565047871 0 0.1427633336259623 0.33140140495610498 0 0.14537830609435001 0.34101383565047871 0 0.13654253772275141 0.33890423694427602 0 0.1483486037307668 0.31106151759990119 0 0.1531779528472626 0.31690967251270458 0 0.14487070829517959 0.31682928085866202 0 0.1531779528472626 0.31690967251270458 0 0.14842729617490411 0.32372916070978858 0 0.14487070829517959 0.31682928085866202 0 0.15632698434060879 0.32309477146443721 0 0.1534459738215358 0.33116830427909388 0 0.14842729617490411 0.32372916070978858 0 0.15632698434060879 0.32309477146443721 0 0.1531779528472626 0.31690967251270458 0 0.14842729617490411 0.32372916070978858 0 0.1427633336259623 0.33140140495610498 0 0.14842729617490411 0.32372916070978858 0 0.1402378637359267 0.32270884290342983 0 0.14842729617490411 0.32372916070978858 0 0.14487070829517959 0.31682928085866202 0 0.1402378637359267 0.32270884290342983 0 0.1483486037307668 0.31106151759990119 0 0.14130712994747449 0.31140798331507108 0 0.14487070829517959 0.31682928085866202 0 0.14130712994747449 0.31140798331507108 0 0.14487070829517959 0.31682928085866202 0 0.13528824775885559 0.3155805734405937 0 0.14487070829517959 0.31682928085866202 0 0.13528824775885559 0.3155805734405937 0 0.1402378637359267 0.32270884290342983 0 0.13528824775885559 0.3155805734405937 0 0.1330765722643745 0.32249408610517011 0 0.1402378637359267 0.32270884290342983 0 0.1330765722643745 0.32249408610517011 0 0.1402378637359267 0.32270884290342983 0 0.13309473665224339 0.33072661256584468 0 0.12375204985912221 0.32702725796552912 0 0.1330765722643745 0.32249408610517011 0 0.13309473665224339 0.33072661256584468 0 0.12375204985912221 0.32702725796552912 0 0.1330765722643745 0.32249408610517011 0 0.12817088130983889 0.317450689473041 0 0.13528824775885559 0.3155805734405937 0 0.1330765722643745 0.32249408610517011 0 0.12817088130983889 0.317450689473041 0 0.1214195525311879 0.31440901896845502 0 0.12900107104525951 0.30968741412501871 0 0.12817088130983889 0.317450689473041 0 0.12900107104525951 0.30968741412501871 0 0.13528824775885559 0.3155805734405937 0 0.12817088130983889 0.317450689473041 0 0.14537830609435001 0.34101383565047871 0 0.13654253772275141 0.33890423694427602 0 0.13685475473781181 0.34959577292381833 0 0.13654253772275141 0.33890423694427602 0 0.1260676383484185 0.3399282146226113 0 0.13685475473781181 0.34959577292381833 0 0.1427633336259623 0.33140140495610498 0 0.13654253772275141 0.33890423694427602 0 0.13309473665224339 0.33072661256584468 0 0.1427633336259623 0.33140140495610498 0 0.1402378637359267 0.32270884290342983 0 0.13309473665224339 0.33072661256584468 0 0.12375204985912221 0.32702725796552912 0 0.13309473665224339 0.33072661256584468 0 0.1260676383484185 0.3399282146226113 0 0.13654253772275141 0.33890423694427602 0 0.13309473665224339 0.33072661256584468 0 0.1260676383484185 0.3399282146226113 0 0.1232256624926347 0.35239419723674059 0 0.13685475473781181 0.34959577292381833 0 0.13271547193899449 0.36524458735671972 0 0.1232256624926347 0.35239419723674059 0 0.1260676383484185 0.3399282146226113 0 0.13685475473781181 0.34959577292381833 0 0.13685475473781181 0.34959577292381833 0 0.13271547193899449 0.36524458735671972 0 0.14990537096685039 0.36070173528474042 0 0.13271547193899449 0.36524458735671972 0 0.14727668153694909 0.37350977329143831 0 0.1384203385310763 0.3853027474406937 0 0.13271547193899449 0.36524458735671972 0 0.14727668153694909 0.37350977329143831 0 0.14990537096685039 0.36070173528474042 0 0.15975417249048229 0.36968310563447321 0 0.14727668153694909 0.37350977329143831 0 0.14990537096685039 0.36070173528474042 0 0.14537830609435001 0.34101383565047871 0 0.13685475473781181 0.34959577292381833 0 0.15416632756111201 0.34898696826244741 0 0.13685475473781181 0.34959577292381833 0 0.14990537096685039 0.36070173528474042 0 0.15416632756111201 0.34898696826244741 0 0.15196678808574959 0.39634912392256672 0 0.1402717845598023 0.40641241395674649 0 0.16129649351817349 0.40676751558544272 0 0.15196678808574959 0.39634912392256672 0 0.1384203385310763 0.3853027474406937 0 0.1402717845598023 0.40641241395674649 0 0.15196678808574959 0.39634912392256672 0 0.15611970777082879 0.38410855928095938 0 0.1384203385310763 0.3853027474406937 0 0.14727668153694909 0.37350977329143831 0 0.15611970777082879 0.38410855928095938 0 0.1384203385310763 0.3853027474406937 0 0.15975417249048229 0.36968310563447321 0 0.14727668153694909 0.37350977329143831 0 0.15611970777082879 0.38410855928095938 0 0.1231373165426977 0.3806134049577457 0 0.13271547193899449 0.36524458735671972 0 0.1384203385310763 0.3853027474406937 0 0.1231373165426977 0.3806134049577457 0 0.1384203385310763 0.3853027474406937 0 0.1271742827044339 0.39597619803598749 0 0.1384203385310763 0.3853027474406937 0 0.1271742827044339 0.39597619803598749 0 0.1402717845598023 0.40641241395674649 0 0.1162621503634904 0.41872732341568758 0 0.1271742827044339 0.39597619803598749 0 0.1402717845598023 0.40641241395674649 0 0.1162621503634904 0.41872732341568758 0 0.1402717845598023 0.40641241395674649 0 0.14380353536204241 0.43078456768362461 0 0.1162621503634904 0.41872732341568758 0 0.14380353536204241 0.43078456768362461 0 0.1205619018159948 0.44674810255646558 0 0.1162621503634904 0.41872732341568758 0 0.13914808732176639 0.43525501877606959 0 0.1162621503634904 0.41872732341568758 0 0.13914808732176639 0.43525501877606959 0 0.14380353536204241 0.43078456768362461 0 0.1402717845598023 0.40641241395674649 0 0.16129649351817349 0.40676751558544272 0 0.1583102357697074 0.42239552662274649 0 0.1402717845598023 0.40641241395674649 0 0.14380353536204241 0.43078456768362461 0 0.1583102357697074 0.42239552662274649 0 0.16129649351817349 0.40676751558544272 0 0.17483444504792359 0.42517132393635743 0 0.1767108048052333 0.40648620419478521 0 0.16129649351817349 0.40676751558544272 0 0.1583102357697074 0.42239552662274649 0 0.17483444504792359 0.42517132393635743 0 0.1583102357697074 0.42239552662274649 0 0.17483444504792359 0.42517132393635743 0 0.1713449203605947 0.44284181195156158 0 0.14380353536204241 0.43078456768362461 0 0.1713449203605947 0.44284181195156158 0 0.14380353536204241 0.43078456768362461 0 0.1583102357697074 0.42239552662274649 0 0.1713449203605947 0.44284181195156158 0 0.17483444504792359 0.42517132393635743 0 0.18216746451451801 0.43740730714955978 0 0.1713449203605947 0.44284181195156158 0 0.17483444504792359 0.42517132393635743 0 0.1713449203605947 0.44284181195156158 0 0.17483444504792359 0.42517132393635743 0 0.1894098998784805 0.41329321868770491 0 0.19020123220431809 0.42989189963497759 0 0.17483444504792359 0.42517132393635743 0 0.18216746451451801 0.43740730714955978 0 0.19020123220431809 0.42989189963497759 0 0.17483444504792359 0.42517132393635743 0 0.1767108048052333 0.40648620419478521 0 0.1894098998784805 0.41329321868770491 0 0.1767108048052333 0.40648620419478521 0 0.16971698500113649 0.39319336099264368 0 0.18829620058045249 0.39400560177177729 0 0.1767108048052333 0.40648620419478521 0 0.18829620058045249 0.39400560177177729 0 0.1894098998784805 0.41329321868770491 0 0.15196678808574959 0.39634912392256672 0 0.15611970777082879 0.38410855928095938 0 0.16971698500113649 0.39319336099264368 0 0.15196678808574959 0.39634912392256672 0 0.16129649351817349 0.40676751558544272 0 0.16971698500113649 0.39319336099264368 0 0.16129649351817349 0.40676751558544272 0 0.1767108048052333 0.40648620419478521 0 0.16971698500113649 0.39319336099264368 0 0.17637045729064621 0.37495278481954358 0 0.15975417249048229 0.36968310563447321 0 0.15611970777082879 0.38410855928095938 0 0.17637045729064621 0.37495278481954358 0 0.15611970777082879 0.38410855928095938 0 0.16971698500113649 0.39319336099264368 0 0.17637045729064621 0.37495278481954358 0 0.16971698500113649 0.39319336099264368 0 0.18829620058045249 0.39400560177177729 0 0.20200890290724041 0.36500873302905812 0 0.18829620058045249 0.39400560177177729 0 0.21022739730807871 0.38998636848418261 0 0.20200890290724041 0.36500873302905812 0 0.17637045729064621 0.37495278481954358 0 0.18829620058045249 0.39400560177177729 0 0.18829620058045249 0.39400560177177729 0 0.21022739730807871 0.38998636848418261 0 0.20498907662426999 0.40636669370009521 0 0.18829620058045249 0.39400560177177729 0 0.20498907662426999 0.40636669370009521 0 0.1894098998784805 0.41329321868770491 0 0.21022739730807871 0.38998636848418261 0 0.225418264115859 0.4045632601918206 0 0.20498907662426999 0.40636669370009521 0 0.20200890290724041 0.36500873302905812 0 0.21022739730807871 0.38998636848418261 0 0.22860253219506471 0.37841014948266538 0 0.21022739730807871 0.38998636848418261 0 0.22860253219506471 0.37841014948266538 0 0.225418264115859 0.4045632601918206 0 0.225418264115859 0.4045632601918206 0 0.2490748840761759 0.41447913741323361 0 0.25519616148288887 0.39181156593627298 0 0.22860253219506471 0.37841014948266538 0 0.225418264115859 0.4045632601918206 0 0.25519616148288887 0.39181156593627298 0 0.22860253219506471 0.37841014948266538 0 0.25519616148288887 0.39181156593627298 0 0.24305895760768401 0.36641304215893011 0 0.22860253219506471 0.37841014948266538 0 0.25519616148288887 0.39181156593627298 0 0.2490748840761759 0.41447913741323361 0 0.23040520055063371 0.42472223384156732 0 0.24517769652138269 0.43868647355565088 0 0.225418264115859 0.4045632601918206 0 0.2490748840761759 0.41447913741323361 0 0.23040520055063371 0.42472223384156732 0 0.225418264115859 0.4045632601918206 0 0.23040520055063371 0.42472223384156732 0 0.20794960100346549 0.42683021087399747 0 0.23040520055063371 0.42472223384156732 0 0.20794960100346549 0.42683021087399747 0 0.2229924843016429 0.43948176305630821 0 0.23040520055063371 0.42472223384156732 0 0.2229924843016429 0.43948176305630821 0 0.24517769652138269 0.43868647355565088 0 0.225418264115859 0.4045632601918206 0 0.20794960100346549 0.42683021087399747 0 0.20498907662426999 0.40636669370009521 0 0.20794960100346549 0.42683021087399747 0 0.20498907662426999 0.40636669370009521 0 0.1894098998784805 0.41329321868770491 0 0.20794960100346549 0.42683021087399747 0 0.19020123220431809 0.42989189963497759 0 0.19426067079655579 0.44330707928475449 0 0.20794960100346549 0.42683021087399747 0 0.1894098998784805 0.41329321868770491 0 0.19020123220431809 0.42989189963497759 0 0.18216746451451801 0.43740730714955978 0 0.19020123220431809 0.42989189963497759 0 0.19426067079655579 0.44330707928475449 0 0.19426067079655579 0.44330707928475449 0 0.1940681668251448 0.45640187690020761 0 0.18254949088188149 0.4477470207382499 0 0.19426067079655579 0.44330707928475449 0 0.1940681668251448 0.45640187690020761 0 0.20814429074563079 0.44944136850783811 0 0.1940681668251448 0.45640187690020761 0 0.20814429074563079 0.44944136850783811 0 0.2039949308663013 0.472197178379127 0 0.1940681668251448 0.45640187690020761 0 0.2039949308663013 0.472197178379127 0 0.18608081776579821 0.46867989557539208 0 0.1940681668251448 0.45640187690020761 0 0.18608081776579821 0.46867989557539208 0 0.18254949088188149 0.4477470207382499 0 0.20814429074563079 0.44944136850783811 0 0.22852149564367849 0.45772005811557609 0 0.2039949308663013 0.472197178379127 0 0.20794960100346549 0.42683021087399747 0 0.19426067079655579 0.44330707928475449 0 0.20814429074563079 0.44944136850783811 0 0.20794960100346549 0.42683021087399747 0 0.20814429074563079 0.44944136850783811 0 0.2229924843016429 0.43948176305630821 0 0.2229924843016429 0.43948176305630821 0 0.22852149564367849 0.45772005811557609 0 0.24517769652138269 0.43868647355565088 0 0.20814429074563079 0.44944136850783811 0 0.2229924843016429 0.43948176305630821 0 0.22852149564367849 0.45772005811557609 0 0.22852149564367849 0.45772005811557609 0 0.2480713074063006 0.45455858161591112 0 0.2508124586903176 0.47172026355836871 0 0.22852149564367849 0.45772005811557609 0 0.2480713074063006 0.45455858161591112 0 0.24517769652138269 0.43868647355565088 0 0.24658834009167641 0.5 0 0.2268462464291012 0.47913099520174052 0 0.2508124586903176 0.47172026355836871 0 0.22852149564367849 0.45772005811557609 0 0.2268462464291012 0.47913099520174052 0 0.2508124586903176 0.47172026355836871 0 0.22852149564367849 0.45772005811557609 0 0.2268462464291012 0.47913099520174052 0 0.2039949308663013 0.472197178379127 0 0.24658834009167641 0.5 0 0.2268462464291012 0.47913099520174052 0 0.21774471386125249 0.5 0 0.2039949308663013 0.472197178379127 0 0.18890108763082861 0.5 0 0.18608081776579821 0.46867989557539208 0 0.21774471386125249 0.5 0 0.2039949308663013 0.472197178379127 0 0.18890108763082861 0.5 0 0.2268462464291012 0.47913099520174052 0 0.21774471386125249 0.5 0 0.2039949308663013 0.472197178379127 0 0.18890108763082861 0.5 0 0.16570119088049859 0.47142090597577962 0 0.18608081776579821 0.46867989557539208 0 0.18890108763082861 0.5 0 0.1600574614004048 0.499999999999998 0 0.16570119088049859 0.47142090597577962 0 0.1600574614004048 0.499999999999998 0 0.16570119088049859 0.47142090597577962 0 0.1600574614004048 0.499999999999998 0 0.16570119088049859 0.47142090597577962 0 0.1473140710794911 0.47841155746419622 0 0.16570119088049859 0.47142090597577962 0 0.18608081776579821 0.46867989557539208 0 0.18254949088188149 0.4477470207382499 0 0.16570119088049859 0.47142090597577962 0 0.18254949088188149 0.4477470207382499 0 0.1713449203605947 0.44284181195156158 0 0.18216746451451801 0.43740730714955978 0 0.19426067079655579 0.44330707928475449 0 0.18254949088188149 0.4477470207382499 0 0.18254949088188149 0.4477470207382499 0 0.1713449203605947 0.44284181195156158 0 0.18216746451451801 0.43740730714955978 0 0.18254949088188149 0.4477470207382499 0 0.1713449203605947 0.44284181195156158 0 0.16570119088049859 0.47142090597577962 0 0.1713449203605947 0.44284181195156158 0 0.16570119088049859 0.47142090597577962 0 0.1713449203605947 0.44284181195156158 0 0.15076126992746861 0.45128164001408699 0 0.16570119088049859 0.47142090597577962 0 0.14979107830043681 0.4659705410046826 0 0.15076126992746861 0.45128164001408699 0 0.14979107830043681 0.4659705410046826 0 0.15076126992746861 0.45128164001408699 0 0.13538778131428869 0.46276806056466779 0 0.13914808732176639 0.43525501877606959 0 0.14380353536204241 0.43078456768362461 0 0.15076126992746861 0.45128164001408699 0 0.14380353536204241 0.43078456768362461 0 0.1713449203605947 0.44284181195156158 0 0.15076126992746861 0.45128164001408699 0 0.13914808732176639 0.43525501877606959 0 0.15076126992746861 0.45128164001408699 0 0.13538778131428869 0.46276806056466779 0 0.13914808732176639 0.43525501877606959 0 0.13538778131428869 0.46276806056466779 0 0.1205619018159948 0.44674810255646558 0 0.13914808732176639 0.43525501877606959 0 0.13538778131428869 0.46276806056466779 0 0.1248616532684987 0.47476888169724352 0 0.1205619018159948 0.44674810255646558 0 0.13538778131428869 0.46276806056466779 0 0.13538778131428869 0.46276806056466779 0 0.13162747530681079 0.49028110235326611 0 0.1248616532684987 0.47476888169724352 0 0.13538778131428869 0.46276806056466779 0 0.13162747530681079 0.49028110235326611 0 0.13538778131428869 0.46276806056466779 0 0.13162747530681079 0.49028110235326611 0 0.1473140710794911 0.47841155746419622 0 0.1248616532684987 0.47476888169724352 0 0.13162747530681079 0.49028110235326611 0 0.1248616532684987 0.47476888169724352 0 0.1287333349596296 0.50000000000000233 0 0.1248616532684987 0.47476888169724352 0 0.13162747530681079 0.49028110235326611 0 0.1287333349596296 0.50000000000000233 0 0.13162747530681079 0.49028110235326611 0 0.1302991587401483 0.50000000000000044 0 0.13162747530681079 0.49028110235326611 0 0.1302991587401483 0.50000000000000044 0 0.13586647714571501 0.50000000000000044 0 0.13162747530681079 0.49028110235326611 0 0.1287333349596296 0.50000000000000233 0 0.1302991587401483 0.50000000000000044 0 0.13162747530681079 0.49028110235326611 0 0.13586647714571501 0.50000000000000044 0 0.14406777576738011 0.49099847585001533 0 0.13162747530681079 0.49028110235326611 0 0.13586647714571501 0.50000000000000044 0 0.1600574614004048 0.499999999999998 0 0.13586647714571501 0.50000000000000044 0 0.14406777576738011 0.49099847585001533 0 0.1600574614004048 0.499999999999998 0 0.14406777576738011 0.49099847585001533 0 0.1473140710794911 0.47841155746419622 0 0.13162747530681079 0.49028110235326611 0 0.14406777576738011 0.49099847585001533 0 0.1473140710794911 0.47841155746419622 0 0.16570119088049859 0.47142090597577962 0 0.14979107830043681 0.4659705410046826 0 0.1473140710794911 0.47841155746419622 0 0.14979107830043681 0.4659705410046826 0 0.13538778131428869 0.46276806056466779 0 0.1473140710794911 0.47841155746419622 0 0.3484716028812469 0.46927922019571022 0 0.3639431844790027 0.47792576209206161 0 0.36215729707138089 0.45952194433731441 0 0.3484716028812469 0.46927922019571022 0 0.34825454286986979 0.4866410253547736 0 0.3639431844790027 0.47792576209206161 0 0.34825454286986979 0.4866410253547736 0 0.36196284501337178 0.5 0 0.3639431844790027 0.47792576209206161 0 0.34825454286986979 0.4866410253547736 0 0.36196284501337178 0.5 0 0.33311921878294798 0.5 0 0.36196284501337178 0.5 0 0.3639431844790027 0.47792576209206161 0 0.38120033573297152 0.48442634992442057 0 0.3639431844790027 0.47792576209206161 0 0.37844435483634198 0.4675903904274426 0 0.38120033573297152 0.48442634992442057 0 0.3639431844790027 0.47792576209206161 0 0.36215729707138089 0.45952194433731441 0 0.37844435483634198 0.4675903904274426 0 0.36215729707138089 0.45952194433731441 0 0.37809165231809289 0.44568724501072521 0 0.37844435483634198 0.4675903904274426 0 0.36215729707138089 0.45952194433731441 0 0.35494335133579169 0.44207750056399991 0 0.37809165231809289 0.44568724501072521 0 0.35494335133579169 0.44207750056399991 0 0.365542703577178 0.42914551292816783 0 0.37809165231809289 0.44568724501072521 0 0.35494335133579169 0.44207750056399991 0 0.33746945485668051 0.4332718215327816 0 0.35494335133579169 0.44207750056399991 0 0.33933393763431879 0.44574212964051668 0 0.33746945485668051 0.4332718215327816 0 0.36215729707138089 0.45952194433731441 0 0.35494335133579169 0.44207750056399991 0 0.34904963657780902 0.45457154773394731 0 0.35494335133579169 0.44207750056399991 0 0.34904963657780902 0.45457154773394731 0 0.33933393763431879 0.44574212964051668 0 0.3484716028812469 0.46927922019571022 0 0.36215729707138089 0.45952194433731441 0 0.34904963657780902 0.45457154773394731 0 0.3484716028812469 0.46927922019571022 0 0.34904963657780902 0.45457154773394731 0 0.33768006752307722 0.45817683321967928 0 0.33768006752307722 0.45817683321967928 0 0.32516604183334019 0.44948070643492349 0 0.3263791186886712 0.4718105620932988 0 0.3484716028812469 0.46927922019571022 0 0.33768006752307722 0.45817683321967928 0 0.3263791186886712 0.4718105620932988 0 0.33933393763431879 0.44574212964051668 0 0.32516604183334019 0.44948070643492349 0 0.33457771181584611 0.43369686048393857 0 0.32516604183334019 0.44948070643492349 0 0.33457771181584611 0.43369686048393857 0 0.33933393763431879 0.44574212964051668 0 0.33457771181584611 0.43369686048393857 0 0.33746945485668051 0.4332718215327816 0 0.34904963657780902 0.45457154773394731 0 0.33768006752307722 0.45817683321967928 0 0.33933393763431879 0.44574212964051668 0 0.33768006752307722 0.45817683321967928 0 0.33933393763431879 0.44574212964051668 0 0.32516604183334019 0.44948070643492349 0 0.32516604183334019 0.44948070643492349 0 0.30610823095482448 0.43788140873538328 0 0.33457771181584611 0.43369686048393857 0 0.32516604183334019 0.44948070643492349 0 0.30909376894118562 0.45443190325323968 0 0.30610823095482448 0.43788140873538328 0 0.32516604183334019 0.44948070643492349 0 0.3263791186886712 0.4718105620932988 0 0.30909376894118562 0.45443190325323968 0 0.3263791186886712 0.4718105620932988 0 0.30059931196992168 0.47005809262963882 0 0.31153103284441203 0.48323920778459489 0 0.3484716028812469 0.46927922019571022 0 0.34825454286986979 0.4866410253547736 0 0.3263791186886712 0.4718105620932988 0 0.34825454286986979 0.4866410253547736 0 0.3263791186886712 0.4718105620932988 0 0.33311921878294798 0.5 0 0.3263791186886712 0.4718105620932988 0 0.33311921878294798 0.5 0 0.31153103284441203 0.48323920778459489 0 0.33311921878294798 0.5 0 0.30427559255252412 0.5 0 0.31153103284441203 0.48323920778459489 0 0.30427559255252412 0.5 0 0.31153103284441203 0.48323920778459489 0 0.29110307967174748 0.48580921065493432 0 0.30059931196992168 0.47005809262963882 0 0.31153103284441203 0.48323920778459489 0 0.29110307967174748 0.48580921065493432 0 0.30059931196992168 0.47005809262963882 0 0.29110307967174748 0.48580921065493432 0 0.27585954767988607 0.47408041721782612 0 0.30427559255252412 0.5 0 0.29110307967174748 0.48580921065493432 0 0.27543196632210021 0.5 0 0.27543196632210021 0.5 0 0.27585954767988607 0.47408041721782612 0 0.26198527678341299 0.48673919500437729 0 0.29110307967174748 0.48580921065493432 0 0.27543196632210021 0.5 0 0.27585954767988607 0.47408041721782612 0 0.27585954767988607 0.47408041721782612 0 0.2508124586903176 0.47172026355836871 0 0.26198527678341299 0.48673919500437729 0 0.24658834009167641 0.5 0 0.2508124586903176 0.47172026355836871 0 0.26198527678341299 0.48673919500437729 0 0.24658834009167641 0.5 0 0.27543196632210021 0.5 0 0.26198527678341299 0.48673919500437729 0 0.2480713074063006 0.45455858161591112 0 0.24517769652138269 0.43868647355565088 0 0.26777357876982372 0.45010753123404867 0 0.24517769652138269 0.43868647355565088 0 0.26777357876982372 0.45010753123404867 0 0.26600993858745892 0.42808938636359573 0 0.2480713074063006 0.45455858161591112 0 0.2508124586903176 0.47172026355836871 0 0.26777357876982372 0.45010753123404867 0 0.27585954767988607 0.47408041721782612 0 0.2508124586903176 0.47172026355836871 0 0.26777357876982372 0.45010753123404867 0 0.27585954767988607 0.47408041721782612 0 0.26777357876982372 0.45010753123404867 0 0.28975077836376328 0.45156795454144122 0 0.26777357876982372 0.45010753123404867 0 0.28975077836376328 0.45156795454144122 0 0.28607917402868899 0.43188291486824332 0 0.28975077836376328 0.45156795454144122 0 0.30610823095482448 0.43788140873538328 0 0.28607917402868899 0.43188291486824332 0 0.30059931196992168 0.47005809262963882 0 0.27585954767988607 0.47408041721782612 0 0.28975077836376328 0.45156795454144122 0 0.3263791186886712 0.4718105620932988 0 0.30059931196992168 0.47005809262963882 0 0.30909376894118562 0.45443190325323968 0 0.30059931196992168 0.47005809262963882 0 0.28975077836376328 0.45156795454144122 0 0.30909376894118562 0.45443190325323968 0 0.28975077836376328 0.45156795454144122 0 0.30909376894118562 0.45443190325323968 0 0.30610823095482448 0.43788140873538328 0 0.30610823095482448 0.43788140873538328 0 0.30869255759955722 0.41877018355733042 0 0.28607917402868899 0.43188291486824332 0 0.3075810200549029 0.4073564129674252 0 0.30869255759955722 0.41877018355733042 0 0.30232024370737348 0.40459188745546998 0 0.31142364564813352 0.41093370315849659 0 0.3075810200549029 0.4073564129674252 0 0.31015955469665918 0.40201373970895371 0 0.31142364564813352 0.41093370315849659 0 0.3075810200549029 0.4073564129674252 0 0.30869255759955722 0.41877018355733042 0 0.30869255759955722 0.41877018355733042 0 0.29605666041485018 0.40551048050067168 0 0.30232024370737348 0.40459188745546998 0 0.30869255759955722 0.41877018355733042 0 0.2819443595412231 0.40529087474680159 0 0.30869255759955722 0.41877018355733042 0 0.2819443595412231 0.40529087474680159 0 0.29605666041485018 0.40551048050067168 0 0.30869255759955722 0.41877018355733042 0 0.28607917402868899 0.43188291486824332 0 0.2819443595412231 0.40529087474680159 0 0.2490748840761759 0.41447913741323361 0 0.26600993858745892 0.42808938636359573 0 0.2819443595412231 0.40529087474680159 0 0.26777357876982372 0.45010753123404867 0 0.28607917402868899 0.43188291486824332 0 0.26600993858745892 0.42808938636359573 0 0.28607917402868899 0.43188291486824332 0 0.26600993858745892 0.42808938636359573 0 0.2819443595412231 0.40529087474680159 0 0.2490748840761759 0.41447913741323361 0 0.24517769652138269 0.43868647355565088 0 0.26600993858745892 0.42808938636359573 0 0.2490748840761759 0.41447913741323361 0 0.25519616148288887 0.39181156593627298 0 0.2819443595412231 0.40529087474680159 0 0.25519616148288887 0.39181156593627298 0 0.2618259464583832 0.36726095095448358 0 0.25519616148288887 0.39181156593627298 0 0.27405714121884811 0.38409687161834088 0 0.2618259464583832 0.36726095095448358 0 0.24305895760768401 0.36641304215893011 0 0.25519616148288887 0.39181156593627298 0 0.2618259464583832 0.36726095095448358 0 0.2490748840761759 0.41447913741323361 0 0.25519616148288887 0.39181156593627298 0 0.27405714121884811 0.38409687161834088 0 0.2819443595412231 0.40529087474680159 0 0.28762179706039948 0.39125587461843808 0 0.25519616148288887 0.39181156593627298 0 0.2819443595412231 0.40529087474680159 0 0.25519616148288887 0.39181156593627298 0 0.27405714121884811 0.38409687161834088 0 0.2819443595412231 0.40529087474680159 0 0.27405714121884811 0.38409687161834088 0 0.28403056220722062 0.37531448917755911 0 0.2737626695690904 0.37327007608818358 0 0.27405714121884811 0.38409687161834088 0 0.28403056220722062 0.37531448917755911 0 0.28762179706039948 0.39125587461843808 0 0.29405085274881382 0.37834813740539031 0 0.28762179706039948 0.39125587461843808 0 0.30049862001061489 0.39881078008944609 0 0.28403056220722062 0.37531448917755911 0 0.29405085274881382 0.37834813740539031 0 0.28762179706039948 0.39125587461843808 0 0.2819443595412231 0.40529087474680159 0 0.28762179706039948 0.39125587461843808 0 0.29316512877403511 0.40022580951085568 0 0.28762179706039948 0.39125587461843808 0 0.29316512877403511 0.40022580951085568 0 0.30049862001061489 0.39881078008944609 0 0.2819443595412231 0.40529087474680159 0 0.29316512877403511 0.40022580951085568 0 0.29605666041485018 0.40551048050067168 0 0.29316512877403511 0.40022580951085568 0 0.29605666041485018 0.40551048050067168 0 0.30042223720462058 0.4004666581126537 0 0.29605666041485018 0.40551048050067168 0 0.30232024370737348 0.40459188745546998 0 0.30042223720462058 0.4004666581126537 0 0.29316512877403511 0.40022580951085568 0 0.30042223720462058 0.4004666581126537 0 0.30049862001061489 0.39881078008944609 0 0.30042223720462058 0.4004666581126537 0 0.30049862001061489 0.39881078008944609 0 0.30232024370737348 0.40459188745546998 0 0.30049862001061489 0.39881078008944609 0 0.30232024370737348 0.40459188745546998 0 0.30049862001061489 0.39881078008944609 0 0.30430913302558388 0.40020258685778032 0 0.30232024370737348 0.40459188745546998 0 0.30042223720462058 0.4004666581126537 0 0.30049862001061489 0.39881078008944609 0 0.30049862001061489 0.39881078008944609 0 0.30098622665836988 0.38824011406760628 0 0.30049862001061489 0.39881078008944609 0 0.30430913302558388 0.40020258685778032 0 0.30098622665836988 0.38824011406760628 0 0.30098622665836988 0.38824011406760628 0 0.30110064445947421 0.38575968774854158 0 0.31262554991773928 0.39787599139405988 0 0.31015955469665918 0.40201373970895371 0 0.30098622665836988 0.38824011406760628 0 0.30110064445947421 0.38575968774854158 0 0.31262554991773928 0.39787599139405988 0 0.30430913302558388 0.40020258685778032 0 0.31015955469665918 0.40201373970895371 0 0.30098622665836988 0.38824011406760628 0 0.31015955469665918 0.40201373970895371 0 0.30098622665836988 0.38824011406760628 0 0.31262554991773928 0.39787599139405988 0 0.3075810200549029 0.4073564129674252 0 0.30232024370737348 0.40459188745546998 0 0.30430913302558388 0.40020258685778032 0 0.3075810200549029 0.4073564129674252 0 0.30430913302558388 0.40020258685778032 0 0.31015955469665918 0.40201373970895371 0 0.29405085274881382 0.37834813740539031 0 0.30049862001061489 0.39881078008944609 0 0.29405085274881382 0.37834813740539031 0 0.30049862001061489 0.39881078008944609 0 0.30098622665836988 0.38824011406760628 0 0.30110064445947421 0.38575968774854158 0 0.30177514978199971 0.3711373061071076 0 0.30110064445947421 0.38575968774854158 0 0.3104817065657739 0.3858680532317833 0 0.30177514978199971 0.3711373061071076 0 0.29405085274881382 0.37834813740539031 0 0.30110064445947421 0.38575968774854158 0 0.30177514978199971 0.3711373061071076 0 0.29405085274881382 0.37834813740539031 0 0.30110064445947421 0.38575968774854158 0 0.29405085274881382 0.37834813740539031 0 0.30098622665836988 0.38824011406760628 0 0.30110064445947421 0.38575968774854158 0 0.29405085274881382 0.37834813740539031 0 0.30098622665836988 0.38824011406760628 0 0.30098622665836988 0.38824011406760628 0 0.30110064445947421 0.38575968774854158 0 0.30110064445947421 0.38575968774854158 0 0.3104817065657739 0.3858680532317833 0 0.31262554991773928 0.39787599139405988 0 0.3104817065657739 0.3858680532317833 0 0.30177514978199971 0.3711373061071076 0 0.3104817065657739 0.3858680532317833 0 0.31717345926189522 0.3709258031848055 0 0.30177514978199971 0.3711373061071076 0 0.3104817065657739 0.3858680532317833 0 0.3376156911696272 0.37620073599141618 0 0.3104817065657739 0.3858680532317833 0 0.3376156911696272 0.37620073599141618 0 0.31717345926189522 0.3709258031848055 0 0.3104817065657739 0.3858680532317833 0 0.3376156911696272 0.37620073599141618 0 0.3351802944883514 0.39738750443412002 0 0.3376156911696272 0.37620073599141618 0 0.3351802944883514 0.39738750443412002 0 0.34879159400795012 0.38769315231290841 0 0.3351802944883514 0.39738750443412002 0 0.33658962428999861 0.41133204962483783 0 0.34988972217452752 0.40801784569160632 0 0.3351802944883514 0.39738750443412002 0 0.32415045537600512 0.40999229503957763 0 0.33658962428999861 0.41133204962483783 0 0.3351802944883514 0.39738750443412002 0 0.31909953512109351 0.40044867980609039 0 0.32415045537600512 0.40999229503957763 0 0.3104817065657739 0.3858680532317833 0 0.3351802944883514 0.39738750443412002 0 0.31909953512109351 0.40044867980609039 0 0.3104817065657739 0.3858680532317833 0 0.31909953512109351 0.40044867980609039 0 0.3104817065657739 0.3858680532317833 0 0.31262554991773928 0.39787599139405988 0 0.31909953512109351 0.40044867980609039 0 0.31262554991773928 0.39787599139405988 0 0.32415045537600512 0.40999229503957763 0 0.31015955469665918 0.40201373970895371 0 0.31262554991773928 0.39787599139405988 0 0.32415045537600512 0.40999229503957763 0 0.31262554991773928 0.39787599139405988 0 0.31909953512109351 0.40044867980609039 0 0.32415045537600512 0.40999229503957763 0 0.31015955469665918 0.40201373970895371 0 0.31933288273494848 0.41578736535030097 0 0.32415045537600512 0.40999229503957763 0 0.31142364564813352 0.41093370315849659 0 0.31015955469665918 0.40201373970895371 0 0.31933288273494848 0.41578736535030097 0 0.30869255759955722 0.41877018355733042 0 0.31933288273494848 0.41578736535030097 0 0.32906281765607392 0.42006619542527468 0 0.31015955469665918 0.40201373970895371 0 0.31933288273494848 0.41578736535030097 0 0.31142364564813352 0.41093370315849659 0 0.30869255759955722 0.41877018355733042 0 0.31933288273494848 0.41578736535030097 0 0.31933288273494848 0.41578736535030097 0 0.32415045537600512 0.40999229503957763 0 0.32906281765607392 0.42006619542527468 0 0.30869255759955722 0.41877018355733042 0 0.33457771181584611 0.43369686048393857 0 0.33544075565789128 0.43224949236785898 0 0.30869255759955722 0.41877018355733042 0 0.33544075565789128 0.43224949236785898 0 0.30610823095482448 0.43788140873538328 0 0.30869255759955722 0.41877018355733042 0 0.33457771181584611 0.43369686048393857 0 0.30869255759955722 0.41877018355733042 0 0.33544075565789128 0.43224949236785898 0 0.32906281765607392 0.42006619542527468 0 0.30610823095482448 0.43788140873538328 0 0.33457771181584611 0.43369686048393857 0 0.33457771181584611 0.43369686048393857 0 0.33544075565789128 0.43224949236785898 0 0.33746945485668051 0.4332718215327816 0 0.33457771181584611 0.43369686048393857 0 0.33544075565789128 0.43224949236785898 0 0.33544075565789128 0.43224949236785898 0 0.33746945485668051 0.4332718215327816 0 0.35001853239939229 0.42365555934674631 0 0.33544075565789128 0.43224949236785898 0 0.33746945485668051 0.4332718215327816 0 0.33457771181584611 0.43369686048393857 0 0.33746945485668051 0.4332718215327816 0 0.33544075565789128 0.43224949236785898 0 0.33658962428999861 0.41133204962483783 0 0.34988972217452752 0.40801784569160632 0 0.33544075565789128 0.43224949236785898 0 0.32906281765607392 0.42006619542527468 0 0.33658962428999861 0.41133204962483783 0 0.33544075565789128 0.43224949236785898 0 0.34988972217452752 0.40801784569160632 0 0.32415045537600512 0.40999229503957763 0 0.32906281765607392 0.42006619542527468 0 0.33658962428999861 0.41133204962483783 0 0.33544075565789128 0.43224949236785898 0 0.34988972217452752 0.40801784569160632 0 0.35001853239939229 0.42365555934674631 0 0.34988972217452752 0.40801784569160632 0 0.36165970526353591 0.41519797525725338 0 0.36412400085156282 0.39702719229323191 0 0.34988972217452752 0.40801784569160632 0 0.35001853239939229 0.42365555934674631 0 0.36165970526353591 0.41519797525725338 0 0.35494335133579169 0.44207750056399991 0 0.33746945485668051 0.4332718215327816 0 0.365542703577178 0.42914551292816783 0 0.33746945485668051 0.4332718215327816 0 0.35001853239939229 0.42365555934674631 0 0.365542703577178 0.42914551292816783 0 0.33746945485668051 0.4332718215327816 0 0.365542703577178 0.42914551292816783 0 0.35001853239939229 0.42365555934674631 0 0.365542703577178 0.42914551292816783 0 0.36165970526353591 0.41519797525725338 0 0.365542703577178 0.42914551292816783 0 0.36165970526353591 0.41519797525725338 0 0.37744029411777058 0.41252948965876268 0 0.36165970526353591 0.41519797525725338 0 0.36412400085156282 0.39702719229323191 0 0.37744029411777058 0.41252948965876268 0 0.36412400085156282 0.39702719229323191 0 0.38026367080056678 0.39066664182047522 0 0.37744029411777058 0.41252948965876268 0 0.34988972217452752 0.40801784569160632 0 0.36412400085156282 0.39702719229323191 0 0.36433868869116592 0.38378619901535488 0 0.36433868869116592 0.38378619901535488 0 0.3773824667175657 0.37546563606013739 0 0.38026367080056678 0.39066664182047522 0 0.36433868869116592 0.38378619901535488 0 0.36474967577348072 0.36653341875104961 0 0.3773824667175657 0.37546563606013739 0 0.36412400085156282 0.39702719229323191 0 0.36433868869116592 0.38378619901535488 0 0.38026367080056678 0.39066664182047522 0 0.36433868869116592 0.38378619901535488 0 0.36474967577348072 0.36653341875104961 0 0.36412400085156282 0.39702719229323191 0 0.36433868869116592 0.38378619901535488 0 0.3376156911696272 0.37620073599141618 0 0.34879159400795012 0.38769315231290841 0 0.36474967577348072 0.36653341875104961 0 0.36433868869116592 0.38378619901535488 0 0.34879159400795012 0.38769315231290841 0 0.36474967577348072 0.36653341875104961 0 0.3351802944883514 0.39738750443412002 0 0.34988972217452752 0.40801784569160632 0 0.34879159400795012 0.38769315231290841 0 0.34988972217452752 0.40801784569160632 0 0.36433868869116592 0.38378619901535488 0 0.34988972217452752 0.40801784569160632 0 0.36433868869116592 0.38378619901535488 0 0.34879159400795012 0.38769315231290841 0 0.34699100967064078 0.35539672769273539 0 0.36474967577348072 0.36653341875104961 0 0.36518945593320651 0.34509967395937191 0 0.34699100967064078 0.35539672769273539 0 0.36518945593320651 0.34509967395937191 0 0.348137396692076 0.34077307725183559 0 0.3376156911696272 0.37620073599141618 0 0.34699100967064078 0.35539672769273539 0 0.36474967577348072 0.36653341875104961 0 0.3376156911696272 0.37620073599141618 0 0.36474967577348072 0.36653341875104961 0 0.36474967577348072 0.36653341875104961 0 0.36518945593320651 0.34509967395937191 0 0.36474967577348072 0.36653341875104961 0 0.36518945593320651 0.34509967395937191 0 0.3855881021147175 0.35910908792858098 0 0.36518945593320651 0.34509967395937191 0 0.36562923609293069 0.32366592916769399 0 0.36518945593320651 0.34509967395937191 0 0.36562923609293069 0.32366592916769399 0 0.348137396692076 0.34077307725183559 0 0.36518945593320651 0.34509967395937191 0 0.36562923609293069 0.32366592916769399 0 0.38128435600444488 0.32837669887387311 0 0.36562923609293069 0.32366592916769399 0 0.36606901625265492 0.30223218437601618 0 0.38242981621443428 0.31397380775534678 0 0.36562923609293069 0.32366592916769399 0 0.36606901625265492 0.30223218437601618 0 0.36562923609293069 0.32366592916769399 0 0.34238706329751362 0.32476320095938682 0 0.35183379698966949 0.31056891257481539 0 0.36562923609293069 0.32366592916769399 0 0.348137396692076 0.34077307725183559 0 0.34238706329751362 0.32476320095938682 0 0.348137396692076 0.34077307725183559 0 0.33072504187423118 0.34237289876026822 0 0.34238706329751362 0.32476320095938682 0 0.33072504187423118 0.34237289876026822 0 0.34238706329751362 0.32476320095938682 0 0.32122702449841589 0.32177081607522939 0 0.34238706329751362 0.32476320095938682 0 0.33644502425256478 0.30910566618648461 0 0.35183379698966949 0.31056891257481539 0 0.34238706329751362 0.32476320095938682 0 0.32122702449841589 0.32177081607522939 0 0.33644502425256478 0.30910566618648461 0 0.32122702449841589 0.32177081607522939 0 0.31445651652981632 0.33878768779705848 0 0.30372390616191358 0.32889084998335888 0 0.33072504187423118 0.34237289876026822 0 0.32122702449841589 0.32177081607522939 0 0.31445651652981632 0.33878768779705848 0 0.33072504187423118 0.34237289876026822 0 0.31445651652981632 0.33878768779705848 0 0.31594857135045817 0.35062531106266931 0 0.33072504187423118 0.34237289876026822 0 0.31594857135045817 0.35062531106266931 0 0.32442852787466708 0.36030442639367111 0 0.31594857135045817 0.35062531106266931 0 0.32442852787466708 0.36030442639367111 0 0.31156622091740832 0.36111849420004938 0 0.34699100967064078 0.35539672769273539 0 0.348137396692076 0.34077307725183559 0 0.33072504187423118 0.34237289876026822 0 0.34699100967064078 0.35539672769273539 0 0.33072504187423118 0.34237289876026822 0 0.32442852787466708 0.36030442639367111 0 0.3376156911696272 0.37620073599141618 0 0.34699100967064078 0.35539672769273539 0 0.32442852787466708 0.36030442639367111 0 0.3376156911696272 0.37620073599141618 0 0.32442852787466708 0.36030442639367111 0 0.31717345926189522 0.3709258031848055 0 0.32442852787466708 0.36030442639367111 0 0.31717345926189522 0.3709258031848055 0 0.31156622091740832 0.36111849420004938 0 0.30177514978199971 0.3711373061071076 0 0.30274952797195698 0.35001407804523332 0 0.31717345926189522 0.3709258031848055 0 0.31156622091740832 0.36111849420004938 0 0.30177514978199971 0.3711373061071076 0 0.31156622091740832 0.36111849420004938 0 0.30177514978199971 0.3711373061071076 0 0.30274952797195698 0.35001407804523332 0 0.30177514978199971 0.3711373061071076 0 0.30274952797195698 0.35001407804523332 0 0.29106955940472562 0.3530243656434488 0 0.31445651652981632 0.33878768779705848 0 0.31594857135045817 0.35062531106266931 0 0.30274952797195698 0.35001407804523332 0 0.31594857135045817 0.35062531106266931 0 0.31156622091740832 0.36111849420004938 0 0.30274952797195698 0.35001407804523332 0 0.29106955940472562 0.3530243656434488 0 0.28705150305193838 0.35613499197806497 0 0.28036396902745148 0.33491142517978989 0 0.28705150305193838 0.35613499197806497 0 0.28036396902745148 0.33491142517978989 0 0.28705150305193838 0.35613499197806497 0 0.27644360280618341 0.34191623842927221 0 0.28036396902745148 0.33491142517978989 0 0.29106955940472562 0.3530243656434488 0 0.28036396902745148 0.33491142517978989 0 0.30274952797195698 0.35001407804523332 0 0.29106955940472562 0.3530243656434488 0 0.29374099595638509 0.3392252011883215 0 0.28705150305193838 0.35613499197806497 0 0.28458867991473008 0.36361942358965982 0 0.27543832275303448 0.34988028840297991 0 0.29405085274881382 0.37834813740539031 0 0.28705150305193838 0.35613499197806497 0 0.28458867991473008 0.36361942358965982 0 0.29405085274881382 0.37834813740539031 0 0.28705150305193838 0.35613499197806497 0 0.30177514978199971 0.3711373061071076 0 0.29106955940472562 0.3530243656434488 0 0.29405085274881382 0.37834813740539031 0 0.30177514978199971 0.3711373061071076 0 0.28705150305193838 0.35613499197806497 0 0.30177514978199971 0.3711373061071076 0 0.29106955940472562 0.3530243656434488 0 0.28705150305193838 0.35613499197806497 0 0.29405085274881382 0.37834813740539031 0 0.28458867991473008 0.36361942358965982 0 0.28403056220722062 0.37531448917755911 0 0.2815017213106239 0.3651550498314205 0 0.27898286169525299 0.37041503512408969 0 0.29405085274881382 0.37834813740539031 0 0.2815017213106239 0.3651550498314205 0 0.28403056220722062 0.37531448917755911 0 0.29405085274881382 0.37834813740539031 0 0.2815017213106239 0.3651550498314205 0 0.29405085274881382 0.37834813740539031 0 0.28458867991473008 0.36361942358965982 0 0.2815017213106239 0.3651550498314205 0 0.28403056220722062 0.37531448917755911 0 0.27898286169525299 0.37041503512408969 0 0.2737626695690904 0.37327007608818358 0 0.27663649369407689 0.36792052539919551 0 0.2737626695690904 0.37327007608818358 0 0.27125000512352843 0.36234153133647429 0 0.27405714121884811 0.38409687161834088 0 0.2737626695690904 0.37327007608818358 0 0.2618259464583832 0.36726095095448358 0 0.2815017213106239 0.3651550498314205 0 0.27898286169525299 0.37041503512408969 0 0.27663649369407689 0.36792052539919551 0 0.27898286169525299 0.37041503512408969 0 0.27663649369407689 0.36792052539919551 0 0.2737626695690904 0.37327007608818358 0 0.2737626695690904 0.37327007608818358 0 0.27125000512352843 0.36234153133647429 0 0.2618259464583832 0.36726095095448358 0 0.27125000512352843 0.36234153133647429 0 0.26895258987243392 0.3519619622574508 0 0.2618259464583832 0.36726095095448358 0 0.2815017213106239 0.3651550498314205 0 0.27125000512352843 0.36234153133647429 0 0.26895258987243392 0.3519619622574508 0 0.2815017213106239 0.3651550498314205 0 0.27663649369407689 0.36792052539919551 0 0.27125000512352843 0.36234153133647429 0 0.28458867991473008 0.36361942358965982 0 0.2815017213106239 0.3651550498314205 0 0.27543832275303448 0.34988028840297991 0 0.2815017213106239 0.3651550498314205 0 0.26895258987243392 0.3519619622574508 0 0.28458867991473008 0.36361942358965982 0 0.27543832275303448 0.34988028840297991 0 0.26895258987243392 0.3519619622574508 0 0.2618259464583832 0.36726095095448358 0 0.2684557314338783 0.34271033597269462 0 0.2815017213106239 0.3651550498314205 0 0.27543832275303448 0.34988028840297991 0 0.26895258987243392 0.3519619622574508 0 0.28705150305193838 0.35613499197806497 0 0.27543832275303448 0.34988028840297991 0 0.27644360280618341 0.34191623842927221 0 0.27543832275303448 0.34988028840297991 0 0.2684557314338783 0.34271033597269462 0 0.27644360280618341 0.34191623842927221 0 0.27543832275303448 0.34988028840297991 0 0.26895258987243392 0.3519619622574508 0 0.2684557314338783 0.34271033597269462 0 0.2618259464583832 0.36726095095448358 0 0.2684557314338783 0.34271033597269462 0 0.24521693247762111 0.35027114815259558 0 0.2618259464583832 0.36726095095448358 0 0.2684557314338783 0.34271033597269462 0 0.24305895760768401 0.36641304215893011 0 0.24521693247762111 0.35027114815259558 0 0.2618259464583832 0.36726095095448358 0 0.24490867605631639 0.32967072069511189 0 0.26050839607327853 0.32387463406168998 0 0.25114017462525878 0.31153615041935723 0 0.26050839607327853 0.32387463406168998 0 0.25114017462525878 0.31153615041935723 0 0.26342424027676908 0.31148804944983333 0 0.24490867605631639 0.32967072069511189 0 0.26050839607327853 0.32387463406168998 0 0.2684557314338783 0.34271033597269462 0 0.24490867605631639 0.32967072069511189 0 0.24521693247762111 0.35027114815259558 0 0.2684557314338783 0.34271033597269462 0 0.26050839607327853 0.32387463406168998 0 0.2684557314338783 0.34271033597269462 0 0.27508551640937329 0.31815972099090539 0 0.2684557314338783 0.34271033597269462 0 0.27508551640937329 0.31815972099090539 0 0.2684557314338783 0.34271033597269462 0 0.27787730485363338 0.33070420273373929 0 0.27508551640937329 0.31815972099090539 0 0.2684557314338783 0.34271033597269462 0 0.27644360280618341 0.34191623842927221 0 0.27787730485363338 0.33070420273373929 0 0.27644360280618341 0.34191623842927221 0 0.28036396902745148 0.33491142517978989 0 0.27787730485363338 0.33070420273373929 0 0.28036396902745148 0.33491142517978989 0 0.27787730485363338 0.33070420273373929 0 0.28036396902745148 0.33491142517978989 0 0.27787730485363338 0.33070420273373929 0 0.27508551640937329 0.31815972099090539 0 0.28036396902745148 0.33491142517978989 0 0.27508551640937329 0.31815972099090539 0 0.26050839607327853 0.32387463406168998 0 0.27508551640937329 0.31815972099090539 0 0.26342424027676908 0.31148804944983333 0 0.27584787744150779 0.31533663815394608 0 0.27508551640937329 0.31815972099090539 0 0.2839587577339367 0.31315639516335231 0 0.27584787744150779 0.31533663815394608 0 0.27508551640937329 0.31815972099090539 0 0.28036396902745148 0.33491142517978989 0 0.27508551640937329 0.31815972099090539 0 0.28884331716543121 0.32432796479040632 0 0.27508551640937329 0.31815972099090539 0 0.2839587577339367 0.31315639516335231 0 0.28884331716543121 0.32432796479040632 0 0.2839587577339367 0.31315639516335231 0 0.28884331716543121 0.32432796479040632 0 0.29436859405188742 0.31561290386725788 0 0.28884331716543121 0.32432796479040632 0 0.29436859405188742 0.31561290386725788 0 0.30372390616191358 0.32889084998335888 0 0.29106955940472562 0.3530243656434488 0 0.28036396902745148 0.33491142517978989 0 0.29374099595638509 0.3392252011883215 0 0.28036396902745148 0.33491142517978989 0 0.28884331716543121 0.32432796479040632 0 0.29374099595638509 0.3392252011883215 0 0.28884331716543121 0.32432796479040632 0 0.29374099595638509 0.3392252011883215 0 0.30372390616191358 0.32889084998335888 0 0.30274952797195698 0.35001407804523332 0 0.29374099595638509 0.3392252011883215 0 0.30372390616191358 0.32889084998335888 0 0.31445651652981632 0.33878768779705848 0 0.30274952797195698 0.35001407804523332 0 0.30372390616191358 0.32889084998335888 0 0.30274952797195698 0.35001407804523332 0 0.30372390616191358 0.32889084998335888 0 0.29436859405188742 0.31561290386725788 0 0.30372390616191358 0.32889084998335888 0 0.30469828435187041 0.30776762192148471 0 0.32122702449841589 0.32177081607522939 0 0.30372390616191358 0.32889084998335888 0 0.30469828435187041 0.30776762192148471 0 0.30372390616191358 0.32889084998335888 0 0.30469828435187041 0.30776762192148471 0 0.30469828435187041 0.30776762192148471 0 0.29887142377560671 0.29447355700322281 0 0.31975384086217118 0.29390073052843008 0 0.30469828435187041 0.30776762192148471 0 0.29887142377560671 0.29447355700322281 0 0.29061870484628499 0.30392168747768772 0 0.29887142377560671 0.29447355700322281 0 0.29803417524575498 0.27809430922643119 0 0.31975384086217118 0.29390073052843008 0 0.29887142377560671 0.29447355700322281 0 0.28125211357195179 0.28868343586208051 0 0.29803417524575498 0.27809430922643119 0 0.29887142377560671 0.29447355700322281 0 0.28125211357195179 0.28868343586208051 0 0.29061870484628499 0.30392168747768772 0 0.29436859405188742 0.31561290386725788 0 0.30469828435187041 0.30776762192148471 0 0.29061870484628499 0.30392168747768772 0 0.2839587577339367 0.31315639516335231 0 0.29436859405188742 0.31561290386725788 0 0.29061870484628499 0.30392168747768772 0 0.28125211357195179 0.28868343586208051 0 0.29061870484628499 0.30392168747768772 0 0.27979091010679558 0.3031930520058399 0 0.2839587577339367 0.31315639516335231 0 0.29061870484628499 0.30392168747768772 0 0.27979091010679558 0.3031930520058399 0 0.27584787744150779 0.31533663815394608 0 0.2839587577339367 0.31315639516335231 0 0.27979091010679558 0.3031930520058399 0 0.27584787744150779 0.31533663815394608 0 0.27979091010679558 0.3031930520058399 0 0.26696287399916629 0.2923816923273807 0 0.27508551640937329 0.31815972099090539 0 0.26696287399916629 0.2923816923273807 0 0.27508551640937329 0.31815972099090539 0 0.26696287399916629 0.2923816923273807 0 0.26342424027676908 0.31148804944983333 0 0.27584787744150779 0.31533663815394608 0 0.27508551640937329 0.31815972099090539 0 0.26696287399916629 0.2923816923273807 0 0.28125211357195179 0.28868343586208051 0 0.26696287399916629 0.2923816923273807 0 0.26185531842249993 0.2787869231154117 0 0.28125211357195179 0.28868343586208051 0 0.27979091010679558 0.3031930520058399 0 0.26696287399916629 0.2923816923273807 0 0.2454028482605469 0.29267792886045368 0 0.26696287399916629 0.2923816923273807 0 0.26185531842249993 0.2787869231154117 0 0.24818821145747599 0.27522177653690871 0 0.2454028482605469 0.29267792886045368 0 0.26185531842249993 0.2787869231154117 0 0.26696287399916629 0.2923816923273807 0 0.25114017462525878 0.31153615041935723 0 0.26342424027676908 0.31148804944983333 0 0.2454028482605469 0.29267792886045368 0 0.26696287399916629 0.2923816923273807 0 0.25114017462525878 0.31153615041935723 0 0.25404003316197471 0.25208422786308371 0 0.25530776412370298 0.26639583896058622 0 0.27103688063193948 0.26427270241964718 0 0.24090080429007341 0.26281353644332878 0 0.25404003316197471 0.25208422786308371 0 0.25530776412370298 0.26639583896058622 0 0.25530776412370298 0.26639583896058622 0 0.26185531842249993 0.2787869231154117 0 0.27103688063193948 0.26427270241964718 0 0.24818821145747599 0.27522177653690871 0 0.25530776412370298 0.26639583896058622 0 0.26185531842249993 0.2787869231154117 0 0.28125211357195179 0.28868343586208051 0 0.26185531842249993 0.2787869231154117 0 0.27103688063193948 0.26427270241964718 0 0.25404003316197471 0.25208422786308371 0 0.27103688063193948 0.26427270241964718 0 0.27355486584907379 0.24364475180805101 0 0.27103688063193948 0.26427270241964718 0 0.29692855903906679 0.25537037528416417 0 0.27355486584907379 0.24364475180805101 0 0.27103688063193948 0.26427270241964718 0 0.29803417524575498 0.27809430922643119 0 0.29692855903906679 0.25537037528416417 0 0.28125211357195179 0.28868343586208051 0 0.27103688063193948 0.26427270241964718 0 0.29803417524575498 0.27809430922643119 0 0.29803417524575498 0.27809430922643119 0 0.29692855903906679 0.25537037528416417 0 0.32239972953691409 0.26902358330948362 0 0.29692855903906679 0.25537037528416417 0 0.32239972953691409 0.26902358330948362 0 0.32448256229391081 0.244023600812113 0 0.34859232732963041 0.2656914204712259 0 0.32448256229391081 0.244023600812113 0 0.35052125483258301 0.2434514759103418 0 0.32239972953691409 0.26902358330948362 0 0.34859232732963041 0.2656914204712259 0 0.32448256229391081 0.244023600812113 0 0.32239972953691409 0.26902358330948362 0 0.34580587121379802 0.29027056413174801 0 0.34859232732963041 0.2656914204712259 0 0.32239972953691409 0.26902358330948362 0 0.34859232732963041 0.2656914204712259 0 0.29803417524575498 0.27809430922643119 0 0.32239972953691409 0.26902358330948362 0 0.31975384086217118 0.29390073052843008 0 0.32122702449841589 0.32177081607522939 0 0.30469828435187041 0.30776762192148471 0 0.31975384086217118 0.29390073052843008 0 0.32122702449841589 0.32177081607522939 0 0.31975384086217118 0.29390073052843008 0 0.33644502425256478 0.30910566618648461 0 0.31975384086217118 0.29390073052843008 0 0.33644502425256478 0.30910566618648461 0 0.34580587121379802 0.29027056413174801 0 0.32239972953691409 0.26902358330948362 0 0.31975384086217118 0.29390073052843008 0 0.34580587121379802 0.29027056413174801 0 0.34580587121379802 0.29027056413174801 0 0.35183379698966949 0.31056891257481539 0 0.36606901625265492 0.30223218437601618 0 0.33644502425256478 0.30910566618648461 0 0.34580587121379802 0.29027056413174801 0 0.35183379698966949 0.31056891257481539 0 0.36562923609293069 0.32366592916769399 0 0.35183379698966949 0.31056891257481539 0 0.36606901625265492 0.30223218437601618 0 0.36606901625265492 0.30223218437601618 0 0.37288852905391068 0.28307277276217568 0 0.38313639778678782 0.29894980138166888 0 0.34580587121379802 0.29027056413174801 0 0.36606901625265492 0.30223218437601618 0 0.37288852905391068 0.28307277276217568 0 0.37288852905391068 0.28307277276217568 0 0.37478492512234668 0.26235925763296819 0 0.34859232732963041 0.2656914204712259 0 0.37478492512234668 0.26235925763296819 0 0.34859232732963041 0.2656914204712259 0 0.37478492512234668 0.26235925763296819 0 0.34859232732963041 0.2656914204712259 0 0.35052125483258301 0.2434514759103418 0 0.34580587121379802 0.29027056413174801 0 0.37288852905391068 0.28307277276217568 0 0.34859232732963041 0.2656914204712259 0 0.40237095019481112 0.27711100542787093 0 0.40097752291506289 0.25902709479471048 0 0.38795285511664351 0.27501277358291848 0 0.40237095019481112 0.27711100542787093 0 0.38795285511664351 0.27501277358291848 0 0.39245341439736259 0.28869000139839213 0 0.37478492512234668 0.26235925763296819 0 0.40097752291506289 0.25902709479471048 0 0.37478492512234668 0.26235925763296819 0 0.40097752291506289 0.25902709479471048 0 0.38795285511664351 0.27501277358291848 0 0.37478492512234668 0.26235925763296819 0 0.40097752291506289 0.25902709479471048 0 0.39333580902427501 0.24081282939082621 0 0.37288852905391068 0.28307277276217568 0 0.37478492512234668 0.26235925763296819 0 0.38795285511664351 0.27501277358291848 0 0.37288852905391068 0.28307277276217568 0 0.38795285511664351 0.27501277358291848 0 0.39245341439736259 0.28869000139839213 0 0.37288852905391068 0.28307277276217568 0 0.38313639778678782 0.29894980138166888 0 0.39245341439736259 0.28869000139839213 0 0.38313639778678782 0.29894980138166888 0 0.40184121301557668 0.30678024061641418 0 0.38242981621443428 0.31397380775534678 0 0.36606901625265492 0.30223218437601618 0 0.38313639778678782 0.29894980138166888 0 0.38242981621443428 0.31397380775534678 0 0.38313639778678782 0.29894980138166888 0 0.40184121301557668 0.30678024061641418 0 0.39245341439736259 0.28869000139839213 0 0.40184121301557668 0.30678024061641418 0 0.39245341439736259 0.28869000139839213 0 0.4080647950624654 0.29173952990842672 0 0.40237095019481112 0.27711100542787093 0 0.39245341439736259 0.28869000139839213 0 0.4080647950624654 0.29173952990842672 0 0.4080647950624654 0.29173952990842672 0 0.42111158276914429 0.29961990628964941 0 0.41801819212357011 0.2740782959756311 0 0.42111158276914429 0.29961990628964941 0 0.41801819212357011 0.2740782959756311 0 0.42111158276914429 0.29961990628964941 0 0.41431845905081632 0.31211616404088999 0 0.42420497341471841 0.32516151660366771 0 0.40184121301557668 0.30678024061641418 0 0.41169384258873692 0.3030193229363472 0 0.41431845905081632 0.31211616404088999 0 0.4080647950624654 0.29173952990842672 0 0.41169384258873692 0.3030193229363472 0 0.42111158276914429 0.29961990628964941 0 0.40184121301557668 0.30678024061641418 0 0.4080647950624654 0.29173952990842672 0 0.41169384258873692 0.3030193229363472 0 0.41169384258873692 0.3030193229363472 0 0.42111158276914429 0.29961990628964941 0 0.41431845905081632 0.31211616404088999 0 0.42111158276914429 0.29961990628964941 0 0.42420497341471841 0.32516151660366771 0 0.42111158276914429 0.29961990628964941 0 0.42968026012840121 0.30115694743242971 0 0.43130474666914309 0.31304161877190062 0 0.42968026012840121 0.30115694743242971 0 0.44258646999382029 0.30990113159980692 0 0.42968026012840121 0.30115694743242971 0 0.44258646999382029 0.30990113159980692 0 0.43130474666914309 0.31304161877190062 0 0.42111158276914429 0.29961990628964941 0 0.42800801910193731 0.28582653817902792 0 0.41801819212357011 0.2740782959756311 0 0.42968026012840121 0.30115694743242971 0 0.42800801910193731 0.28582653817902792 0 0.44797459424715858 0.28113195035900113 0 0.42111158276914429 0.29961990628964941 0 0.42968026012840121 0.30115694743242971 0 0.42800801910193731 0.28582653817902792 0 0.4349067289361882 0.26981889711766149 0 0.41801819212357011 0.2740782959756311 0 0.42717012070777932 0.25569493195645271 0 0.42800801910193731 0.28582653817902792 0 0.4349067289361882 0.26981889711766149 0 0.44797459424715858 0.28113195035900113 0 0.42800801910193731 0.28582653817902792 0 0.4349067289361882 0.26981889711766149 0 0.41801819212357011 0.2740782959756311 0 0.40237095019481112 0.27711100542787093 0 0.4080647950624654 0.29173952990842672 0 0.41801819212357011 0.2740782959756311 0 0.40237095019481112 0.27711100542787093 0 0.40097752291506289 0.25902709479471048 0 0.41801819212357011 0.2740782959756311 0 0.40097752291506289 0.25902709479471048 0 0.42717012070777932 0.25569493195645271 0 0.40097752291506289 0.25902709479471048 0 0.41801819212357011 0.2740782959756311 0 0.42717012070777932 0.25569493195645271 0 0.40097752291506289 0.25902709479471048 0 0.42717012070777932 0.25569493195645271 0 0.41286841049430861 0.24788583003777651 0 0.42717012070777932 0.25569493195645271 0 0.45336271850049548 0.25236276911819511 0 0.42717012070777932 0.25569493195645271 0 0.45336271850049548 0.25236276911819511 0 0.44134696414428898 0.24814556957704689 0 0.4349067289361882 0.26981889711766149 0 0.42717012070777932 0.25569493195645271 0 0.45336271850049548 0.25236276911819511 0 0.44797459424715858 0.28113195035900113 0 0.45336271850049548 0.25236276911819511 0 0.4349067289361882 0.26981889711766149 0 0.44797459424715858 0.28113195035900113 0 0.45336271850049548 0.25236276911819511 0 0.44797459424715858 0.28113195035900113 0 0.46860043072286323 0.26090172283992602 0 0.47518926652314969 0.27560515809727743 0 0.44797459424715858 0.28113195035900113 0 0.45336271850049548 0.25236276911819511 0 0.46860043072286323 0.26090172283992602 0 0.45336271850049548 0.25236276911819511 0 0.46860043072286323 0.26090172283992602 0 0.48180965237011408 0.2487438147612096 0 0.45336271850049548 0.25236276911819511 0 0.48180965237011408 0.2487438147612096 0 0.46860043072286323 0.26090172283992602 0 0.48241006781490819 0.26268970127635521 0 0.48180965237011408 0.2487438147612096 0 0.46860043072286323 0.26090172283992602 0 0.48241006781490819 0.26268970127635521 0 0.47518926652314969 0.27560515809727743 0 0.48241006781490819 0.26268970127635521 0 0.47518926652314969 0.27560515809727743 0 0.48864569132575902 0.27555399191102209 0 0.48864569132575902 0.27555399191102209 0 0.5 0.25788891558126559 0 0.5 0.28784398070901179 0 0.48241006781490819 0.26268970127635521 0 0.5 0.25788891558126559 0 0.48180965237011408 0.2487438147612096 0 0.48241006781490819 0.26268970127635521 0 0.48864569132575902 0.27555399191102209 0 0.5 0.25788891558126559 0 0.49687855588093471 0.30562269631142192 0 0.5 0.28784398070901179 0 0.5 0.31779904583675789 0 0.48491490847636098 0.30901068293115042 0 0.49687855588093471 0.30562269631142192 0 0.48562912229073679 0.29374220389120048 0 0.48491490847636098 0.30901068293115042 0 0.49687855588093471 0.30562269631142192 0 0.48893996521802741 0.32077530068026477 0 0.48864569132575902 0.27555399191102209 0 0.5 0.28784398070901179 0 0.48562912229073679 0.29374220389120048 0 0.49687855588093471 0.30562269631142192 0 0.5 0.28784398070901179 0 0.48562912229073679 0.29374220389120048 0 0.47518926652314969 0.27560515809727743 0 0.48864569132575902 0.27555399191102209 0 0.48562912229073679 0.29374220389120048 0 0.47518926652314969 0.27560515809727743 0 0.48562912229073679 0.29374220389120048 0 0.46816558308298489 0.29083511245767268 0 0.48562912229073679 0.29374220389120048 0 0.47222103054853309 0.30536857664361422 0 0.46816558308298489 0.29083511245767268 0 0.48491490847636098 0.30901068293115042 0 0.48562912229073679 0.29374220389120048 0 0.47222103054853309 0.30536857664361422 0 0.48491490847636098 0.30901068293115042 0 0.47222103054853309 0.30536857664361422 0 0.47648252662976798 0.31886183994020412 0 0.47222103054853309 0.30536857664361422 0 0.45866337291811637 0.30169365927876157 0 0.46179392227446953 0.32291451832445861 0 0.45866337291811637 0.30169365927876157 0 0.44258646999382029 0.30990113159980692 0 0.46179392227446953 0.32291451832445861 0 0.47222103054853309 0.30536857664361422 0 0.45866337291811637 0.30169365927876157 0 0.46816558308298489 0.29083511245767268 0 0.44797459424715858 0.28113195035900113 0 0.45866337291811637 0.30169365927876157 0 0.46816558308298489 0.29083511245767268 0 0.44797459424715858 0.28113195035900113 0 0.47518926652314969 0.27560515809727743 0 0.46816558308298489 0.29083511245767268 0 0.44797459424715858 0.28113195035900113 0 0.44258646999382029 0.30990113159980692 0 0.42968026012840121 0.30115694743242971 0 0.44797459424715858 0.28113195035900113 0 0.44258646999382029 0.30990113159980692 0 0.44797459424715858 0.28113195035900113 0 0.45866337291811637 0.30169365927876157 0 0.44258646999382029 0.30990113159980692 0 0.44258646999382029 0.30990113159980692 0 0.46179392227446953 0.32291451832445861 0 0.44258646999382029 0.30990113159980692 0 0.43894044703962998 0.32936859193394902 0 0.46179392227446953 0.32291451832445861 0 0.44258646999382029 0.30990113159980692 0 0.43894044703962998 0.32936859193394902 0 0.44258646999382029 0.30990113159980692 0 0.43894044703962998 0.32936859193394902 0 0.43130474666914309 0.31304161877190062 0 0.43894044703962998 0.32936859193394902 0 0.45181909328986353 0.33594590439129729 0 0.43529442408543872 0.34883605226809089 0 0.43894044703962998 0.32936859193394902 0 0.45181909328986353 0.33594590439129729 0 0.46179392227446953 0.32291451832445861 0 0.45181909328986353 0.33594590439129729 0 0.46495921083649527 0.33796731498031379 0 0.45493863887308472 0.34850758154427958 0 0.45181909328986353 0.33594590439129729 0 0.46495921083649527 0.33796731498031379 0 0.46179392227446953 0.32291451832445861 0 0.47648252662976798 0.31886183994020412 0 0.48100137455512032 0.33592790504910791 0 0.48893996521802741 0.32077530068026477 0 0.46179392227446953 0.32291451832445861 0 0.47648252662976798 0.31886183994020412 0 0.48100137455512032 0.33592790504910791 0 0.47222103054853309 0.30536857664361422 0 0.46179392227446953 0.32291451832445861 0 0.47648252662976798 0.31886183994020412 0 0.48491490847636098 0.30901068293115042 0 0.47648252662976798 0.31886183994020412 0 0.48893996521802741 0.32077530068026477 0 0.46179392227446953 0.32291451832445861 0 0.48100137455512032 0.33592790504910791 0 0.46495921083649527 0.33796731498031379 0 0.48100137455512032 0.33592790504910791 0 0.47458285366073072 0.34817911082046721 0 0.46495921083649527 0.33796731498031379 0 0.46179392227446953 0.32291451832445861 0 0.48100137455512032 0.33592790504910791 0 0.48100137455512032 0.33592790504910791 0 0.47458285366073072 0.34817911082046721 0 0.48100137455512032 0.33592790504910791 0 0.48893996521802741 0.32077530068026477 0 0.48100137455512032 0.33592790504910791 0 0.4984937498586452 0.34777929695842291 0 0.5 0.31779904583675789 0 0.48893996521802741 0.32077530068026477 0 0.4984937498586452 0.34777929695842291 0 0.5 0.31779904583675789 0 0.4984937498586452 0.34777929695842291 0 0.50000000000000433 0.34775411096450393 0 0.48100137455512032 0.33592790504910791 0 0.48893996521802741 0.32077530068026477 0 0.4984937498586452 0.34777929695842291 0 0.49687855588093471 0.30562269631142192 0 0.48893996521802741 0.32077530068026477 0 0.49687855588093471 0.30562269631142192 0 0.5 0.31779904583675789 0 0.48893996521802741 0.32077530068026477 0 0.5 0.37175840028027313 0 0.48688174284785979 0.35971936811564431 0 0.50000000000000433 0.34775411096450393 0 0.5 0.37175840028027313 0 0.48688174284785979 0.35971936811564431 0 0.48177296974371542 0.3780796821533936 0 0.48100137455512032 0.33592790504910791 0 0.4984937498586452 0.34777929695842291 0 0.47458285366073072 0.34817911082046721 0 0.48688174284785979 0.35971936811564431 0 0.4984937498586452 0.34777929695842291 0 0.47458285366073072 0.34817911082046721 0 0.48688174284785979 0.35971936811564431 0 0.4984937498586452 0.34777929695842291 0 0.50000000000000433 0.34775411096450393 0 0.4984937498586452 0.34777929695842291 0 0.47458285366073072 0.34817911082046721 0 0.4984937498586452 0.34777929695842291 0 0.50000000000000433 0.34775411096450393 0 0.48688174284785979 0.35971936811564431 0 0.47458285366073072 0.34817911082046721 0 0.46644088382406917 0.36371991056145853 0 0.47458285366073072 0.34817911082046721 0 0.46644088382406917 0.36371991056145853 0 0.46644088382406917 0.36371991056145853 0 0.45829891398740957 0.37926071030245079 0 0.48177296974371542 0.3780796821533936 0 0.48688174284785979 0.35971936811564431 0 0.46644088382406917 0.36371991056145853 0 0.48177296974371542 0.3780796821533936 0 0.46644088382406917 0.36371991056145853 0 0.45829891398740957 0.37926071030245079 0 0.46644088382406917 0.36371991056145853 0 0.45450488254489102 0.36219879314378839 0 0.45829891398740957 0.37926071030245079 0 0.46495921083649527 0.33796731498031379 0 0.47458285366073072 0.34817911082046721 0 0.45493863887308472 0.34850758154427958 0 0.47458285366073072 0.34817911082046721 0 0.45493863887308472 0.34850758154427958 0 0.47458285366073072 0.34817911082046721 0 0.46644088382406917 0.36371991056145853 0 0.45493863887308472 0.34850758154427958 0 0.46644088382406917 0.36371991056145853 0 0.45450488254489102 0.36219879314378839 0 0.45493863887308472 0.34850758154427958 0 0.45181909328986353 0.33594590439129729 0 0.45493863887308472 0.34850758154427958 0 0.43529442408543872 0.34883605226809089 0 0.45493863887308472 0.34850758154427958 0 0.44448268479035308 0.35511800724889642 0 0.43529442408543872 0.34883605226809089 0 0.45493863887308472 0.34850758154427958 0 0.43529442408543872 0.34883605226809089 0 0.45450488254489102 0.36219879314378839 0 0.45493863887308472 0.34850758154427958 0 0.44448268479035308 0.35511800724889642 0 0.44448268479035308 0.35511800724889642 0 0.44279863902385319 0.36498191861006751 0 0.43487683942449812 0.35106569067825599 0 0.44448268479035308 0.35511800724889642 0 0.43529442408543872 0.34883605226809089 0 0.43487683942449812 0.35106569067825599 0 0.45450488254489102 0.36219879314378839 0 0.44279863902385319 0.36498191861006751 0 0.45829891398740957 0.37926071030245079 0 0.44279863902385319 0.36498191861006751 0 0.45829891398740957 0.37926071030245079 0 0.45450488254489102 0.36219879314378839 0 0.44448268479035308 0.35511800724889642 0 0.44279863902385319 0.36498191861006751 0 0.42892444364691579 0.3641293946929936 0 0.42225433889660879 0.37545697575276449 0 0.43605286711449009 0.38080977408974359 0 0.44279863902385319 0.36498191861006751 0 0.42892444364691579 0.3641293946929936 0 0.43605286711449009 0.38080977408974359 0 0.44279863902385319 0.36498191861006751 0 0.42892444364691579 0.3641293946929936 0 0.42729836406029548 0.35070312691768563 0 0.42892444364691579 0.3641293946929936 0 0.41660844069210962 0.35988002802349189 0 0.42225433889660879 0.37545697575276449 0 0.41660844069210962 0.35988002802349189 0 0.40918213701441342 0.3736144609854074 0 0.42225433889660879 0.37545697575276449 0 0.41660844069210962 0.35988002802349189 0 0.40918213701441342 0.3736144609854074 0 0.40205795884979889 0.36380219258680641 0 0.40642652845595439 0.35168475710611302 0 0.41593005466970517 0.35003896004439389 0 0.41338688547046137 0.33788792813028518 0 0.41660844069210962 0.35988002802349189 0 0.40642652845595439 0.35168475710611302 0 0.40205795884979889 0.36380219258680641 0 0.41660844069210962 0.35988002802349189 0 0.40642652845595439 0.35168475710611302 0 0.41593005466970517 0.35003896004439389 0 0.41660844069210962 0.35988002802349189 0 0.41593005466970517 0.35003896004439389 0 0.42729836406029548 0.35070312691768563 0 0.42729836406029548 0.35070312691768563 0 0.41338688547046137 0.33788792813028518 0 0.41593005466970517 0.35003896004439389 0 0.42729836406029548 0.35070312691768563 0 0.41338688547046137 0.33788792813028518 0 0.42892444364691579 0.3641293946929936 0 0.41660844069210962 0.35988002802349189 0 0.42729836406029548 0.35070312691768563 0 0.42892444364691579 0.3641293946929936 0 0.42729836406029548 0.35070312691768563 0 0.44279863902385319 0.36498191861006751 0 0.42729836406029548 0.35070312691768563 0 0.43487683942449812 0.35106569067825599 0 0.44279863902385319 0.36498191861006751 0 0.42729836406029548 0.35070312691768563 0 0.43109136567724748 0.3489063315667284 0 0.43529442408543872 0.34883605226809089 0 0.42729836406029548 0.35070312691768563 0 0.43109136567724748 0.3489063315667284 0 0.43487683942449812 0.35106569067825599 0 0.43109136567724748 0.3489063315667284 0 0.43529442408543872 0.34883605226809089 0 0.43487683942449812 0.35106569067825599 0 0.43529442408543872 0.34883605226809089 0 0.43487683942449812 0.35106569067825599 0 0.42729836406029548 0.35070312691768563 0 0.42420497341471841 0.32516151660366771 0 0.43894044703962998 0.32936859193394902 0 0.43529442408543872 0.34883605226809089 0 0.43894044703962998 0.32936859193394902 0 0.43109136567724748 0.3489063315667284 0 0.43529442408543872 0.34883605226809089 0 0.42729836406029548 0.35070312691768563 0 0.43109136567724748 0.3489063315667284 0 0.42420497341471841 0.32516151660366771 0 0.43894044703962998 0.32936859193394902 0 0.43109136567724748 0.3489063315667284 0 0.42420497341471841 0.32516151660366771 0 0.43894044703962998 0.32936859193394902 0 0.43130474666914309 0.31304161877190062 0 0.42420497341471841 0.32516151660366771 0 0.42111158276914429 0.29961990628964941 0 0.43130474666914309 0.31304161877190062 0 0.42420497341471841 0.32516151660366771 0 0.40184121301557668 0.30678024061641418 0 0.41431845905081632 0.31211616404088999 0 0.41140534993910638 0.32360132811636988 0 0.41431845905081632 0.31211616404088999 0 0.42420497341471841 0.32516151660366771 0 0.41140534993910638 0.32360132811636988 0 0.42729836406029548 0.35070312691768563 0 0.42420497341471841 0.32516151660366771 0 0.41338688547046137 0.33788792813028518 0 0.42420497341471841 0.32516151660366771 0 0.41140534993910638 0.32360132811636988 0 0.41338688547046137 0.33788792813028518 0 0.41140534993910638 0.32360132811636988 0 0.41338688547046137 0.33788792813028518 0 0.39947540688062583 0.32507272934288628 0 0.41338688547046137 0.33788792813028518 0 0.39947540688062583 0.32507272934288628 0 0.40642652845595439 0.35168475710611302 0 0.41338688547046137 0.33788792813028518 0 0.39105145014164849 0.3414869239971704 0 0.41338688547046137 0.33788792813028518 0 0.39105145014164849 0.3414869239971704 0 0.39947540688062583 0.32507272934288628 0 0.40184121301557668 0.30678024061641418 0 0.41140534993910638 0.32360132811636988 0 0.39947540688062583 0.32507272934288628 0 0.40184121301557668 0.30678024061641418 0 0.39947540688062583 0.32507272934288628 0 0.38242981621443428 0.31397380775534678 0 0.36562923609293069 0.32366592916769399 0 0.38242981621443428 0.31397380775534678 0 0.38128435600444488 0.32837669887387311 0 0.39947540688062583 0.32507272934288628 0 0.38242981621443428 0.31397380775534678 0 0.38128435600444488 0.32837669887387311 0 0.39105145014164849 0.3414869239971704 0 0.39947540688062583 0.32507272934288628 0 0.38128435600444488 0.32837669887387311 0 0.36518945593320651 0.34509967395937191 0 0.39105145014164849 0.3414869239971704 0 0.38128435600444488 0.32837669887387311 0 0.36518945593320651 0.34509967395937191 0 0.39105145014164849 0.3414869239971704 0 0.3855881021147175 0.35910908792858098 0 0.36474967577348072 0.36653341875104961 0 0.3855881021147175 0.35910908792858098 0 0.3855881021147175 0.35910908792858098 0 0.39248458597179969 0.37472262889043839 0 0.3773824667175657 0.37546563606013739 0 0.36474967577348072 0.36653341875104961 0 0.3855881021147175 0.35910908792858098 0 0.3773824667175657 0.37546563606013739 0 0.40918213701441342 0.3736144609854074 0 0.39248458597179969 0.37472262889043839 0 0.40205795884979889 0.36380219258680641 0 0.3855881021147175 0.35910908792858098 0 0.39248458597179969 0.37472262889043839 0 0.40205795884979889 0.36380219258680641 0 0.40642652845595439 0.35168475710611302 0 0.39105145014164849 0.3414869239971704 0 0.3855881021147175 0.35910908792858098 0 0.40642652845595439 0.35168475710611302 0 0.3855881021147175 0.35910908792858098 0 0.40642652845595439 0.35168475710611302 0 0.3855881021147175 0.35910908792858098 0 0.40205795884979889 0.36380219258680641 0 0.39221066862400811 0.40518894945558848 0 0.39940032860097008 0.38986983405391068 0 0.41033309730305728 0.40785957742124029 0 0.40918213701441342 0.3736144609854074 0 0.39248458597179969 0.37472262889043839 0 0.39940032860097008 0.38986983405391068 0 0.39248458597179969 0.37472262889043839 0 0.39940032860097008 0.38986983405391068 0 0.38026367080056678 0.39066664182047522 0 0.39248458597179969 0.37472262889043839 0 0.3773824667175657 0.37546563606013739 0 0.38026367080056678 0.39066664182047522 0 0.39221066862400811 0.40518894945558848 0 0.39940032860097008 0.38986983405391068 0 0.38026367080056678 0.39066664182047522 0 0.39221066862400811 0.40518894945558848 0 0.38026367080056678 0.39066664182047522 0 0.37744029411777058 0.41252948965876268 0 0.39221066862400811 0.40518894945558848 0 0.37744029411777058 0.41252948965876268 0 0.39361595229767549 0.42501920432355378 0 0.365542703577178 0.42914551292816783 0 0.39361595229767549 0.42501920432355378 0 0.37809165231809289 0.44568724501072521 0 0.365542703577178 0.42914551292816783 0 0.37744029411777058 0.41252948965876268 0 0.39361595229767549 0.42501920432355378 0 0.365542703577178 0.42914551292816783 0 0.39361595229767549 0.42501920432355378 0 0.39361595229767549 0.42501920432355378 0 0.41035062152962531 0.4256058815429955 0 0.40092741287151468 0.44093224530230651 0 0.39361595229767549 0.42501920432355378 0 0.40092741287151468 0.44093224530230651 0 0.37809165231809289 0.44568724501072521 0 0.39361595229767549 0.42501920432355378 0 0.41033309730305728 0.40785957742124029 0 0.41035062152962531 0.4256058815429955 0 0.39221066862400811 0.40518894945558848 0 0.39361595229767549 0.42501920432355378 0 0.41033309730305728 0.40785957742124029 0 0.41033309730305728 0.40785957742124029 0 0.41035062152962531 0.4256058815429955 0 0.42646345733135449 0.42088686527347441 0 0.41035062152962531 0.4256058815429955 0 0.4216403136361262 0.43569606407888728 0 0.42646345733135449 0.42088686527347441 0 0.41035062152962531 0.4256058815429955 0 0.4216403136361262 0.43569606407888728 0 0.40092741287151468 0.44093224530230651 0 0.43504649219903713 0.43385430946487219 0 0.42646345733135449 0.42088686527347441 0 0.44292677264660579 0.42392515796168401 0 0.4216403136361262 0.43569606407888728 0 0.43504649219903713 0.43385430946487219 0 0.42646345733135449 0.42088686527347441 0 0.4216403136361262 0.43569606407888728 0 0.43504649219903713 0.43385430946487219 0 0.4309855774719657 0.44262377444488737 0 0.41033309730305728 0.40785957742124029 0 0.42646345733135449 0.42088686527347441 0 0.43473852811684172 0.40482082561786309 0 0.42646345733135449 0.42088686527347441 0 0.43473852811684172 0.40482082561786309 0 0.44292677264660579 0.42392515796168401 0 0.43473852811684172 0.40482082561786309 0 0.42003555557297712 0.38799376876492359 0 0.43605286711449009 0.38080977408974359 0 0.41033309730305728 0.40785957742124029 0 0.43473852811684172 0.40482082561786309 0 0.42003555557297712 0.38799376876492359 0 0.39940032860097008 0.38986983405391068 0 0.41033309730305728 0.40785957742124029 0 0.42003555557297712 0.38799376876492359 0 0.40918213701441342 0.3736144609854074 0 0.39940032860097008 0.38986983405391068 0 0.42003555557297712 0.38799376876492359 0 0.40918213701441342 0.3736144609854074 0 0.42003555557297712 0.38799376876492359 0 0.42225433889660879 0.37545697575276449 0 0.42003555557297712 0.38799376876492359 0 0.42225433889660879 0.37545697575276449 0 0.43605286711449009 0.38080977408974359 0 0.44279863902385319 0.36498191861006751 0 0.43605286711449009 0.38080977408974359 0 0.45829891398740957 0.37926071030245079 0 0.43605286711449009 0.38080977408974359 0 0.44916269767969552 0.39669925538146661 0 0.45829891398740957 0.37926071030245079 0 0.43473852811684172 0.40482082561786309 0 0.43605286711449009 0.38080977408974359 0 0.44916269767969552 0.39669925538146661 0 0.43473852811684172 0.40482082561786309 0 0.44916269767969552 0.39669925538146661 0 0.45819524916971172 0.41557138043250991 0 0.44916269767969552 0.39669925538146661 0 0.47914945699370431 0.3984681476517854 0 0.45819524916971172 0.41557138043250991 0 0.44916269767969552 0.39669925538146661 0 0.45829891398740957 0.37926071030245079 0 0.47914945699370431 0.3984681476517854 0 0.45829891398740957 0.37926071030245079 0 0.47914945699370431 0.3984681476517854 0 0.44916269767969552 0.39669925538146661 0 0.45829891398740957 0.37926071030245079 0 0.45829891398740957 0.37926071030245079 0 0.48177296974371542 0.3780796821533936 0 0.47914945699370431 0.3984681476517854 0 0.47914945699370431 0.3984681476517854 0 0.5 0.39471699264069632 0 0.49999999999999928 0.41767558500111929 0 0.48177296974371542 0.3780796821533936 0 0.47914945699370431 0.3984681476517854 0 0.5 0.39471699264069632 0 0.5 0.37175840028027313 0 0.48177296974371542 0.3780796821533936 0 0.5 0.39471699264069632 0 0.48950419912568011 0.43203648207583117 0 0.49999999999999928 0.41767558500111929 0 0.47941257652712138 0.42859526255965119 0 0.48950419912568011 0.43203648207583117 0 0.49999999999999928 0.41767558500111929 0 0.50000000000000022 0.44212157098762489 0 0.49999999999999928 0.41767558500111929 0 0.47638758820359789 0.4177788365799131 0 0.47941257652712138 0.42859526255965119 0 0.47914945699370431 0.3984681476517854 0 0.49999999999999928 0.41767558500111929 0 0.47638758820359789 0.4177788365799131 0 0.47914945699370431 0.3984681476517854 0 0.49999999999999928 0.41767558500111929 0 0.47914945699370431 0.3984681476517854 0 0.47638758820359789 0.4177788365799131 0 0.45819524916971172 0.41557138043250991 0 0.47638758820359789 0.4177788365799131 0 0.46959145424244531 0.42892785421681912 0 0.47941257652712138 0.42859526255965119 0 0.48950419912568011 0.43203648207583117 0 0.47941257652712138 0.42859526255965119 0 0.47860421997559988 0.43975350975492877 0 0.46959145424244531 0.42892785421681912 0 0.47941257652712138 0.42859526255965119 0 0.47860421997559988 0.43975350975492877 0 0.46959145424244531 0.42892785421681912 0 0.45720843995119947 0.43738544852223271 0 0.45819524916971172 0.41557138043250991 0 0.46959145424244531 0.42892785421681912 0 0.45720843995119947 0.43738544852223271 0 0.47860421997559988 0.43975350975492877 0 0.47638758820359789 0.4177788365799131 0 0.46959145424244531 0.42892785421681912 0 0.45819524916971172 0.41557138043250991 0 0.43473852811684172 0.40482082561786309 0 0.45819524916971172 0.41557138043250991 0 0.44292677264660579 0.42392515796168401 0 0.45720843995119947 0.43738544852223271 0 0.45819524916971172 0.41557138043250991 0 0.44292677264660579 0.42392515796168401 0 0.45720843995119947 0.43738544852223271 0 0.44292677264660579 0.42392515796168401 0 0.44501475256406542 0.43710487641451851 0 0.43504649219903713 0.43385430946487219 0 0.44292677264660579 0.42392515796168401 0 0.44501475256406542 0.43710487641451851 0 0.44501475256406542 0.43710487641451851 0 0.44086930591740259 0.443703986550611 0 0.44426520485267701 0.44828521544284999 0 0.43504649219903713 0.43385430946487219 0 0.44501475256406542 0.43710487641451851 0 0.44086930591740259 0.443703986550611 0 0.44576605402647751 0.45131382091928901 0 0.43097115028835131 0.45382894378787952 0 0.4371491165808723 0.44919465112914592 0 0.44086930591740259 0.443703986550611 0 0.44106718496795649 0.44783878756079798 0 0.4371491165808723 0.44919465112914592 0 0.44106718496795649 0.44783878756079798 0 0.44576605402647751 0.45131382091928901 0 0.4371491165808723 0.44919465112914592 0 0.44086930591740259 0.443703986550611 0 0.44426520485267701 0.44828521544284999 0 0.44106718496795649 0.44783878756079798 0 0.44426520485267701 0.44828521544284999 0 0.44576605402647751 0.45131382091928901 0 0.44086930591740259 0.443703986550611 0 0.44106718496795649 0.44783878756079798 0 0.44426520485267701 0.44828521544284999 0 0.45720843995119947 0.43738544852223271 0 0.44501475256406542 0.43710487641451851 0 0.44426520485267701 0.44828521544284999 0 0.44576605402647751 0.45131382091928901 0 0.44334270512280699 0.46695283516179431 0 0.45751300038554987 0.46615712058798953 0 0.44426520485267701 0.44828521544284999 0 0.45751300038554987 0.46615712058798953 0 0.44576605402647751 0.45131382091928901 0 0.44334270512280699 0.46695283516179431 0 0.42744619309891668 0.4675425472795256 0 0.44426520485267701 0.44828521544284999 0 0.44576605402647751 0.45131382091928901 0 0.45751300038554987 0.46615712058798953 0 0.44426520485267701 0.44828521544284999 0 0.45751300038554987 0.46615712058798953 0 0.47213260242633898 0.44992772785007767 0 0.44426520485267701 0.44828521544284999 0 0.47213260242633898 0.44992772785007767 0 0.45720843995119947 0.43738544852223271 0 0.47860421997559988 0.43975350975492877 0 0.45720843995119947 0.43738544852223271 0 0.44426520485267701 0.44828521544284999 0 0.47213260242633898 0.44992772785007767 0 0.47213260242633898 0.44992772785007767 0 0.47860421997559988 0.43975350975492877 0 0.50000000000000067 0.45157024025730719 0 0.45720843995119947 0.43738544852223271 0 0.47213260242633898 0.44992772785007767 0 0.47860421997559988 0.43975350975492877 0 0.47213260242633898 0.44992772785007767 0 0.48064266697128027 0.4673483066551633 0 0.50000000000000067 0.45157024025730719 0 0.45751300038554987 0.46615712058798953 0 0.47213260242633898 0.44992772785007767 0 0.48064266697128027 0.4673483066551633 0 0.48064266697128027 0.4673483066551633 0 0.5 0.46843982966384828 0 0.50000000000000067 0.45157024025730719 0 0.47860421997559988 0.43975350975492877 0 0.50000000000000022 0.44212157098762489 0 0.47860421997559988 0.43975350975492877 0 0.50000000000000067 0.45157024025730719 0 0.50000000000000022 0.44212157098762489 0 0.47213260242633898 0.44992772785007767 0 0.50000000000000067 0.45157024025730719 0 0.48950419912568011 0.43203648207583117 0 0.47860421997559988 0.43975350975492877 0 0.50000000000000022 0.44212157098762489 0 0.48834007405180069 0.49233461120087918 0 0.50000000000000222 0.48530941907038949 0 0.47076079591842229 0.48402902573312923 0 0.48834007405180069 0.49233461120087918 0 0.5 0.5 0 0.48259950028877657 0.49999999999999922 0 0.50000000000000222 0.48530941907038949 0 0.47076079591842229 0.48402902573312923 0 0.48834007405180069 0.49233461120087918 0 0.5 0.5 0 0.50000000000000222 0.48530941907038949 0 0.50000000000000222 0.48530941907038949 0 0.48785086572242647 0.47628164528063233 0 0.47076079591842229 0.48402902573312923 0 0.48064266697128027 0.4673483066551633 0 0.5 0.46843982966384828 0 0.48785086572242647 0.47628164528063233 0 0.5 0.46843982966384828 0 0.50000000000000222 0.48530941907038949 0 0.48785086572242647 0.47628164528063233 0 0.45751300038554987 0.46615712058798953 0 0.48064266697128027 0.4673483066551633 0 0.47076079591842229 0.48402902573312923 0 0.48064266697128027 0.4673483066551633 0 0.48785086572242647 0.47628164528063233 0 0.47076079591842229 0.48402902573312923 0 0.47076079591842229 0.48402902573312923 0 0.48259950028877657 0.49999999999999922 0 0.45965124302753141 0.5 0 0.48834007405180069 0.49233461120087918 0 0.47076079591842229 0.48402902573312923 0 0.48259950028877657 0.49999999999999922 0 0.47076079591842229 0.48402902573312923 0 0.48259950028877657 0.49999999999999922 0 0.47076079591842229 0.48402902573312923 0 0.45965124302753141 0.5 0 0.44264557298028417 0.48279785186037327 0 0.45751300038554987 0.46615712058798953 0 0.47076079591842229 0.48402902573312923 0 0.47076079591842229 0.48402902573312923 0 0.44264557298028417 0.48279785186037327 0 0.45751300038554987 0.46615712058798953 0 0.47076079591842229 0.48402902573312923 0 0.44264557298028417 0.48279785186037327 0 0.44334270512280699 0.46695283516179431 0 0.44264557298028417 0.48279785186037327 0 0.42744619309891668 0.4675425472795256 0 0.44334270512280699 0.46695283516179431 0 0.45751300038554987 0.46615712058798953 0 0.44264557298028417 0.48279785186037327 0 0.45965124302753141 0.5 0 0.44264557298028417 0.48279785186037327 0 0.43670298576628619 0.5 0 0.44264557298028417 0.48279785186037327 0 0.42814010978677508 0.48883471415535268 0 0.41453035004214622 0.48156667798761449 0 0.43670298576628619 0.5 0 0.42814010978677508 0.48883471415535268 0 0.41868153035838401 0.49097432677342312 0 0.44264557298028417 0.48279785186037327 0 0.43670298576628619 0.5 0 0.42814010978677508 0.48883471415535268 0 0.43670298576628619 0.5 0 0.41375472850504103 0.5 0 0.41868153035838401 0.49097432677342312 0 0.41375472850504103 0.5 0 0.41868153035838401 0.49097432677342312 0 0.40912633217135602 0.48377127363976219 0 0.42814010978677508 0.48883471415535268 0 0.41868153035838401 0.49097432677342312 0 0.41453035004214622 0.48156667798761449 0 0.41868153035838401 0.49097432677342312 0 0.40912633217135602 0.48377127363976219 0 0.41453035004214622 0.48156667798761449 0 0.40882198151684829 0.470458307354371 0 0.40912633217135602 0.48377127363976219 0 0.42744619309891668 0.4675425472795256 0 0.40912633217135602 0.48377127363976219 0 0.42744619309891668 0.4675425472795256 0 0.40912633217135602 0.48377127363976219 0 0.41453035004214622 0.48156667798761449 0 0.42744619309891668 0.4675425472795256 0 0.40882198151684829 0.470458307354371 0 0.40912633217135602 0.48377127363976219 0 0.40257181831080802 0.47789339995616598 0 0.44264557298028417 0.48279785186037327 0 0.41453035004214622 0.48156667798761449 0 0.44264557298028417 0.48279785186037327 0 0.41453035004214622 0.48156667798761449 0 0.42744619309891668 0.4675425472795256 0 0.44576605402647751 0.45131382091928901 0 0.42744619309891668 0.4675425472795256 0 0.44576605402647751 0.45131382091928901 0 0.43097115028835131 0.45382894378787952 0 0.42744619309891668 0.4675425472795256 0 0.43097115028835131 0.45382894378787952 0 0.42744619309891668 0.4675425472795256 0 0.41709851720120961 0.46055572465752248 0 0.44086930591740259 0.443703986550611 0 0.4309855774719657 0.44262377444488737 0 0.4371491165808723 0.44919465112914592 0 0.43504649219903713 0.43385430946487219 0 0.44086930591740259 0.443703986550611 0 0.4309855774719657 0.44262377444488737 0 0.43097115028835131 0.45382894378787952 0 0.4309855774719657 0.44262377444488737 0 0.4371491165808723 0.44919465112914592 0 0.43097115028835131 0.45382894378787952 0 0.4309855774719657 0.44262377444488737 0 0.41665312800777271 0.44940921386284588 0 0.4216403136361262 0.43569606407888728 0 0.4309855774719657 0.44262377444488737 0 0.41665312800777271 0.44940921386284588 0 0.41665312800777271 0.44940921386284588 0 0.4029362549212489 0.45832899449672349 0 0.40092741287151468 0.44093224530230651 0 0.4216403136361262 0.43569606407888728 0 0.41665312800777271 0.44940921386284588 0 0.40092741287151468 0.44093224530230651 0 0.40882198151684829 0.470458307354371 0 0.42744619309891668 0.4675425472795256 0 0.41709851720120961 0.46055572465752248 0 0.43097115028835131 0.45382894378787952 0 0.41665312800777271 0.44940921386284588 0 0.41709851720120961 0.46055572465752248 0 0.41665312800777271 0.44940921386284588 0 0.41709851720120961 0.46055572465752248 0 0.4029362549212489 0.45832899449672349 0 0.40882198151684829 0.470458307354371 0 0.41709851720120961 0.46055572465752248 0 0.4029362549212489 0.45832899449672349 0 0.40882198151684829 0.470458307354371 0 0.4029362549212489 0.45832899449672349 0 0.3944208343110962 0.47305259584339332 0 0.4029362549212489 0.45832899449672349 0 0.38943508825963058 0.45629052964312111 0 0.3944208343110962 0.47305259584339332 0 0.4029362549212489 0.45832899449672349 0 0.40092741287151468 0.44093224530230651 0 0.38943508825963058 0.45629052964312111 0 0.40092741287151468 0.44093224530230651 0 0.37809165231809289 0.44568724501072521 0 0.38943508825963058 0.45629052964312111 0 0.37809165231809289 0.44568724501072521 0 0.38943508825963058 0.45629052964312111 0 0.37844435483634198 0.4675903904274426 0 0.38943508825963058 0.45629052964312111 0 0.37844435483634198 0.4675903904274426 0 0.3944208343110962 0.47305259584339332 0 0.37844435483634198 0.4675903904274426 0 0.38120033573297152 0.48442634992442057 0 0.3944208343110962 0.47305259584339332 0 0.38120033573297152 0.48442634992442057 0 0.3944208343110962 0.47305259584339332 0 0.39562515835400552 0.48382872387274839 0 0.36196284501337178 0.5 0 0.38120033573297152 0.48442634992442057 0 0.39080647124379558 0.49999999999999922 0 0.38120033573297152 0.48442634992442057 0 0.39080647124379558 0.49999999999999922 0 0.39562515835400552 0.48382872387274839 0 0.40912633217135602 0.48377127363976219 0 0.39080647124379558 0.49999999999999922 0 0.40912633217135602 0.48377127363976219 0 0.39080647124379558 0.49999999999999922 0 0.39562515835400552 0.48382872387274839 0 0.41375472850504103 0.5 0 0.40912633217135602 0.48377127363976219 0 0.39080647124379558 0.49999999999999922 0 0.40912633217135602 0.48377127363976219 0 0.40257181831080802 0.47789339995616598 0 0.39562515835400552 0.48382872387274839 0 0.40882198151684829 0.470458307354371 0 0.40257181831080802 0.47789339995616598 0 0.3944208343110962 0.47305259584339332 0 0.40257181831080802 0.47789339995616598 0 0.3944208343110962 0.47305259584339332 0 0.39562515835400552 0.48382872387274839 0 0.34137977846588119 0.091947059702449957 0 0.3184977734976509 0.082531855017860187 0 0.34137977846588119 0.091947059702449957 0 0.33853514524224232 0.092154422351098803 0 0.3184977734976509 0.082531855017860187 0 0.33853514524224232 0.092154422351098803 0 0.3184977734976509 0.082531855017860187 0 0.3305269393921435 0.093893314460775035 0 0.34137977846588119 0.091947059702449957 0 0.33488127772135701 0.070909675734900868 0 0.3184977734976509 0.082531855017860187 0 0.33488127772135701 0.070909675734900868 0 0.35624300874513559 0.071190975121652081 0 0.33828509493208109 0.051113002016081502 0 0.3184977734976509 0.082531855017860187 0 0.31750720709783492 0.060828210965220328 0 0.30506359630307739 0.067813250175554993 0 0.33488127772135701 0.070909675734900868 0 0.32846421329825382 0.059059627678852658 0 0.31750720709783492 0.060828210965220328 0 0.33488127772135701 0.070909675734900868 0 0.3184977734976509 0.082531855017860187 0 0.31750720709783492 0.060828210965220328 0 0.3184977734976509 0.082531855017860187 0 0.3254096333834442 0.096971455496547829 0 0.3305269393921435 0.093893314460775035 0 0.3184977734976509 0.082531855017860187 0 0.3254096333834442 0.096971455496547829 0 0.31111548734401751 0.094174984339189319 0 0.3254096333834442 0.096971455496547829 0 0.33219394353324039 0.1121017755840282 0 0.31111548734401751 0.094174984339189319 0 0.33219394353324039 0.1121017755840282 0 0.31111548734401751 0.094174984339189319 0 0.33219394353324039 0.1121017755840282 0 0.31151194808720201 0.1150643222194616 0 0.31111548734401751 0.094174984339189319 0 0.33219394353324039 0.1121017755840282 0 0.31151194808720201 0.1150643222194616 0 0.32387679174541939 0.1297141718462434 0 0.33219394353324039 0.1121017755840282 0 0.32387679174541939 0.1297141718462434 0 0.35327239972246333 0.1300285668288671 0 0.33219394353324039 0.1121017755840282 0 0.35327239972246333 0.1300285668288671 0 0.33219394353324039 0.1121017755840282 0 0.34279585490336462 0.1026082003979065 0 0.35159211237321392 0.11222190062690381 0 0.33853514524224232 0.092154422351098803 0 0.3305269393921435 0.093893314460775035 0 0.33650548478629722 0.09727411407467923 0 0.3254096333834442 0.096971455496547829 0 0.33351858274250701 0.1005678965871936 0 0.3305269393921435 0.093893314460775035 0 0.33351858274250701 0.1005678965871936 0 0.3305269393921435 0.093893314460775035 0 0.33650548478629722 0.09727411407467923 0 0.3254096333834442 0.096971455496547829 0 0.33219394353324039 0.1121017755840282 0 0.33351858274250701 0.1005678965871936 0 0.33219394353324039 0.1121017755840282 0 0.33351858274250701 0.1005678965871936 0 0.34279585490336462 0.1026082003979065 0 0.33351858274250701 0.1005678965871936 0 0.34279585490336462 0.1026082003979065 0 0.33650548478629722 0.09727411407467923 0 0.33853514524224232 0.092154422351098803 0 0.34279585490336462 0.1026082003979065 0 0.33650548478629722 0.09727411407467923 0 0.34279585490336462 0.1026082003979065 0 0.35159211237321392 0.11222190062690381 0 0.36426178343411147 0.1013622643870397 0 0.33853514524224232 0.092154422351098803 0 0.34279585490336462 0.1026082003979065 0 0.36426178343411147 0.1013622643870397 0 0.34137977846588119 0.091947059702449957 0 0.33853514524224232 0.092154422351098803 0 0.36426178343411147 0.1013622643870397 0 0.33853514524224232 0.092154422351098803 0 0.36426178343411147 0.1013622643870397 0 0.34137977846588119 0.091947059702449957 0 0.36426178343411147 0.1013622643870397 0 0.33219394353324039 0.1121017755840282 0 0.35159211237321392 0.11222190062690381 0 0.35327239972246333 0.1300285668288671 0 0.35159211237321392 0.11222190062690381 0 0.36649271172908648 0.1176987398754743 0 0.35327239972246333 0.1300285668288671 0 0.35159211237321392 0.11222190062690381 0 0.36649271172908648 0.1176987398754743 0 0.36426178343411147 0.1013622643870397 0 0.36649271172908648 0.1176987398754743 0 0.36938385952287339 0.13266757129752671 0 0.38138511069115272 0.12353481432135879 0 0.36649271172908648 0.1176987398754743 0 0.36426178343411147 0.1013622643870397 0 0.3795225325030368 0.1068242515199407 0 0.36426178343411147 0.1013622643870397 0 0.3795225325030368 0.1068242515199407 0 0.36426178343411147 0.1013622643870397 0 0.3742009225581896 0.091268948227223284 0 0.3795225325030368 0.1068242515199407 0 0.3742009225581896 0.091268948227223284 0 0.35754778501084228 0.087847667021068221 0 0.35624300874513559 0.071190975121652081 0 0.36426178343411147 0.1013622643870397 0 0.3742009225581896 0.091268948227223284 0 0.35754778501084228 0.087847667021068221 0 0.3742009225581896 0.091268948227223284 0 0.35624300874513559 0.071190975121652081 0 0.34137977846588119 0.091947059702449957 0 0.35754778501084228 0.087847667021068221 0 0.35624300874513559 0.071190975121652081 0 0.34137977846588119 0.091947059702449957 0 0.36426178343411147 0.1013622643870397 0 0.35754778501084228 0.087847667021068221 0 0.34137977846588119 0.091947059702449957 0 0.33488127772135701 0.070909675734900868 0 0.35624300874513559 0.071190975121652081 0 0.3742009225581896 0.091268948227223284 0 0.35624300874513559 0.071190975121652081 0 0.37575225644292037 0.071709270247263784 0 0.35624300874513559 0.071190975121652081 0 0.36737709041569239 0.056764699852256018 0 0.37575225644292037 0.071709270247263784 0 0.36737709041569239 0.056764699852256018 0 0.36443667806580698 0.054513224756226962 0 0.39058826119953283 0.057913447496371839 0 0.36443667806580698 0.054513224756226962 0 0.36984281421283938 0.03924660656396721 0 0.37608467898805159 0.048096788967416412 0 0.36984281421283938 0.03924660656396721 0 0.35576481933353549 0.041718099984820838 0 0.3798040161112804 0.028996110171619349 0 0.35576481933353549 0.041718099984820838 0 0.36136411866671431 0.026161729739540451 0 0.37786156531075732 0.02725125369877367 0 0.35576481933353549 0.041718099984820838 0 0.3798040161112804 0.028996110171619349 0 0.37786156531075732 0.02725125369877367 0 0.35576481933353549 0.041718099984820838 0 0.3798040161112804 0.028996110171619349 0 0.36984281421283938 0.03924660656396721 0 0.37726993283737248 0.041439113600633092 0 0.37608467898805159 0.048096788967416412 0 0.36984281421283938 0.03924660656396721 0 0.37675727284589372 0.036323400775862158 0 0.37726993283737248 0.041439113600633092 0 0.36443667806580698 0.054513224756226962 0 0.36984281421283938 0.03924660656396721 0 0.35576481933353549 0.041718099984820838 0 0.35576481933353549 0.041718099984820838 0 0.36136411866671431 0.026161729739540451 0 0.34099279295720591 0.031691385536231111 0 0.35576481933353549 0.041718099984820838 0 0.34539840685914608 0.044617690611648012 0 0.34099279295720591 0.031691385536231111 0 0.35624300874513559 0.071190975121652081 0 0.34416591963185211 0.055615952208139578 0 0.33828509493208109 0.051113002016081502 0 0.36443667806580698 0.054513224756226962 0 0.34416591963185211 0.055615952208139578 0 0.33828509493208109 0.051113002016081502 0 0.36737709041569239 0.056764699852256018 0 0.34416591963185211 0.055615952208139578 0 0.35624300874513559 0.071190975121652081 0 0.33828509493208109 0.051113002016081502 0 0.35624300874513559 0.071190975121652081 0 0.36737709041569239 0.056764699852256018 0 0.34416591963185211 0.055615952208139578 0 0.36443667806580698 0.054513224756226962 0 0.33828509493208109 0.051113002016081502 0 0.36443667806580698 0.054513224756226962 0 0.34539840685914608 0.044617690611648012 0 0.33828509493208109 0.051113002016081502 0 0.36443667806580698 0.054513224756226962 0 0.35576481933353549 0.041718099984820838 0 0.34539840685914608 0.044617690611648012 0 0.36737709041569239 0.056764699852256018 0 0.36443667806580698 0.054513224756226962 0 0.34416591963185211 0.055615952208139578 0 0.35686418876597309 0.010252504770385159 0 0.37537418671591988 0.012891754799621079 0 0.3700201466167648 -0.002195575246397889 0 0.35686418876597309 0.010252504770385159 0 0.37786156531075732 0.02725125369877367 0 0.36136411866671431 0.026161729739540451 0 0.35686418876597309 0.010252504770385159 0 0.37786156531075732 0.02725125369877367 0 0.35686418876597309 0.010252504770385159 0 0.37537418671591988 0.012891754799621079 0 0.37786156531075732 0.02725125369877367 0 0.36136411866671431 0.026161729739540451 0 0.35686418876597309 0.010252504770385159 0 0.34167945108238768 0.015605415956853899 0 0.36136411866671431 0.026161729739540451 0 0.34167945108238768 0.015605415956853899 0 0.34099279295720591 0.031691385536231111 0 0.35686418876597309 0.010252504770385159 0 0.34167945108238768 0.015605415956853899 0 0.33586681222118892 -0.0067462441580033658 0 0.35686418876597309 0.010252504770385159 0 0.33586681222118892 -0.0067462441580033658 0 0.34167945108238768 0.015605415956853899 0 0.32490055802469708 0.021190940670656921 0 0.33586681222118892 -0.0067462441580033658 0 0.34167945108238768 0.015605415956853899 0 0.32490055802469708 0.021190940670656921 0 0.34099279295720591 0.031691385536231111 0 0.32490055802469708 0.021190940670656921 0 0.34099279295720591 0.031691385536231111 0 0.32801258046435111 0.036170166979635328 0 0.32490055802469708 0.021190940670656921 0 0.31497710433926901 0.036033128519756527 0 0.30595588987094691 0.026092456194660541 0 0.32490055802469708 0.021190940670656921 0 0.31046320235639918 0.0067575729804437252 0 0.30595588987094691 0.026092456194660541 0 0.32490055802469708 0.021190940670656921 0 0.32801258046435111 0.036170166979635328 0 0.31497710433926901 0.036033128519756527 0 0.32490055802469708 0.021190940670656921 0 0.31046320235639918 0.0067575729804437252 0 0.33586681222118892 -0.0067462441580033658 0 0.33488127772135701 0.070909675734900868 0 0.32846421329825382 0.059059627678852658 0 0.33828509493208109 0.051113002016081502 0 0.33828509493208109 0.051113002016081502 0 0.33632782521092219 0.048924662700562782 0 0.31456469921871788 0.048028881697348168 0 0.34539840685914608 0.044617690611648012 0 0.33828509493208109 0.051113002016081502 0 0.33632782521092219 0.048924662700562782 0 0.33828509493208109 0.051113002016081502 0 0.33632782521092219 0.048924662700562782 0 0.34539840685914608 0.044617690611648012 0 0.33609782728063148 0.04111054955314445 0 0.34099279295720591 0.031691385536231111 0 0.34539840685914608 0.044617690611648012 0 0.33632782521092219 0.048924662700562782 0 0.33609782728063148 0.04111054955314445 0 0.33609782728063148 0.04111054955314445 0 0.34099279295720591 0.031691385536231111 0 0.32801258046435111 0.036170166979635328 0 0.33632782521092219 0.048924662700562782 0 0.33609782728063148 0.04111054955314445 0 0.33051084790212298 0.042529329228536181 0 0.33632782521092219 0.048924662700562782 0 0.33051084790212298 0.042529329228536181 0 0.32327528761916352 0.043108517346294839 0 0.33609782728063148 0.04111054955314445 0 0.33051084790212298 0.042529329228536181 0 0.32801258046435111 0.036170166979635328 0 0.33632782521092219 0.048924662700562782 0 0.32327528761916352 0.043108517346294839 0 0.31456469921871788 0.048028881697348168 0 0.33051084790212298 0.042529329228536181 0 0.32327528761916352 0.043108517346294839 0 0.32801258046435111 0.036170166979635328 0 0.32327528761916352 0.043108517346294839 0 0.32801258046435111 0.036170166979635328 0 0.31497710433926901 0.036033128519756527 0 0.32327528761916352 0.043108517346294839 0 0.31497710433926901 0.036033128519756527 0 0.31456469921871788 0.048028881697348168 0 0.33828509493208109 0.051113002016081502 0 0.31456469921871788 0.048028881697348168 0 0.32846421329825382 0.059059627678852658 0 0.33828509493208109 0.051113002016081502 0 0.31456469921871788 0.048028881697348168 0 0.32846421329825382 0.059059627678852658 0 0.31456469921871788 0.048028881697348168 0 0.31750720709783492 0.060828210965220328 0 0.31456469921871788 0.048028881697348168 0 0.31750720709783492 0.060828210965220328 0 0.30386903740065402 0.05697431224277244 0 0.31750720709783492 0.060828210965220328 0 0.30386903740065402 0.05697431224277244 0 0.30506359630307739 0.067813250175554993 0 0.31456469921871788 0.048028881697348168 0 0.30386903740065402 0.05697431224277244 0 0.29084430350535467 0.044944761378613682 0 0.30386903740065402 0.05697431224277244 0 0.29325963230024937 0.057606978803657879 0 0.29690158384745241 0.06457818982176422 0 0.31456469921871788 0.048028881697348168 0 0.30257644158749403 0.037675663858353942 0 0.29084430350535467 0.044944761378613682 0 0.31456469921871788 0.048028881697348168 0 0.29084430350535467 0.044944761378613682 0 0.30257644158749403 0.037675663858353942 0 0.28728110375769011 0.032980092644635972 0 0.30595588987094691 0.026092456194660541 0 0.31497710433926901 0.036033128519756527 0 0.31456469921871788 0.048028881697348168 0 0.30257644158749403 0.037675663858353942 0 0.31497710433926901 0.036033128519756527 0 0.30257644158749403 0.037675663858353942 0 0.30595588987094691 0.026092456194660541 0 0.28728110375769011 0.032980092644635972 0 0.28354425329012439 0.021068516806879451 0 0.27754771987688809 0.040797440569893019 0 0.30257644158749403 0.037675663858353942 0 0.29084430350535467 0.044944761378613682 0 0.28728110375769011 0.032980092644635972 0 0.28728110375769011 0.032980092644635972 0 0.2844924432277231 0.043204628682168907 0 0.27754771987688809 0.040797440569893019 0 0.29084430350535467 0.044944761378613682 0 0.28728110375769011 0.032980092644635972 0 0.2844924432277231 0.043204628682168907 0 0.2844924432277231 0.043204628682168907 0 0.28229664577095948 0.054096220135532967 0 0.27754771987688809 0.040797440569893019 0 0.29084430350535467 0.044944761378613682 0 0.2844924432277231 0.043204628682168907 0 0.28229664577095948 0.054096220135532967 0 0.29084430350535467 0.044944761378613682 0 0.28229664577095948 0.054096220135532967 0 0.29325963230024937 0.057606978803657879 0 0.28229664577095948 0.054096220135532967 0 0.28695696052130792 0.062426000594819037 0 0.29325963230024937 0.057606978803657879 0 0.28229664577095948 0.054096220135532967 0 0.28695696052130792 0.062426000594819037 0 0.27961998430175328 0.060695812266760227 0 0.28695696052130792 0.062426000594819037 0 0.29325963230024937 0.057606978803657879 0 0.29690158384745241 0.06457818982176422 0 0.30386903740065402 0.05697431224277244 0 0.29084430350535467 0.044944761378613682 0 0.29325963230024937 0.057606978803657879 0 0.31046320235639918 0.0067575729804437252 0 0.29633736445586178 0.016145334388179639 0 0.2895407867033607 0.0013395930438658619 0 0.31046320235639918 0.0067575729804437252 0 0.30595588987094691 0.026092456194660541 0 0.29633736445586178 0.016145334388179639 0 0.28728110375769011 0.032980092644635972 0 0.29633736445586178 0.016145334388179639 0 0.28354425329012439 0.021068516806879451 0 0.28728110375769011 0.032980092644635972 0 0.30595588987094691 0.026092456194660541 0 0.29633736445586178 0.016145334388179639 0 0.29633736445586178 0.016145334388179639 0 0.28354425329012439 0.021068516806879451 0 0.2895407867033607 0.0013395930438658619 0 0.28354425329012439 0.021068516806879451 0 0.2895407867033607 0.0013395930438658619 0 0.27605408581287011 0.0090157940159830471 0 0.28354425329012439 0.021068516806879451 0 0.2895407867033607 0.0013395930438658619 0 0.2895407867033607 0.0013395930438658619 0 0.27605408581287011 0.0090157940159830471 0 0.26778398551549509 -0.0036893303100333872 0 0.27605408581287011 0.0090157940159830471 0 0.26417056773795178 0.0090152440179189393 0 0.26778398551549509 -0.0036893303100333872 0 0.27605408581287011 0.0090157940159830471 0 0.26936383070045983 0.02007531215695801 0 0.26417056773795178 0.0090152440179189393 0 0.28354425329012439 0.021068516806879451 0 0.27754771987688809 0.040797440569893019 0 0.28354425329012439 0.021068516806879451 0 0.27605408581287011 0.0090157940159830471 0 0.26936383070045983 0.02007531215695801 0 0.28354425329012439 0.021068516806879451 0 0.26936383070045983 0.02007531215695801 0 0.27332262009486957 0.033728107725222278 0 0.26936383070045983 0.02007531215695801 0 0.26667678125960848 0.028969541142501901 0 0.27332262009486957 0.033728107725222278 0 0.26936383070045983 0.02007531215695801 0 0.26667678125960848 0.028969541142501901 0 0.25978705670837199 0.02772172808684556 0 0.26667678125960848 0.028969541142501901 0 0.25978705670837199 0.02772172808684556 0 0.26423361753473251 0.034353016600981737 0 0.24818833723327199 0.02644705719899533 0 0.25978705670837199 0.02772172808684556 0 0.25442723867738032 0.016379625870619269 0 0.24818833723327199 0.02644705719899533 0 0.25978705670837199 0.02772172808684556 0 0.25704478259505842 0.035809011079610743 0 0.26936383070045983 0.02007531215695801 0 0.25978705670837199 0.02772172808684556 0 0.25442723867738032 0.016379625870619269 0 0.26936383070045983 0.02007531215695801 0 0.25442723867738032 0.016379625870619269 0 0.26417056773795178 0.0090152440179189393 0 0.25442723867738032 0.016379625870619269 0 0.26417056773795178 0.0090152440179189393 0 0.25322369798355371 0.0032948183560677501 0 0.26417056773795178 0.0090152440179189393 0 0.25322369798355371 0.0032948183560677501 0 0.26778398551549509 -0.0036893303100333872 0 0.28229664577095948 0.054096220135532967 0 0.27155118646365262 0.060526364332906778 0 0.27754771987688809 0.040797440569893019 0 0.26803735397675288 0.057537922442449492 0 0.27155118646365262 0.060526364332906778 0 0.27754771987688809 0.040797440569893019 0 0.27155118646365262 0.060526364332906778 0 0.27754771987688809 0.040797440569893019 0 0.26803735397675288 0.057537922442449492 0 0.26717674565759131 0.061414912581717808 0 0.27155118646365262 0.060526364332906778 0 0.26803735397675288 0.057537922442449492 0 0.26717674565759131 0.061414912581717808 0 0.26717674565759131 0.061414912581717808 0 0.27082486665434358 0.062915996334918609 0 0.26717674565759131 0.061414912581717808 0 0.27155118646365262 0.060526364332906778 0 0.27082486665434358 0.062915996334918609 0 0.27155118646365262 0.060526364332906778 0 0.27082486665434358 0.062915996334918609 0 0.26803735397675288 0.057537922442449492 0 0.27155118646365262 0.060526364332906778 0 0.27155118646365262 0.060526364332906778 0 0.27961998430175328 0.060695812266760227 0 0.27767514445109232 0.065734664003783444 0 0.28229664577095948 0.054096220135532967 0 0.27155118646365262 0.060526364332906778 0 0.27961998430175328 0.060695812266760227 0 0.28354425329012439 0.021068516806879451 0 0.27754771987688809 0.040797440569893019 0 0.27332262009486957 0.033728107725222278 0 0.26803735397675288 0.057537922442449492 0 0.27754771987688809 0.040797440569893019 0 0.27332262009486957 0.033728107725222278 0 0.26803735397675288 0.057537922442449492 0 0.27332262009486957 0.033728107725222278 0 0.26337349528673171 0.044011131262296957 0 0.26803735397675288 0.057537922442449492 0 0.27332262009486957 0.033728107725222278 0 0.26667678125960848 0.028969541142501901 0 0.27332262009486957 0.033728107725222278 0 0.26423361753473251 0.034353016600981737 0 0.27332262009486957 0.033728107725222278 0 0.26337349528673171 0.044011131262296957 0 0.26423361753473251 0.034353016600981737 0 0.25978705670837199 0.02772172808684556 0 0.26423361753473251 0.034353016600981737 0 0.25704478259505842 0.035809011079610743 0 0.26337349528673171 0.044011131262296957 0 0.26423361753473251 0.034353016600981737 0 0.25704478259505842 0.035809011079610743 0 0.2492733855269578 0.041579555173777823 0 0.24818833723327199 0.02644705719899533 0 0.25704478259505842 0.035809011079610743 0 0.2492733855269578 0.041579555173777823 0 0.26337349528673171 0.044011131262296957 0 0.25704478259505842 0.035809011079610743 0 0.2492733855269578 0.041579555173777823 0 0.26803735397675288 0.057537922442449492 0 0.26337349528673171 0.044011131262296957 0 0.2492733855269578 0.041579555173777823 0 0.26803735397675288 0.057537922442449492 0 0.24629062771517271 0.052820950830226497 0 0.2492733855269578 0.041579555173777823 0 0.26803735397675288 0.057537922442449492 0 0.24874122334595 0.07170785510379532 0 0.24629062771517271 0.052820950830226497 0 0.26717674565759131 0.061414912581717808 0 0.24629062771517271 0.052820950830226497 0 0.26717674565759131 0.061414912581717808 0 0.24629062771517271 0.052820950830226497 0 0.26803735397675288 0.057537922442449492 0 0.26717674565759131 0.061414912581717808 0 0.24874122334595 0.07170785510379532 0 0.26717674565759131 0.061414912581717808 0 0.26207170159221099 0.084412837492877896 0 0.26717674565759131 0.061414912581717808 0 0.26207170159221099 0.084412837492877896 0 0.26717674565759131 0.061414912581717808 0 0.26459661937193729 0.083407271434054076 0 0.26207170159221099 0.084412837492877896 0 0.24736227196270541 0.090270970101712061 0 0.24874122334595 0.07170785510379532 0 0.26207170159221099 0.084412837492877896 0 0.24736227196270541 0.090270970101712061 0 0.26207170159221099 0.084412837492877896 0 0.24736227196270541 0.090270970101712061 0 0.26016144869860108 0.09301841504440217 0 0.25459763100830068 0.096141582858552177 0 0.24736227196270541 0.090270970101712061 0 0.26207170159221099 0.084412837492877896 0 0.26016144869860108 0.09301841504440217 0 0.24736227196270541 0.090270970101712061 0 0.25459763100830068 0.096141582858552177 0 0.26459661937193729 0.083407271434054076 0 0.26207170159221099 0.084412837492877896 0 0.26207170159221099 0.084412837492877896 0 0.26016144869860108 0.09301841504440217 0 0.26459661937193729 0.083407271434054076 0 0.2619867778419176 0.09199379318438361 0 0.26207170159221099 0.084412837492877896 0 0.2619867778419176 0.09199379318438361 0 0.26016144869860108 0.09301841504440217 0 0.26459661937193729 0.083407271434054076 0 0.26207170159221099 0.084412837492877896 0 0.2619867778419176 0.09199379318438361 0 0.2619867778419176 0.09199379318438361 0 0.26016144869860108 0.09301841504440217 0 0.26459661937193729 0.083407271434054076 0 0.28765643041333783 0.074223541376674432 0 0.26459661937193729 0.083407271434054076 0 0.27601190449835611 0.084120993139366301 0 0.28765643041333783 0.074223541376674432 0 0.2619867778419176 0.09199379318438361 0 0.27601190449835611 0.084120993139366301 0 0.27597760534302263 0.093816081557894046 0 0.2619867778419176 0.09199379318438361 0 0.27601190449835611 0.084120993139366301 0 0.26459661937193729 0.083407271434054076 0 0.2619867778419176 0.09199379318438361 0 0.27601190449835611 0.084120993139366301 0 0.27601190449835611 0.084120993139366301 0 0.28527214605629803 0.093542631019163408 0 0.27597760534302263 0.093816081557894046 0 0.26459661937193729 0.083407271434054076 0 0.27082486665434358 0.062915996334918609 0 0.26717674565759131 0.061414912581717808 0 0.26459661937193729 0.083407271434054076 0 0.27082486665434358 0.062915996334918609 0 0.26459661937193729 0.083407271434054076 0 0.27082486665434358 0.062915996334918609 0 0.27767514445109232 0.065734664003783444 0 0.26459661937193729 0.083407271434054076 0 0.27767514445109232 0.065734664003783444 0 0.28765643041333783 0.074223541376674432 0 0.27155118646365262 0.060526364332906778 0 0.27082486665434358 0.062915996334918609 0 0.27767514445109232 0.065734664003783444 0 0.27082486665434358 0.062915996334918609 0 0.27767514445109232 0.065734664003783444 0 0.27155118646365262 0.060526364332906778 0 0.27767514445109232 0.065734664003783444 0 0.27767514445109232 0.065734664003783444 0 0.28765643041333783 0.074223541376674432 0 0.27767514445109232 0.065734664003783444 0 0.29306802488508721 0.072068336257275281 0 0.28695696052130792 0.062426000594819037 0 0.27961998430175328 0.060695812266760227 0 0.27767514445109232 0.065734664003783444 0 0.28695696052130792 0.062426000594819037 0 0.27767514445109232 0.065734664003783444 0 0.29306802488508721 0.072068336257275281 0 0.28695696052130792 0.062426000594819037 0 0.29306802488508721 0.072068336257275281 0 0.29690158384745241 0.06457818982176422 0 0.29561576852942001 0.073116650333272012 0 0.29306802488508721 0.072068336257275281 0 0.29561576852942001 0.073116650333272012 0 0.29306802488508721 0.072068336257275281 0 0.29003703115479512 0.076248193094349867 0 0.29306802488508721 0.072068336257275281 0 0.28765643041333783 0.074223541376674432 0 0.29306802488508721 0.072068336257275281 0 0.29003703115479512 0.076248193094349867 0 0.28765643041333783 0.074223541376674432 0 0.29561576852942001 0.073116650333272012 0 0.29003703115479512 0.076248193094349867 0 0.27767514445109232 0.065734664003783444 0 0.29306802488508721 0.072068336257275281 0 0.28765643041333783 0.074223541376674432 0 0.29003703115479512 0.076248193094349867 0 0.28765643041333783 0.074223541376674432 0 0.27601190449835611 0.084120993139366301 0 0.29003703115479512 0.076248193094349867 0 0.27601190449835611 0.084120993139366301 0 0.29003703115479512 0.076248193094349867 0 0.28765643041333783 0.074223541376674432 0 0.27601190449835611 0.084120993139366301 0 0.29003703115479512 0.076248193094349867 0 0.28870857493654689 0.086239244916881869 0 0.27601190449835611 0.084120993139366301 0 0.28870857493654689 0.086239244916881869 0 0.28527214605629803 0.093542631019163408 0 0.28870857493654689 0.086239244916881869 0 0.28527214605629803 0.093542631019163408 0 0.29246213629446111 0.095768124011444758 0 0.28870857493654689 0.086239244916881869 0 0.29698271976236568 0.089899813846382556 0 0.29246213629446111 0.095768124011444758 0 0.29003703115479512 0.076248193094349867 0 0.28870857493654689 0.086239244916881869 0 0.29698271976236568 0.089899813846382556 0 0.29561576852942001 0.073116650333272012 0 0.29003703115479512 0.076248193094349867 0 0.31111548734401751 0.094174984339189319 0 0.29003703115479512 0.076248193094349867 0 0.31111548734401751 0.094174984339189319 0 0.29003703115479512 0.076248193094349867 0 0.29698271976236568 0.089899813846382556 0 0.31111548734401751 0.094174984339189319 0 0.3184977734976509 0.082531855017860187 0 0.29561576852942001 0.073116650333272012 0 0.31111548734401751 0.094174984339189319 0 0.3184977734976509 0.082531855017860187 0 0.29561576852942001 0.073116650333272012 0 0.3184977734976509 0.082531855017860187 0 0.29561576852942001 0.073116650333272012 0 0.30506359630307739 0.067813250175554993 0 0.31750720709783492 0.060828210965220328 0 0.30506359630307739 0.067813250175554993 0 0.29306802488508721 0.072068336257275281 0 0.30506359630307739 0.067813250175554993 0 0.29690158384745241 0.06457818982176422 0 0.30386903740065402 0.05697431224277244 0 0.30506359630307739 0.067813250175554993 0 0.29690158384745241 0.06457818982176422 0 0.29306802488508721 0.072068336257275281 0 0.30506359630307739 0.067813250175554993 0 0.29561576852942001 0.073116650333272012 0 0.30506359630307739 0.067813250175554993 0 0.29561576852942001 0.073116650333272012 0 0.29306802488508721 0.072068336257275281 0 0.30506359630307739 0.067813250175554993 0 0.31151194808720201 0.1150643222194616 0 0.30247500772594699 0.1071381656543656 0 0.29129275041579278 0.1172303442398579 0 0.31151194808720201 0.1150643222194616 0 0.29622008012258699 0.12991313160987961 0 0.32387679174541939 0.1297141718462434 0 0.31151194808720201 0.1150643222194616 0 0.29129275041579278 0.1172303442398579 0 0.29622008012258699 0.12991313160987961 0 0.31151194808720201 0.1150643222194616 0 0.31111548734401751 0.094174984339189319 0 0.30247500772594699 0.1071381656543656 0 0.31111548734401751 0.094174984339189319 0 0.30128354362195031 0.098124169066782854 0 0.30247500772594699 0.1071381656543656 0 0.29698271976236568 0.089899813846382556 0 0.30128354362195031 0.098124169066782854 0 0.29246213629446111 0.095768124011444758 0 0.29698271976236568 0.089899813846382556 0 0.31111548734401751 0.094174984339189319 0 0.30128354362195031 0.098124169066782854 0 0.30128354362195031 0.098124169066782854 0 0.30247500772594699 0.1071381656543656 0 0.29260899031297011 0.10538418601464609 0 0.29260899031297011 0.10538418601464609 0 0.29246213629446111 0.095768124011444758 0 0.28702757351663483 0.1001100210532227 0 0.30128354362195031 0.098124169066782854 0 0.29260899031297011 0.10538418601464609 0 0.29246213629446111 0.095768124011444758 0 0.28527214605629803 0.093542631019163408 0 0.29246213629446111 0.095768124011444758 0 0.28702757351663483 0.1001100210532227 0 0.28527214605629803 0.093542631019163408 0 0.28702757351663483 0.1001100210532227 0 0.28108272677848523 0.099874609951530163 0 0.29260899031297011 0.10538418601464609 0 0.28356239405763972 0.106033323917978 0 0.28664880997705461 0.11131452551203889 0 0.29260899031297011 0.10538418601464609 0 0.28702757351663483 0.1001100210532227 0 0.28356239405763972 0.106033323917978 0 0.28702757351663483 0.1001100210532227 0 0.28356239405763972 0.106033323917978 0 0.28108272677848523 0.099874609951530163 0 0.28356239405763972 0.106033323917978 0 0.2814598539497668 0.10990299155730229 0 0.28664880997705461 0.11131452551203889 0 0.27786688771157569 0.1150217509861922 0 0.29622008012258699 0.12991313160987961 0 0.28664880997705461 0.11131452551203889 0 0.29129275041579278 0.1172303442398579 0 0.27786688771157569 0.1150217509861922 0 0.27786688771157569 0.1150217509861922 0 0.27913813953766042 0.12972245958528131 0 0.29622008012258699 0.12991313160987961 0 0.29129275041579278 0.1172303442398579 0 0.27786688771157569 0.1150217509861922 0 0.29622008012258699 0.12991313160987961 0 0.2814598539497668 0.10990299155730229 0 0.28664880997705461 0.11131452551203889 0 0.27786688771157569 0.1150217509861922 0 0.30247500772594699 0.1071381656543656 0 0.29260899031297011 0.10538418601464609 0 0.29129275041579278 0.1172303442398579 0 0.29260899031297011 0.10538418601464609 0 0.28664880997705461 0.11131452551203889 0 0.29129275041579278 0.1172303442398579 0 0.27418517611644572 0.1163335826691398 0 0.26638390190257438 0.1102685147937751 0 0.25655208948606423 0.10927836717886751 0 0.27786688771157569 0.1150217509861922 0 0.27418517611644572 0.1163335826691398 0 0.27913813953766042 0.12972245958528131 0 0.27418517611644572 0.1163335826691398 0 0.27248198541775659 0.12784311929978001 0 0.27913813953766042 0.12972245958528131 0 0.2814598539497668 0.10990299155730229 0 0.27786688771157569 0.1150217509861922 0 0.27702128122739278 0.10689832557857171 0 0.27786688771157569 0.1150217509861922 0 0.27418517611644572 0.1163335826691398 0 0.26638390190257438 0.1102685147937751 0 0.27418517611644572 0.1163335826691398 0 0.26888095198589312 0.11979825388229511 0 0.26487973471170051 0.1148861259760711 0 0.27418517611644572 0.1163335826691398 0 0.26888095198589312 0.11979825388229511 0 0.27248198541775659 0.12784311929978001 0 0.26888095198589312 0.11979825388229511 0 0.26519442307348812 0.1188177922564181 0 0.26487973471170051 0.1148861259760711 0 0.26888095198589312 0.11979825388229511 0 0.26562400985315288 0.1251654340079911 0 0.27248198541775659 0.12784311929978001 0 0.26888095198589312 0.11979825388229511 0 0.26519442307348812 0.1188177922564181 0 0.26562400985315288 0.1251654340079911 0 0.27786688771157569 0.1150217509861922 0 0.26638390190257438 0.1102685147937751 0 0.25872482925013801 0.09949030162923457 0 0.27786688771157569 0.1150217509861922 0 0.25872482925013801 0.09949030162923457 0 0.27786688771157569 0.1150217509861922 0 0.27150352658480642 0.1040925172930806 0 0.25872482925013801 0.09949030162923457 0 0.28527214605629803 0.093542631019163408 0 0.27597760534302263 0.093816081557894046 0 0.28108272677848523 0.099874609951530163 0 0.27597760534302263 0.093816081557894046 0 0.28108272677848523 0.099874609951530163 0 0.27461357126647679 0.10027579108255071 0 0.27786688771157569 0.1150217509861922 0 0.27702128122739278 0.10689832557857171 0 0.27150352658480642 0.1040925172930806 0 0.27461357126647679 0.10027579108255071 0 0.27702128122739278 0.10689832557857171 0 0.27150352658480642 0.1040925172930806 0 0.28356239405763972 0.106033323917978 0 0.28108272677848523 0.099874609951530163 0 0.27702128122739278 0.10689832557857171 0 0.28108272677848523 0.099874609951530163 0 0.27461357126647679 0.10027579108255071 0 0.27702128122739278 0.10689832557857171 0 0.28356239405763972 0.106033323917978 0 0.2814598539497668 0.10990299155730229 0 0.27702128122739278 0.10689832557857171 0 0.2619867778419176 0.09199379318438361 0 0.27597760534302263 0.093816081557894046 0 0.26850219741802223 0.0981363484555835 0 0.27150352658480642 0.1040925172930806 0 0.26850219741802223 0.0981363484555835 0 0.25872482925013801 0.09949030162923457 0 0.27461357126647679 0.10027579108255071 0 0.27150352658480642 0.1040925172930806 0 0.26850219741802223 0.0981363484555835 0 0.27597760534302263 0.093816081557894046 0 0.27461357126647679 0.10027579108255071 0 0.26850219741802223 0.0981363484555835 0 0.2619867778419176 0.09199379318438361 0 0.26850219741802223 0.0981363484555835 0 0.25872482925013801 0.09949030162923457 0 0.2619867778419176 0.09199379318438361 0 0.26016144869860108 0.09301841504440217 0 0.25872482925013801 0.09949030162923457 0 0.2619867778419176 0.09199379318438361 0 0.25872482925013801 0.09949030162923457 0 0.26016144869860108 0.09301841504440217 0 0.25872482925013801 0.09949030162923457 0 0.26016144869860108 0.09301841504440217 0 0.25872482925013801 0.09949030162923457 0 0.25459763100830068 0.096141582858552177 0 0.26638390190257438 0.1102685147937751 0 0.25872482925013801 0.09949030162923457 0 0.26054083413963042 0.1068609537315081 0 0.26638390190257438 0.1102685147937751 0 0.26054083413963042 0.1068609537315081 0 0.25655208948606423 0.10927836717886751 0 0.25872482925013801 0.09949030162923457 0 0.258042440935632 0.10497087790269199 0 0.26054083413963042 0.1068609537315081 0 0.25872482925013801 0.09949030162923457 0 0.258042440935632 0.10497087790269199 0 0.258042440935632 0.10497087790269199 0 0.26054083413963042 0.1068609537315081 0 0.25655208948606423 0.10927836717886751 0 0.25872482925013801 0.09949030162923457 0 0.25655208948606423 0.10927836717886751 0 0.25872482925013801 0.09949030162923457 0 0.25655208948606423 0.10927836717886751 0 0.25459763100830068 0.096141582858552177 0 0.24174744587836799 0.1033548466348798 0 0.25655208948606423 0.10927836717886751 0 0.25459763100830068 0.096141582858552177 0 0.25872482925013801 0.09949030162923457 0 0.258042440935632 0.10497087790269199 0 0.25655208948606423 0.10927836717886751 0 0.25872482925013801 0.09949030162923457 0 0.25459763100830068 0.096141582858552177 0 0.26016144869860108 0.09301841504440217 0 0.25459763100830068 0.096141582858552177 0 0.27418517611644572 0.1163335826691398 0 0.25655208948606423 0.10927836717886751 0 0.26487973471170051 0.1148861259760711 0 0.27418517611644572 0.1163335826691398 0 0.25655208948606423 0.10927836717886751 0 0.2613903323121034 0.11972876860365821 0 0.25824300399834771 0.11754386918627879 0 0.25813574029091341 0.12532111527980791 0 0.2613903323121034 0.11972876860365821 0 0.25824300399834771 0.11754386918627879 0 0.26064106818342869 0.11649387083006101 0 0.2613903323121034 0.11972876860365821 0 0.26303182906276251 0.1167652494283456 0 0.26064106818342869 0.11649387083006101 0 0.2613903323121034 0.11972876860365821 0 0.25813574029091341 0.12532111527980791 0 0.26562400985315288 0.1251654340079911 0 0.2613903323121034 0.11972876860365821 0 0.26519442307348812 0.1188177922564181 0 0.26562400985315288 0.1251654340079911 0 0.2613903323121034 0.11972876860365821 0 0.26519442307348812 0.1188177922564181 0 0.26303182906276251 0.1167652494283456 0 0.26487973471170051 0.1148861259760711 0 0.2618287337373767 0.1148464313763837 0 0.2589676606418963 0.1122376160430168 0 0.25655208948606423 0.10927836717886751 0 0.26487973471170051 0.1148861259760711 0 0.2589676606418963 0.1122376160430168 0 0.26519442307348812 0.1188177922564181 0 0.26487973471170051 0.1148861259760711 0 0.26303182906276251 0.1167652494283456 0 0.26487973471170051 0.1148861259760711 0 0.2618287337373767 0.1148464313763837 0 0.26303182906276251 0.1167652494283456 0 0.2618287337373767 0.1148464313763837 0 0.26303182906276251 0.1167652494283456 0 0.26064106818342869 0.11649387083006101 0 0.2618287337373767 0.1148464313763837 0 0.26064106818342869 0.11649387083006101 0 0.26015078570541528 0.1146524558252945 0 0.2618287337373767 0.1148464313763837 0 0.2589676606418963 0.1122376160430168 0 0.26015078570541528 0.1146524558252945 0 0.2589676606418963 0.1122376160430168 0 0.26015078570541528 0.1146524558252945 0 0.25777400528710798 0.1147846643059361 0 0.25824300399834771 0.11754386918627879 0 0.26015078570541528 0.1146524558252945 0 0.25777400528710798 0.1147846643059361 0 0.25824300399834771 0.11754386918627879 0 0.26064106818342869 0.11649387083006101 0 0.26015078570541528 0.1146524558252945 0 0.24646482385440791 0.1109165710353929 0 0.25655208948606423 0.10927836717886751 0 0.255186127323073 0.11543194682551421 0 0.25824300399834771 0.11754386918627879 0 0.25777400528710798 0.1147846643059361 0 0.255186127323073 0.11543194682551421 0 0.2589676606418963 0.1122376160430168 0 0.25777400528710798 0.1147846643059361 0 0.255186127323073 0.11543194682551421 0 0.25655208948606423 0.10927836717886751 0 0.255186127323073 0.11543194682551421 0 0.25655208948606423 0.10927836717886751 0 0.2589676606418963 0.1122376160430168 0 0.255186127323073 0.11543194682551421 0 0.255186127323073 0.11543194682551421 0 0.25238596385504641 0.12804651946228041 0 0.24420216851797599 0.1292372680552665 0 0.255186127323073 0.11543194682551421 0 0.25238596385504641 0.12804651946228041 0 0.255186127323073 0.11543194682551421 0 0.25238596385504641 0.12804651946228041 0 0.25813574029091341 0.12532111527980791 0 0.25824300399834771 0.11754386918627879 0 0.255186127323073 0.11543194682551421 0 0.25813574029091341 0.12532111527980791 0 0.25238596385504641 0.12804651946228041 0 0.25813574029091341 0.12532111527980791 0 0.26818611498992623 0.1403022215883418 0 0.24420216851797599 0.1292372680552665 0 0.26818611498992623 0.1403022215883418 0 0.24301228879775941 0.13939302681245261 0 0.24420216851797599 0.1292372680552665 0 0.26818611498992623 0.1403022215883418 0 0.24420216851797599 0.1292372680552665 0 0.25238596385504641 0.12804651946228041 0 0.26818611498992623 0.1403022215883418 0 0.25813574029091341 0.12532111527980791 0 0.26562400985315288 0.1251654340079911 0 0.26818611498992623 0.1403022215883418 0 0.27248198541775659 0.12784311929978001 0 0.26818611498992623 0.1403022215883418 0 0.27913813953766042 0.12972245958528131 0 0.26562400985315288 0.1251654340079911 0 0.27248198541775659 0.12784311929978001 0 0.26818611498992623 0.1403022215883418 0 0.26818611498992623 0.1403022215883418 0 0.27913813953766042 0.12972245958528131 0 0.28414721419066807 0.1482284927670183 0 0.26818611498992623 0.1403022215883418 0 0.26583546295036609 0.16369396270660089 0 0.28414721419066807 0.1482284927670183 0 0.26818611498992623 0.1403022215883418 0 0.25486404381895789 0.1523024957907583 0 0.26583546295036609 0.16369396270660089 0 0.24301228879775941 0.13939302681245261 0 0.26818611498992623 0.1403022215883418 0 0.25486404381895789 0.1523024957907583 0 0.2424223085377801 0.16582077205563811 0 0.25486404381895789 0.1523024957907583 0 0.26583546295036609 0.16369396270660089 0 0.2424223085377801 0.16582077205563811 0 0.26032431562704572 0.18342712708893841 0 0.26583546295036609 0.16369396270660089 0 0.26032431562704572 0.18342712708893841 0 0.27712404590978218 0.18082877805207789 0 0.26583546295036609 0.16369396270660089 0 0.27712404590978218 0.18082877805207789 0 0.26583546295036609 0.16369396270660089 0 0.28977860037431658 0.16805367250728201 0 0.26583546295036609 0.16369396270660089 0 0.28977860037431658 0.16805367250728201 0 0.28414721419066807 0.1482284927670183 0 0.27712404590978218 0.18082877805207789 0 0.28977860037431658 0.16805367250728201 0 0.29478084704188562 0.18627619782702401 0 0.28977860037431658 0.16805367250728201 0 0.29478084704188562 0.18627619782702401 0 0.31259037162619269 0.16725562300018509 0 0.29478084704188562 0.18627619782702401 0 0.31732062797233113 0.1926592597090995 0 0.31259037162619269 0.16725562300018509 0 0.28977860037431658 0.16805367250728201 0 0.29946190776947251 0.15165108642358641 0 0.31259037162619269 0.16725562300018509 0 0.29946190776947251 0.15165108642358641 0 0.31457327253359829 0.14480451223356691 0 0.31259037162619269 0.16725562300018509 0 0.29946190776947251 0.15165108642358641 0 0.29622008012258699 0.12991313160987961 0 0.31457327253359829 0.14480451223356691 0 0.29622008012258699 0.12991313160987961 0 0.31457327253359829 0.14480451223356691 0 0.29622008012258699 0.12991313160987961 0 0.32387679174541939 0.1297141718462434 0 0.31457327253359829 0.14480451223356691 0 0.27913813953766042 0.12972245958528131 0 0.29622008012258699 0.12991313160987961 0 0.28414721419066807 0.1482284927670183 0 0.29946190776947251 0.15165108642358641 0 0.29622008012258699 0.12991313160987961 0 0.28414721419066807 0.1482284927670183 0 0.28977860037431658 0.16805367250728201 0 0.29946190776947251 0.15165108642358641 0 0.28414721419066807 0.1482284927670183 0 0.27355486584907379 0.24364475180805101 0 0.25452501640087027 0.2374112721999547 0 0.26408278890255732 0.22479217687295791 0 0.25404003316197471 0.25208422786308371 0 0.27355486584907379 0.24364475180805101 0 0.25452501640087027 0.2374112721999547 0 0.24523436150048811 0.24199469982198529 0 0.25404003316197471 0.25208422786308371 0 0.25452501640087027 0.2374112721999547 0 0.24868260911088891 0.2303107595792985 0 0.2471090749199483 0.2357199094212839 0 0.25452501640087027 0.2374112721999547 0 0.24868260911088891 0.2303107595792985 0 0.25452501640087027 0.2374112721999547 0 0.26408278890255732 0.22479217687295791 0 0.24868260911088891 0.2303107595792985 0 0.26408278890255732 0.22479217687295791 0 0.25357276657721323 0.21641202867955539 0 0.27355486584907379 0.24364475180805101 0 0.26408278890255732 0.22479217687295791 0 0.28109637724199782 0.22150209212538899 0 0.26408278890255732 0.22479217687295791 0 0.28109637724199782 0.22150209212538899 0 0.27306509823529962 0.19947215684549871 0 0.26408278890255732 0.22479217687295791 0 0.25357276657721323 0.21641202867955539 0 0.27306509823529962 0.19947215684549871 0 0.25357276657721323 0.21641202867955539 0 0.25471258750952741 0.20148162901819469 0 0.27306509823529962 0.19947215684549871 0 0.25357276657721323 0.21641202867955539 0 0.27306509823529962 0.19947215684549871 0 0.2418323282778008 0.1922485172988235 0 0.26032431562704572 0.18342712708893841 0 0.25471258750952741 0.20148162901819469 0 0.26032431562704572 0.18342712708893841 0 0.25471258750952741 0.20148162901819469 0 0.27306509823529962 0.19947215684549871 0 0.26032431562704572 0.18342712708893841 0 0.27712404590978218 0.18082877805207789 0 0.27306509823529962 0.19947215684549871 0 0.29478084704188562 0.18627619782702401 0 0.27306509823529962 0.19947215684549871 0 0.29788838547339219 0.20777731020547871 0 0.27712404590978218 0.18082877805207789 0 0.29478084704188562 0.18627619782702401 0 0.27306509823529962 0.19947215684549871 0 0.29478084704188562 0.18627619782702401 0 0.29788838547339219 0.20777731020547871 0 0.31732062797233113 0.1926592597090995 0 0.29788838547339219 0.20777731020547871 0 0.31916040529159301 0.2166328624030785 0 0.31732062797233113 0.1926592597090995 0 0.28109637724199782 0.22150209212538899 0 0.27306509823529962 0.19947215684549871 0 0.29788838547339219 0.20777731020547871 0 0.28109637724199782 0.22150209212538899 0 0.29788838547339219 0.20777731020547871 0 0.29668368374297521 0.23238313674276659 0 0.27355486584907379 0.24364475180805101 0 0.28109637724199782 0.22150209212538899 0 0.29668368374297521 0.23238313674276659 0 0.29788838547339219 0.20777731020547871 0 0.29668368374297521 0.23238313674276659 0 0.31916040529159301 0.2166328624030785 0 0.29692855903906679 0.25537037528416417 0 0.29668368374297521 0.23238313674276659 0 0.32448256229391081 0.244023600812113 0 0.29692855903906679 0.25537037528416417 0 0.27355486584907379 0.24364475180805101 0 0.29668368374297521 0.23238313674276659 0 0.32448256229391081 0.244023600812113 0 0.33724611662768478 0.226971671205 0 0.35052125483258301 0.2434514759103418 0 0.32448256229391081 0.244023600812113 0 0.33724611662768478 0.226971671205 0 0.31916040529159301 0.2166328624030785 0 0.29668368374297521 0.23238313674276659 0 0.32448256229391081 0.244023600812113 0 0.31916040529159301 0.2166328624030785 0 0.33724611662768478 0.226971671205 0 0.31916040529159301 0.2166328624030785 0 0.34036716376080012 0.20191553243135291 0 0.31916040529159301 0.2166328624030785 0 0.31732062797233113 0.1926592597090995 0 0.34036716376080012 0.20191553243135291 0 0.31732062797233113 0.1926592597090995 0 0.34036716376080012 0.20191553243135291 0 0.33327910971122948 0.1769249887409369 0 0.34036716376080012 0.20191553243135291 0 0.33327910971122948 0.1769249887409369 0 0.35363051640006049 0.1838751638919715 0 0.34036716376080012 0.20191553243135291 0 0.36940151407566268 0.20038014978660379 0 0.35363051640006049 0.1838751638919715 0 0.36940151407566268 0.20038014978660379 0 0.35418005050780299 0.2186338278764331 0 0.36970064025412291 0.2313836502337521 0 0.34036716376080012 0.20191553243135291 0 0.36940151407566268 0.20038014978660379 0 0.35418005050780299 0.2186338278764331 0 0.33724611662768478 0.226971671205 0 0.34036716376080012 0.20191553243135291 0 0.35418005050780299 0.2186338278764331 0 0.33724611662768478 0.226971671205 0 0.35418005050780299 0.2186338278764331 0 0.35052125483258301 0.2434514759103418 0 0.35418005050780299 0.2186338278764331 0 0.36970064025412291 0.2313836502337521 0 0.35052125483258301 0.2434514759103418 0 0.37478492512234668 0.26235925763296819 0 0.36970064025412291 0.2313836502337521 0 0.35052125483258301 0.2434514759103418 0 0.33497932682518311 0.1519205034936916 0 0.32387679174541939 0.1297141718462434 0 0.35327239972246333 0.1300285668288671 0 0.33497932682518311 0.1519205034936916 0 0.31457327253359829 0.14480451223356691 0 0.31259037162619269 0.16725562300018509 0 0.33497932682518311 0.1519205034936916 0 0.32387679174541939 0.1297141718462434 0 0.31457327253359829 0.14480451223356691 0 0.33497932682518311 0.1519205034936916 0 0.31259037162619269 0.16725562300018509 0 0.33327910971122948 0.1769249887409369 0 0.31732062797233113 0.1926592597090995 0 0.31259037162619269 0.16725562300018509 0 0.33327910971122948 0.1769249887409369 0 0.33497932682518311 0.1519205034936916 0 0.33327910971122948 0.1769249887409369 0 0.34907151432127381 0.16521020144779211 0 0.34907151432127381 0.16521020144779211 0 0.35363051640006049 0.1838751638919715 0 0.37277469716236061 0.17385369407461371 0 0.33327910971122948 0.1769249887409369 0 0.34907151432127381 0.16521020144779211 0 0.35363051640006049 0.1838751638919715 0 0.36940151407566268 0.20038014978660379 0 0.35363051640006049 0.1838751638919715 0 0.37277469716236061 0.17385369407461371 0 0.37277469716236061 0.17385369407461371 0 0.36285879787080821 0.15032831482926681 0 0.3843829660287168 0.1587008111838667 0 0.34907151432127381 0.16521020144779211 0 0.37277469716236061 0.17385369407461371 0 0.36285879787080821 0.15032831482926681 0 0.36285879787080821 0.15032831482926681 0 0.36938385952287339 0.13266757129752671 0 0.38232915319187621 0.14145147187989651 0 0.33497932682518311 0.1519205034936916 0 0.36285879787080821 0.15032831482926681 0 0.35327239972246333 0.1300285668288671 0 0.33497932682518311 0.1519205034936916 0 0.34907151432127381 0.16521020144779211 0 0.36285879787080821 0.15032831482926681 0 0.36649271172908648 0.1176987398754743 0 0.35327239972246333 0.1300285668288671 0 0.36938385952287339 0.13266757129752671 0 0.36285879787080821 0.15032831482926681 0 0.35327239972246333 0.1300285668288671 0 0.36938385952287339 0.13266757129752671 0 0.39421974672685411 0.13240309148155921 0 0.38232915319187621 0.14145147187989651 0 0.38138511069115272 0.12353481432135879 0 0.36938385952287339 0.13266757129752671 0 0.38232915319187621 0.14145147187989651 0 0.38138511069115272 0.12353481432135879 0 0.39421974672685411 0.13240309148155921 0 0.41199731756477831 0.13352747615702071 0 0.3942733283070321 0.11371104406223111 0 0.39421974672685411 0.13240309148155921 0 0.40120830104283178 0.15077536395034899 0 0.41199731756477831 0.13352747615702071 0 0.39421974672685411 0.13240309148155921 0 0.40120830104283178 0.15077536395034899 0 0.38232915319187621 0.14145147187989651 0 0.36285879787080821 0.15032831482926681 0 0.38232915319187621 0.14145147187989651 0 0.3843829660287168 0.1587008111838667 0 0.40120830104283178 0.15077536395034899 0 0.38232915319187621 0.14145147187989651 0 0.3843829660287168 0.1587008111838667 0 0.37277469716236061 0.17385369407461371 0 0.3843829660287168 0.1587008111838667 0 0.39936082591505218 0.176604797209717 0 0.37277469716236061 0.17385369407461371 0 0.39936082591505218 0.176604797209717 0 0.38992891259608609 0.19548318162929729 0 0.40120830104283178 0.15077536395034899 0 0.39936082591505218 0.176604797209717 0 0.41410660213767347 0.1652382216241598 0 0.40120830104283178 0.15077536395034899 0 0.3843829660287168 0.1587008111838667 0 0.39936082591505218 0.176604797209717 0 0.40120830104283178 0.15077536395034899 0 0.41410660213767347 0.1652382216241598 0 0.42972130682252457 0.1533439082518103 0 0.39936082591505218 0.176604797209717 0 0.41410660213767347 0.1652382216241598 0 0.42626679864566441 0.18172907206941921 0 0.42626679864566441 0.18172907206941921 0 0.42972130682252457 0.1533439082518103 0 0.45055708181009879 0.1690731760043504 0 0.41410660213767347 0.1652382216241598 0 0.42626679864566441 0.18172907206941921 0 0.42972130682252457 0.1533439082518103 0 0.42972130682252457 0.1533439082518103 0 0.43054248402473921 0.1250848439374013 0 0.44904083753606949 0.1441389705362057 0 0.42972130682252457 0.1533439082518103 0 0.43054248402473921 0.1250848439374013 0 0.41199731756477831 0.13352747615702071 0 0.43054248402473921 0.1250848439374013 0 0.41199731756477831 0.13352747615702071 0 0.41135066019799099 0.1182158826350982 0 0.40120830104283178 0.15077536395034899 0 0.42972130682252457 0.1533439082518103 0 0.41199731756477831 0.13352747615702071 0 0.42972130682252457 0.1533439082518103 0 0.41199731756477831 0.13352747615702071 0 0.40097752291506289 0.25902709479471048 0 0.39333580902427501 0.24081282939082621 0 0.41286841049430861 0.24788583003777651 0 0.37478492512234668 0.26235925763296819 0 0.36970064025412291 0.2313836502337521 0 0.39333580902427501 0.24081282939082621 0 0.36970064025412291 0.2313836502337521 0 0.39333580902427501 0.24081282939082621 0 0.39338333076520482 0.2163019563834182 0 0.39338333076520482 0.2163019563834182 0 0.41736514745474701 0.23222376298023259 0 0.39333580902427501 0.24081282939082621 0 0.39338333076520482 0.2163019563834182 0 0.41736514745474701 0.23222376298023259 0 0.39338333076520482 0.2163019563834182 0 0.38992891259608609 0.19548318162929729 0 0.41508715600771068 0.20488700545500521 0 0.36940151407566268 0.20038014978660379 0 0.39338333076520482 0.2163019563834182 0 0.36940151407566268 0.20038014978660379 0 0.39338333076520482 0.2163019563834182 0 0.38992891259608609 0.19548318162929729 0 0.36940151407566268 0.20038014978660379 0 0.36970064025412291 0.2313836502337521 0 0.39338333076520482 0.2163019563834182 0 0.36940151407566268 0.20038014978660379 0 0.37277469716236061 0.17385369407461371 0 0.38992891259608609 0.19548318162929729 0 0.39936082591505218 0.176604797209717 0 0.38992891259608609 0.19548318162929729 0 0.41508715600771068 0.20488700545500521 0 0.39936082591505218 0.176604797209717 0 0.42626679864566441 0.18172907206941921 0 0.41508715600771068 0.20488700545500521 0 0.42626679864566441 0.18172907206941921 0 0.44140000057487638 0.20455834627575151 0 0.44473765559285833 0.18692520255949671 0 0.42626679864566441 0.18172907206941921 0 0.41508715600771068 0.20488700545500521 0 0.44140000057487638 0.20455834627575151 0 0.41508715600771068 0.20488700545500521 0 0.43790507610234408 0.2273079216372012 0 0.44140000057487638 0.20455834627575151 0 0.39338333076520482 0.2163019563834182 0 0.41508715600771068 0.20488700545500521 0 0.41736514745474701 0.23222376298023259 0 0.41508715600771068 0.20488700545500521 0 0.41736514745474701 0.23222376298023259 0 0.43790507610234408 0.2273079216372012 0 0.42717012070777932 0.25569493195645271 0 0.41736514745474701 0.23222376298023259 0 0.44134696414428898 0.24814556957704689 0 0.41736514745474701 0.23222376298023259 0 0.44134696414428898 0.24814556957704689 0 0.41736514745474701 0.23222376298023259 0 0.44134696414428898 0.24814556957704689 0 0.43790507610234408 0.2273079216372012 0 0.39333580902427501 0.24081282939082621 0 0.41736514745474701 0.23222376298023259 0 0.41286841049430861 0.24788583003777651 0 0.42717012070777932 0.25569493195645271 0 0.41736514745474701 0.23222376298023259 0 0.41286841049430861 0.24788583003777651 0 0.45336271850049548 0.25236276911819511 0 0.45602225988021539 0.23816249748875179 0 0.48180965237011408 0.2487438147612096 0 0.45336271850049548 0.25236276911819511 0 0.45602225988021539 0.23816249748875179 0 0.44134696414428898 0.24814556957704689 0 0.44600400848591359 0.23698591979390529 0 0.43790507610234408 0.2273079216372012 0 0.45336271850049548 0.25236276911819511 0 0.44134696414428898 0.24814556957704689 0 0.44600400848591359 0.23698591979390529 0 0.45336271850049548 0.25236276911819511 0 0.45602225988021539 0.23816249748875179 0 0.44600400848591359 0.23698591979390529 0 0.45602225988021539 0.23816249748875179 0 0.44600400848591359 0.23698591979390529 0 0.45492939023952461 0.2194397610932603 0 0.44600400848591359 0.23698591979390529 0 0.43790507610234408 0.2273079216372012 0 0.45492939023952461 0.2194397610932603 0 0.45602225988021539 0.23816249748875179 0 0.45492939023952461 0.2194397610932603 0 0.47419086539053962 0.2296972043723752 0 0.45492939023952461 0.2194397610932603 0 0.46072674134079361 0.19234021588846559 0 0.47847088324409548 0.2092058758105422 0 0.45492939023952461 0.2194397610932603 0 0.44140000057487638 0.20455834627575151 0 0.46072674134079361 0.19234021588846559 0 0.43790507610234408 0.2273079216372012 0 0.45492939023952461 0.2194397610932603 0 0.44140000057487638 0.20455834627575151 0 0.44140000057487638 0.20455834627575151 0 0.46072674134079361 0.19234021588846559 0 0.44473765559285833 0.18692520255949671 0 0.46072674134079361 0.19234021588846559 0 0.4812983336831132 0.1885899983914231 0 0.47847088324409548 0.2092058758105422 0 0.4812983336831132 0.1885899983914231 0 0.5 0.19797878532577309 0 0.47847088324409548 0.2092058758105422 0 0.5 0.19797878532577309 0 0.47847088324409548 0.2092058758105422 0 0.5 0.22793385045351919 0 0.47847088324409548 0.2092058758105422 0 0.47419086539053962 0.2296972043723752 0 0.5 0.22793385045351919 0 0.45492939023952461 0.2194397610932603 0 0.47847088324409548 0.2092058758105422 0 0.47419086539053962 0.2296972043723752 0 0.5 0.25788891558126559 0 0.5 0.22793385045351919 0 0.48180965237011408 0.2487438147612096 0 0.47419086539053962 0.2296972043723752 0 0.5 0.22793385045351919 0 0.48180965237011408 0.2487438147612096 0 0.45602225988021539 0.23816249748875179 0 0.47419086539053962 0.2296972043723752 0 0.48180965237011408 0.2487438147612096 0 0.46287167922105149 0.15545842773829099 0 0.44904083753606949 0.1441389705362057 0 0.45055708181009879 0.1690731760043504 0 0.46287167922105149 0.15545842773829099 0 0.46355845200513762 0.13850516077978961 0 0.47909635670674228 0.14767892477560191 0 0.46287167922105149 0.15545842773829099 0 0.46355845200513762 0.13850516077978961 0 0.44904083753606949 0.1441389705362057 0 0.46355845200513762 0.13850516077978961 0 0.47795750643906171 0.12649365297180731 0 0.4559740449914913 0.1245921335342187 0 0.46355845200513762 0.13850516077978961 0 0.44904083753606949 0.1441389705362057 0 0.4559740449914913 0.1245921335342187 0 0.43054248402473921 0.1250848439374013 0 0.44904083753606949 0.1441389705362057 0 0.4559740449914913 0.1245921335342187 0 0.42972130682252457 0.1533439082518103 0 0.44904083753606949 0.1441389705362057 0 0.45055708181009879 0.1690731760043504 0 0.42626679864566441 0.18172907206941921 0 0.45055708181009879 0.1690731760043504 0 0.44473765559285833 0.18692520255949671 0 0.46072674134079361 0.19234021588846559 0 0.45055708181009879 0.1690731760043504 0 0.44473765559285833 0.18692520255949671 0 0.46072674134079361 0.19234021588846559 0 0.45055708181009879 0.1690731760043504 0 0.4752785409050499 0.1685484481011886 0 0.46287167922105149 0.15545842773829099 0 0.45055708181009879 0.1690731760043504 0 0.4752785409050499 0.1685484481011886 0 0.45055708181009879 0.1690731760043504 0 0.4752785409050499 0.1685484481011886 0 0.46287167922105149 0.15545842773829099 0 0.4752785409050499 0.1685484481011886 0 0.47909635670674228 0.14767892477560191 0 0.46072674134079361 0.19234021588846559 0 0.4812983336831132 0.1885899983914231 0 0.4752785409050499 0.1685484481011886 0 0.4812983336831132 0.1885899983914231 0 0.4752785409050499 0.1685484481011886 0 0.50000000000000111 0.1680237201980268 0 0.4812983336831132 0.1885899983914231 0 0.5 0.19797878532577309 0 0.50000000000000111 0.1680237201980268 0 0.4752785409050499 0.1685484481011886 0 0.50000000000000111 0.1680237201980268 0 0.4752785409050499 0.1685484481011886 0 0.50000000000000111 0.1680237201980268 0 0.47909635670674228 0.14767892477560191 0 0.50000000000000111 0.1680237201980268 0 0.5 0.14405257421324749 0 0.47909635670674228 0.14767892477560191 0 0.46355845200513762 0.13850516077978961 0 0.47909635670674228 0.14767892477560191 0 0.47795750643906171 0.12649365297180731 0 0.5 0.14405257421324749 0 0.47795750643906171 0.12649365297180731 0 0.5 0.12008142822846821 0 0.5 0.14405257421324749 0 0.47909635670674228 0.14767892477560191 0 0.47795750643906171 0.12649365297180731 0 0.47795750643906171 0.12649365297180731 0 0.5 0.12008142822846821 0 0.48437617198066579 0.1083096126220475 0 0.48437617198066579 0.1083096126220475 0 0.5 0.096110282243688894 0 0.4787628640296252 0.09057766153942011 0 0.5 0.12008142822846821 0 0.48437617198066579 0.1083096126220475 0 0.5 0.096110282243688894 0 0.48437617198066579 0.1083096126220475 0 0.4787628640296252 0.09057766153942011 0 0.46516048943464161 0.10828503812685281 0 0.47795750643906171 0.12649365297180731 0 0.48437617198066579 0.1083096126220475 0 0.46516048943464161 0.10828503812685281 0 0.49999999999999389 0.072139136258909636 0 0.47264706529987838 0.068582714068275596 0 0.5 0.096110282243688894 0 0.49999999999999389 0.072139136258909636 0 0.4787628640296252 0.09057766153942011 0 0.49999999999999389 0.072139136258909636 0 0.4787628640296252 0.09057766153942011 0 0.47264706529987838 0.068582714068275596 0 0.47264706529987838 0.068582714068275596 0 0.44529413059976319 0.065026291877640793 0 0.47264706529987838 0.068582714068275596 0 0.45009241250792742 0.089848104882156193 0 0.44529413059976319 0.065026291877640793 0 0.4787628640296252 0.09057766153942011 0 0.47264706529987838 0.068582714068275596 0 0.45009241250792742 0.089848104882156193 0 0.45009241250792742 0.089848104882156193 0 0.44529413059976319 0.065026291877640793 0 0.42710943965072512 0.080764761008918995 0 0.4559740449914913 0.1245921335342187 0 0.46516048943464161 0.10828503812685281 0 0.44660059903698529 0.1095612823054605 0 0.47795750643906171 0.12649365297180731 0 0.4559740449914913 0.1245921335342187 0 0.46516048943464161 0.10828503812685281 0 0.45009241250792742 0.089848104882156193 0 0.46516048943464161 0.10828503812685281 0 0.44660059903698529 0.1095612823054605 0 0.4787628640296252 0.09057766153942011 0 0.45009241250792742 0.089848104882156193 0 0.46516048943464161 0.10828503812685281 0 0.45009241250792742 0.089848104882156193 0 0.44660059903698529 0.1095612823054605 0 0.42999027194599682 0.1018780191517587 0 0.43054248402473921 0.1250848439374013 0 0.4559740449914913 0.1245921335342187 0 0.44660059903698529 0.1095612823054605 0 0.43054248402473921 0.1250848439374013 0 0.44660059903698529 0.1095612823054605 0 0.42999027194599682 0.1018780191517587 0 0.43054248402473921 0.1250848439374013 0 0.41661501870526302 0.10782610780512 0 0.42999027194599682 0.1018780191517587 0 0.43054248402473921 0.1250848439374013 0 0.41135066019799099 0.1182158826350982 0 0.41661501870526302 0.10782610780512 0 0.43054248402473921 0.1250848439374013 0 0.41135066019799099 0.1182158826350982 0 0.41135066019799099 0.1182158826350982 0 0.41661501870526302 0.10782610780512 0 0.40605193543095291 0.1101899923625959 0 0.41199731756477831 0.13352747615702071 0 0.40856435551682457 0.1195913393650266 0 0.41135066019799099 0.1182158826350982 0 0.41661501870526302 0.10782610780512 0 0.42999027194599682 0.1018780191517587 0 0.41050144950628809 0.092342992232264526 0 0.41661501870526302 0.10782610780512 0 0.41050144950628809 0.092342992232264526 0 0.40408322644931421 0.10337105767737099 0 0.41661501870526302 0.10782610780512 0 0.40605193543095291 0.1101899923625959 0 0.40408322644931421 0.10337105767737099 0 0.45009241250792742 0.089848104882156193 0 0.42999027194599682 0.1018780191517587 0 0.42710943965072512 0.080764761008918995 0 0.42999027194599682 0.1018780191517587 0 0.42710943965072512 0.080764761008918995 0 0.41050144950628809 0.092342992232264526 0 0.44529413059976319 0.065026291877640793 0 0.42710943965072512 0.080764761008918995 0 0.41794119589964812 0.061469869687005997 0 0.44529413059976319 0.065026291877640793 0 0.41794119589964812 0.061469869687005997 0 0.42710943965072512 0.080764761008918995 0 0.40780427562880051 0.074340584248736047 0 0.41794119589964812 0.061469869687005997 0 0.42710943965072512 0.080764761008918995 0 0.40780427562880051 0.074340584248736047 0 0.41050144950628809 0.092342992232264526 0 0.41050144950628809 0.092342992232264526 0 0.39288103188780799 0.079211850819119467 0 0.39173805803946632 0.094638931286680023 0 0.40780427562880051 0.074340584248736047 0 0.41050144950628809 0.092342992232264526 0 0.39288103188780799 0.079211850819119467 0 0.40780427562880051 0.074340584248736047 0 0.39058826119953283 0.057913447496371839 0 0.41794119589964812 0.061469869687005997 0 0.40780427562880051 0.074340584248736047 0 0.39288103188780799 0.079211850819119467 0 0.39058826119953283 0.057913447496371839 0 0.39288103188780799 0.079211850819119467 0 0.37575225644292037 0.071709270247263784 0 0.39058826119953283 0.057913447496371839 0 0.3742009225581896 0.091268948227223284 0 0.39288103188780799 0.079211850819119467 0 0.39173805803946632 0.094638931286680023 0 0.3742009225581896 0.091268948227223284 0 0.39288103188780799 0.079211850819119467 0 0.37575225644292037 0.071709270247263784 0 0.3742009225581896 0.091268948227223284 0 0.39215883637124299 0.11134692133279479 0 0.39173805803946632 0.094638931286680023 0 0.3742009225581896 0.091268948227223284 0 0.39215883637124299 0.11134692133279479 0 0.3742009225581896 0.091268948227223284 0 0.3795225325030368 0.1068242515199407 0 0.39215883637124299 0.11134692133279479 0 0.3795225325030368 0.1068242515199407 0 0.39215883637124299 0.11134692133279479 0 0.3795225325030368 0.1068242515199407 0 0.38138511069115272 0.12353481432135879 0 0.3942733283070321 0.11371104406223111 0 0.36649271172908648 0.1176987398754743 0 0.3795225325030368 0.1068242515199407 0 0.38138511069115272 0.12353481432135879 0 0.39421974672685411 0.13240309148155921 0 0.38138511069115272 0.12353481432135879 0 0.3942733283070321 0.11371104406223111 0 0.3795225325030368 0.1068242515199407 0 0.3942733283070321 0.11371104406223111 0 0.3795225325030368 0.1068242515199407 0 0.39215883637124299 0.11134692133279479 0 0.3942733283070321 0.11371104406223111 0 0.41135066019799099 0.1182158826350982 0 0.39215883637124299 0.11134692133279479 0 0.40605193543095291 0.1101899923625959 0 0.41135066019799099 0.1182158826350982 0 0.39215883637124299 0.11134692133279479 0 0.3942733283070321 0.11371104406223111 0 0.41135066019799099 0.1182158826350982 0 0.39215883637124299 0.11134692133279479 0 0.41199731756477831 0.13352747615702071 0 0.40856435551682457 0.1195913393650266 0 0.3942733283070321 0.11371104406223111 0 0.41199731756477831 0.13352747615702071 0 0.3942733283070321 0.11371104406223111 0 0.40856435551682457 0.1195913393650266 0 0.41135066019799099 0.1182158826350982 0 0.3942733283070321 0.11371104406223111 0 0.39215883637124299 0.11134692133279479 0 0.3942733283070321 0.11371104406223111 0 0.40856435551682457 0.1195913393650266 0 0.3942733283070321 0.11371104406223111 0 0.39215883637124299 0.11134692133279479 0 0.40408322644931421 0.10337105767737099 0 0.39173805803946632 0.094638931286680023 0 0.39215883637124299 0.11134692133279479 0 0.40605193543095291 0.1101899923625959 0 0.40408322644931421 0.10337105767737099 0 0.41050144950628809 0.092342992232264526 0 0.40408322644931421 0.10337105767737099 0 0.39173805803946632 0.094638931286680023 0 0.4038432128890253 0.016274120358417851 0 0.39452024459155199 0.029629145094844 0 0.3798040161112804 0.028996110171619349 0 0.4038432128890253 0.016274120358417851 0 0.39452024459155199 0.029629145094844 0 0.40714332068978548 0.032011032787191827 0 0.4038432128890253 0.016274120358417851 0 0.3798040161112804 0.028996110171619349 0 0.4038432128890253 0.016274120358417851 0 0.39390920682105918 0.0040204267233196643 0 0.38813729234829519 0.016219836643301819 0 0.4038432128890253 0.016274120358417851 0 0.39390920682105918 0.0040204267233196643 0 0.40369857438468087 -0.0060371637805465179 0 0.39390920682105918 0.0040204267233196643 0 0.38212023564171321 0.001094655884648786 0 0.38813729234829519 0.016219836643301819 0 0.38212023564171321 0.001094655884648786 0 0.37537418671591988 0.012891754799621079 0 0.3700201466167648 -0.002195575246397889 0 0.38212023564171321 0.001094655884648786 0 0.37537418671591988 0.012891754799621079 0 0.38813729234829519 0.016219836643301819 0 0.38029426512156322 0.021339738828328979 0 0.38813729234829519 0.016219836643301819 0 0.3798040161112804 0.028996110171619349 0 0.4038432128890253 0.016274120358417851 0 0.38813729234829519 0.016219836643301819 0 0.3798040161112804 0.028996110171619349 0 0.37537418671591988 0.012891754799621079 0 0.38029426512156322 0.021339738828328979 0 0.37786156531075732 0.02725125369877367 0 0.37537418671591988 0.012891754799621079 0 0.38029426512156322 0.021339738828328979 0 0.38813729234829519 0.016219836643301819 0 0.39452024459155199 0.029629145094844 0 0.3798040161112804 0.028996110171619349 0 0.384792923869274 0.033192425096464057 0 0.38029426512156322 0.021339738828328979 0 0.3798040161112804 0.028996110171619349 0 0.37786156531075732 0.02725125369877367 0 0.36984281421283938 0.03924660656396721 0 0.3798040161112804 0.028996110171619349 0 0.37675727284589372 0.036323400775862158 0 0.3798040161112804 0.028996110171619349 0 0.38012370578730592 0.033949837724153123 0 0.37675727284589372 0.036323400775862158 0 0.3798040161112804 0.028996110171619349 0 0.38012370578730592 0.033949837724153123 0 0.384792923869274 0.033192425096464057 0 0.38012370578730592 0.033949837724153123 0 0.38115894465086869 0.037510150111343843 0 0.384792923869274 0.033192425096464057 0 0.38012370578730592 0.033949837724153123 0 0.38115894465086869 0.037510150111343843 0 0.37675727284589372 0.036323400775862158 0 0.38115894465086869 0.037510150111343843 0 0.37675727284589372 0.036323400775862158 0 0.37726993283737248 0.041439113600633092 0 0.37726993283737248 0.041439113600633092 0 0.38325871491723518 0.0441773091346798 0 0.37608467898805159 0.048096788967416412 0 0.38115894465086869 0.037510150111343843 0 0.37726993283737248 0.041439113600633092 0 0.38325871491723518 0.0441773091346798 0 0.38115894465086869 0.037510150111343843 0 0.38325871491723518 0.0441773091346798 0 0.38884635116990662 0.036871995634108659 0 0.38325871491723518 0.0441773091346798 0 0.38884635116990662 0.036871995634108659 0 0.39118926401298038 0.043344116461786472 0 0.39452024459155199 0.029629145094844 0 0.38884635116990662 0.036871995634108659 0 0.384792923869274 0.033192425096464057 0 0.38115894465086869 0.037510150111343843 0 0.38884635116990662 0.036871995634108659 0 0.384792923869274 0.033192425096464057 0 0.36737709041569239 0.056764699852256018 0 0.39058826119953283 0.057913447496371839 0 0.36443667806580698 0.054513224756226962 0 0.37608467898805159 0.048096788967416412 0 0.39058826119953283 0.057913447496371839 0 0.36737709041569239 0.056764699852256018 0 0.37575225644292037 0.071709270247263784 0 0.39058826119953283 0.057913447496371839 0 0.36443667806580698 0.054513224756226962 0 0.39058826119953283 0.057913447496371839 0 0.38325871491723518 0.0441773091346798 0 0.37608467898805159 0.048096788967416412 0 0.39058826119953283 0.057913447496371839 0 0.38325871491723518 0.0441773091346798 0 0.39058826119953283 0.057913447496371839 0 0.39118926401298038 0.043344116461786472 0 0.39058826119953283 0.057913447496371839 0 0.39917917489280202 0.048669550515315511 0 0.40824027372044169 0.058787065978875973 0 0.39058826119953283 0.057913447496371839 0 0.40824027372044169 0.058787065978875973 0 0.39058826119953283 0.057913447496371839 0 0.41794119589964812 0.061469869687005997 0 0.40824027372044169 0.058787065978875973 0 0.39058826119953283 0.057913447496371839 0 0.41794119589964812 0.061469869687005997 0 0.39058826119953283 0.057913447496371839 0 0.39917917489280202 0.048669550515315511 0 0.39118926401298038 0.043344116461786472 0 0.39917917489280202 0.048669550515315511 0 0.40803146459590139 0.044566129264659721 0 0.40824027372044169 0.058787065978875973 0 0.39452024459155199 0.029629145094844 0 0.38884635116990662 0.036871995634108659 0 0.39784661093515339 0.038736993374884177 0 0.39917917489280202 0.048669550515315511 0 0.39784661093515339 0.038736993374884177 0 0.39118926401298038 0.043344116461786472 0 0.38884635116990662 0.036871995634108659 0 0.39784661093515339 0.038736993374884177 0 0.39118926401298038 0.043344116461786472 0 0.39917917489280202 0.048669550515315511 0 0.39784661093515339 0.038736993374884177 0 0.40803146459590139 0.044566129264659721 0 0.39452024459155199 0.029629145094844 0 0.39784661093515339 0.038736993374884177 0 0.40714332068978548 0.032011032787191827 0 0.39784661093515339 0.038736993374884177 0 0.40714332068978548 0.032011032787191827 0 0.40803146459590139 0.044566129264659721 0 0.40714332068978548 0.032011032787191827 0 0.40803146459590139 0.044566129264659721 0 0.41964440497126981 0.040250358009145122 0 0.40803146459590139 0.044566129264659721 0 0.41964440497126981 0.040250358009145122 0 0.41733432138732551 0.050785193364838402 0 0.40714332068978548 0.032011032787191827 0 0.41964440497126981 0.040250358009145122 0 0.41891932927970088 0.026081136014491389 0 0.40824027372044169 0.058787065978875973 0 0.41733432138732551 0.050785193364838402 0 0.42589228624135061 0.059660684461379461 0 0.40824027372044169 0.058787065978875973 0 0.42589228624135061 0.059660684461379461 0 0.41794119589964812 0.061469869687005997 0 0.40824027372044169 0.058787065978875973 0 0.42589228624135061 0.059660684461379461 0 0.40803146459590139 0.044566129264659721 0 0.40824027372044169 0.058787065978875973 0 0.41733432138732551 0.050785193364838402 0 0.41964440497126981 0.040250358009145122 0 0.41733432138732551 0.050785193364838402 0 0.42647272639553008 0.050672874727357403 0 0.44529413059976319 0.065026291877640793 0 0.42589228624135061 0.059660684461379461 0 0.43583307009461808 0.053135938561971199 0 0.44529413059976319 0.065026291877640793 0 0.41794119589964812 0.061469869687005997 0 0.42589228624135061 0.059660684461379461 0 0.42589228624135061 0.059660684461379461 0 0.42647272639553008 0.050672874727357403 0 0.43583307009461808 0.053135938561971199 0 0.41733432138732551 0.050785193364838402 0 0.42589228624135061 0.059660684461379461 0 0.42647272639553008 0.050672874727357403 0 0.42647272639553008 0.050672874727357403 0 0.43583307009461808 0.053135938561971199 0 0.4340740022190257 0.043822740937536728 0 0.41964440497126981 0.040250358009145122 0 0.42987588244635011 0.033334548906864728 0 0.41891932927970088 0.026081136014491389 0 0.41964440497126981 0.040250358009145122 0 0.4340740022190257 0.043822740937536728 0 0.42987588244635011 0.033334548906864728 0 0.41964440497126981 0.040250358009145122 0 0.42647272639553008 0.050672874727357403 0 0.4340740022190257 0.043822740937536728 0 0.4340740022190257 0.043822740937536728 0 0.42987588244635011 0.033334548906864728 0 0.44528176508543132 0.032905620831071007 0 0.42987588244635011 0.033334548906864728 0 0.43184963590009789 0.021236349906575389 0 0.44528176508543132 0.032905620831071007 0 0.43184963590009789 0.021236349906575389 0 0.42259879527057942 0.015927249454054739 0 0.43188165484739188 0.01287087804949661 0 0.43184963590009789 0.021236349906575389 0 0.42259879527057942 0.015927249454054739 0 0.41891932927970088 0.026081136014491389 0 0.42987588244635011 0.033334548906864728 0 0.43184963590009789 0.021236349906575389 0 0.41891932927970088 0.026081136014491389 0 0.4038432128890253 0.016274120358417851 0 0.42259879527057942 0.015927249454054739 0 0.41891932927970088 0.026081136014491389 0 0.4038432128890253 0.016274120358417851 0 0.40714332068978548 0.032011032787191827 0 0.41891932927970088 0.026081136014491389 0 0.4038432128890253 0.016274120358417851 0 0.41402040698134779 -0.0025911497673051101 0 0.40369857438468087 -0.0060371637805465179 0 0.4038432128890253 0.016274120358417851 0 0.42788240966677021 0.003552130545216341 0 0.4038432128890253 0.016274120358417851 0 0.42101935538117791 0.0050386314779034547 0 0.41402040698134779 -0.0025911497673051101 0 0.4038432128890253 0.016274120358417851 0 0.42259879527057942 0.015927249454054739 0 0.42788240966677021 0.003552130545216341 0 0.4038432128890253 0.016274120358417851 0 0.42101935538117791 0.0050386314779034547 0 0.42788240966677021 0.003552130545216341 0 0.42788240966677021 0.003552130545216341 0 0.43188165484739188 0.01287087804949661 0 0.44740740452026229 0.01137317045841814 0 0.42259879527057942 0.015927249454054739 0 0.42788240966677021 0.003552130545216341 0 0.43188165484739188 0.01287087804949661 0 0.43184963590009789 0.021236349906575389 0 0.43188165484739188 0.01287087804949661 0 0.44740740452026229 0.01137317045841814 0 0.42788240966677021 0.003552130545216341 0 0.44740740452026229 0.01137317045841814 0 0.45192160644451512 -0.0091698592679851504 0 0.43184963590009789 0.021236349906575389 0 0.44740740452026229 0.01137317045841814 0 0.44528176508543132 0.032905620831071007 0 0.44740740452026229 0.01137317045841814 0 0.44528176508543132 0.032905620831071007 0 0.46875558315454652 0.02621282055229885 0 0.44740740452026229 0.01137317045841814 0 0.4740075662235973 0.0028935560396234419 0 0.46875558315454652 0.02621282055229885 0 0.44740740452026229 0.01137317045841814 0 0.4740075662235973 0.0028935560396234419 0 0.45192160644451512 -0.0091698592679851504 0 0.44529413059976319 0.065026291877640793 0 0.44587589901867808 0.047550444472131762 0 0.4614262583005877 0.04791767975015173 0 0.44529413059976319 0.065026291877640793 0 0.43583307009461808 0.053135938561971199 0 0.44587589901867808 0.047550444472131762 0 0.43583307009461808 0.053135938561971199 0 0.4340740022190257 0.043822740937536728 0 0.44587589901867808 0.047550444472131762 0 0.44587589901867808 0.047550444472131762 0 0.44528176508543132 0.032905620831071007 0 0.4614262583005877 0.04791767975015173 0 0.4340740022190257 0.043822740937536728 0 0.44587589901867808 0.047550444472131762 0 0.44528176508543132 0.032905620831071007 0 0.44528176508543132 0.032905620831071007 0 0.4614262583005877 0.04791767975015173 0 0.46875558315454652 0.02621282055229885 0 0.47264706529987838 0.068582714068275596 0 0.44529413059976319 0.065026291877640793 0 0.4614262583005877 0.04791767975015173 0 0.47264706529987838 0.068582714068275596 0 0.4614262583005877 0.04791767975015173 0 0.48053199367993171 0.043851827509569327 0 0.4614262583005877 0.04791767975015173 0 0.48053199367993171 0.043851827509569327 0 0.46875558315454652 0.02621282055229885 0 0.48053199367993171 0.043851827509569327 0 0.5 0.04545089247058498 0 0.5 0.018762648682260189 0 0.49999999999999389 0.072139136258909636 0 0.47264706529987838 0.068582714068275596 0 0.48053199367993171 0.043851827509569327 0 0.49999999999999389 0.072139136258909636 0 0.48053199367993171 0.043851827509569327 0 0.5 0.04545089247058498 0 0.48053199367993171 0.043851827509569327 0 0.46875558315454652 0.02621282055229885 0 0.5 0.018762648682260189 0 0.4740075662235973 0.0028935560396234419 0 0.46875558315454652 0.02621282055229885 0 0.5 0.018762648682260189 0 0.4740075662235973 0.0028935560396234419 0 0.5 0.018762648682260189 0 0.5 -0.0079255951060647756 0 0.4740075662235973 0.0028935560396234419 0 0.5 -0.0079255951060647756 0 0.47596080322225992 -0.02189184908118659 0 0.47596080322225992 -0.02189184908118659 0 0.50000000000000377 -0.034613838894389633 0 0.5 -0.0079255951060647756 0 0.47596080322225992 -0.02189184908118659 0 0.50000000000000377 -0.034613838894389633 0 0.47596080322225992 -0.02189184908118659 0 0.50000000000000377 -0.034613838894389633 0 0.48339532061042467 -0.042675677639817791 0 0.50000000000000377 -0.034613838894389633 0 0.5 -0.052291970509826757 0 0.48339532061042467 -0.042675677639817791 0 0.5 -0.052291970509826757 0 0.48378938215607542 -0.060491629721736481 0 0.49999999999999678 -0.069970102125263903 0 0.5 -0.052291970509826757 0 0.48378938215607542 -0.060491629721736481 0 0.48339532061042467 -0.042675677639817791 0 0.48378938215607542 -0.060491629721736481 0 0.47035919737641452 -0.05083356829212015 0 0.48339532061042467 -0.042675677639817791 0 0.48378938215607542 -0.060491629721736481 0 0.47035919737641452 -0.05083356829212015 0 0.46263532094350251 -0.0655193079319734 0 0.47596080322225992 -0.02189184908118659 0 0.48339532061042467 -0.042675677639817791 0 0.46122373864745198 -0.034064038759572521 0 0.47035919737641452 -0.05083356829212015 0 0.48339532061042467 -0.042675677639817791 0 0.46122373864745198 -0.034064038759572521 0 0.46122373864745198 -0.034064038759572521 0 0.45641225836005789 -0.05051217933658872 0 0.44483042593949818 -0.041063070916932051 0 0.47035919737641452 -0.05083356829212015 0 0.46122373864745198 -0.034064038759572521 0 0.45641225836005789 -0.05051217933658872 0 0.45641225836005789 -0.05051217933658872 0 0.44526353314296241 -0.062107813217869068 0 0.46263532094350251 -0.0655193079319734 0 0.47035919737641452 -0.05083356829212015 0 0.45641225836005789 -0.05051217933658872 0 0.46263532094350251 -0.0655193079319734 0 0.45641225836005789 -0.05051217933658872 0 0.44526353314296241 -0.062107813217869068 0 0.44483042593949818 -0.041063070916932051 0 0.44526353314296241 -0.062107813217869068 0 0.44483042593949818 -0.041063070916932051 0 0.42768193525564641 -0.052738548234870043 0 0.46122373864745198 -0.034064038759572521 0 0.44483042593949818 -0.041063070916932051 0 0.44260817666721519 -0.025216613737701819 0 0.44483042593949818 -0.041063070916932051 0 0.44260817666721519 -0.025216613737701819 0 0.43454865465473302 -0.032105158367880783 0 0.46122373864745198 -0.034064038759572521 0 0.44260817666721519 -0.025216613737701819 0 0.45192160644451512 -0.0091698592679851504 0 0.42788240966677021 0.003552130545216341 0 0.45192160644451512 -0.0091698592679851504 0 0.44260817666721519 -0.025216613737701819 0 0.45192160644451512 -0.0091698592679851504 0 0.43543049063324413 -0.012350052332502739 0 0.42788240966677021 0.003552130545216341 0 0.45192160644451512 -0.0091698592679851504 0 0.43543049063324413 -0.012350052332502739 0 0.4740075662235973 0.0028935560396234419 0 0.47596080322225992 -0.02189184908118659 0 0.45192160644451512 -0.0091698592679851504 0 0.47596080322225992 -0.02189184908118659 0 0.45192160644451512 -0.0091698592679851504 0 0.47596080322225992 -0.02189184908118659 0 0.46122373864745198 -0.034064038759572521 0 0.45192160644451512 -0.0091698592679851504 0 0.47621403880257929 -0.099362679963144546 0 0.45825176112352212 -0.1171944005084963 0 0.47461064769812122 -0.12772964805397971 0 0.50000000000000433 -0.1143432737178363 0 0.47621403880257929 -0.099362679963144546 0 0.47461064769812122 -0.12772964805397971 0 0.50000000000000433 -0.1143432737178363 0 0.47461064769812122 -0.12772964805397971 0 0.49999999999998102 -0.1000967699598443 0 0.47621403880257929 -0.099362679963144546 0 0.49999999999998102 -0.1000967699598443 0 0.47621403880257929 -0.099362679963144546 0 0.48785951469139027 -0.086657123706384981 0 0.50000000000000433 -0.1143432737178363 0 0.49999999999998102 -0.1000967699598443 0 0.47621403880257929 -0.099362679963144546 0 0.47621403880257929 -0.099362679963144546 0 0.48785951469139027 -0.086657123706384981 0 0.47522401996300467 -0.077198942777287505 0 0.47621403880257929 -0.099362679963144546 0 0.47522401996300467 -0.077198942777287505 0 0.46460819440086443 -0.0896918568577834 0 0.49999999999998102 -0.1000967699598443 0 0.48785951469139027 -0.086657123706384981 0 0.49999999999999678 -0.069970102125263903 0 0.49999999999999678 -0.069970102125263903 0 0.47522401996300467 -0.077198942777287505 0 0.48785951469139027 -0.086657123706384981 0 0.49999999999999678 -0.069970102125263903 0 0.47522401996300467 -0.077198942777287505 0 0.48378938215607542 -0.060491629721736481 0 0.49999999999999678 -0.069970102125263903 0 0.47522401996300467 -0.077198942777287505 0 0.48378938215607542 -0.060491629721736481 0 0.47522401996300467 -0.077198942777287505 0 0.46263532094350251 -0.0655193079319734 0 0.47522401996300467 -0.077198942777287505 0 0.46263532094350251 -0.0655193079319734 0 0.4504480399260129 -0.084427783429311939 0 0.44526353314296241 -0.062107813217869068 0 0.46263532094350251 -0.0655193079319734 0 0.4504480399260129 -0.084427783429311939 0 0.44526353314296241 -0.062107813217869068 0 0.4504480399260129 -0.084427783429311939 0 0.43069868055782679 -0.078899440675300136 0 0.4504480399260129 -0.084427783429311939 0 0.45242807760517778 -0.098628589966444233 0 0.42864211640777627 -0.097894499969741214 0 0.4504480399260129 -0.084427783429311939 0 0.42567205988902129 -0.091656624081337568 0 0.47522401996300467 -0.077198942777287505 0 0.4504480399260129 -0.084427783429311939 0 0.47522401996300467 -0.077198942777287505 0 0.4504480399260129 -0.084427783429311939 0 0.46460819440086443 -0.0896918568577834 0 0.4504480399260129 -0.084427783429311939 0 0.46460819440086443 -0.0896918568577834 0 0.45242807760517778 -0.098628589966444233 0 0.47621403880257929 -0.099362679963144546 0 0.45242807760517778 -0.098628589966444233 0 0.45825176112352212 -0.1171944005084963 0 0.47621403880257929 -0.099362679963144546 0 0.45242807760517778 -0.098628589966444233 0 0.47621403880257929 -0.099362679963144546 0 0.46460819440086443 -0.0896918568577834 0 0.45242807760517778 -0.098628589966444233 0 0.45242807760517778 -0.098628589966444233 0 0.42864211640777627 -0.097894499969741214 0 0.45242807760517778 -0.098628589966444233 0 0.43893170590200609 -0.1195052611799315 0 0.42864211640777627 -0.097894499969741214 0 0.45242807760517778 -0.098628589966444233 0 0.43893170590200609 -0.1195052611799315 0 0.45825176112352212 -0.1171944005084963 0 0.42080162445294911 -0.1170697999396166 0 0.40604313277712428 -0.1171380761358455 0 0.41368108829086198 -0.13554811058748131 0 0.42080162445294911 -0.1170697999396166 0 0.40662173914453831 -0.097214899993173481 0 0.40604313277712428 -0.1171380761358455 0 0.43893170590200609 -0.1195052611799315 0 0.42080162445294911 -0.1170697999396166 0 0.430889964195386 -0.135117951771525 0 0.43893170590200609 -0.1195052611799315 0 0.42080162445294911 -0.1170697999396166 0 0.42864211640777627 -0.097894499969741214 0 0.43893170590200609 -0.1195052611799315 0 0.42864211640777627 -0.097894499969741214 0 0.42864211640777627 -0.097894499969741214 0 0.42567205988902129 -0.091656624081337568 0 0.42864211640777627 -0.097894499969741214 0 0.40662173914453831 -0.097214899993173481 0 0.42567205988902129 -0.091656624081337568 0 0.42080162445294911 -0.1170697999396166 0 0.42864211640777627 -0.097894499969741214 0 0.40662173914453831 -0.097214899993173481 0 0.42864211640777627 -0.097894499969741214 0 0.40662173914453831 -0.097214899993173481 0 0.40662173914453831 -0.097214899993173481 0 0.42567205988902129 -0.091656624081337568 0 0.40662173914453831 -0.097214899993173481 0 0.41829766411352998 -0.087706900461061957 0 0.42567205988902129 -0.091656624081337568 0 0.40662173914453831 -0.097214899993173481 0 0.41020628866808312 -0.08357079425946129 0 0.41829766411352998 -0.087706900461061957 0 0.41020628866808312 -0.08357079425946129 0 0.42012861486432151 -0.07981881462850364 0 0.41094109939792961 -0.074512111623280808 0 0.41020628866808312 -0.08357079425946129 0 0.41094109939792961 -0.074512111623280808 0 0.40556094342569721 -0.078918860306745137 0 0.41020628866808312 -0.08357079425946129 0 0.42012861486432151 -0.07981881462850364 0 0.41829766411352998 -0.087706900461061957 0 0.42012861486432151 -0.07981881462850364 0 0.41829766411352998 -0.087706900461061957 0 0.42254342745458301 -0.084546146485576762 0 0.41829766411352998 -0.087706900461061957 0 0.42461385466063262 -0.08943412331831832 0 0.42254342745458301 -0.084546146485576762 0 0.42567205988902129 -0.091656624081337568 0 0.42461385466063262 -0.08943412331831832 0 0.43069868055782679 -0.078899440675300136 0 0.4504480399260129 -0.084427783429311939 0 0.42567205988902129 -0.091656624081337568 0 0.43069868055782679 -0.078899440675300136 0 0.4504480399260129 -0.084427783429311939 0 0.42864211640777627 -0.097894499969741214 0 0.42567205988902129 -0.091656624081337568 0 0.42567205988902129 -0.091656624081337568 0 0.42461385466063262 -0.08943412331831832 0 0.41829766411352998 -0.087706900461061957 0 0.42567205988902129 -0.091656624081337568 0 0.42461385466063262 -0.08943412331831832 0 0.42012861486432151 -0.07981881462850364 0 0.43069868055782679 -0.078899440675300136 0 0.42254342745458301 -0.084546146485576762 0 0.42461385466063262 -0.08943412331831832 0 0.43069868055782679 -0.078899440675300136 0 0.42254342745458301 -0.084546146485576762 0 0.43069868055782679 -0.078899440675300136 0 0.42085386234523608 -0.065266903626460593 0 0.41911482919747139 -0.073234494934215744 0 0.43069868055782679 -0.078899440675300136 0 0.42085386234523608 -0.065266903626460593 0 0.42768193525564641 -0.052738548234870043 0 0.44526353314296241 -0.062107813217869068 0 0.43069868055782679 -0.078899440675300136 0 0.42768193525564641 -0.052738548234870043 0 0.43069868055782679 -0.078899440675300136 0 0.42768193525564641 -0.052738548234870043 0 0.42012861486432151 -0.07981881462850364 0 0.43069868055782679 -0.078899440675300136 0 0.41911482919747139 -0.073234494934215744 0 0.42085386234523608 -0.065266903626460593 0 0.41911482919747139 -0.073234494934215744 0 0.41247118756252621 -0.068972059658544485 0 0.41911482919747139 -0.073234494934215744 0 0.41094109939792961 -0.074512111623280808 0 0.41247118756252621 -0.068972059658544485 0 0.42012861486432151 -0.07981881462850364 0 0.41911482919747139 -0.073234494934215744 0 0.41094109939792961 -0.074512111623280808 0 0.41094109939792961 -0.074512111623280808 0 0.41247118756252621 -0.068972059658544485 0 0.40519344017519737 -0.069697512887539489 0 0.42085386234523608 -0.065266903626460593 0 0.41247118756252621 -0.068972059658544485 0 0.40625270669679608 -0.06214927522122575 0 0.41247118756252621 -0.068972059658544485 0 0.40519344017519737 -0.069697512887539489 0 0.40625270669679608 -0.06214927522122575 0 0.40519344017519737 -0.069697512887539489 0 0.3909339432522656 -0.07145852807871525 0 0.40625270669679608 -0.06214927522122575 0 0.41094109939792961 -0.074512111623280808 0 0.40094221169150912 -0.074554002884685597 0 0.40556094342569721 -0.078918860306745137 0 0.40519344017519737 -0.069697512887539489 0 0.40094221169150912 -0.074554002884685597 0 0.3909339432522656 -0.07145852807871525 0 0.41094109939792961 -0.074512111623280808 0 0.40519344017519737 -0.069697512887539489 0 0.40094221169150912 -0.074554002884685597 0 0.40094221169150912 -0.074554002884685597 0 0.3909339432522656 -0.07145852807871525 0 0.39616481607021642 -0.077435810443283751 0 0.3909339432522656 -0.07145852807871525 0 0.39616481607021642 -0.077435810443283751 0 0.39262893539182381 -0.080692178350181262 0 0.39181446083091098 -0.066763706552935329 0 0.38421934743036401 -0.068446750892908373 0 0.38398729378694407 -0.058429379279077209 0 0.38421934743036401 -0.068446750892908373 0 0.37813424473731178 -0.068262582352726586 0 0.38398729378694407 -0.058429379279077209 0 0.37813424473731178 -0.068262582352726586 0 0.38294139036628899 -0.080331335386894381 0 0.37353404377441052 -0.075370636612477671 0 0.38421934743036401 -0.068446750892908373 0 0.37813424473731178 -0.068262582352726586 0 0.38294139036628899 -0.080331335386894381 0 0.39181446083091098 -0.066763706552935329 0 0.38294139036628899 -0.080331335386894381 0 0.39181446083091098 -0.066763706552935329 0 0.38421934743036401 -0.068446750892908373 0 0.38294139036628899 -0.080331335386894381 0 0.3909339432522656 -0.07145852807871525 0 0.39181446083091098 -0.066763706552935329 0 0.38294139036628899 -0.080331335386894381 0 0.38598565568847482 -0.085166122563822014 0 0.39289996883908601 -0.089154852807517448 0 0.39262893539182381 -0.080692178350181262 0 0.3909339432522656 -0.07145852807871525 0 0.38598565568847482 -0.085166122563822014 0 0.39262893539182381 -0.080692178350181262 0 0.3909339432522656 -0.07145852807871525 0 0.37406831990166722 -0.093898964220853504 0 0.3909339432522656 -0.07145852807871525 0 0.38598565568847482 -0.085166122563822014 0 0.37406831990166722 -0.093898964220853504 0 0.3909339432522656 -0.07145852807871525 0 0.38294139036628899 -0.080331335386894381 0 0.37406831990166722 -0.093898964220853504 0 0.38294139036628899 -0.080331335386894381 0 0.37406831990166722 -0.093898964220853504 0 0.38598565568847482 -0.085166122563822014 0 0.38240509603332101 -0.092127683864182172 0 0.37406831990166722 -0.093898964220853504 0 0.38240509603332101 -0.092127683864182172 0 0.39289996883908601 -0.089154852807517448 0 0.38960421283109031 -0.096689699614190994 0 0.38598565568847482 -0.085166122563822014 0 0.38240509603332101 -0.092127683864182172 0 0.39289996883908601 -0.089154852807517448 0 0.39289996883908601 -0.089154852807517448 0 0.39262893539182381 -0.080692178350181262 0 0.40015417394526698 -0.083038532459552866 0 0.39616481607021642 -0.077435810443283751 0 0.39262893539182381 -0.080692178350181262 0 0.40015417394526698 -0.083038532459552866 0 0.40094221169150912 -0.074554002884685597 0 0.40556094342569721 -0.078918860306745137 0 0.40015417394526698 -0.083038532459552866 0 0.40094221169150912 -0.074554002884685597 0 0.39616481607021642 -0.077435810443283751 0 0.40015417394526698 -0.083038532459552866 0 0.41020628866808312 -0.08357079425946129 0 0.40556094342569721 -0.078918860306745137 0 0.40015417394526698 -0.083038532459552866 0 0.40662173914453831 -0.097214899993173481 0 0.39289996883908601 -0.089154852807517448 0 0.40015417394526698 -0.083038532459552866 0 0.40662173914453831 -0.097214899993173481 0 0.41020628866808312 -0.08357079425946129 0 0.40015417394526698 -0.083038532459552866 0 0.40662173914453831 -0.097214899993173481 0 0.3851668720105898 -0.10347474583943909 0 0.38960421283109031 -0.096689699614190994 0 0.40662173914453831 -0.097214899993173481 0 0.3851668720105898 -0.10347474583943909 0 0.40662173914453831 -0.097214899993173481 0 0.39289996883908601 -0.089154852807517448 0 0.38960421283109031 -0.096689699614190994 0 0.40662173914453831 -0.097214899993173481 0 0.38960421283109031 -0.096689699614190994 0 0.40662173914453831 -0.097214899993173481 0 0.3851668720105898 -0.10347474583943909 0 0.39374350655696688 -0.1137959578468639 0 0.38960421283109031 -0.096689699614190994 0 0.37237061700676077 -0.09615783082836224 0 0.3851668720105898 -0.10347474583943909 0 0.38960421283109031 -0.096689699614190994 0 0.37237061700676077 -0.09615783082836224 0 0.38240509603332101 -0.092127683864182172 0 0.38960421283109031 -0.096689699614190994 0 0.37237061700676077 -0.09615783082836224 0 0.38240509603332101 -0.092127683864182172 0 0.37406831990166722 -0.093898964220853504 0 0.37237061700676077 -0.09615783082836224 0 0.3785150876385216 -0.1195111518185689 0 0.39374350655696688 -0.1137959578468639 0 0.39237070121405998 -0.13164091544729051 0 0.3851668720105898 -0.10347474583943909 0 0.3785150876385216 -0.1195111518185689 0 0.36371200487664068 -0.10973459168570281 0 0.3851668720105898 -0.10347474583943909 0 0.3785150876385216 -0.1195111518185689 0 0.39374350655696688 -0.1137959578468639 0 0.40662173914453831 -0.097214899993173481 0 0.39374350655696688 -0.1137959578468639 0 0.40604313277712428 -0.1171380761358455 0 0.39374350655696688 -0.1137959578468639 0 0.40604313277712428 -0.1171380761358455 0 0.39237070121405998 -0.13164091544729051 0 0.41728163952739061 -0.019334187549187701 0 0.42284227266732188 -0.010769512158268201 0 0.42466518995346408 -0.026577655794440151 0 0.41728163952739061 -0.019334187549187701 0 0.41227128108974659 -0.029924501558089681 0 0.42466518995346408 -0.026577655794440151 0 0.41227128108974659 -0.029924501558089681 0 0.40863720631140932 -0.019892986955346081 0 0.40014031603924488 -0.033106741091830219 0 0.41728163952739061 -0.019334187549187701 0 0.41227128108974659 -0.029924501558089681 0 0.40863720631140932 -0.019892986955346081 0 0.41728163952739061 -0.019334187549187701 0 0.40863720631140932 -0.019892986955346081 0 0.41436166681859882 -0.01226683791037885 0 0.40863720631140932 -0.019892986955346081 0 0.41436166681859882 -0.01226683791037885 0 0.40369857438468087 -0.0060371637805465179 0 0.42101935538117791 0.0050386314779034547 0 0.41402040698134779 -0.0025911497673051101 0 0.42284227266732188 -0.010769512158268201 0 0.41402040698134779 -0.0025911497673051101 0 0.41436166681859882 -0.01226683791037885 0 0.40369857438468087 -0.0060371637805465179 0 0.41402040698134779 -0.0025911497673051101 0 0.41436166681859882 -0.01226683791037885 0 0.42284227266732188 -0.010769512158268201 0 0.41728163952739061 -0.019334187549187701 0 0.41436166681859882 -0.01226683791037885 0 0.42284227266732188 -0.010769512158268201 0 0.42284227266732188 -0.010769512158268201 0 0.43543049063324413 -0.012350052332502739 0 0.42769414368384923 -0.02254750278133769 0 0.42101935538117791 0.0050386314779034547 0 0.42284227266732188 -0.010769512158268201 0 0.42101935538117791 0.0050386314779034547 0 0.42788240966677021 0.003552130545216341 0 0.42284227266732188 -0.010769512158268201 0 0.42788240966677021 0.003552130545216341 0 0.42284227266732188 -0.010769512158268201 0 0.43543049063324413 -0.012350052332502739 0 0.42284227266732188 -0.010769512158268201 0 0.42466518995346408 -0.026577655794440151 0 0.42284227266732188 -0.010769512158268201 0 0.42769414368384923 -0.02254750278133769 0 0.42466518995346408 -0.026577655794440151 0 0.44260817666721519 -0.025216613737701819 0 0.43543049063324413 -0.012350052332502739 0 0.42769414368384923 -0.02254750278133769 0 0.42769414368384923 -0.02254750278133769 0 0.42466518995346408 -0.026577655794440151 0 0.43454865465473302 -0.032105158367880783 0 0.42769414368384923 -0.02254750278133769 0 0.42466518995346408 -0.026577655794440151 0 0.44260817666721519 -0.025216613737701819 0 0.42769414368384923 -0.02254750278133769 0 0.43454865465473302 -0.032105158367880783 0 0.42466518995346408 -0.026577655794440151 0 0.43454865465473302 -0.032105158367880783 0 0.42768193525564641 -0.052738548234870043 0 0.42466518995346408 -0.026577655794440151 0 0.42768193525564641 -0.052738548234870043 0 0.44483042593949818 -0.041063070916932051 0 0.43454865465473302 -0.032105158367880783 0 0.42768193525564641 -0.052738548234870043 0 0.42085386234523608 -0.065266903626460593 0 0.42768193525564641 -0.052738548234870043 0 0.40779956660286398 -0.049018091936576927 0 0.42085386234523608 -0.065266903626460593 0 0.40779956660286398 -0.049018091936576927 0 0.40625270669679608 -0.06214927522122575 0 0.42466518995346408 -0.026577655794440151 0 0.42768193525564641 -0.052738548234870043 0 0.40779956660286398 -0.049018091936576927 0 0.42466518995346408 -0.026577655794440151 0 0.40779956660286398 -0.049018091936576927 0 0.41227128108974659 -0.029924501558089681 0 0.42466518995346408 -0.026577655794440151 0 0.40779956660286398 -0.049018091936576927 0 0.41227128108974659 -0.029924501558089681 0 0.40779956660286398 -0.049018091936576927 0 0.40014031603924488 -0.033106741091830219 0 0.40779956660286398 -0.049018091936576927 0 0.40014031603924488 -0.033106741091830219 0 0.3912967176308087 -0.04756724484766426 0 0.40014031603924488 -0.033106741091830219 0 0.3912967176308087 -0.04756724484766426 0 0.38547037370043469 -0.032308846426106139 0 0.3909339432522656 -0.07145852807871525 0 0.40779956660286398 -0.049018091936576927 0 0.40625270669679608 -0.06214927522122575 0 0.3909339432522656 -0.07145852807871525 0 0.39181446083091098 -0.066763706552935329 0 0.40779956660286398 -0.049018091936576927 0 0.39181446083091098 -0.066763706552935329 0 0.40779956660286398 -0.049018091936576927 0 0.3912967176308087 -0.04756724484766426 0 0.3909339432522656 -0.07145852807871525 0 0.40779956660286398 -0.049018091936576927 0 0.3912967176308087 -0.04756724484766426 0 0.38398729378694407 -0.058429379279077209 0 0.37514153202862571 -0.045861082966856079 0 0.39181446083091098 -0.066763706552935329 0 0.3912967176308087 -0.04756724484766426 0 0.38398729378694407 -0.058429379279077209 0 0.38398729378694407 -0.058429379279077209 0 0.37514153202862571 -0.045861082966856079 0 0.37192531576168952 -0.05914395824800911 0 0.37813424473731178 -0.068262582352726586 0 0.38398729378694407 -0.058429379279077209 0 0.37192531576168952 -0.05914395824800911 0 0.3912967176308087 -0.04756724484766426 0 0.38547037370043469 -0.032308846426106139 0 0.37514153202862571 -0.045861082966856079 0 0.38547037370043469 -0.032308846426106139 0 0.37514153202862571 -0.045861082966856079 0 0.36877413775607049 -0.02995327657106206 0 0.38547037370043469 -0.032308846426106139 0 0.37927030083329177 -0.015743113788958679 0 0.36877413775607049 -0.02995327657106206 0 0.38547037370043469 -0.032308846426106139 0 0.37927030083329177 -0.015743113788958679 0 0.39536675090020662 -0.019928774827198261 0 0.40014031603924488 -0.033106741091830219 0 0.38547037370043469 -0.032308846426106139 0 0.39536675090020662 -0.019928774827198261 0 0.40863720631140932 -0.019892986955346081 0 0.40014031603924488 -0.033106741091830219 0 0.39536675090020662 -0.019928774827198261 0 0.40863720631140932 -0.019892986955346081 0 0.39536675090020662 -0.019928774827198261 0 0.40369857438468087 -0.0060371637805465179 0 0.39536675090020662 -0.019928774827198261 0 0.40369857438468087 -0.0060371637805465179 0 0.39174671884158141 -0.0074493154892236006 0 0.39390920682105918 0.0040204267233196643 0 0.40369857438468087 -0.0060371637805465179 0 0.39174671884158141 -0.0074493154892236006 0 0.38212023564171321 0.001094655884648786 0 0.37927030083329177 -0.015743113788958679 0 0.39174671884158141 -0.0074493154892236006 0 0.38212023564171321 0.001094655884648786 0 0.37927030083329177 -0.015743113788958679 0 0.3700201466167648 -0.002195575246397889 0 0.37927030083329177 -0.015743113788958679 0 0.39536675090020662 -0.019928774827198261 0 0.39174671884158141 -0.0074493154892236006 0 0.39390920682105918 0.0040204267233196643 0 0.38212023564171321 0.001094655884648786 0 0.39174671884158141 -0.0074493154892236006 0 0.35686418876597309 0.010252504770385159 0 0.3700201466167648 -0.002195575246397889 0 0.35727920934793722 -0.0129667368589869 0 0.37927030083329177 -0.015743113788958679 0 0.3700201466167648 -0.002195575246397889 0 0.35727920934793722 -0.0129667368589869 0 0.36877413775607049 -0.02995327657106206 0 0.35727920934793722 -0.0129667368589869 0 0.35227314840285812 -0.03152257084722427 0 0.37927030083329177 -0.015743113788958679 0 0.36877413775607049 -0.02995327657106206 0 0.35727920934793722 -0.0129667368589869 0 0.35727920934793722 -0.0129667368589869 0 0.33875503928457851 -0.02222753562310531 0 0.35227314840285812 -0.03152257084722427 0 0.35727920934793722 -0.0129667368589869 0 0.33586681222118892 -0.0067462441580033658 0 0.33875503928457851 -0.02222753562310531 0 0.35686418876597309 0.010252504770385159 0 0.35727920934793722 -0.0129667368589869 0 0.33586681222118892 -0.0067462441580033658 0 0.33586681222118892 -0.0067462441580033658 0 0.33875503928457851 -0.02222753562310531 0 0.31486943567640469 -0.023744993086391868 0 0.33875503928457851 -0.02222753562310531 0 0.31486943567640469 -0.023744993086391868 0 0.33348659077450338 -0.036157133164920148 0 0.33875503928457851 -0.02222753562310531 0 0.33348659077450338 -0.036157133164920148 0 0.35227314840285812 -0.03152257084722427 0 0.31046320235639918 0.0067575729804437252 0 0.33586681222118892 -0.0067462441580033658 0 0.3153830815233527 -0.0087530987426132929 0 0.33586681222118892 -0.0067462441580033658 0 0.31486943567640469 -0.023744993086391868 0 0.3153830815233527 -0.0087530987426132929 0 0.33586681222118892 -0.0067462441580033658 0 0.31486943567640469 -0.023744993086391868 0 0.32115491610998381 -0.052976688016941227 0 0.32092150739102382 -0.073097043805500014 0 0.30601744289912669 -0.055409131432484229 0 0.32115491610998381 -0.052976688016941227 0 0.31197137499350902 -0.041008225260955711 0 0.30601744289912669 -0.055409131432484229 0 0.31486943567640469 -0.023744993086391868 0 0.33348659077450338 -0.036157133164920148 0 0.31197137499350902 -0.041008225260955711 0 0.32115491610998381 -0.052976688016941227 0 0.33348659077450338 -0.036157133164920148 0 0.31197137499350902 -0.041008225260955711 0 0.33348659077450338 -0.036157133164920148 0 0.3363568723602065 -0.050864743298462772 0 0.35116628403686417 -0.048621598638038131 0 0.32115491610998381 -0.052976688016941227 0 0.33348659077450338 -0.036157133164920148 0 0.3363568723602065 -0.050864743298462772 0 0.32115491610998381 -0.052976688016941227 0 0.3363568723602065 -0.050864743298462772 0 0.33388625794764348 -0.064812423232177271 0 0.3363568723602065 -0.050864743298462772 0 0.34794047334546518 -0.063974584280765273 0 0.33388625794764348 -0.064812423232177271 0 0.3363568723602065 -0.050864743298462772 0 0.35116628403686417 -0.048621598638038131 0 0.34794047334546518 -0.063974584280765273 0 0.35116628403686417 -0.048621598638038131 0 0.35914505774559541 -0.060409417065886872 0 0.36392372675137458 -0.051574144679805103 0 0.35116628403686417 -0.048621598638038131 0 0.36240463436463582 -0.041692596330413237 0 0.36392372675137458 -0.051574144679805103 0 0.35116628403686417 -0.048621598638038131 0 0.35914505774559541 -0.060409417065886872 0 0.34794047334546518 -0.063974584280765273 0 0.35116628403686417 -0.048621598638038131 0 0.35227314840285812 -0.03152257084722427 0 0.36240463436463582 -0.041692596330413237 0 0.33348659077450338 -0.036157133164920148 0 0.35116628403686417 -0.048621598638038131 0 0.35227314840285812 -0.03152257084722427 0 0.37514153202862571 -0.045861082966856079 0 0.36877413775607049 -0.02995327657106206 0 0.36240463436463582 -0.041692596330413237 0 0.36877413775607049 -0.02995327657106206 0 0.35227314840285812 -0.03152257084722427 0 0.36240463436463582 -0.041692596330413237 0 0.37514153202862571 -0.045861082966856079 0 0.36240463436463582 -0.041692596330413237 0 0.36392372675137458 -0.051574144679805103 0 0.35914505774559541 -0.060409417065886872 0 0.36392372675137458 -0.051574144679805103 0 0.37192531576168952 -0.05914395824800911 0 0.37514153202862571 -0.045861082966856079 0 0.36392372675137458 -0.051574144679805103 0 0.37192531576168952 -0.05914395824800911 0 0.37813424473731178 -0.068262582352726586 0 0.37192531576168952 -0.05914395824800911 0 0.3680772617285144 -0.06977757947088653 0 0.35914505774559541 -0.060409417065886872 0 0.37192531576168952 -0.05914395824800911 0 0.3680772617285144 -0.06977757947088653 0 0.35914505774559541 -0.060409417065886872 0 0.3680772617285144 -0.06977757947088653 0 0.35837286676988928 -0.071968688592424085 0 0.3680772617285144 -0.06977757947088653 0 0.36498327826552668 -0.083111049239403226 0 0.35837286676988928 -0.071968688592424085 0 0.3680772617285144 -0.06977757947088653 0 0.37353404377441052 -0.075370636612477671 0 0.36498327826552668 -0.083111049239403226 0 0.37813424473731178 -0.068262582352726586 0 0.3680772617285144 -0.06977757947088653 0 0.37353404377441052 -0.075370636612477671 0 0.38294139036628899 -0.080331335386894381 0 0.37353404377441052 -0.075370636612477671 0 0.36498327826552668 -0.083111049239403226 0 0.36498327826552668 -0.083111049239403226 0 0.37237061700676077 -0.09615783082836224 0 0.34241852099989789 -0.095233439592861846 0 0.38294139036628899 -0.080331335386894381 0 0.36498327826552668 -0.083111049239403226 0 0.37406831990166722 -0.093898964220853504 0 0.36498327826552668 -0.083111049239403226 0 0.37406831990166722 -0.093898964220853504 0 0.37237061700676077 -0.09615783082836224 0 0.36498327826552668 -0.083111049239403226 0 0.3449175019875389 -0.076917716904771144 0 0.34241852099989789 -0.095233439592861846 0 0.36498327826552668 -0.083111049239403226 0 0.3449175019875389 -0.076917716904771144 0 0.35837286676988928 -0.071968688592424085 0 0.3449175019875389 -0.076917716904771144 0 0.34794047334546518 -0.063974584280765273 0 0.35837286676988928 -0.071968688592424085 0 0.35914505774559541 -0.060409417065886872 0 0.34794047334546518 -0.063974584280765273 0 0.35837286676988928 -0.071968688592424085 0 0.36371200487664068 -0.10973459168570281 0 0.35664352332635268 -0.13060513793896061 0 0.36779594019891898 -0.12729788290040461 0 0.3785150876385216 -0.1195111518185689 0 0.36371200487664068 -0.10973459168570281 0 0.36779594019891898 -0.12729788290040461 0 0.36371200487664068 -0.10973459168570281 0 0.37237061700676077 -0.09615783082836224 0 0.34241852099989789 -0.095233439592861846 0 0.3851668720105898 -0.10347474583943909 0 0.36371200487664068 -0.10973459168570281 0 0.37237061700676077 -0.09615783082836224 0 0.3851668720105898 -0.10347474583943909 0 0.36371200487664068 -0.10973459168570281 0 0.36371200487664068 -0.10973459168570281 0 0.37237061700676077 -0.09615783082836224 0 0.37406831990166722 -0.093898964220853504 0 0.37237061700676077 -0.09615783082836224 0 0.36371200487664068 -0.10973459168570281 0 0.34332012240242971 -0.1020930362129598 0 0.34241852099989789 -0.095233439592861846 0 0.36371200487664068 -0.10973459168570281 0 0.35002252173753962 -0.112446561286345 0 0.34332012240242971 -0.1020930362129598 0 0.37237061700676077 -0.09615783082836224 0 0.34241852099989789 -0.095233439592861846 0 0.35002252173753962 -0.112446561286345 0 0.34025414842832208 -0.11782241666052221 0 0.34332012240242971 -0.1020930362129598 0 0.36371200487664068 -0.10973459168570281 0 0.35355367174401742 -0.1211945845718113 0 0.34779048707731292 -0.1340798558009649 0 0.36371200487664068 -0.10973459168570281 0 0.35664352332635268 -0.13060513793896061 0 0.34779048707731292 -0.1340798558009649 0 0.36371200487664068 -0.10973459168570281 0 0.34779048707731292 -0.1340798558009649 0 0.36371200487664068 -0.10973459168570281 0 0.35002252173753962 -0.112446561286345 0 0.35355367174401742 -0.1211945845718113 0 0.36371200487664068 -0.10973459168570281 0 0.35355367174401742 -0.1211945845718113 0 0.35002252173753962 -0.112446561286345 0 0.35355367174401742 -0.1211945845718113 0 0.34025414842832208 -0.11782241666052221 0 0.35355367174401742 -0.1211945845718113 0 0.34025414842832208 -0.11782241666052221 0 0.34381162934489939 -0.12854128697128539 0 0.33094534805706732 -0.1177437606496905 0 0.31854024801571379 -0.1183964408803808 0 0.33718817445421712 -0.13355179710808501 0 0.34025414842832208 -0.11782241666052221 0 0.33378984816934337 -0.1086297847084315 0 0.34332012240242971 -0.1020930362129598 0 0.33094534805706732 -0.1177437606496905 0 0.34025414842832208 -0.11782241666052221 0 0.33718817445421712 -0.13355179710808501 0 0.34025414842832208 -0.11782241666052221 0 0.34332012240242971 -0.1020930362129598 0 0.33094534805706732 -0.1177437606496905 0 0.33378984816934337 -0.1086297847084315 0 0.32495432121773932 -0.110318363891034 0 0.33094534805706732 -0.1177437606496905 0 0.34025414842832208 -0.11782241666052221 0 0.33378984816934337 -0.1086297847084315 0 0.33378984816934337 -0.1086297847084315 0 0.32725903490077729 -0.10071499943534749 0 0.32495432121773932 -0.110318363891034 0 0.33378984816934337 -0.1086297847084315 0 0.33669688161811212 -0.1016678149874002 0 0.32725903490077729 -0.10071499943534749 0 0.33378984816934337 -0.1086297847084315 0 0.34332012240242971 -0.1020930362129598 0 0.33669688161811212 -0.1016678149874002 0 0.34332012240242971 -0.1020930362129598 0 0.33669688161811212 -0.1016678149874002 0 0.34241852099989789 -0.095233439592861846 0 0.33669688161811212 -0.1016678149874002 0 0.34241852099989789 -0.095233439592861846 0 0.32725903490077729 -0.10071499943534749 0 0.34241852099989789 -0.095233439592861846 0 0.31246642499303512 -0.0943090483573608 0 0.34241852099989789 -0.095233439592861846 0 0.32725903490077729 -0.10071499943534749 0 0.31246642499303512 -0.0943090483573608 0 0.32725903490077729 -0.10071499943534749 0 0.31716114910448651 -0.10565591717263 0 0.31246642499303512 -0.0943090483573608 0 0.32725903490077729 -0.10071499943534749 0 0.31716114910448651 -0.10565591717263 0 0.32495432121773932 -0.110318363891034 0 0.33094534805706732 -0.1177437606496905 0 0.32495432121773932 -0.110318363891034 0 0.31854024801571379 -0.1183964408803808 0 0.31716114910448651 -0.10565591717263 0 0.32495432121773932 -0.110318363891034 0 0.31854024801571379 -0.1183964408803808 0 0.31716114910448651 -0.10565591717263 0 0.31854024801571379 -0.1183964408803808 0 0.30531265091832138 -0.10738965970164049 0 0.3449175019875389 -0.076917716904771144 0 0.33388625794764348 -0.064812423232177271 0 0.32092150739102382 -0.073097043805500014 0 0.3449175019875389 -0.076917716904771144 0 0.34794047334546518 -0.063974584280765273 0 0.33388625794764348 -0.064812423232177271 0 0.3449175019875389 -0.076917716904771144 0 0.34241852099989789 -0.095233439592861846 0 0.32092150739102382 -0.073097043805500014 0 0.34241852099989789 -0.095233439592861846 0 0.32092150739102382 -0.073097043805500014 0 0.31246642499303512 -0.0943090483573608 0 0.32115491610998381 -0.052976688016941227 0 0.33388625794764348 -0.064812423232177271 0 0.32092150739102382 -0.073097043805500014 0 0.32092150739102382 -0.073097043805500014 0 0.28819319405889499 -0.06706419956831737 0 0.31246642499303512 -0.0943090483573608 0 0.32092150739102382 -0.073097043805500014 0 0.28819319405889499 -0.06706419956831737 0 0.30601744289912669 -0.055409131432484229 0 0.28251432898617262 -0.093384657121855619 0 0.28819319405889499 -0.06706419956831737 0 0.31246642499303512 -0.0943090483573608 0 0.28251432898617262 -0.093384657121855619 0 0.28819319405889499 -0.06706419956831737 0 0.28251432898617262 -0.093384657121855619 0 0.28819319405889499 -0.06706419956831737 0 0.2788070763813692 -0.075616481315712358 0 0.30531265091832138 -0.10738965970164049 0 0.29209333803684512 -0.1204183792118467 0 0.30316218715013699 -0.13585617877411299 0 0.31854024801571379 -0.1183964408803808 0 0.30531265091832138 -0.10738965970164049 0 0.30316218715013699 -0.13585617877411299 0 0.30531265091832138 -0.10738965970164049 0 0.30316218715013699 -0.13585617877411299 0 0.30531265091832138 -0.10738965970164049 0 0.31246642499303512 -0.0943090483573608 0 0.2913954051317153 -0.1063448066268642 0 0.28251432898617262 -0.093384657121855619 0 0.31246642499303512 -0.0943090483573608 0 0.31716114910448651 -0.10565591717263 0 0.30531265091832138 -0.10738965970164049 0 0.31246642499303512 -0.0943090483573608 0 0.28251432898617262 -0.093384657121855619 0 0.31246642499303512 -0.0943090483573608 0 0.2913954051317153 -0.1063448066268642 0 0.28251432898617262 -0.093384657121855619 0 0.2913954051317153 -0.1063448066268642 0 0.27794998204403759 -0.11453953550188679 0 0.30531265091832138 -0.10738965970164049 0 0.2913954051317153 -0.1063448066268642 0 0.29209333803684512 -0.1204183792118467 0 0.2913954051317153 -0.1063448066268642 0 0.29209333803684512 -0.1204183792118467 0 0.27794998204403759 -0.11453953550188679 0 0.27794998204403759 -0.11453953550188679 0 0.25915390151091949 -0.11811210275817149 0 0.27338563510190422 -0.1356944138819183 0 0.29209333803684512 -0.1204183792118467 0 0.27794998204403759 -0.11453953550188679 0 0.27338563510190422 -0.1356944138819183 0 0.28251432898617262 -0.093384657121855619 0 0.27794998204403759 -0.11453953550188679 0 0.25666672159796139 -0.092586939936295867 0 0.28251432898617262 -0.093384657121855619 0 0.27794998204403759 -0.11453953550188679 0 0.25915390151091949 -0.11811210275817149 0 0.25666672159796139 -0.092586939936295867 0 0.23839025179526999 -0.1151992729885977 0 0.27794998204403759 -0.11453953550188679 0 0.25915390151091949 -0.11811210275817149 0 0.25666672159796139 -0.092586939936295867 0 0.28819319405889499 -0.06706419956831737 0 0.27512965144911827 -0.070681904186227995 0 0.27783686619476677 -0.05372527893061739 0 0.26897876163713708 -0.070467118147906876 0 0.27512965144911827 -0.070681904186227995 0 0.27783686619476677 -0.05372527893061739 0 0.26897876163713708 -0.070467118147906876 0 0.26180167325791431 -0.066706815846455908 0 0.27783686619476677 -0.05372527893061739 0 0.27067132333055188 -0.076788874412469815 0 0.26897876163713708 -0.070467118147906876 0 0.26145119023330071 -0.079000043976386408 0 0.27067132333055188 -0.076788874412469815 0 0.26897876163713708 -0.070467118147906876 0 0.2788070763813692 -0.075616481315712358 0 0.26897876163713708 -0.070467118147906876 0 0.27512965144911827 -0.070681904186227995 0 0.28819319405889499 -0.06706419956831737 0 0.2788070763813692 -0.075616481315712358 0 0.27512965144911827 -0.070681904186227995 0 0.26897876163713708 -0.070467118147906876 0 0.2788070763813692 -0.075616481315712358 0 0.26897876163713708 -0.070467118147906876 0 0.2788070763813692 -0.075616481315712358 0 0.27512965144911827 -0.070681904186227995 0 0.28251432898617262 -0.093384657121855619 0 0.25666672159796139 -0.092586939936295867 0 0.28251432898617262 -0.093384657121855619 0 0.27051227275229911 -0.08315566172012806 0 0.25666672159796139 -0.092586939936295867 0 0.28251432898617262 -0.093384657121855619 0 0.2788070763813692 -0.075616481315712358 0 0.27051227275229911 -0.08315566172012806 0 0.27067132333055188 -0.076788874412469815 0 0.27051227275229911 -0.08315566172012806 0 0.26145119023330071 -0.079000043976386408 0 0.27067132333055188 -0.076788874412469815 0 0.2788070763813692 -0.075616481315712358 0 0.27051227275229911 -0.08315566172012806 0 0.26145119023330071 -0.079000043976386408 0 0.25666672159796139 -0.092586939936295867 0 0.24423239209720191 -0.080930297464084477 0 0.27051227275229911 -0.08315566172012806 0 0.26145119023330071 -0.079000043976386408 0 0.25666672159796139 -0.092586939936295867 0 0.26180167325791431 -0.066706815846455908 0 0.25764566998465072 -0.070071372177431313 0 0.24120587699226881 -0.055916030502087773 0 0.26145119023330071 -0.079000043976386408 0 0.25764566998465072 -0.070071372177431313 0 0.24423239209720191 -0.080930297464084477 0 0.25764566998465072 -0.070071372177431313 0 0.24423239209720191 -0.080930297464084477 0 0.26897876163713708 -0.070467118147906876 0 0.26145119023330071 -0.079000043976386408 0 0.25764566998465072 -0.070071372177431313 0 0.26897876163713708 -0.070467118147906876 0 0.26180167325791431 -0.066706815846455908 0 0.25764566998465072 -0.070071372177431313 0 0.26897876163713708 -0.070467118147906876 0 0.25764566998465072 -0.070071372177431313 0 0.26897876163713708 -0.070467118147906876 0 0.26180167325791431 -0.066706815846455908 0 0.26180167325791431 -0.066706815846455908 0 0.25764566998465072 -0.070071372177431313 0 0.26180167325791431 -0.066706815846455908 0 0.26029261894245981 -0.048826031507571623 0 0.24120587699226881 -0.055916030502087773 0 0.26180167325791431 -0.066706815846455908 0 0.24120587699226881 -0.055916030502087773 0 0.26180167325791431 -0.066706815846455908 0 0.26029261894245981 -0.048826031507571623 0 0.27783686619476677 -0.05372527893061739 0 0.26180167325791431 -0.066706815846455908 0 0.27783686619476677 -0.05372527893061739 0 0.26029261894245981 -0.048826031507571623 0 0.27783686619476677 -0.05372527893061739 0 0.27031708646619812 -0.033638605470610219 0 0.27783686619476677 -0.05372527893061739 0 0.27031708646619812 -0.033638605470610219 0 0.28437966209514692 -0.033534114227583768 0 0.26029261894245981 -0.048826031507571623 0 0.27031708646619812 -0.033638605470610219 0 0.25030159180115191 -0.034143426788088307 0 0.26029261894245981 -0.048826031507571623 0 0.25030159180115191 -0.034143426788088307 0 0.24120587699226881 -0.055916030502087773 0 0.25030159180115191 -0.034143426788088307 0 0.26299580833271302 -0.019789195105520681 0 0.2464198669495459 -0.012097030270161889 0 0.27031708646619812 -0.033638605470610219 0 0.25030159180115191 -0.034143426788088307 0 0.26299580833271302 -0.019789195105520681 0 0.25322369798355371 0.0032948183560677501 0 0.26778398551549509 -0.0036893303100333872 0 0.2464198669495459 -0.012097030270161889 0 0.26299580833271302 -0.019789195105520681 0 0.26778398551549509 -0.0036893303100333872 0 0.2464198669495459 -0.012097030270161889 0 0.26299580833271302 -0.019789195105520681 0 0.26778398551549509 -0.0036893303100333872 0 0.28231604015163769 -0.018351258625531171 0 0.2895407867033607 0.0013395930438658619 0 0.26778398551549509 -0.0036893303100333872 0 0.28231604015163769 -0.018351258625531171 0 0.27031708646619812 -0.033638605470610219 0 0.26299580833271302 -0.019789195105520681 0 0.28231604015163769 -0.018351258625531171 0 0.27031708646619812 -0.033638605470610219 0 0.28231604015163769 -0.018351258625531171 0 0.28437966209514692 -0.033534114227583768 0 0.28231604015163769 -0.018351258625531171 0 0.29600028882747859 -0.03087980289019443 0 0.28437966209514692 -0.033534114227583768 0 0.28231604015163769 -0.018351258625531171 0 0.29600028882747859 -0.03087980289019443 0 0.30132541624728598 -0.01217829343577128 0 0.2895407867033607 0.0013395930438658619 0 0.28231604015163769 -0.018351258625531171 0 0.30132541624728598 -0.01217829343577128 0 0.31046320235639918 0.0067575729804437252 0 0.2895407867033607 0.0013395930438658619 0 0.30132541624728598 -0.01217829343577128 0 0.31046320235639918 0.0067575729804437252 0 0.3153830815233527 -0.0087530987426132929 0 0.30132541624728598 -0.01217829343577128 0 0.31486943567640469 -0.023744993086391868 0 0.3153830815233527 -0.0087530987426132929 0 0.30132541624728598 -0.01217829343577128 0 0.31486943567640469 -0.023744993086391868 0 0.29600028882747859 -0.03087980289019443 0 0.30132541624728598 -0.01217829343577128 0 0.31486943567640469 -0.023744993086391868 0 0.31197137499350902 -0.041008225260955711 0 0.29387205913161968 -0.04074374201477949 0 0.31486943567640469 -0.023744993086391868 0 0.29600028882747859 -0.03087980289019443 0 0.29387205913161968 -0.04074374201477949 0 0.31486943567640469 -0.023744993086391868 0 0.29387205913161968 -0.04074374201477949 0 0.31197137499350902 -0.041008225260955711 0 0.30601744289912669 -0.055409131432484229 0 0.29387205913161968 -0.04074374201477949 0 0.28819319405889499 -0.06706419956831737 0 0.27783686619476677 -0.05372527893061739 0 0.29387205913161968 -0.04074374201477949 0 0.28819319405889499 -0.06706419956831737 0 0.29387205913161968 -0.04074374201477949 0 0.27783686619476677 -0.05372527893061739 0 0.29387205913161968 -0.04074374201477949 0 0.28819319405889499 -0.06706419956831737 0 0.30601744289912669 -0.055409131432484229 0 0.29387205913161968 -0.04074374201477949 0 0.27783686619476677 -0.05372527893061739 0 0.28437966209514692 -0.033534114227583768 0 0.29387205913161968 -0.04074374201477949 0 0.29600028882747859 -0.03087980289019443 0 0.28437966209514692 -0.033534114227583768 0 0.29387205913161968 -0.04074374201477949 0 0.29600028882747859 -0.03087980289019443 0 0.29387205913161968 -0.04074374201477949 0 0.28925369461552242 -0.21547475378801551 0 0.29798535605087828 -0.20438389051808681 0 0.27851755886665591 -0.20371457102860641 0 0.28925369461552242 -0.21547475378801551 0 0.28465086540799672 -0.2254021489655588 0 0.27851755886665591 -0.20371457102860641 0 0.28925369461552242 -0.21547475378801551 0 0.29798535605087828 -0.20438389051808681 0 0.29625974568445868 -0.22722646109941139 0 0.28994099481116897 -0.19128490440727269 0 0.29798535605087828 -0.20438389051808681 0 0.29971096641729777 -0.18154131993676231 0 0.28994099481116897 -0.19128490440727269 0 0.27851755886665591 -0.20371457102860641 0 0.28355009790984409 -0.17549983614563519 0 0.28994099481116897 -0.19128490440727269 0 0.29798535605087828 -0.20438389051808681 0 0.27851755886665591 -0.20371457102860641 0 0.30866677822314281 -0.19370433905286669 0 0.29798535605087828 -0.20438389051808681 0 0.29971096641729777 -0.18154131993676231 0 0.29798535605087828 -0.20438389051808681 0 0.29971096641729777 -0.18154131993676231 0 0.30866677822314281 -0.19370433905286669 0 0.30817512199612251 -0.208018461664154 0 0.29798535605087828 -0.20438389051808681 0 0.29798535605087828 -0.20438389051808681 0 0.29625974568445868 -0.22722646109941139 0 0.30367267472900389 -0.2178556058656746 0 0.31200739898088131 -0.22851072207886541 0 0.31883562653249692 -0.20986103607638071 0 0.29798535605087828 -0.20438389051808681 0 0.30367267472900389 -0.2178556058656746 0 0.29625974568445868 -0.22722646109941139 0 0.30817512199612251 -0.208018461664154 0 0.29798535605087828 -0.20438389051808681 0 0.30367267472900389 -0.2178556058656746 0 0.30817512199612251 -0.208018461664154 0 0.30367267472900389 -0.2178556058656746 0 0.31883562653249692 -0.20986103607638071 0 0.30367267472900389 -0.2178556058656746 0 0.31883562653249692 -0.20986103607638071 0 0.31200739898088131 -0.22851072207886541 0 0.30517917142926537 -0.24716040808135001 0 0.29625974568445868 -0.22722646109941139 0 0.30367267472900389 -0.2178556058656746 0 0.31200739898088131 -0.22851072207886541 0 0.29625974568445868 -0.22722646109941139 0 0.31200739898088131 -0.22851072207886541 0 0.30517917142926537 -0.24716040808135001 0 0.30517917142926537 -0.24716040808135001 0 0.28765229627979871 -0.24304032400626949 0 0.29625974568445868 -0.22722646109941139 0 0.28765229627979871 -0.24304032400626949 0 0.29625974568445868 -0.22722646109941139 0 0.28465086540799672 -0.2254021489655588 0 0.28765229627979871 -0.24304032400626949 0 0.28465086540799672 -0.2254021489655588 0 0.27348501982346762 -0.23192930591157759 0 0.28925369461552242 -0.21547475378801551 0 0.29625974568445868 -0.22722646109941139 0 0.28465086540799672 -0.2254021489655588 0 0.28465086540799672 -0.2254021489655588 0 0.27348501982346762 -0.23192930591157759 0 0.27851755886665591 -0.20371457102860641 0 0.27348501982346762 -0.23192930591157759 0 0.25787859859726192 -0.24372773219337371 0 0.26845248078028039 -0.26014404079454911 0 0.28765229627979871 -0.24304032400626949 0 0.27348501982346762 -0.23192930591157759 0 0.26845248078028039 -0.26014404079454911 0 0.27348501982346762 -0.23192930591157759 0 0.26845248078028039 -0.26014404079454911 0 0.27348501982346762 -0.23192930591157759 0 0.25787859859726192 -0.24372773219337371 0 0.2485278721491469 -0.22983386195931649 0 0.27348501982346762 -0.23192930591157759 0 0.25806059678156651 -0.21160485628964759 0 0.2485278721491469 -0.22983386195931649 0 0.27348501982346762 -0.23192930591157759 0 0.27851755886665591 -0.20371457102860641 0 0.27348501982346762 -0.23192930591157759 0 0.25806059678156651 -0.21160485628964759 0 0.27851755886665591 -0.20371457102860641 0 0.27851755886665591 -0.20371457102860641 0 0.26140201073716351 -0.19316186481753209 0 0.27335445324682811 -0.1824409541049711 0 0.25806059678156651 -0.21160485628964759 0 0.27851755886665591 -0.20371457102860641 0 0.26140201073716351 -0.19316186481753209 0 0.27851755886665591 -0.20371457102860641 0 0.28355009790984409 -0.17549983614563519 0 0.25806059678156651 -0.21160485628964759 0 0.26140201073716351 -0.19316186481753209 0 0.24624710011957149 -0.19756578472926509 0 0.26140201073716351 -0.19316186481753209 0 0.25030889548151403 -0.1837077448593728 0 0.24624710011957149 -0.19756578472926509 0 0.25969225384889538 -0.18295045636353721 0 0.2550208565069661 -0.17514012483034949 0 0.27335445324682811 -0.1824409541049711 0 0.26140201073716351 -0.19316186481753209 0 0.25030889548151403 -0.1837077448593728 0 0.25969225384889538 -0.18295045636353721 0 0.25030889548151403 -0.1837077448593728 0 0.25969225384889538 -0.18295045636353721 0 0.2550208565069661 -0.17514012483034949 0 0.2550208565069661 -0.17514012483034949 0 0.2530488896403309 -0.16079061319898569 0 0.27335445324682811 -0.1824409541049711 0 0.26140201073716351 -0.19316186481753209 0 0.25969225384889538 -0.18295045636353721 0 0.27335445324682811 -0.1824409541049711 0 0.2530488896403309 -0.16079061319898569 0 0.272260185211738 -0.168331689764908 0 0.26878477807763418 -0.16016356734556891 0 0.2530488896403309 -0.16079061319898569 0 0.26878477807763418 -0.16016356734556891 0 0.26293682869207591 -0.15391070786642169 0 0.2530488896403309 -0.16079061319898569 0 0.27335445324682811 -0.1824409541049711 0 0.272260185211738 -0.168331689764908 0 0.27899515764395177 -0.15443660918041571 0 0.28355009790984409 -0.17549983614563519 0 0.2530488896403309 -0.16079061319898569 0 0.272260185211738 -0.168331689764908 0 0.27335445324682811 -0.1824409541049711 0 0.272260185211738 -0.168331689764908 0 0.26878477807763418 -0.16016356734556891 0 0.27899515764395177 -0.15443660918041571 0 0.272260185211738 -0.168331689764908 0 0.27335445324682811 -0.1824409541049711 0 0.28355009790984409 -0.17549983614563519 0 0.27851755886665591 -0.20371457102860641 0 0.27335445324682811 -0.1824409541049711 0 0.28355009790984409 -0.17549983614563519 0 0.25915390151091949 -0.11811210275817149 0 0.25133622254172122 -0.13557462765415079 0 0.27338563510190422 -0.1356944138819183 0 0.25133622254172122 -0.13557462765415079 0 0.27338563510190422 -0.1356944138819183 0 0.25133622254172122 -0.13557462765415079 0 0.25208407187516418 -0.1419613505697605 0 0.27338563510190422 -0.1356944138819183 0 0.26557247671991108 -0.14774187414890411 0 0.25208407187516418 -0.1419613505697605 0 0.27142481771649529 -0.14478242884651979 0 0.25208407187516418 -0.1419613505697605 0 0.27142481771649529 -0.14478242884651979 0 0.2530488896403309 -0.16079061319898569 0 0.25208407187516418 -0.1419613505697605 0 0.26293682869207591 -0.15391070786642169 0 0.26557247671991108 -0.14774187414890411 0 0.25208407187516418 -0.1419613505697605 0 0.26293682869207591 -0.15391070786642169 0 0.27899515764395177 -0.15443660918041571 0 0.27142481771649529 -0.14478242884651979 0 0.28858263695303038 -0.1472851012626637 0 0.25208407187516418 -0.1419613505697605 0 0.27142481771649529 -0.14478242884651979 0 0.27338563510190422 -0.1356944138819183 0 0.27142481771649529 -0.14478242884651979 0 0.28858263695303038 -0.1472851012626637 0 0.27142481771649529 -0.14478242884651979 0 0.27338563510190422 -0.1356944138819183 0 0.28952553314766588 -0.14199879033185039 0 0.26878477807763418 -0.16016356734556891 0 0.27009527632936597 -0.15279308215900331 0 0.27899515764395177 -0.15443660918041571 0 0.26557247671991108 -0.14774187414890411 0 0.27009527632936597 -0.15279308215900331 0 0.27142481771649529 -0.14478242884651979 0 0.26878477807763418 -0.16016356734556891 0 0.26293682869207591 -0.15391070786642169 0 0.27009527632936597 -0.15279308215900331 0 0.26557247671991108 -0.14774187414890411 0 0.26293682869207591 -0.15391070786642169 0 0.27009527632936597 -0.15279308215900331 0 0.27009527632936597 -0.15279308215900331 0 0.27899515764395177 -0.15443660918041571 0 0.27142481771649529 -0.14478242884651979 0 0.27794998204403759 -0.11453953550188679 0 0.27338563510190422 -0.1356944138819183 0 0.27142481771649529 -0.14478242884651979 0 0.27338563510190422 -0.1356944138819183 0 0.27338563510190422 -0.1356944138819183 0 0.30316218715013699 -0.13585617877411299 0 0.29209333803684512 -0.1204183792118467 0 0.27338563510190422 -0.1356944138819183 0 0.30316218715013699 -0.13585617877411299 0 0.27338563510190422 -0.1356944138819183 0 0.28952553314766588 -0.14199879033185039 0 0.30316218715013699 -0.13585617877411299 0 0.27142481771649529 -0.14478242884651979 0 0.28952553314766588 -0.14199879033185039 0 0.28858263695303038 -0.1472851012626637 0 0.28858263695303038 -0.1472851012626637 0 0.30013596324633868 -0.14897029159077979 0 0.28952553314766588 -0.14199879033185039 0 0.28858263695303038 -0.1472851012626637 0 0.30013596324633868 -0.14897029159077979 0 0.28952553314766588 -0.14199879033185039 0 0.28858263695303038 -0.1472851012626637 0 0.28858263695303038 -0.1472851012626637 0 0.30013596324633868 -0.14897029159077979 0 0.29372711844303928 -0.1600295372122347 0 0.30316218715013699 -0.13585617877411299 0 0.30143657678371732 -0.15869874935543771 0 0.30013596324633868 -0.14897029159077979 0 0.30316218715013699 -0.13585617877411299 0 0.30143657678371732 -0.15869874935543771 0 0.30316218715013699 -0.13585617877411299 0 0.30143657678371732 -0.15869874935543771 0 0.31253980123811259 -0.14771969478669131 0 0.30013596324633868 -0.14897029159077979 0 0.29372711844303928 -0.1600295372122347 0 0.30143657678371732 -0.15869874935543771 0 0.30143657678371732 -0.15869874935543771 0 0.31557079919726838 -0.1590044961535387 0 0.31253980123811259 -0.14771969478669131 0 0.28952553314766588 -0.14199879033185039 0 0.30013596324633868 -0.14897029159077979 0 0.30316218715013699 -0.13585617877411299 0 0.30316218715013699 -0.13585617877411299 0 0.31993283661344418 -0.13594728745244961 0 0.31253980123811259 -0.14771969478669131 0 0.30316218715013699 -0.13585617877411299 0 0.31993283661344418 -0.13594728745244961 0 0.28994099481116897 -0.19128490440727269 0 0.28355009790984409 -0.17549983614563519 0 0.29971096641729777 -0.18154131993676231 0 0.28355009790984409 -0.17549983614563519 0 0.29493031732226571 -0.16969370770665679 0 0.29971096641729777 -0.18154131993676231 0 0.27899515764395177 -0.15443660918041571 0 0.28858263695303038 -0.1472851012626637 0 0.28355009790984409 -0.17549983614563519 0 0.28858263695303038 -0.1472851012626637 0 0.28355009790984409 -0.17549983614563519 0 0.28858263695303038 -0.1472851012626637 0 0.28355009790984409 -0.17549983614563519 0 0.29372711844303928 -0.1600295372122347 0 0.29372711844303928 -0.1600295372122347 0 0.29493031732226571 -0.16969370770665679 0 0.30143657678371732 -0.15869874935543771 0 0.28355009790984409 -0.17549983614563519 0 0.29372711844303928 -0.1600295372122347 0 0.29493031732226571 -0.16969370770665679 0 0.30143657678371732 -0.15869874935543771 0 0.29971096641729777 -0.18154131993676231 0 0.30143657678371732 -0.15869874935543771 0 0.30809610970482848 -0.16795036279156811 0 0.29971096641729777 -0.18154131993676231 0 0.29493031732226571 -0.16969370770665679 0 0.30143657678371732 -0.15869874935543771 0 0.29971096641729777 -0.18154131993676231 0 0.30143657678371732 -0.15869874935543771 0 0.30809610970482848 -0.16795036279156811 0 0.31557079919726838 -0.1590044961535387 0 0.29971096641729777 -0.18154131993676231 0 0.31498869866721663 -0.1848028620899877 0 0.3156660964210305 -0.17255688572053399 0 0.30809610970482848 -0.16795036279156811 0 0.29971096641729777 -0.18154131993676231 0 0.3156660964210305 -0.17255688572053399 0 0.30866677822314281 -0.19370433905286669 0 0.29971096641729777 -0.18154131993676231 0 0.31498869866721663 -0.1848028620899877 0 0.32729102930978993 -0.18432716657830939 0 0.3156660964210305 -0.17255688572053399 0 0.33199725769327038 -0.160182781354547 0 0.31498869866721663 -0.1848028620899877 0 0.32729102930978993 -0.18432716657830939 0 0.3156660964210305 -0.17255688572053399 0 0.3156660964210305 -0.17255688572053399 0 0.31557079919726838 -0.1590044961535387 0 0.33199725769327038 -0.160182781354547 0 0.30809610970482848 -0.16795036279156811 0 0.3156660964210305 -0.17255688572053399 0 0.31557079919726838 -0.1590044961535387 0 0.32729102930978993 -0.18432716657830939 0 0.34572674800851178 -0.17666980330527179 0 0.34152908302092871 -0.19789605564194099 0 0.32729102930978993 -0.18432716657830939 0 0.33199725769327038 -0.160182781354547 0 0.34572674800851178 -0.17666980330527179 0 0.32729102930978993 -0.18432716657830939 0 0.33199725769327038 -0.160182781354547 0 0.31854024801571379 -0.1183964408803808 0 0.30316218715013699 -0.13585617877411299 0 0.31993283661344418 -0.13594728745244961 0 0.31993283661344418 -0.13594728745244961 0 0.32334883616376942 -0.1477785311756023 0 0.33670348607675138 -0.13603839613078461 0 0.31854024801571379 -0.1183964408803808 0 0.31993283661344418 -0.13594728745244961 0 0.33718817445421712 -0.13355179710808501 0 0.31854024801571379 -0.1183964408803808 0 0.33718817445421712 -0.13355179710808501 0 0.31557079919726838 -0.1590044961535387 0 0.33199725769327038 -0.160182781354547 0 0.32334883616376942 -0.1477785311756023 0 0.31993283661344418 -0.13594728745244961 0 0.32334883616376942 -0.1477785311756023 0 0.31253980123811259 -0.14771969478669131 0 0.31557079919726838 -0.1590044961535387 0 0.32334883616376942 -0.1477785311756023 0 0.31253980123811259 -0.14771969478669131 0 0.33199725769327038 -0.160182781354547 0 0.34027166502062639 -0.13605778071504529 0 0.33670348607675138 -0.13603839613078461 0 0.33199725769327038 -0.160182781354547 0 0.32334883616376942 -0.1477785311756023 0 0.33670348607675138 -0.13603839613078461 0 0.33199725769327038 -0.160182781354547 0 0.33670348607675138 -0.13603839613078461 0 0.31993283661344418 -0.13594728745244961 0 0.33670348607675138 -0.13603839613078461 0 0.31993283661344418 -0.13594728745244961 0 0.33670348607675138 -0.13603839613078461 0 0.33718817445421712 -0.13355179710808501 0 0.34025414842832208 -0.11782241666052221 0 0.33718817445421712 -0.13355179710808501 0 0.34381162934489939 -0.12854128697128539 0 0.34025414842832208 -0.11782241666052221 0 0.33718817445421712 -0.13355179710808501 0 0.34027166502062639 -0.13605778071504529 0 0.33670348607675138 -0.13603839613078461 0 0.33718817445421712 -0.13355179710808501 0 0.34027166502062639 -0.13605778071504529 0 0.33718817445421712 -0.13355179710808501 0 0.34027166502062639 -0.13605778071504529 0 0.33670348607675138 -0.13603839613078461 0 0.33670348607675138 -0.13603839613078461 0 0.33718817445421712 -0.13355179710808501 0 0.34027166502062639 -0.13605778071504529 0 0.33718817445421712 -0.13355179710808501 0 0.34381162934489939 -0.12854128697128539 0 0.33199725769327038 -0.160182781354547 0 0.34027166502062639 -0.13605778071504529 0 0.36359383050920879 -0.15501193774405861 0 0.35355367174401742 -0.1211945845718113 0 0.34381162934489939 -0.12854128697128539 0 0.34779048707731292 -0.1340798558009649 0 0.34027166502062639 -0.13605778071504529 0 0.34884821061351562 -0.13610437388577321 0 0.35664352332635268 -0.13060513793896061 0 0.34779048707731292 -0.1340798558009649 0 0.34884821061351562 -0.13610437388577321 0 0.34027166502062639 -0.13605778071504529 0 0.34779048707731292 -0.1340798558009649 0 0.34884821061351562 -0.13610437388577321 0 0.34027166502062639 -0.13605778071504529 0 0.34381162934489939 -0.12854128697128539 0 0.34779048707731292 -0.1340798558009649 0 0.35664352332635268 -0.13060513793896061 0 0.34884821061351562 -0.13610437388577321 0 0.36374720336072303 -0.13810563056468389 0 0.34884821061351562 -0.13610437388577321 0 0.36359383050920879 -0.15501193774405861 0 0.36374720336072303 -0.13810563056468389 0 0.34027166502062639 -0.13605778071504529 0 0.36359383050920879 -0.15501193774405861 0 0.34027166502062639 -0.13605778071504529 0 0.34884821061351562 -0.13610437388577321 0 0.36359383050920879 -0.15501193774405861 0 0.36359383050920879 -0.15501193774405861 0 0.36374720336072303 -0.13810563056468389 0 0.37656812491251679 -0.13846106794218549 0 0.3785150876385216 -0.1195111518185689 0 0.36779594019891898 -0.12729788290040461 0 0.37656812491251679 -0.13846106794218549 0 0.36374720336072303 -0.13810563056468389 0 0.36779594019891898 -0.12729788290040461 0 0.37656812491251679 -0.13846106794218549 0 0.35664352332635268 -0.13060513793896061 0 0.36374720336072303 -0.13810563056468389 0 0.36779594019891898 -0.12729788290040461 0 0.33199725769327038 -0.160182781354547 0 0.36359383050920879 -0.15501193774405861 0 0.34572674800851178 -0.17666980330527179 0 0.34572674800851178 -0.17666980330527179 0 0.36422253950936112 -0.1859310752075029 0 0.34152908302092871 -0.19789605564194099 0 0.36359383050920879 -0.15501193774405861 0 0.34572674800851178 -0.17666980330527179 0 0.36422253950936112 -0.1859310752075029 0 0.36359383050920879 -0.15501193774405861 0 0.36422253950936112 -0.1859310752075029 0 0.38691599599779503 -0.1739660947730671 0 0.36422253950936112 -0.1859310752075029 0 0.37220629557919183 -0.19612338441269381 0 0.37910290544765168 -0.18685571494790659 0 0.36422253950936112 -0.1859310752075029 0 0.37220629557919183 -0.19612338441269381 0 0.35685044422528578 -0.20027094664828951 0 0.37220629557919183 -0.19612338441269381 0 0.3556522221671049 -0.2162457527497984 0 0.35685044422528578 -0.20027094664828951 0 0.37220629557919183 -0.19612338441269381 0 0.3556522221671049 -0.2162457527497984 0 0.37273333868611941 -0.2093978965492076 0 0.3556522221671049 -0.2162457527497984 0 0.3731990688381891 -0.2228302363117915 0 0.37220629557919183 -0.19612338441269381 0 0.37273333868611941 -0.2093978965492076 0 0.3556522221671049 -0.2162457527497984 0 0.34913249600123192 -0.20719712371303781 0 0.34152908302092871 -0.19789605564194099 0 0.34144894007629428 -0.2139395960038605 0 0.3556522221671049 -0.2162457527497984 0 0.34913249600123192 -0.20719712371303781 0 0.35685044422528578 -0.20027094664828951 0 0.3556522221671049 -0.2162457527497984 0 0.34913249600123192 -0.20719712371303781 0 0.34144894007629428 -0.2139395960038605 0 0.36422253950936112 -0.1859310752075029 0 0.35685044422528578 -0.20027094664828951 0 0.34152908302092871 -0.19789605564194099 0 0.36422253950936112 -0.1859310752075029 0 0.34152908302092871 -0.19789605564194099 0 0.34913249600123192 -0.20719712371303781 0 0.35685044422528578 -0.20027094664828951 0 0.34152908302092871 -0.19789605564194099 0 0.32729102930978993 -0.18432716657830939 0 0.34152908302092871 -0.19789605564194099 0 0.32289957828838461 -0.19876131457419149 0 0.34152908302092871 -0.19789605564194099 0 0.31883562653249692 -0.20986103607638071 0 0.34152908302092871 -0.19789605564194099 0 0.34144894007629428 -0.2139395960038605 0 0.31883562653249692 -0.20986103607638071 0 0.34144894007629428 -0.2139395960038605 0 0.31883562653249692 -0.20986103607638071 0 0.32331405575278033 -0.23055000204260581 0 0.31883562653249692 -0.20986103607638071 0 0.32289957828838461 -0.19876131457419149 0 0.30817512199612251 -0.208018461664154 0 0.31883562653249692 -0.20986103607638071 0 0.32289957828838461 -0.19876131457419149 0 0.30866677822314281 -0.19370433905286669 0 0.30817512199612251 -0.208018461664154 0 0.32289957828838461 -0.19876131457419149 0 0.34152908302092871 -0.19789605564194099 0 0.31883562653249692 -0.20986103607638071 0 0.32289957828838461 -0.19876131457419149 0 0.30866677822314281 -0.19370433905286669 0 0.31498869866721663 -0.1848028620899877 0 0.32289957828838461 -0.19876131457419149 0 0.31498869866721663 -0.1848028620899877 0 0.32729102930978993 -0.18432716657830939 0 0.32289957828838461 -0.19876131457419149 0 0.30517917142926537 -0.24716040808135001 0 0.32331405575278033 -0.23055000204260581 0 0.30517917142926537 -0.24716040808135001 0 0.32331405575278033 -0.23055000204260581 0 0.322544075342931 -0.25649048942400782 0 0.31200739898088131 -0.22851072207886541 0 0.30517917142926537 -0.24716040808135001 0 0.32331405575278033 -0.23055000204260581 0 0.31200739898088131 -0.22851072207886541 0 0.31883562653249692 -0.20986103607638071 0 0.31200739898088131 -0.22851072207886541 0 0.31883562653249692 -0.20986103607638071 0 0.32331405575278033 -0.23055000204260581 0 0.34144894007629428 -0.2139395960038605 0 0.32331405575278033 -0.23055000204260581 0 0.34144894007629428 -0.2139395960038605 0 0.32331405575278033 -0.23055000204260581 0 0.33909814875501798 -0.23636812108690311 0 0.33909814875501798 -0.23636812108690311 0 0.322544075342931 -0.25649048942400782 0 0.32331405575278033 -0.23055000204260581 0 0.33909814875501798 -0.23636812108690311 0 0.322544075342931 -0.25649048942400782 0 0.33909814875501798 -0.23636812108690311 0 0.35007299243335749 -0.24785688602667111 0 0.33700232267718733 -0.25494009872172468 0 0.33909814875501798 -0.23636812108690311 0 0.322544075342931 -0.25649048942400782 0 0.33700232267718733 -0.25494009872172468 0 0.33909814875501798 -0.23636812108690311 0 0.35007299243335749 -0.24785688602667111 0 0.35471840821638012 -0.232162972911199 0 0.35007299243335749 -0.24785688602667111 0 0.35471840821638012 -0.232162972911199 0 0.36225179838031341 -0.2439392928582107 0 0.35007299243335749 -0.24785688602667111 0 0.36225179838031341 -0.2439392928582107 0 0.36124693131331159 -0.25807728632712912 0 0.3556522221671049 -0.2162457527497984 0 0.33909814875501798 -0.23636812108690311 0 0.3556522221671049 -0.2162457527497984 0 0.33909814875501798 -0.23636812108690311 0 0.35471840821638012 -0.232162972911199 0 0.3556522221671049 -0.2162457527497984 0 0.34144894007629428 -0.2139395960038605 0 0.33909814875501798 -0.23636812108690311 0 0.35471840821638012 -0.232162972911199 0 0.3731990688381891 -0.2228302363117915 0 0.36225179838031341 -0.2439392928582107 0 0.3556522221671049 -0.2162457527497984 0 0.35471840821638012 -0.232162972911199 0 0.3731990688381891 -0.2228302363117915 0 0.3731990688381891 -0.2228302363117915 0 0.36225179838031341 -0.2439392928582107 0 0.3731990688381891 -0.2228302363117915 0 0.36225179838031341 -0.2439392928582107 0 0.38186963046980549 -0.2367879359972051 0 0.36225179838031341 -0.2439392928582107 0 0.38186963046980549 -0.2367879359972051 0 0.37510228513818711 -0.25237727586059511 0 0.38186963046980549 -0.2367879359972051 0 0.39206528024080278 -0.24921397013056479 0 0.37510228513818711 -0.25237727586059511 0 0.39206528024080278 -0.24921397013056479 0 0.40137725565661481 -0.22692044649349019 0 0.4148006158986044 -0.24103970595398019 0 0.39206528024080278 -0.24921397013056479 0 0.4148006158986044 -0.24103970595398019 0 0.40884184876520419 -0.25890250189124958 0 0.38186963046980549 -0.2367879359972051 0 0.39206528024080278 -0.24921397013056479 0 0.40137725565661481 -0.22692044649349019 0 0.40137725565661481 -0.22692044649349019 0 0.39915185452682361 -0.21610044156742811 0 0.41396763236883027 -0.21470461273584779 0 0.40137725565661481 -0.22692044649349019 0 0.38700545273377529 -0.2233412248148075 0 0.39915185452682361 -0.21610044156742811 0 0.38186963046980549 -0.2367879359972051 0 0.40137725565661481 -0.22692044649349019 0 0.38700545273377529 -0.2233412248148075 0 0.3731990688381891 -0.2228302363117915 0 0.38186963046980549 -0.2367879359972051 0 0.38700545273377529 -0.2233412248148075 0 0.3731990688381891 -0.2228302363117915 0 0.38414633929606479 -0.2017211797653724 0 0.37273333868611941 -0.2093978965492076 0 0.3731990688381891 -0.2228302363117915 0 0.38414633929606479 -0.2017211797653724 0 0.3731990688381891 -0.2228302363117915 0 0.38675328488958288 -0.2095276895359276 0 0.38414633929606479 -0.2017211797653724 0 0.3731990688381891 -0.2228302363117915 0 0.38700545273377529 -0.2233412248148075 0 0.38675328488958288 -0.2095276895359276 0 0.38675328488958288 -0.2095276895359276 0 0.38414633929606479 -0.2017211797653724 0 0.39287005569986072 -0.20314648074516001 0 0.38414633929606479 -0.2017211797653724 0 0.38373621375160438 -0.1885238144486111 0 0.39509360975394031 -0.18061212321895309 0 0.38414633929606479 -0.2017211797653724 0 0.39509360975394031 -0.18061212321895309 0 0.37999921147615667 -0.19503406661491049 0 0.38373621375160438 -0.1885238144486111 0 0.37910290544765168 -0.18685571494790659 0 0.37999921147615667 -0.19503406661491049 0 0.38414633929606479 -0.2017211797653724 0 0.38373621375160438 -0.1885238144486111 0 0.37220629557919183 -0.19612338441269381 0 0.37999921147615667 -0.19503406661491049 0 0.37910290544765168 -0.18685571494790659 0 0.37220629557919183 -0.19612338441269381 0 0.37273333868611941 -0.2093978965492076 0 0.38414633929606479 -0.2017211797653724 0 0.37220629557919183 -0.19612338441269381 0 0.37999921147615667 -0.19503406661491049 0 0.38414633929606479 -0.2017211797653724 0 0.38414633929606479 -0.2017211797653724 0 0.39694758591794982 -0.18886739411602391 0 0.39509360975394031 -0.18061212321895309 0 0.39694758591794982 -0.18886739411602391 0 0.3969424320709618 -0.1972324897541754 0 0.40101572763622523 -0.19231380306325679 0 0.38414633929606479 -0.2017211797653724 0 0.39694758591794982 -0.18886739411602391 0 0.3969424320709618 -0.1972324897541754 0 0.38414633929606479 -0.2017211797653724 0 0.3969424320709618 -0.1972324897541754 0 0.39287005569986072 -0.20314648074516001 0 0.3969424320709618 -0.1972324897541754 0 0.400612395600416 -0.20053006859666331 0 0.39287005569986072 -0.20314648074516001 0 0.3969424320709618 -0.1972324897541754 0 0.4059814476455269 -0.19573306963025069 0 0.400612395600416 -0.20053006859666331 0 0.4059814476455269 -0.19573306963025069 0 0.400612395600416 -0.20053006859666331 0 0.40665564698531481 -0.2060082342570673 0 0.3969424320709618 -0.1972324897541754 0 0.4059814476455269 -0.19573306963025069 0 0.40101572763622523 -0.19231380306325679 0 0.4059814476455269 -0.19573306963025069 0 0.40101572763622523 -0.19231380306325679 0 0.40419144491046238 -0.1874222587525772 0 0.39694758591794982 -0.18886739411602391 0 0.40101572763622523 -0.19231380306325679 0 0.40419144491046238 -0.1874222587525772 0 0.38675328488958288 -0.2095276895359276 0 0.40665564698531481 -0.2060082342570673 0 0.38675328488958288 -0.2095276895359276 0 0.39915185452682361 -0.21610044156742811 0 0.40665564698531481 -0.2060082342570673 0 0.38675328488958288 -0.2095276895359276 0 0.39287005569986072 -0.20314648074516001 0 0.40665564698531481 -0.2060082342570673 0 0.38700545273377529 -0.2233412248148075 0 0.38675328488958288 -0.2095276895359276 0 0.39915185452682361 -0.21610044156742811 0 0.400612395600416 -0.20053006859666331 0 0.39287005569986072 -0.20314648074516001 0 0.40665564698531481 -0.2060082342570673 0 0.41396763236883027 -0.21470461273584779 0 0.40665564698531481 -0.2060082342570673 0 0.42655800908104652 -0.20248877897820619 0 0.40665564698531481 -0.2060082342570673 0 0.42655800908104652 -0.20248877897820619 0 0.39915185452682361 -0.21610044156742811 0 0.41396763236883027 -0.21470461273584779 0 0.40665564698531481 -0.2060082342570673 0 0.41396763236883027 -0.21470461273584779 0 0.42655800908104652 -0.20248877897820619 0 0.40665564698531481 -0.2060082342570673 0 0.41640017291144837 -0.19588579121564459 0 0.42655800908104652 -0.20248877897820619 0 0.4059814476455269 -0.19573306963025069 0 0.41640017291144837 -0.19588579121564459 0 0.41453364601533049 -0.1862870086825022 0 0.4059814476455269 -0.19573306963025069 0 0.40419144491046238 -0.1874222587525772 0 0.41453364601533049 -0.1862870086825022 0 0.4059814476455269 -0.19573306963025069 0 0.40665564698531481 -0.2060082342570673 0 0.41640017291144837 -0.19588579121564459 0 0.41640017291144837 -0.19588579121564459 0 0.42581299264578848 -0.18832250896932939 0 0.41453364601533049 -0.1862870086825022 0 0.42655800908104652 -0.20248877897820619 0 0.444302871767289 -0.18527179670816579 0 0.42581299264578848 -0.18832250896932939 0 0.42655800908104652 -0.20248877897820619 0 0.444302871767289 -0.18527179670816579 0 0.41640017291144837 -0.19588579121564459 0 0.42581299264578848 -0.18832250896932939 0 0.42655800908104652 -0.20248877897820619 0 0.42655800908104652 -0.20248877897820619 0 0.43237997939727391 -0.21969514264188619 0 0.44995934289594253 -0.19835057932979169 0 0.41396763236883027 -0.21470461273584779 0 0.42655800908104652 -0.20248877897820619 0 0.43237997939727391 -0.21969514264188619 0 0.43237997939727391 -0.21969514264188619 0 0.43199948472716282 -0.23703470349933331 0 0.4148006158986044 -0.24103970595398019 0 0.43237997939727391 -0.21969514264188619 0 0.4148006158986044 -0.24103970595398019 0 0.43199948472716282 -0.23703470349933331 0 0.4148006158986044 -0.24103970595398019 0 0.42892204251950339 -0.2594807324876427 0 0.43199948472716282 -0.23703470349933331 0 0.44338493428344739 -0.24574379201886831 0 0.42892204251950339 -0.2594807324876427 0 0.43237997939727391 -0.21969514264188619 0 0.4148006158986044 -0.24103970595398019 0 0.41563137083033092 -0.22558997695630109 0 0.41396763236883027 -0.21470461273584779 0 0.43237997939727391 -0.21969514264188619 0 0.41563137083033092 -0.22558997695630109 0 0.40137725565661481 -0.22692044649349019 0 0.4148006158986044 -0.24103970595398019 0 0.41563137083033092 -0.22558997695630109 0 0.40137725565661481 -0.22692044649349019 0 0.41396763236883027 -0.21470461273584779 0 0.40137725565661481 -0.22692044649349019 0 0.41396763236883027 -0.21470461273584779 0 0.41563137083033092 -0.22558997695630109 0 0.39237070121405998 -0.13164091544729051 0 0.39988799210863701 -0.14408364481314989 0 0.41368108829086198 -0.13554811058748131 0 0.40604313277712428 -0.1171380761358455 0 0.39237070121405998 -0.13164091544729051 0 0.41368108829086198 -0.13554811058748131 0 0.39237070121405998 -0.13164091544729051 0 0.37656812491251679 -0.13846106794218549 0 0.38605620033535121 -0.1499684147877679 0 0.3785150876385216 -0.1195111518185689 0 0.39237070121405998 -0.13164091544729051 0 0.37656812491251679 -0.13846106794218549 0 0.36359383050920879 -0.15501193774405861 0 0.37656812491251679 -0.13846106794218549 0 0.38605620033535121 -0.1499684147877679 0 0.39237070121405998 -0.13164091544729051 0 0.38605620033535121 -0.1499684147877679 0 0.39988799210863701 -0.14408364481314989 0 0.38605620033535121 -0.1499684147877679 0 0.39988799210863701 -0.14408364481314989 0 0.39700055726989097 -0.15664682800685811 0 0.39988799210863701 -0.14408364481314989 0 0.39700055726989097 -0.15664682800685811 0 0.40766935758353628 -0.1563629578155839 0 0.40291487034120532 -0.16553079014728059 0 0.39700055726989097 -0.15664682800685811 0 0.38691599599779503 -0.1739660947730671 0 0.40291487034120532 -0.16553079014728059 0 0.38691599599779503 -0.1739660947730671 0 0.40291487034120532 -0.16553079014728059 0 0.39700055726989097 -0.15664682800685811 0 0.40766935758353628 -0.1563629578155839 0 0.40291487034120532 -0.16553079014728059 0 0.40766935758353628 -0.1563629578155839 0 0.38605620033535121 -0.1499684147877679 0 0.39700055726989097 -0.15664682800685811 0 0.38691599599779503 -0.1739660947730671 0 0.36359383050920879 -0.15501193774405861 0 0.38691599599779503 -0.1739660947730671 0 0.36359383050920879 -0.15501193774405861 0 0.38605620033535121 -0.1499684147877679 0 0.38691599599779503 -0.1739660947730671 0 0.36422253950936112 -0.1859310752075029 0 0.38691599599779503 -0.1739660947730671 0 0.37910290544765168 -0.18685571494790659 0 0.36422253950936112 -0.1859310752075029 0 0.38691599599779503 -0.1739660947730671 0 0.38691599599779503 -0.1739660947730671 0 0.38753717637180268 -0.18155585423065651 0 0.39509360975394031 -0.18061212321895309 0 0.38373621375160438 -0.1885238144486111 0 0.38753717637180268 -0.18155585423065651 0 0.39509360975394031 -0.18061212321895309 0 0.38691599599779503 -0.1739660947730671 0 0.37910290544765168 -0.18685571494790659 0 0.38753717637180268 -0.18155585423065651 0 0.38373621375160438 -0.1885238144486111 0 0.37910290544765168 -0.18685571494790659 0 0.38753717637180268 -0.18155585423065651 0 0.40291487034120532 -0.16553079014728059 0 0.38691599599779503 -0.1739660947730671 0 0.39509360975394031 -0.18061212321895309 0 0.39694758591794982 -0.18886739411602391 0 0.39665445354372708 -0.18451779314135289 0 0.39509360975394031 -0.18061212321895309 0 0.39694758591794982 -0.18886739411602391 0 0.39665445354372708 -0.18451779314135289 0 0.40021252966215071 -0.18382207331845951 0 0.39665445354372708 -0.18451779314135289 0 0.39509360975394031 -0.18061212321895309 0 0.40021252966215071 -0.18382207331845951 0 0.38691599599779503 -0.1739660947730671 0 0.39509360975394031 -0.18061212321895309 0 0.40291487034120532 -0.16553079014728059 0 0.39509360975394031 -0.18061212321895309 0 0.40549068313545528 -0.17742909809594989 0 0.40291487034120532 -0.16553079014728059 0 0.39509360975394031 -0.18061212321895309 0 0.40549068313545528 -0.17742909809594989 0 0.40419144491046238 -0.1874222587525772 0 0.40021252966215071 -0.18382207331845951 0 0.39509360975394031 -0.18061212321895309 0 0.40549068313545528 -0.17742909809594989 0 0.40021252966215071 -0.18382207331845951 0 0.39694758591794982 -0.18886739411602391 0 0.40419144491046238 -0.1874222587525772 0 0.40021252966215071 -0.18382207331845951 0 0.42581299264578848 -0.18832250896932939 0 0.41453364601533049 -0.1862870086825022 0 0.42235201908535791 -0.17050045814039369 0 0.40549068313545528 -0.17742909809594989 0 0.41453364601533049 -0.1862870086825022 0 0.42235201908535791 -0.17050045814039369 0 0.40549068313545528 -0.17742909809594989 0 0.40419144491046238 -0.1874222587525772 0 0.41453364601533049 -0.1862870086825022 0 0.42235201908535791 -0.17050045814039369 0 0.44127751826325029 -0.16493106072254701 0 0.444302871767289 -0.18527179670816579 0 0.42581299264578848 -0.18832250896932939 0 0.42235201908535791 -0.17050045814039369 0 0.444302871767289 -0.18527179670816579 0 0.42235201908535791 -0.17050045814039369 0 0.42606808286872072 -0.1533234062687002 0 0.44127751826325029 -0.16493106072254701 0 0.40291487034120532 -0.16553079014728059 0 0.40766935758353628 -0.1563629578155839 0 0.42606808286872072 -0.1533234062687002 0 0.40291487034120532 -0.16553079014728059 0 0.42606808286872072 -0.1533234062687002 0 0.40291487034120532 -0.16553079014728059 0 0.42235201908535791 -0.17050045814039369 0 0.42606808286872072 -0.1533234062687002 0 0.40291487034120532 -0.16553079014728059 0 0.40549068313545528 -0.17742909809594989 0 0.42235201908535791 -0.17050045814039369 0 0.41182663021293903 -0.1473295298712288 0 0.42606808286872072 -0.1533234062687002 0 0.41368108829086198 -0.13554811058748131 0 0.40766935758353628 -0.1563629578155839 0 0.41182663021293903 -0.1473295298712288 0 0.42606808286872072 -0.1533234062687002 0 0.39988799210863701 -0.14408364481314989 0 0.40766935758353628 -0.1563629578155839 0 0.41182663021293903 -0.1473295298712288 0 0.39988799210863701 -0.14408364481314989 0 0.41182663021293903 -0.1473295298712288 0 0.41368108829086198 -0.13554811058748131 0 0.42606808286872072 -0.1533234062687002 0 0.430889964195386 -0.135117951771525 0 0.44922129539623712 -0.14111602239012119 0 0.42606808286872072 -0.1533234062687002 0 0.430889964195386 -0.135117951771525 0 0.41368108829086198 -0.13554811058748131 0 0.42080162445294911 -0.1170697999396166 0 0.430889964195386 -0.135117951771525 0 0.41368108829086198 -0.13554811058748131 0 0.45825176112352212 -0.1171944005084963 0 0.44922129539623712 -0.14111602239012119 0 0.47461064769812122 -0.12772964805397971 0 0.44922129539623712 -0.14111602239012119 0 0.47461064769812122 -0.12772964805397971 0 0.44922129539623712 -0.14111602239012119 0 0.47041229806123103 -0.14236165737458781 0 0.47461064769812122 -0.12772964805397971 0 0.43893170590200609 -0.1195052611799315 0 0.430889964195386 -0.135117951771525 0 0.44922129539623712 -0.14111602239012119 0 0.43893170590200609 -0.1195052611799315 0 0.45825176112352212 -0.1171944005084963 0 0.44922129539623712 -0.14111602239012119 0 0.43893170590200609 -0.1195052611799315 0 0.44922129539623712 -0.14111602239012119 0 0.42606808286872072 -0.1533234062687002 0 0.44922129539623712 -0.14111602239012119 0 0.44127751826325029 -0.16493106072254701 0 0.42606808286872072 -0.1533234062687002 0 0.44922129539623712 -0.14111602239012119 0 0.44922129539623712 -0.14111602239012119 0 0.46204773445353348 -0.16805481443812731 0 0.44922129539623712 -0.14111602239012119 0 0.46204773445353348 -0.16805481443812731 0 0.47041229806123103 -0.14236165737458781 0 0.44922129539623712 -0.14111602239012119 0 0.46204773445353348 -0.16805481443812731 0 0.44127751826325029 -0.16493106072254701 0 0.46204773445353348 -0.16805481443812731 0 0.44127751826325029 -0.16493106072254701 0 0.444302871767289 -0.18527179670816579 0 0.46204773445353348 -0.16805481443812731 0 0.444302871767289 -0.18527179670816579 0 0.46675991992270621 -0.1779516052682695 0 0.47013600328087812 -0.185042241033678 0 0.44995934289594253 -0.19835057932979169 0 0.444302871767289 -0.18527179670816579 0 0.46675991992270621 -0.1779516052682695 0 0.44995934289594253 -0.19835057932979169 0 0.46204773445353348 -0.16805481443812731 0 0.444302871767289 -0.18527179670816579 0 0.46675991992270621 -0.1779516052682695 0 0.46204773445353348 -0.16805481443812731 0 0.46675991992270621 -0.1779516052682695 0 0.46675991992270621 -0.1779516052682695 0 0.47013600328087812 -0.185042241033678 0 0.46675991992270621 -0.1779516052682695 0 0.48388214138120561 -0.17390417728894431 0 0.47927416581767118 -0.18397687174081401 0 0.46675991992270621 -0.1779516052682695 0 0.47013600328087812 -0.185042241033678 0 0.47927416581767118 -0.18397687174081401 0 0.48388214138120561 -0.17390417728894431 0 0.47927416581767118 -0.18397687174081401 0 0.48987334582395858 -0.18140433091368091 0 0.48987334582395858 -0.18140433091368091 0 0.5 -0.16492372169971509 0 0.5 -0.19225537639104809 0 0.48388214138120561 -0.17390417728894431 0 0.48987334582395858 -0.18140433091368091 0 0.5 -0.16492372169971509 0 0.47927416581767118 -0.18397687174081401 0 0.48987334582395858 -0.18140433091368091 0 0.48552241192915191 -0.19206174635411891 0 0.48388214138120561 -0.17390417728894431 0 0.5 -0.16492372169971509 0 0.48337995996135552 -0.1577718361383266 0 0.46675991992270621 -0.1779516052682695 0 0.48388214138120561 -0.17390417728894431 0 0.48337995996135552 -0.1577718361383266 0 0.46204773445353348 -0.16805481443812731 0 0.46675991992270621 -0.1779516052682695 0 0.48337995996135552 -0.1577718361383266 0 0.46204773445353348 -0.16805481443812731 0 0.48337995996135552 -0.1577718361383266 0 0.47713463147989749 -0.15341672773068571 0 0.46675991992270621 -0.1779516052682695 0 0.48337995996135552 -0.1577718361383266 0 0.46204773445353348 -0.16805481443812731 0 0.47713463147989749 -0.15341672773068571 0 0.46204773445353348 -0.16805481443812731 0 0.47041229806123103 -0.14236165737458781 0 0.47713463147989749 -0.15341672773068571 0 0.48337995996135552 -0.1577718361383266 0 0.47713463147989749 -0.15341672773068571 0 0.48456351921585428 -0.1397192317593817 0 0.47041229806123103 -0.14236165737458781 0 0.47713463147989749 -0.15341672773068571 0 0.48456351921585428 -0.1397192317593817 0 0.48337995996135552 -0.1577718361383266 0 0.50000000000000311 -0.1375920670083822 0 0.48456351921585428 -0.1397192317593817 0 0.5 -0.16492372169971509 0 0.48337995996135552 -0.1577718361383266 0 0.50000000000000311 -0.1375920670083822 0 0.48337995996135552 -0.1577718361383266 0 0.50000000000000311 -0.1375920670083822 0 0.50000000000000433 -0.1143432737178363 0 0.50000000000000311 -0.1375920670083822 0 0.48456351921585428 -0.1397192317593817 0 0.50000000000000433 -0.1143432737178363 0 0.48456351921585428 -0.1397192317593817 0 0.47461064769812122 -0.12772964805397971 0 0.47041229806123103 -0.14236165737458781 0 0.48456351921585428 -0.1397192317593817 0 0.47461064769812122 -0.12772964805397971 0 0.46695018322910392 -0.22473955239466681 0 0.44975785303280541 -0.2255898949688982 0 0.46528918090086291 -0.2095084705765255 0 0.46695018322910392 -0.22473955239466681 0 0.46086119099944728 -0.24298014516654151 0 0.44975785303280541 -0.2255898949688982 0 0.46086119099944728 -0.24298014516654151 0 0.44338493428344739 -0.24574379201886831 0 0.44975785303280541 -0.2255898949688982 0 0.43199948472716282 -0.23703470349933331 0 0.44338493428344739 -0.24574379201886831 0 0.44975785303280541 -0.2255898949688982 0 0.46086119099944728 -0.24298014516654151 0 0.44338493428344739 -0.24574379201886831 0 0.45165913482636821 -0.26068325523694041 0 0.43237997939727391 -0.21969514264188619 0 0.43199948472716282 -0.23703470349933331 0 0.44975785303280541 -0.2255898949688982 0 0.43237997939727391 -0.21969514264188619 0 0.44975785303280541 -0.2255898949688982 0 0.44995934289594253 -0.19835057932979169 0 0.43237997939727391 -0.21969514264188619 0 0.44995934289594253 -0.19835057932979169 0 0.42655800908104652 -0.20248877897820619 0 0.444302871767289 -0.18527179670816579 0 0.44995934289594253 -0.19835057932979169 0 0.42655800908104652 -0.20248877897820619 0 0.44995934289594253 -0.19835057932979169 0 0.46675991992270621 -0.1779516052682695 0 0.44995934289594253 -0.19835057932979169 0 0.44995934289594253 -0.19835057932979169 0 0.46774087741254722 -0.19520616284195491 0 0.47013600328087812 -0.185042241033678 0 0.44995934289594253 -0.19835057932979169 0 0.46774087741254722 -0.19520616284195491 0 0.44995934289594253 -0.19835057932979169 0 0.46774087741254722 -0.19520616284195491 0 0.46528918090086291 -0.2095084705765255 0 0.44975785303280541 -0.2255898949688982 0 0.44995934289594253 -0.19835057932979169 0 0.46528918090086291 -0.2095084705765255 0 0.46695018322910392 -0.22473955239466681 0 0.46528918090086291 -0.2095084705765255 0 0.48029579162163721 -0.21558854579597769 0 0.46528918090086291 -0.2095084705765255 0 0.47801733861628259 -0.20339364304417529 0 0.48029579162163721 -0.21558854579597769 0 0.47801733861628259 -0.20339364304417529 0 0.48029579162163721 -0.21558854579597769 0 0.48876710843341442 -0.20457726853354019 0 0.46774087741254722 -0.19520616284195491 0 0.47801733861628259 -0.20339364304417529 0 0.48552241192915191 -0.19206174635411891 0 0.47927416581767118 -0.18397687174081401 0 0.46774087741254722 -0.19520616284195491 0 0.48552241192915191 -0.19206174635411891 0 0.46774087741254722 -0.19520616284195491 0 0.48552241192915191 -0.19206174635411891 0 0.47013600328087812 -0.185042241033678 0 0.47927416581767118 -0.18397687174081401 0 0.46774087741254722 -0.19520616284195491 0 0.46774087741254722 -0.19520616284195491 0 0.46528918090086291 -0.2095084705765255 0 0.47801733861628259 -0.20339364304417529 0 0.47801733861628259 -0.20339364304417529 0 0.48552241192915191 -0.19206174635411891 0 0.48876710843341442 -0.20457726853354019 0 0.48987334582395858 -0.18140433091368091 0 0.48552241192915191 -0.19206174635411891 0 0.5 -0.19225537639104809 0 0.48552241192915191 -0.19206174635411891 0 0.5 -0.19225537639104809 0 0.48876710843341442 -0.20457726853354019 0 0.5 -0.19225537639104809 0 0.48876710843341442 -0.20457726853354019 0 0.5 -0.21958703108238101 0 0.48029579162163721 -0.21558854579597769 0 0.48876710843341442 -0.20457726853354019 0 0.5 -0.21958703108238101 0 0.5 -0.21958703108238101 0 0.48033598971293961 -0.23536730169414519 0 0.5 -0.24691868577371379 0 0.48029579162163721 -0.21558854579597769 0 0.5 -0.21958703108238101 0 0.48033598971293961 -0.23536730169414519 0 0.46695018322910392 -0.22473955239466681 0 0.46086119099944728 -0.24298014516654151 0 0.48033598971293961 -0.23536730169414519 0 0.46695018322910392 -0.22473955239466681 0 0.48029579162163721 -0.21558854579597769 0 0.48033598971293961 -0.23536730169414519 0 0.46086119099944728 -0.24298014516654151 0 0.48033598971293961 -0.23536730169414519 0 0.47450143065275591 -0.2599846894272051 0 0.48033598971293961 -0.23536730169414519 0 0.5 -0.24691868577371379 0 0.47450143065275591 -0.2599846894272051 0 0.5 -0.24691868577371379 0 0.50000000000000222 -0.27425034046504659 0 0.47450143065275591 -0.2599846894272051 0 0.50000000000000222 -0.27425034046504659 0 0.47605513413645029 -0.28008102786359129 0 0.47450143065275591 -0.2599846894272051 0 0.47605513413645029 -0.28008102786359129 0 0.47450143065275591 -0.2599846894272051 0 0.45931845050930209 -0.27772900618102819 0 0.46086119099944728 -0.24298014516654151 0 0.47450143065275591 -0.2599846894272051 0 0.45165913482636821 -0.26068325523694041 0 0.47450143065275591 -0.2599846894272051 0 0.45931845050930209 -0.27772900618102819 0 0.45165913482636821 -0.26068325523694041 0 0.45931845050930209 -0.27772900618102819 0 0.44355941821905998 -0.27577600561597132 0 0.45165913482636821 -0.26068325523694041 0 0.44338493428344739 -0.24574379201886831 0 0.45165913482636821 -0.26068325523694041 0 0.42892204251950339 -0.2594807324876427 0 0.44355941821905998 -0.27577600561597132 0 0.45165913482636821 -0.26068325523694041 0 0.42892204251950339 -0.2594807324876427 0 0.44743457629936911 -0.29125199491084608 0 0.45088585771739531 -0.31517042999936162 0 0.43686388954492023 -0.30206384222820981 0 0.45088585771739531 -0.31517042999936162 0 0.43602078127065758 -0.31524868357114688 0 0.43686388954492023 -0.30206384222820981 0 0.45931845050930209 -0.27772900618102819 0 0.44355941821905998 -0.27577600561597132 0 0.44743457629936911 -0.29125199491084608 0 0.44355941821905998 -0.27577600561597132 0 0.44743457629936911 -0.29125199491084608 0 0.42611848489587972 -0.28658767974219163 0 0.47605513413645029 -0.28008102786359129 0 0.45931845050930209 -0.27772900618102819 0 0.46516191830632447 -0.295844547827811 0 0.45931845050930209 -0.27772900618102819 0 0.44743457629936911 -0.29125199491084608 0 0.46516191830632447 -0.295844547827811 0 0.44743457629936911 -0.29125199491084608 0 0.46516191830632447 -0.295844547827811 0 0.45088585771739531 -0.31517042999936162 0 0.46516191830632447 -0.295844547827811 0 0.47218478901913252 -0.31616939882945228 0 0.45088585771739531 -0.31517042999936162 0 0.4860923945095682 -0.29520986964724988 0 0.47218478901913252 -0.31616939882945228 0 0.50000000000000222 -0.27425034046504659 0 0.4860923945095682 -0.29520986964724988 0 0.5 -0.307151228172029 0 0.46516191830632447 -0.295844547827811 0 0.4860923945095682 -0.29520986964724988 0 0.47218478901913252 -0.31616939882945228 0 0.47605513413645029 -0.28008102786359129 0 0.46516191830632447 -0.295844547827811 0 0.4860923945095682 -0.29520986964724988 0 0.50000000000000222 -0.27425034046504659 0 0.47605513413645029 -0.28008102786359129 0 0.4860923945095682 -0.29520986964724988 0 0.50000000000000222 -0.27425034046504659 0 0.4860923945095682 -0.29520986964724988 0 0.4860923945095682 -0.29520986964724988 0 0.5 -0.307151228172029 0 0.47218478901913252 -0.31616939882945228 0 0.5 -0.307151228172029 0 0.47500442815187882 -0.33618410333150461 0 0.5 -0.35237408365171952 0 0.5 -0.307151228172029 0 0.47500442815187882 -0.33618410333150461 0 0.47218478901913252 -0.31616939882945228 0 0.47500442815187882 -0.33618410333150461 0 0.5 -0.35237408365171952 0 0.46252966193221051 -0.36479181955861489 0 0.5 -0.35237408365171952 0 0.46252966193221051 -0.36479181955861489 0 0.4680243894331878 -0.39009447735167219 0 0.46252966193221051 -0.36479181955861489 0 0.44439653888602387 -0.37108278870097211 0 0.45518384933885458 -0.37953704158418422 0 0.46252966193221051 -0.36479181955861489 0 0.4490308344886651 -0.35295870566956811 0 0.45703493443123322 -0.33948916176555749 0 0.47500442815187882 -0.33618410333150461 0 0.46252966193221051 -0.36479181955861489 0 0.45703493443123322 -0.33948916176555749 0 0.46252966193221051 -0.36479181955861489 0 0.45703493443123322 -0.33948916176555749 0 0.4490308344886651 -0.35295870566956811 0 0.44439653888602387 -0.37108278870097211 0 0.43547581015886039 -0.35374612963373181 0 0.44432011104097457 -0.34600420025309703 0 0.4490308344886651 -0.35295870566956811 0 0.45042795048268808 -0.34263813410543531 0 0.4490308344886651 -0.35295870566956811 0 0.45703493443123322 -0.33948916176555749 0 0.45042795048268808 -0.34263813410543531 0 0.44432011104097457 -0.34600420025309703 0 0.4490308344886651 -0.35295870566956811 0 0.43547581015886039 -0.35374612963373181 0 0.44432011104097457 -0.34600420025309703 0 0.43877314986606192 -0.33818418946214152 0 0.43547581015886039 -0.35374612963373181 0 0.46252966193221051 -0.36479181955861489 0 0.4490308344886651 -0.35295870566956811 0 0.44439653888602387 -0.37108278870097211 0 0.47218478901913252 -0.31616939882945228 0 0.45845081404400378 -0.32484725803309861 0 0.45088585771739531 -0.31517042999936162 0 0.47218478901913252 -0.31616939882945228 0 0.45845081404400378 -0.32484725803309861 0 0.45827718352869679 -0.33712892801165451 0 0.47218478901913252 -0.31616939882945228 0 0.45827718352869679 -0.33712892801165451 0 0.45845081404400378 -0.32484725803309861 0 0.45465012105844921 -0.33200612518688721 0 0.44755831468875862 -0.32470483606049327 0 0.47500442815187882 -0.33618410333150461 0 0.45703493443123322 -0.33948916176555749 0 0.45827718352869679 -0.33712892801165451 0 0.47500442815187882 -0.33618410333150461 0 0.47218478901913252 -0.31616939882945228 0 0.45827718352869679 -0.33712892801165451 0 0.45703493443123322 -0.33948916176555749 0 0.4547926195999189 -0.33699511694280199 0 0.45042795048268808 -0.34263813410543531 0 0.45703493443123322 -0.33948916176555749 0 0.45827718352869679 -0.33712892801165451 0 0.4547926195999189 -0.33699511694280199 0 0.45845081404400378 -0.32484725803309861 0 0.45827718352869679 -0.33712892801165451 0 0.45465012105844921 -0.33200612518688721 0 0.4547926195999189 -0.33699511694280199 0 0.45465012105844921 -0.33200612518688721 0 0.45190540097192972 -0.33615439765103378 0 0.45827718352869679 -0.33712892801165451 0 0.4547926195999189 -0.33699511694280199 0 0.45465012105844921 -0.33200612518688721 0 0.45465012105844921 -0.33200612518688721 0 0.44749393872662357 -0.33307274595813069 0 0.44755831468875862 -0.32470483606049327 0 0.45465012105844921 -0.33200612518688721 0 0.44749393872662357 -0.33307274595813069 0 0.45190540097192972 -0.33615439765103378 0 0.4547926195999189 -0.33699511694280199 0 0.45042795048268808 -0.34263813410543531 0 0.45190540097192972 -0.33615439765103378 0 0.45042795048268808 -0.34263813410543531 0 0.45190540097192972 -0.33615439765103378 0 0.44691761172297523 -0.33872250108465612 0 0.44749393872662357 -0.33307274595813069 0 0.45190540097192972 -0.33615439765103378 0 0.44691761172297523 -0.33872250108465612 0 0.44432011104097457 -0.34600420025309703 0 0.45042795048268808 -0.34263813410543531 0 0.44691761172297523 -0.33872250108465612 0 0.44432011104097457 -0.34600420025309703 0 0.44691761172297523 -0.33872250108465612 0 0.43877314986606192 -0.33818418946214152 0 0.44749393872662357 -0.33307274595813069 0 0.44691761172297523 -0.33872250108465612 0 0.43877314986606192 -0.33818418946214152 0 0.44749393872662357 -0.33307274595813069 0 0.43877314986606192 -0.33818418946214152 0 0.43784837531542259 -0.32788377361433518 0 0.44749393872662357 -0.33307274595813069 0 0.43784837531542259 -0.32788377361433518 0 0.44755831468875862 -0.32470483606049327 0 0.43784837531542259 -0.32788377361433518 0 0.44755831468875862 -0.32470483606049327 0 0.43602078127065758 -0.31524868357114688 0 0.45845081404400378 -0.32484725803309861 0 0.44755831468875862 -0.32470483606049327 0 0.45088585771739531 -0.31517042999936162 0 0.44755831468875862 -0.32470483606049327 0 0.45088585771739531 -0.31517042999936162 0 0.43602078127065758 -0.31524868357114688 0 0.43784837531542259 -0.32788377361433518 0 0.42583518759170652 -0.33528639298719382 0 0.41775460495295358 -0.31793141321765611 0 0.43784837531542259 -0.32788377361433518 0 0.43602078127065758 -0.31524868357114688 0 0.41775460495295358 -0.31793141321765611 0 0.43877314986606192 -0.33818418946214152 0 0.43784837531542259 -0.32788377361433518 0 0.42583518759170652 -0.33528639298719382 0 0.43877314986606192 -0.33818418946214152 0 0.42583518759170652 -0.33528639298719382 0 0.43547581015886039 -0.35374612963373181 0 0.41250416259223432 -0.33960725990233392 0 0.41775460495295358 -0.31793141321765611 0 0.39805431729583179 -0.33510365622952631 0 0.41250416259223432 -0.33960725990233392 0 0.41775460495295358 -0.31793141321765611 0 0.42583518759170652 -0.33528639298719382 0 0.41250416259223432 -0.33960725990233392 0 0.41775460495295358 -0.31793141321765611 0 0.42583518759170652 -0.33528639298719382 0 0.41250416259223432 -0.33960725990233392 0 0.42034794007649889 -0.35298104146800569 0 0.43547581015886039 -0.35374612963373181 0 0.42034794007649889 -0.35298104146800569 0 0.42578668388574042 -0.37577956855813549 0 0.44439653888602387 -0.37108278870097211 0 0.43547581015886039 -0.35374612963373181 0 0.42578668388574042 -0.37577956855813549 0 0.42583518759170652 -0.33528639298719382 0 0.43547581015886039 -0.35374612963373181 0 0.42034794007649889 -0.35298104146800569 0 0.41250416259223432 -0.33960725990233392 0 0.42034794007649889 -0.35298104146800569 0 0.40725372023151529 -0.36128310658701179 0 0.41250416259223432 -0.33960725990233392 0 0.40725372023151529 -0.36128310658701179 0 0.40725372023151529 -0.36128310658701179 0 0.42578668388574042 -0.37577956855813549 0 0.40193856510946419 -0.3832261124550107 0 0.40725372023151529 -0.36128310658701179 0 0.42578668388574042 -0.37577956855813549 0 0.42034794007649889 -0.35298104146800569 0 0.40725372023151529 -0.36128310658701179 0 0.42578668388574042 -0.37577956855813549 0 0.40725372023151529 -0.36128310658701179 0 0.39425043507280438 -0.36432915978129837 0 0.40193856510946419 -0.3832261124550107 0 0.40725372023151529 -0.36128310658701179 0 0.40193856510946419 -0.3832261124550107 0 0.39425043507280438 -0.36432915978129837 0 0.38081427771294768 -0.36737052156009248 0 0.40193856510946419 -0.3832261124550107 0 0.40725372023151529 -0.36128310658701179 0 0.38699517723729038 -0.34543689852307891 0 0.39805431729583179 -0.33510365622952631 0 0.40725372023151529 -0.36128310658701179 0 0.39425043507280438 -0.36432915978129837 0 0.38699517723729038 -0.34543689852307891 0 0.40725372023151529 -0.36128310658701179 0 0.38699517723729038 -0.34543689852307891 0 0.41250416259223432 -0.33960725990233392 0 0.40725372023151529 -0.36128310658701179 0 0.39805431729583179 -0.33510365622952631 0 0.38699517723729038 -0.34543689852307891 0 0.38081427771294768 -0.36737052156009248 0 0.37640125955739012 -0.35149107478397351 0 0.38465179156333151 -0.34360390505586791 0 0.36805061276354478 -0.3427907498460791 0 0.39425043507280438 -0.36432915978129837 0 0.38699517723729038 -0.34543689852307891 0 0.38081427771294768 -0.36737052156009248 0 0.38699517723729038 -0.34543689852307891 0 0.37640125955739012 -0.35149107478397351 0 0.38081427771294768 -0.36737052156009248 0 0.38699517723729038 -0.34543689852307891 0 0.38465179156333151 -0.34360390505586791 0 0.38699517723729038 -0.34543689852307891 0 0.37640125955739012 -0.35149107478397351 0 0.38465179156333151 -0.34360390505586791 0 0.41775460495295358 -0.31793141321765611 0 0.39401776620237461 -0.32051644503610022 0 0.39805431729583179 -0.33510365622952631 0 0.38699517723729038 -0.34543689852307891 0 0.39401776620237461 -0.32051644503610022 0 0.39805431729583179 -0.33510365622952631 0 0.38699517723729038 -0.34543689852307891 0 0.39401776620237461 -0.32051644503610022 0 0.38465179156333151 -0.34360390505586791 0 0.37858644206980091 -0.32769985780377792 0 0.36805061276354478 -0.3427907498460791 0 0.38699517723729038 -0.34543689852307891 0 0.39401776620237461 -0.32051644503610022 0 0.38465179156333151 -0.34360390505586791 0 0.39401776620237461 -0.32051644503610022 0 0.38465179156333151 -0.34360390505586791 0 0.37858644206980091 -0.32769985780377792 0 0.39401776620237461 -0.32051644503610022 0 0.37858644206980091 -0.32769985780377792 0 0.37861767820969228 -0.30691821554646831 0 0.41775460495295358 -0.31793141321765611 0 0.39401776620237461 -0.32051644503610022 0 0.40104035516745928 -0.29559599154912142 0 0.39401776620237461 -0.32051644503610022 0 0.37861767820969228 -0.30691821554646831 0 0.40104035516745928 -0.29559599154912142 0 0.39401776620237461 -0.32051644503610022 0 0.40104035516745928 -0.29559599154912142 0 0.40104035516745928 -0.29559599154912142 0 0.38498320530945151 -0.287592927137584 0 0.39655653748852282 -0.27284147297554762 0 0.38498320530945151 -0.287592927137584 0 0.37764450162479901 -0.26965755496232408 0 0.36873774536035581 -0.28861226174546889 0 0.37861767820969228 -0.30691821554646831 0 0.40104035516745928 -0.29559599154912142 0 0.38498320530945151 -0.287592927137584 0 0.37861767820969228 -0.30691821554646831 0 0.38498320530945151 -0.287592927137584 0 0.36873774536035581 -0.28861226174546889 0 0.38498320530945151 -0.287592927137584 0 0.37764450162479901 -0.26965755496232408 0 0.39655653748852282 -0.27284147297554762 0 0.39206528024080278 -0.24921397013056479 0 0.37764450162479901 -0.26965755496232408 0 0.39655653748852282 -0.27284147297554762 0 0.39206528024080278 -0.24921397013056479 0 0.37764450162479901 -0.26965755496232408 0 0.37510228513818711 -0.25237727586059511 0 0.39206528024080278 -0.24921397013056479 0 0.39655653748852282 -0.27284147297554762 0 0.40884184876520419 -0.25890250189124958 0 0.40104035516745928 -0.29559599154912142 0 0.39655653748852282 -0.27284147297554762 0 0.4136044294752057 -0.2739163227279473 0 0.39655653748852282 -0.27284147297554762 0 0.4136044294752057 -0.2739163227279473 0 0.40884184876520419 -0.25890250189124958 0 0.4148006158986044 -0.24103970595398019 0 0.40884184876520419 -0.25890250189124958 0 0.42892204251950339 -0.2594807324876427 0 0.4136044294752057 -0.2739163227279473 0 0.40884184876520419 -0.25890250189124958 0 0.42892204251950339 -0.2594807324876427 0 0.4136044294752057 -0.2739163227279473 0 0.42892204251950339 -0.2594807324876427 0 0.42611848489587972 -0.28658767974219163 0 0.44355941821905998 -0.27577600561597132 0 0.42892204251950339 -0.2594807324876427 0 0.42611848489587972 -0.28658767974219163 0 0.44743457629936911 -0.29125199491084608 0 0.42611848489587972 -0.28658767974219163 0 0.43686388954492023 -0.30206384222820981 0 0.43602078127065758 -0.31524868357114688 0 0.41775460495295358 -0.31793141321765611 0 0.42179240152309172 -0.30222108271158582 0 0.42611848489587972 -0.28658767974219163 0 0.43686388954492023 -0.30206384222820981 0 0.42179240152309172 -0.30222108271158582 0 0.43602078127065758 -0.31524868357114688 0 0.43686388954492023 -0.30206384222820981 0 0.42179240152309172 -0.30222108271158582 0 0.41775460495295358 -0.31793141321765611 0 0.40104035516745928 -0.29559599154912142 0 0.42179240152309172 -0.30222108271158582 0 0.40104035516745928 -0.29559599154912142 0 0.4136044294752057 -0.2739163227279473 0 0.42611848489587972 -0.28658767974219163 0 0.40104035516745928 -0.29559599154912142 0 0.42611848489587972 -0.28658767974219163 0 0.42179240152309172 -0.30222108271158582 0 0.5 -0.5 0 0.478892924595126 -0.45923392689990328 0 0.5 -0.41454166856117469 0 0.5 -0.5 0 0.47943423265092072 -0.49342116463239621 0 0.40014079662082208 -0.5 0 0.43983937115661631 -0.46972557693384148 0 0.47943423265092072 -0.49342116463239621 0 0.40014079662082208 -0.5 0 0.43983937115661631 -0.46972557693384148 0 0.46715606132834708 -0.47012790102379598 0 0.47943423265092072 -0.49342116463239621 0 0.5 -0.5 0 0.47943423265092072 -0.49342116463239621 0 0.478892924595126 -0.45923392689990328 0 0.46715606132834708 -0.47012790102379598 0 0.47943423265092072 -0.49342116463239621 0 0.478892924595126 -0.45923392689990328 0 0.46715606132834708 -0.47012790102379598 0 0.47943423265092072 -0.49342116463239621 0 0.478892924595126 -0.45923392689990328 0 0.45487789000577361 -0.44683463741519602 0 0.47188936358571532 -0.4304781897668572 0 0.46715606132834708 -0.47012790102379598 0 0.45487789000577361 -0.44683463741519602 0 0.46715606132834708 -0.47012790102379598 0 0.478892924595126 -0.45923392689990328 0 0.45487789000577361 -0.44683463741519602 0 0.43983937115661631 -0.46972557693384148 0 0.46715606132834708 -0.47012790102379598 0 0.45487789000577361 -0.44683463741519602 0 0.43983937115661631 -0.46972557693384148 0 0.45487789000577361 -0.44683463741519602 0 0.43095981599733307 -0.44753658110846528 0 0.45487789000577361 -0.44683463741519602 0 0.43408281430989271 -0.43319973453275151 0 0.43095981599733307 -0.44753658110846528 0 0.45487789000577361 -0.44683463741519602 0 0.44259971868320003 -0.42354137380659601 0 0.45487789000577361 -0.44683463741519602 0 0.44259971868320003 -0.42354137380659601 0 0.43408281430989271 -0.43319973453275151 0 0.45487789000577361 -0.44683463741519602 0 0.44259971868320003 -0.42354137380659601 0 0.45959372781066021 -0.42263882295877442 0 0.44259971868320003 -0.42354137380659601 0 0.45186952978880229 -0.40983589673226128 0 0.45959372781066021 -0.42263882295877442 0 0.44259971868320003 -0.42354137380659601 0 0.45186952978880229 -0.40983589673226128 0 0.44161148704613862 -0.40579593671517361 0 0.44259971868320003 -0.42354137380659601 0 0.44161148704613862 -0.40579593671517361 0 0.43098246877755192 -0.41858878846052949 0 0.45186952978880229 -0.40983589673226128 0 0.45959372781066021 -0.42263882295877442 0 0.46285261119418991 -0.40477249250038388 0 0.45959372781066021 -0.42263882295877442 0 0.4735191169341651 -0.41539713514472942 0 0.46285261119418991 -0.40477249250038388 0 0.45959372781066021 -0.42263882295877442 0 0.47188936358571532 -0.4304781897668572 0 0.4735191169341651 -0.41539713514472942 0 0.45487789000577361 -0.44683463741519602 0 0.45959372781066021 -0.42263882295877442 0 0.47188936358571532 -0.4304781897668572 0 0.5 -0.41454166856117469 0 0.4735191169341651 -0.41539713514472942 0 0.4680243894331878 -0.39009447735167219 0 0.478892924595126 -0.45923392689990328 0 0.47188936358571532 -0.4304781897668572 0 0.5 -0.41454166856117469 0 0.47188936358571532 -0.4304781897668572 0 0.5 -0.41454166856117469 0 0.4735191169341651 -0.41539713514472942 0 0.5 -0.35237408365171952 0 0.5 -0.41454166856117469 0 0.4680243894331878 -0.39009447735167219 0 0.4735191169341651 -0.41539713514472942 0 0.4680243894331878 -0.39009447735167219 0 0.46252966193221051 -0.36479181955861489 0 0.45518384933885458 -0.37953704158418422 0 0.4680243894331878 -0.39009447735167219 0 0.45518384933885458 -0.37953704158418422 0 0.4680243894331878 -0.39009447735167219 0 0.44431964753996511 -0.39027603052925969 0 0.46252966193221051 -0.36479181955861489 0 0.4680243894331878 -0.39009447735167219 0 0.4735191169341651 -0.41539713514472942 0 0.4680243894331878 -0.39009447735167219 0 0.46285261119418991 -0.40477249250038388 0 0.4680243894331878 -0.39009447735167219 0 0.46285261119418991 -0.40477249250038388 0 0.44431964753996511 -0.39027603052925969 0 0.46285261119418991 -0.40477249250038388 0 0.44431964753996511 -0.39027603052925969 0 0.45186952978880229 -0.40983589673226128 0 0.44161148704613862 -0.40579593671517361 0 0.44431964753996511 -0.39027603052925969 0 0.45186952978880229 -0.40983589673226128 0 0.46285261119418991 -0.40477249250038388 0 0.44431964753996511 -0.39027603052925969 0 0.44439653888602387 -0.37108278870097211 0 0.44431964753996511 -0.39027603052925969 0 0.42578668388574042 -0.37577956855813549 0 0.44439653888602387 -0.37108278870097211 0 0.45518384933885458 -0.37953704158418422 0 0.44431964753996511 -0.39027603052925969 0 0.44431964753996511 -0.39027603052925969 0 0.42578668388574042 -0.37577956855813549 0 0.42627525148907153 -0.39512359141131242 0 0.44431964753996511 -0.39027603052925969 0 0.42578668388574042 -0.37577956855813549 0 0.44161148704613862 -0.40579593671517361 0 0.44431964753996511 -0.39027603052925969 0 0.42627525148907153 -0.39512359141131242 0 0.44161148704613862 -0.40579593671517361 0 0.42627525148907153 -0.39512359141131242 0 0.41380476734409732 -0.40903711363024231 0 0.41288573556315727 -0.39366710087554208 0 0.39662340998741341 -0.40516911832300972 0 0.41380476734409732 -0.40903711363024231 0 0.42627525148907153 -0.39512359141131242 0 0.41288573556315727 -0.39366710087554208 0 0.41380476734409732 -0.40903711363024231 0 0.42578668388574042 -0.37577956855813549 0 0.41288573556315727 -0.39366710087554208 0 0.40193856510946419 -0.3832261124550107 0 0.42578668388574042 -0.37577956855813549 0 0.42627525148907153 -0.39512359141131242 0 0.41288573556315727 -0.39366710087554208 0 0.38081427771294768 -0.36737052156009248 0 0.37463337818860382 -0.38930414459710588 0 0.3737028077843495 -0.38742295831448542 0 0.38081427771294768 -0.36737052156009248 0 0.38897026210220897 -0.39170162293651239 0 0.37463337818860382 -0.38930414459710588 0 0.38081427771294768 -0.36737052156009248 0 0.37463337818860382 -0.38930414459710588 0 0.38081427771294768 -0.36737052156009248 0 0.40193856510946419 -0.3832261124550107 0 0.38897026210220897 -0.39170162293651239 0 0.38599804764205609 -0.41227829054531151 0 0.37463337818860382 -0.38930414459710588 0 0.38897026210220897 -0.39170162293651239 0 0.39662340998741341 -0.40516911832300972 0 0.38599804764205609 -0.41227829054531151 0 0.38599804764205609 -0.41227829054531151 0 0.36755341006792419 -0.41442821452601158 0 0.37463337818860382 -0.38930414459710588 0 0.38897026210220897 -0.39170162293651239 0 0.38599804764205609 -0.41227829054531151 0 0.37463337818860382 -0.38930414459710588 0 0.40193856510946419 -0.3832261124550107 0 0.38897026210220897 -0.39170162293651239 0 0.39662340998741341 -0.40516911832300972 0 0.41288573556315727 -0.39366710087554208 0 0.40193856510946419 -0.3832261124550107 0 0.39662340998741341 -0.40516911832300972 0 0.40193856510946419 -0.3832261124550107 0 0.39662340998741341 -0.40516911832300972 0 0.38599804764205609 -0.41227829054531151 0 0.41380476734409732 -0.40903711363024231 0 0.39662340998741341 -0.40516911832300972 0 0.38599804764205609 -0.41227829054531151 0 0.41380476734409732 -0.40903711363024231 0 0.40147331832312588 -0.42054231308375889 0 0.38599804764205609 -0.41227829054531151 0 0.41380476734409732 -0.40903711363024231 0 0.38599804764205609 -0.41227829054531151 0 0.36755341006792419 -0.41442821452601158 0 0.38599804764205609 -0.41227829054531151 0 0.37837193070639508 -0.43074191130029282 0 0.36755341006792419 -0.41442821452601158 0 0.38599804764205609 -0.41227829054531151 0 0.37837193070639508 -0.43074191130029282 0 0.39716653888589531 -0.43485585418744782 0 0.37837193070639508 -0.43074191130029282 0 0.39716653888589531 -0.43485585418744782 0 0.38455236834147782 -0.44235831893697952 0 0.38599804764205609 -0.41227829054531151 0 0.39716653888589531 -0.43485585418744782 0 0.40147331832312588 -0.42054231308375889 0 0.38599804764205609 -0.41227829054531151 0 0.39716653888589531 -0.43485585418744782 0 0.40147331832312588 -0.42054231308375889 0 0.39716653888589531 -0.43485585418744782 0 0.40988830344794153 -0.42850982814637428 0 0.39716653888589531 -0.43485585418744782 0 0.40988830344794153 -0.42850982814637428 0 0.41424956646142452 -0.44145335337101582 0 0.40988830344794153 -0.42850982814637428 0 0.42255857874347952 -0.42798536962106742 0 0.41424956646142452 -0.44145335337101582 0 0.40147331832312588 -0.42054231308375889 0 0.40988830344794153 -0.42850982814637428 0 0.41380476734409732 -0.40903711363024231 0 0.40988830344794153 -0.42850982814637428 0 0.41380476734409732 -0.40903711363024231 0 0.42255857874347952 -0.42798536962106742 0 0.44161148704613862 -0.40579593671517361 0 0.41380476734409732 -0.40903711363024231 0 0.43098246877755192 -0.41858878846052949 0 0.44161148704613862 -0.40579593671517361 0 0.41380476734409732 -0.40903711363024231 0 0.41380476734409732 -0.40903711363024231 0 0.43098246877755192 -0.41858878846052949 0 0.42255857874347952 -0.42798536962106742 0 0.43408281430989271 -0.43319973453275151 0 0.42255857874347952 -0.42798536962106742 0 0.43095981599733307 -0.44753658110846528 0 0.44259971868320003 -0.42354137380659601 0 0.43098246877755192 -0.41858878846052949 0 0.43408281430989271 -0.43319973453275151 0 0.43098246877755192 -0.41858878846052949 0 0.43408281430989271 -0.43319973453275151 0 0.42255857874347952 -0.42798536962106742 0 0.42255857874347952 -0.42798536962106742 0 0.43095981599733307 -0.44753658110846528 0 0.41424956646142452 -0.44145335337101582 0 0.43983937115661631 -0.46972557693384148 0 0.42706067288056998 -0.45966910190407051 0 0.41707216494033877 -0.46659444091922031 0 0.43983937115661631 -0.46972557693384148 0 0.43095981599733307 -0.44753658110846528 0 0.42706067288056998 -0.45966910190407051 0 0.43095981599733307 -0.44753658110846528 0 0.42706067288056998 -0.45966910190407051 0 0.42037133942799187 -0.45481980865475502 0 0.42037133942799187 -0.45481980865475502 0 0.41707216494033877 -0.46659444091922031 0 0.40833503012973449 -0.45743341782958391 0 0.42706067288056998 -0.45966910190407051 0 0.42037133942799187 -0.45481980865475502 0 0.41707216494033877 -0.46659444091922031 0 0.41707216494033877 -0.46659444091922031 0 0.40833503012973449 -0.45743341782958391 0 0.39424227281986102 -0.46676003377889269 0 0.43095981599733307 -0.44753658110846528 0 0.42037133942799187 -0.45481980865475502 0 0.41424956646142452 -0.44145335337101582 0 0.42037133942799187 -0.45481980865475502 0 0.40833503012973449 -0.45743341782958391 0 0.41424956646142452 -0.44145335337101582 0 0.39716653888589531 -0.43485585418744782 0 0.40833503012973449 -0.45743341782958391 0 0.41424956646142452 -0.44145335337101582 0 0.39716653888589531 -0.43485585418744782 0 0.39345157537004599 -0.45057062730194619 0 0.38455236834147782 -0.44235831893697952 0 0.39716653888589531 -0.43485585418744782 0 0.40833503012973449 -0.45743341782958391 0 0.39345157537004599 -0.45057062730194619 0 0.39716653888589531 -0.43485585418744782 0 0.40833503012973449 -0.45743341782958391 0 0.39345157537004599 -0.45057062730194619 0 0.38455236834147782 -0.44235831893697952 0 0.38182359321740972 -0.45292134106576409 0 0.38455236834147782 -0.44235831893697952 0 0.38182359321740972 -0.45292134106576409 0 0.37194820352764257 -0.4427018608294464 0 0.37837193070639508 -0.43074191130029282 0 0.38455236834147782 -0.44235831893697952 0 0.37194820352764257 -0.4427018608294464 0 0.38182359321740972 -0.45292134106576409 0 0.39424227281986102 -0.46676003377889269 0 0.37141238069938332 -0.46692562663856529 0 0.39345157537004599 -0.45057062730194619 0 0.38182359321740972 -0.45292134106576409 0 0.39424227281986102 -0.46676003377889269 0 0.39424227281986102 -0.46676003377889269 0 0.37141238069938332 -0.46692562663856529 0 0.40833503012973449 -0.45743341782958391 0 0.39345157537004599 -0.45057062730194619 0 0.39424227281986102 -0.46676003377889269 0 0.41707216494033877 -0.46659444091922031 0 0.39424227281986102 -0.46676003377889269 0 0.41707216494033877 -0.46659444091922031 0 0.39424227281986102 -0.46676003377889269 0 0.40014079662082208 -0.5 0 0.39424227281986102 -0.46676003377889269 0 0.40014079662082208 -0.5 0 0.37141238069938332 -0.46692562663856529 0 0.43983937115661631 -0.46972557693384148 0 0.41707216494033877 -0.46659444091922031 0 0.40014079662082208 -0.5 0 0.40014079662082208 -0.5 0 0.32546065004022617 -0.5 0 0.3462765218470546 -0.48033279556006703 0 0.32546065004022617 -0.5 0 0.3462765218470546 -0.48033279556006703 0 0.30631021868456298 -0.48072311486568892 0 0.3462765218470546 -0.48033279556006703 0 0.32575259645842791 -0.46725681235791028 0 0.30631021868456298 -0.48072311486568892 0 0.3462765218470546 -0.48033279556006703 0 0.3485824885789055 -0.46709121949823779 0 0.32575259645842791 -0.46725681235791028 0 0.40014079662082208 -0.5 0 0.3462765218470546 -0.48033279556006703 0 0.37141238069938332 -0.46692562663856529 0 0.3462765218470546 -0.48033279556006703 0 0.3485824885789055 -0.46709121949823779 0 0.37141238069938332 -0.46692562663856529 0 0.3485824885789055 -0.46709121949823779 0 0.37141238069938332 -0.46692562663856529 0 0.35324569388809701 -0.44989359131069062 0 0.3485824885789055 -0.46709121949823779 0 0.35324569388809701 -0.44989359131069062 0 0.33806214337105372 -0.45777686618061397 0 0.38182359321740972 -0.45292134106576409 0 0.37141238069938332 -0.46692562663856529 0 0.35324569388809701 -0.44989359131069062 0 0.3485824885789055 -0.46709121949823779 0 0.37141238069938332 -0.46692562663856529 0 0.36060935802898147 -0.43906997082244181 0 0.37194820352764257 -0.4427018608294464 0 0.35324569388809701 -0.44989359131069062 0 0.38182359321740972 -0.45292134106576409 0 0.35324569388809701 -0.44989359131069062 0 0.37837193070639508 -0.43074191130029282 0 0.36060935802898147 -0.43906997082244181 0 0.37194820352764257 -0.4427018608294464 0 0.38182359321740972 -0.45292134106576409 0 0.37194820352764257 -0.4427018608294464 0 0.35324569388809701 -0.44989359131069062 0 0.36060935802898147 -0.43906997082244181 0 0.35324569388809701 -0.44989359131069062 0 0.34315104194743368 -0.43483422324315929 0 0.32466779455878442 -0.44686584155561709 0 0.32761501992215097 -0.43116249501185328 0 0.34315104194743368 -0.43483422324315929 0 0.35324569388809701 -0.44989359131069062 0 0.33806214337105372 -0.45777686618061397 0 0.32466779455878442 -0.44686584155561709 0 0.35324569388809701 -0.44989359131069062 0 0.32466779455878442 -0.44686584155561709 0 0.34315104194743368 -0.43483422324315929 0 0.35324569388809701 -0.44989359131069062 0 0.32466779455878442 -0.44686584155561709 0 0.3485824885789055 -0.46709121949823779 0 0.32575259645842791 -0.46725681235791028 0 0.3485824885789055 -0.46709121949823779 0 0.33806214337105372 -0.45777686618061397 0 0.32575259645842791 -0.46725681235791028 0 0.33806214337105372 -0.45777686618061397 0 0.32575259645842791 -0.46725681235791028 0 0.32466779455878442 -0.44686584155561709 0 0.32575259645842791 -0.46725681235791028 0 0.30904716904302271 -0.45792120175055678 0 0.30631021868456298 -0.48072311486568892 0 0.32575259645842791 -0.46725681235791028 0 0.32466779455878442 -0.44686584155561709 0 0.30904716904302271 -0.45792120175055678 0 0.32466779455878442 -0.44686584155561709 0 0.31800868577585262 -0.43516031519895321 0 0.30735360635596409 -0.43632211706289747 0 0.32466779455878442 -0.44686584155561709 0 0.32761501992215097 -0.43116249501185328 0 0.31800868577585262 -0.43516031519895321 0 0.32761501992215097 -0.43116249501185328 0 0.32339131420283213 -0.41656724990055422 0 0.31239832226651099 -0.42629080716544471 0 0.32761501992215097 -0.43116249501185328 0 0.31800868577585262 -0.43516031519895321 0 0.31239832226651099 -0.42629080716544471 0 0.31800868577585262 -0.43516031519895321 0 0.31239832226651099 -0.42629080716544471 0 0.30735360635596409 -0.43632211706289747 0 0.32339131420283213 -0.41656724990055422 0 0.31120060169272079 -0.4133373498197 0 0.31239832226651099 -0.42629080716544471 0 0.32339131420283213 -0.41656724990055422 0 0.319673984964159 -0.40346676889879052 0 0.31120060169272079 -0.4133373498197 0 0.319673984964159 -0.40346676889879052 0 0.30884060304287331 -0.40229515593698711 0 0.31120060169272079 -0.4133373498197 0 0.32339131420283213 -0.41656724990055422 0 0.33281994217864741 -0.40778505865636938 0 0.319673984964159 -0.40346676889879052 0 0.32761501992215097 -0.43116249501185328 0 0.32339131420283213 -0.41656724990055422 0 0.33796042338316851 -0.41787760036937549 0 0.32339131420283213 -0.41656724990055422 0 0.33281994217864741 -0.40778505865636938 0 0.33796042338316851 -0.41787760036937549 0 0.33281994217864741 -0.40778505865636938 0 0.33796042338316851 -0.41787760036937549 0 0.34601675315157321 -0.40486547886918423 0 0.32761501992215097 -0.43116249501185328 0 0.33796042338316851 -0.41787760036937549 0 0.34315104194743368 -0.43483422324315929 0 0.33796042338316851 -0.41787760036937549 0 0.34315104194743368 -0.43483422324315929 0 0.35231855835687692 -0.42655250224024699 0 0.36060935802898147 -0.43906997082244181 0 0.34315104194743368 -0.43483422324315929 0 0.35231855835687692 -0.42655250224024699 0 0.37837193070639508 -0.43074191130029282 0 0.36060935802898147 -0.43906997082244181 0 0.36755341006792419 -0.41442821452601158 0 0.36060935802898147 -0.43906997082244181 0 0.35231855835687692 -0.42655250224024699 0 0.36755341006792419 -0.41442821452601158 0 0.36060935802898147 -0.43906997082244181 0 0.36755341006792419 -0.41442821452601158 0 0.33796042338316851 -0.41787760036937549 0 0.35231855835687692 -0.42655250224024699 0 0.36755341006792419 -0.41442821452601158 0 0.33796042338316851 -0.41787760036937549 0 0.36755341006792419 -0.41442821452601158 0 0.34601675315157321 -0.40486547886918423 0 0.33796042338316851 -0.41787760036937549 0 0.36755341006792419 -0.41442821452601158 0 0.36755341006792419 -0.41442821452601158 0 0.34601675315157321 -0.40486547886918423 0 0.35566250251704978 -0.3975177511027051 0 0.34601675315157321 -0.40486547886918423 0 0.34667365318154342 -0.39629832909528578 0 0.35566250251704978 -0.3975177511027051 0 0.34667365318154342 -0.39629832909528578 0 0.34795812186604658 -0.38666189116531141 0 0.33705723519150399 -0.3961481952439429 0 0.34667365318154342 -0.39629832909528578 0 0.35566250251704978 -0.3975177511027051 0 0.34795812186604658 -0.38666189116531141 0 0.36755341006792419 -0.41442821452601158 0 0.35566250251704978 -0.3975177511027051 0 0.36706103815962848 -0.39187921332532882 0 0.36755341006792419 -0.41442821452601158 0 0.37463337818860382 -0.38930414459710588 0 0.36755341006792419 -0.41442821452601158 0 0.36706103815962848 -0.39187921332532882 0 0.37463337818860382 -0.38930414459710588 0 0.35566250251704978 -0.3975177511027051 0 0.36706103815962848 -0.39187921332532882 0 0.35924801608749379 -0.38543857686598643 0 0.38081427771294768 -0.36737052156009248 0 0.36848073339739068 -0.37517807712711049 0 0.3737028077843495 -0.38742295831448542 0 0.36848073339739068 -0.37517807712711049 0 0.3737028077843495 -0.38742295831448542 0 0.36599997940964812 -0.38379980358563692 0 0.36706103815962848 -0.39187921332532882 0 0.3737028077843495 -0.38742295831448542 0 0.36599997940964812 -0.38379980358563692 0 0.36706103815962848 -0.39187921332532882 0 0.37463337818860382 -0.38930414459710588 0 0.3737028077843495 -0.38742295831448542 0 0.37463337818860382 -0.38930414459710588 0 0.3737028077843495 -0.38742295831448542 0 0.36706103815962848 -0.39187921332532882 0 0.36599997940964812 -0.38379980358563692 0 0.35924801608749379 -0.38543857686598643 0 0.36599997940964812 -0.38379980358563692 0 0.36207090148421361 -0.37959838259465167 0 0.35924801608749379 -0.38543857686598643 0 0.36848073339739068 -0.37517807712711049 0 0.36599997940964812 -0.38379980358563692 0 0.36207090148421361 -0.37959838259465167 0 0.36848073339739068 -0.37517807712711049 0 0.36207090148421361 -0.37959838259465167 0 0.3554566368260581 -0.37480617727887811 0 0.36207090148421361 -0.37959838259465167 0 0.35924801608749379 -0.38543857686598643 0 0.3554566368260581 -0.37480617727887811 0 0.35924801608749379 -0.38543857686598643 0 0.34795812186604658 -0.38666189116531141 0 0.3554566368260581 -0.37480617727887811 0 0.35566250251704978 -0.3975177511027051 0 0.35924801608749379 -0.38543857686598643 0 0.34795812186604658 -0.38666189116531141 0 0.34795812186604658 -0.38666189116531141 0 0.34537995690420659 -0.3737828605913362 0 0.3554566368260581 -0.37480617727887811 0 0.34795812186604658 -0.38666189116531141 0 0.33323562740676532 -0.37769939737979058 0 0.34537995690420659 -0.3737828605913362 0 0.34795812186604658 -0.38666189116531141 0 0.33323562740676532 -0.37769939737979058 0 0.33705723519150399 -0.3961481952439429 0 0.33323562740676532 -0.37769939737979058 0 0.33705723519150399 -0.3961481952439429 0 0.319673984964159 -0.40346676889879052 0 0.33281994217864741 -0.40778505865636938 0 0.33705723519150399 -0.3961481952439429 0 0.319673984964159 -0.40346676889879052 0 0.33281994217864741 -0.40778505865636938 0 0.34601675315157321 -0.40486547886918423 0 0.33705723519150399 -0.3961481952439429 0 0.34601675315157321 -0.40486547886918423 0 0.34667365318154342 -0.39629832909528578 0 0.33705723519150399 -0.3961481952439429 0 0.33323562740676532 -0.37769939737979058 0 0.319673984964159 -0.40346676889879052 0 0.31422368515007948 -0.393427126581603 0 0.319673984964159 -0.40346676889879052 0 0.31422368515007948 -0.393427126581603 0 0.30884060304287331 -0.40229515593698711 0 0.33323562740676532 -0.37769939737979058 0 0.319673984964159 -0.40346676889879052 0 0.31422368515007948 -0.393427126581603 0 0.30591552541026101 -0.37751124227982003 0 0.32002671755222051 -0.36641101040373808 0 0.33323562740676532 -0.37769939737979058 0 0.31422368515007948 -0.393427126581603 0 0.32002671755222051 -0.36641101040373808 0 0.31422368515007948 -0.393427126581603 0 0.32002671755222051 -0.36641101040373808 0 0.30591552541026101 -0.37751124227982003 0 0.29934269892459558 -0.39453707190143028 0 0.28871394442674109 -0.38265385864092483 0 0.31422368515007948 -0.393427126581603 0 0.30591552541026101 -0.37751124227982003 0 0.29934269892459558 -0.39453707190143028 0 0.31422368515007948 -0.393427126581603 0 0.30884060304287331 -0.40229515593698711 0 0.29934269892459558 -0.39453707190143028 0 0.30884060304287331 -0.40229515593698711 0 0.29934269892459558 -0.39453707190143028 0 0.29896657827583012 -0.40866065312134409 0 0.28871394442674109 -0.38265385864092483 0 0.27786210523133942 -0.40981541802129928 0 0.29934269892459558 -0.39453707190143028 0 0.27786210523133942 -0.40981541802129928 0 0.29896657827583012 -0.40866065312134409 0 0.29934269892459558 -0.39453707190143028 0 0.28871394442674109 -0.38265385864092483 0 0.27786210523133942 -0.40981541802129928 0 0.28871394442674109 -0.38265385864092483 0 0.26416245427686541 -0.38049931320234009 0 0.26125098829365018 -0.39969694482297641 0 0.28871394442674109 -0.38265385864092483 0 0.26416245427686541 -0.38049931320234009 0 0.27571190406721402 -0.36345127203525351 0 0.26416245427686541 -0.38049931320234009 0 0.24971336314328341 -0.36520417674804972 0 0.24502858373403441 -0.39146921073642488 0 0.26416245427686541 -0.38049931320234009 0 0.26125098829365018 -0.39969694482297641 0 0.24502858373403441 -0.39146921073642488 0 0.28871394442674109 -0.38265385864092483 0 0.26125098829365018 -0.39969694482297641 0 0.27786210523133942 -0.40981541802129928 0 0.26125098829365018 -0.39969694482297641 0 0.25610826383841628 -0.42120346698794331 0 0.2333640889907381 -0.41241884790723538 0 0.26125098829365018 -0.39969694482297641 0 0.27786210523133942 -0.40981541802129928 0 0.25610826383841628 -0.42120346698794331 0 0.25610826383841628 -0.42120346698794331 0 0.26701026603593758 -0.43697697740167368 0 0.2518592606704963 -0.43815060111373921 0 0.27786210523133942 -0.40981541802129928 0 0.26701026603593758 -0.43697697740167368 0 0.28078102790119369 -0.4274552938509788 0 0.27786210523133942 -0.40981541802129928 0 0.26701026603593758 -0.43697697740167368 0 0.27786210523133942 -0.40981541802129928 0 0.25610826383841628 -0.42120346698794331 0 0.26701026603593758 -0.43697697740167368 0 0.26701026603593758 -0.43697697740167368 0 0.28078102790119369 -0.4274552938509788 0 0.27712236562531017 -0.4375193999175232 0 0.28078102790119369 -0.4274552938509788 0 0.28865243891263809 -0.43215364344327012 0 0.27712236562531017 -0.4375193999175232 0 0.28865243891263809 -0.43215364344327012 0 0.28959476197880307 -0.44168956347039928 0 0.27712236562531017 -0.4375193999175232 0 0.28865243891263809 -0.43215364344327012 0 0.29503220707493127 -0.43614369036708622 0 0.29829711678041942 -0.42866378264525379 0 0.28865243891263809 -0.43215364344327012 0 0.29503220707493127 -0.43614369036708622 0 0.28959476197880307 -0.44168956347039928 0 0.28865243891263809 -0.43215364344327012 0 0.29108715411517122 -0.42145013040837909 0 0.29829711678041942 -0.42866378264525379 0 0.28078102790119369 -0.4274552938509788 0 0.28865243891263809 -0.43215364344327012 0 0.29108715411517122 -0.42145013040837909 0 0.27786210523133942 -0.40981541802129928 0 0.28078102790119369 -0.4274552938509788 0 0.29108715411517122 -0.42145013040837909 0 0.27786210523133942 -0.40981541802129928 0 0.29108715411517122 -0.42145013040837909 0 0.29896657827583012 -0.40866065312134409 0 0.29108715411517122 -0.42145013040837909 0 0.30377653118007591 -0.4205559058691733 0 0.29896657827583012 -0.40866065312134409 0 0.30377653118007591 -0.4205559058691733 0 0.29896657827583012 -0.40866065312134409 0 0.31120060169272079 -0.4133373498197 0 0.30884060304287331 -0.40229515593698711 0 0.29896657827583012 -0.40866065312134409 0 0.31120060169272079 -0.4133373498197 0 0.30377653118007591 -0.4205559058691733 0 0.31120060169272079 -0.4133373498197 0 0.31239832226651099 -0.42629080716544471 0 0.30377653118007591 -0.4205559058691733 0 0.31239832226651099 -0.42629080716544471 0 0.29829711678041942 -0.42866378264525379 0 0.31239832226651099 -0.42629080716544471 0 0.30735360635596409 -0.43632211706289747 0 0.29829711678041942 -0.42866378264525379 0 0.29503220707493127 -0.43614369036708622 0 0.30735360635596409 -0.43632211706289747 0 0.29829711678041942 -0.42866378264525379 0 0.29108715411517122 -0.42145013040837909 0 0.30377653118007591 -0.4205559058691733 0 0.29829711678041942 -0.42866378264525379 0 0.32466779455878442 -0.44686584155561709 0 0.30904716904302271 -0.45792120175055678 0 0.29608989522947149 -0.44383809180054362 0 0.32466779455878442 -0.44686584155561709 0 0.29608989522947149 -0.44383809180054362 0 0.32466779455878442 -0.44686584155561709 0 0.30735360635596409 -0.43632211706289747 0 0.29608989522947149 -0.44383809180054362 0 0.30904716904302271 -0.45792120175055678 0 0.29860320416278402 -0.45529674645956592 0 0.29608989522947149 -0.44383809180054362 0 0.29503220707493127 -0.43614369036708622 0 0.30735360635596409 -0.43632211706289747 0 0.29608989522947149 -0.44383809180054362 0 0.30904716904302271 -0.45792120175055678 0 0.29721119201091789 -0.46522563712477349 0 0.30631021868456298 -0.48072311486568892 0 0.30904716904302271 -0.45792120175055678 0 0.29721119201091789 -0.46522563712477349 0 0.29860320416278402 -0.45529674645956592 0 0.28932919617959602 -0.45338424297023883 0 0.27756010650442758 -0.45518222858252849 0 0.28072062580449653 -0.47155582870540619 0 0.29721119201091789 -0.46522563712477349 0 0.28932919617959602 -0.45338424297023883 0 0.28072062580449653 -0.47155582870540619 0 0.29721119201091789 -0.46522563712477349 0 0.29860320416278402 -0.45529674645956592 0 0.28932919617959602 -0.45338424297023883 0 0.28932919617959602 -0.45338424297023883 0 0.28959476197880307 -0.44168956347039928 0 0.27756010650442758 -0.45518222858252849 0 0.29860320416278402 -0.45529674645956592 0 0.28932919617959602 -0.45338424297023883 0 0.29608989522947149 -0.44383809180054362 0 0.28932919617959602 -0.45338424297023883 0 0.29608989522947149 -0.44383809180054362 0 0.28959476197880307 -0.44168956347039928 0 0.29503220707493127 -0.43614369036708622 0 0.29608989522947149 -0.44383809180054362 0 0.28959476197880307 -0.44168956347039928 0 0.28959476197880307 -0.44168956347039928 0 0.26138620688844749 -0.44792543592233808 0 0.26701026603593758 -0.43697697740167368 0 0.27712236562531017 -0.4375193999175232 0 0.26138620688844749 -0.44792543592233808 0 0.28959476197880307 -0.44168956347039928 0 0.26138620688844749 -0.44792543592233808 0 0.27756010650442758 -0.45518222858252849 0 0.28959476197880307 -0.44168956347039928 0 0.27712236562531017 -0.4375193999175232 0 0.26138620688844749 -0.44792543592233808 0 0.26701026603593758 -0.43697697740167368 0 0.26138620688844749 -0.44792543592233808 0 0.2518592606704963 -0.43815060111373921 0 0.26138620688844749 -0.44792543592233808 0 0.26339579246569877 -0.46312143350125029 0 0.23317765179809191 -0.45416130837427687 0 0.26138620688844749 -0.44792543592233808 0 0.26339579246569877 -0.46312143350125029 0 0.27756010650442758 -0.45518222858252849 0 0.26339579246569877 -0.46312143350125029 0 0.27756010650442758 -0.45518222858252849 0 0.28072062580449653 -0.47155582870540619 0 0.28072062580449653 -0.47155582870540619 0 0.2532296876789632 -0.47497352743918242 0 0.27004646425256568 -0.5 0 0.26339579246569877 -0.46312143350125029 0 0.28072062580449653 -0.47155582870540619 0 0.2532296876789632 -0.47497352743918242 0 0.32546065004022617 -0.5 0 0.27004646425256568 -0.5 0 0.30631021868456298 -0.48072311486568892 0 0.28072062580449653 -0.47155582870540619 0 0.27004646425256568 -0.5 0 0.30631021868456298 -0.48072311486568892 0 0.29721119201091789 -0.46522563712477349 0 0.28072062580449653 -0.47155582870540619 0 0.30631021868456298 -0.48072311486568892 0 0.33743581475864359 -0.28536266187014298 0 0.3388307833371127 -0.27886836189579028 0 0.34706744656536048 -0.28007479224216619 0 0.33743581475864359 -0.28536266187014298 0 0.3388307833371127 -0.27886836189579028 0 0.33743581475864359 -0.28536266187014298 0 0.33163278235650262 -0.31237877804800812 0 0.33743581475864359 -0.28536266187014298 0 0.33163278235650262 -0.31237877804800812 0 0.34308905326158867 -0.30070827197480321 0 0.33743581475864359 -0.28536266187014298 0 0.33163278235650262 -0.31237877804800812 0 0.32364365619397351 -0.29600562892690968 0 0.33163278235650262 -0.31237877804800812 0 0.32364365619397351 -0.29600562892690968 0 0.30954970221622308 -0.30462347215273478 0 0.31296692944630888 -0.29314018565426941 0 0.32364365619397351 -0.29600562892690968 0 0.30954970221622308 -0.30462347215273478 0 0.31296692944630888 -0.29314018565426941 0 0.32364365619397351 -0.29600562892690968 0 0.31569414790308259 -0.28159305760617132 0 0.33743581475864359 -0.28536266187014298 0 0.32364365619397351 -0.29600562892690968 0 0.31569414790308259 -0.28159305760617132 0 0.33743581475864359 -0.28536266187014298 0 0.31569414790308259 -0.28159305760617132 0 0.33743581475864359 -0.28536266187014298 0 0.31569414790308259 -0.28159305760617132 0 0.32852563272885182 -0.27784073863383552 0 0.31569414790308259 -0.28159305760617132 0 0.31275786215232049 -0.27168837282467972 0 0.32066228436037369 -0.27402337931129878 0 0.31275786215232049 -0.27168837282467972 0 0.32001527731196461 -0.26686042829596718 0 0.31054181011664339 -0.26140137874582919 0 0.31275786215232049 -0.27168837282467972 0 0.32001527731196461 -0.26686042829596718 0 0.32066228436037369 -0.27402337931129878 0 0.32001527731196461 -0.26686042829596718 0 0.32631850170564902 -0.27213429919584042 0 0.32066228436037369 -0.27402337931129878 0 0.32001527731196461 -0.26686042829596718 0 0.32631850170564902 -0.27213429919584042 0 0.32861545200372733 -0.26431566092564712 0 0.32631850170564902 -0.27213429919584042 0 0.32066228436037369 -0.27402337931129878 0 0.32852563272885182 -0.27784073863383552 0 0.31569414790308259 -0.28159305760617132 0 0.32066228436037369 -0.27402337931129878 0 0.32852563272885182 -0.27784073863383552 0 0.30517917142926537 -0.24716040808135001 0 0.322544075342931 -0.25649048942400782 0 0.31054181011664339 -0.26140137874582919 0 0.32001527731196461 -0.26686042829596718 0 0.322544075342931 -0.25649048942400782 0 0.31054181011664339 -0.26140137874582919 0 0.32001527731196461 -0.26686042829596718 0 0.322544075342931 -0.25649048942400782 0 0.32861545200372733 -0.26431566092564712 0 0.322544075342931 -0.25649048942400782 0 0.32861545200372733 -0.26431566092564712 0 0.33700232267718733 -0.25494009872172468 0 0.32861545200372733 -0.26431566092564712 0 0.33700232267718733 -0.25494009872172468 0 0.3370936559567923 -0.26597622971595652 0 0.33700232267718733 -0.25494009872172468 0 0.3370936559567923 -0.26597622971595652 0 0.34612034525793539 -0.26165354425485998 0 0.32852563272885182 -0.27784073863383552 0 0.33374486488877292 -0.2728357791174113 0 0.3388307833371127 -0.27886836189579028 0 0.33743581475864359 -0.28536266187014298 0 0.32852563272885182 -0.27784073863383552 0 0.3388307833371127 -0.27886836189579028 0 0.32631850170564902 -0.27213429919584042 0 0.32852563272885182 -0.27784073863383552 0 0.33374486488877292 -0.2728357791174113 0 0.32631850170564902 -0.27213429919584042 0 0.32861545200372733 -0.26431566092564712 0 0.33374486488877292 -0.2728357791174113 0 0.32861545200372733 -0.26431566092564712 0 0.33374486488877292 -0.2728357791174113 0 0.3370936559567923 -0.26597622971595652 0 0.34349817463331772 -0.27223575233246988 0 0.3370936559567923 -0.26597622971595652 0 0.34612034525793539 -0.26165354425485998 0 0.33374486488877292 -0.2728357791174113 0 0.34349817463331772 -0.27223575233246988 0 0.3370936559567923 -0.26597622971595652 0 0.33374486488877292 -0.2728357791174113 0 0.34349817463331772 -0.27223575233246988 0 0.3388307833371127 -0.27886836189579028 0 0.34349817463331772 -0.27223575233246988 0 0.3388307833371127 -0.27886836189579028 0 0.34706744656536048 -0.28007479224216619 0 0.34349817463331772 -0.27223575233246988 0 0.34706744656536048 -0.28007479224216619 0 0.35711558672006172 -0.27354793744083078 0 0.34349817463331772 -0.27223575233246988 0 0.35711558672006172 -0.27354793744083078 0 0.34612034525793539 -0.26165354425485998 0 0.34706744656536048 -0.28007479224216619 0 0.35711558672006172 -0.27354793744083078 0 0.35357832102308678 -0.28816147489813743 0 0.35007299243335749 -0.24785688602667111 0 0.33700232267718733 -0.25494009872172468 0 0.34612034525793539 -0.26165354425485998 0 0.35711558672006172 -0.27354793744083078 0 0.34612034525793539 -0.26165354425485998 0 0.36124693131331159 -0.25807728632712912 0 0.35007299243335749 -0.24785688602667111 0 0.34612034525793539 -0.26165354425485998 0 0.36124693131331159 -0.25807728632712912 0 0.37764450162479901 -0.26965755496232408 0 0.37510228513818711 -0.25237727586059511 0 0.36124693131331159 -0.25807728632712912 0 0.36225179838031341 -0.2439392928582107 0 0.37510228513818711 -0.25237727586059511 0 0.36124693131331159 -0.25807728632712912 0 0.37764450162479901 -0.26965755496232408 0 0.35711558672006172 -0.27354793744083078 0 0.36124693131331159 -0.25807728632712912 0 0.37764450162479901 -0.26965755496232408 0 0.35711558672006172 -0.27354793744083078 0 0.36873774536035581 -0.28861226174546889 0 0.36873774536035581 -0.28861226174546889 0 0.35357832102308678 -0.28816147489813743 0 0.36087634202934032 -0.30211297570133377 0 0.35711558672006172 -0.27354793744083078 0 0.36873774536035581 -0.28861226174546889 0 0.35357832102308678 -0.28816147489813743 0 0.33743581475864359 -0.28536266187014298 0 0.35357832102308678 -0.28816147489813743 0 0.33743581475864359 -0.28536266187014298 0 0.34706744656536048 -0.28007479224216619 0 0.35357832102308678 -0.28816147489813743 0 0.33743581475864359 -0.28536266187014298 0 0.34308905326158867 -0.30070827197480321 0 0.35357832102308678 -0.28816147489813743 0 0.34308905326158867 -0.30070827197480321 0 0.36087634202934032 -0.30211297570133377 0 0.3603589122919777 -0.32616465434179109 0 0.34308905326158867 -0.30070827197480321 0 0.35357832102308678 -0.28816147489813743 0 0.36087634202934032 -0.30211297570133377 0 0.37861767820969228 -0.30691821554646831 0 0.36873774536035581 -0.28861226174546889 0 0.36087634202934032 -0.30211297570133377 0 0.37861767820969228 -0.30691821554646831 0 0.36087634202934032 -0.30211297570133377 0 0.3603589122919777 -0.32616465434179109 0 0.37858644206980091 -0.32769985780377792 0 0.37861767820969228 -0.30691821554646831 0 0.3603589122919777 -0.32616465434179109 0 0.37858644206980091 -0.32769985780377792 0 0.3603589122919777 -0.32616465434179109 0 0.36805061276354478 -0.3427907498460791 0 0.3603589122919777 -0.32616465434179109 0 0.34679726984937148 -0.35193202586079081 0 0.3603589122919777 -0.32616465434179109 0 0.34679726984937148 -0.35193202586079081 0 0.3423644242317993 -0.33453707324987059 0 0.3603589122919777 -0.32616465434179109 0 0.36805061276354478 -0.3427907498460791 0 0.34679726984937148 -0.35193202586079081 0 0.33163278235650262 -0.31237877804800812 0 0.34308905326158867 -0.30070827197480321 0 0.3603589122919777 -0.32616465434179109 0 0.33163278235650262 -0.31237877804800812 0 0.3603589122919777 -0.32616465434179109 0 0.3423644242317993 -0.33453707324987059 0 0.37640125955739012 -0.35149107478397351 0 0.38081427771294768 -0.36737052156009248 0 0.36600013168445039 -0.36059477107615401 0 0.36848073339739068 -0.37517807712711049 0 0.36600013168445039 -0.36059477107615401 0 0.3554566368260581 -0.37480617727887811 0 0.38081427771294768 -0.36737052156009248 0 0.36848073339739068 -0.37517807712711049 0 0.36600013168445039 -0.36059477107615401 0 0.36805061276354478 -0.3427907498460791 0 0.36600013168445039 -0.36059477107615401 0 0.34679726984937148 -0.35193202586079081 0 0.37640125955739012 -0.35149107478397351 0 0.36805061276354478 -0.3427907498460791 0 0.36600013168445039 -0.36059477107615401 0 0.36600013168445039 -0.36059477107615401 0 0.34679726984937148 -0.35193202586079081 0 0.3554566368260581 -0.37480617727887811 0 0.34679726984937148 -0.35193202586079081 0 0.34537995690420659 -0.3737828605913362 0 0.3554566368260581 -0.37480617727887811 0 0.33323562740676532 -0.37769939737979058 0 0.33171275220581908 -0.35441984147836231 0 0.32002671755222051 -0.36641101040373808 0 0.33323562740676532 -0.37769939737979058 0 0.34679726984937148 -0.35193202586079081 0 0.33323562740676532 -0.37769939737979058 0 0.34679726984937148 -0.35193202586079081 0 0.34537995690420659 -0.3737828605913362 0 0.33323562740676532 -0.37769939737979058 0 0.34679726984937148 -0.35193202586079081 0 0.33171275220581908 -0.35441984147836231 0 0.34679726984937148 -0.35193202586079081 0 0.33171275220581908 -0.35441984147836231 0 0.3423644242317993 -0.33453707324987059 0 0.33171275220581908 -0.35441984147836231 0 0.32002671755222051 -0.36641101040373808 0 0.32582974995436148 -0.33939489422587321 0 0.32002671755222051 -0.36641101040373808 0 0.32582974995436148 -0.33939489422587321 0 0.31500009593534162 -0.35119999692538878 0 0.32002671755222051 -0.36641101040373808 0 0.32582974995436148 -0.33939489422587321 0 0.33163278235650262 -0.31237877804800812 0 0.32582974995436148 -0.33939489422587321 0 0.33163278235650262 -0.31237877804800812 0 0.3423644242317993 -0.33453707324987059 0 0.32582974995436148 -0.33939489422587321 0 0.33171275220581908 -0.35441984147836231 0 0.3423644242317993 -0.33453707324987059 0 0.32582974995436148 -0.33939489422587321 0 0.31500009593534162 -0.35119999692538878 0 0.32582974995436148 -0.33939489422587321 0 0.31041762281754448 -0.32833073988017608 0 0.33163278235650262 -0.31237877804800812 0 0.32582974995436148 -0.33939489422587321 0 0.31041762281754448 -0.32833073988017608 0 0.33163278235650262 -0.31237877804800812 0 0.31041762281754448 -0.32833073988017608 0 0.30954970221622308 -0.30462347215273478 0 0.31041762281754448 -0.32833073988017608 0 0.29592063247569211 -0.31558436997640987 0 0.30954970221622308 -0.30462347215273478 0 0.31041762281754448 -0.32833073988017608 0 0.29132656616613523 -0.33188180257029998 0 0.29592063247569211 -0.31558436997640987 0 0.31041762281754448 -0.32833073988017608 0 0.29132656616613523 -0.33188180257029998 0 0.29956578362214281 -0.35549229926055048 0 0.31041762281754448 -0.32833073988017608 0 0.29956578362214281 -0.35549229926055048 0 0.29132656616613523 -0.33188180257029998 0 0.28219501787468609 -0.34702129220438421 0 0.27282035448602859 -0.33554085100614839 0 0.29132656616613523 -0.33188180257029998 0 0.29592063247569211 -0.31558436997640987 0 0.27986439667319313 -0.31630171845149863 0 0.29132656616613523 -0.33188180257029998 0 0.27986439667319313 -0.31630171845149863 0 0.27282035448602859 -0.33554085100614839 0 0.30591552541026101 -0.37751124227982003 0 0.28871394442674109 -0.38265385864092483 0 0.29956578362214281 -0.35549229926055048 0 0.30591552541026101 -0.37751124227982003 0 0.32002671755222051 -0.36641101040373808 0 0.29956578362214281 -0.35549229926055048 0 0.31500009593534162 -0.35119999692538878 0 0.32002671755222051 -0.36641101040373808 0 0.29956578362214281 -0.35549229926055048 0 0.31500009593534162 -0.35119999692538878 0 0.31041762281754448 -0.32833073988017608 0 0.29956578362214281 -0.35549229926055048 0 0.29956578362214281 -0.35549229926055048 0 0.28219501787468609 -0.34702129220438421 0 0.27571190406721402 -0.36345127203525351 0 0.29132656616613523 -0.33188180257029998 0 0.29956578362214281 -0.35549229926055048 0 0.28219501787468609 -0.34702129220438421 0 0.28871394442674109 -0.38265385864092483 0 0.29956578362214281 -0.35549229926055048 0 0.27571190406721402 -0.36345127203525351 0 0.28871394442674109 -0.38265385864092483 0 0.29956578362214281 -0.35549229926055048 0 0.28219501787468609 -0.34702129220438421 0 0.27571190406721402 -0.36345127203525351 0 0.2669677564247489 -0.35003134695070198 0 0.28219501787468609 -0.34702129220438421 0 0.2669677564247489 -0.35003134695070198 0 0.27282035448602859 -0.33554085100614839 0 0.2669677564247489 -0.35003134695070198 0 0.2543981425525324 -0.33893914275967452 0 0.24971336314328341 -0.36520417674804972 0 0.2543981425525324 -0.33893914275967452 0 0.24971336314328341 -0.36520417674804972 0 0.26416245427686541 -0.38049931320234009 0 0.27571190406721402 -0.36345127203525351 0 0.24971336314328341 -0.36520417674804972 0 0.27571190406721402 -0.36345127203525351 0 0.2669677564247489 -0.35003134695070198 0 0.24971336314328341 -0.36520417674804972 0 0.27986439667319313 -0.31630171845149863 0 0.27282035448602859 -0.33554085100614839 0 0.27986439667319313 -0.31630171845149863 0 0.27282035448602859 -0.33554085100614839 0 0.2590829219617814 -0.31267410877129931 0 0.2669677564247489 -0.35003134695070198 0 0.27282035448602859 -0.33554085100614839 0 0.2543981425525324 -0.33893914275967452 0 0.27282035448602859 -0.33554085100614839 0 0.2543981425525324 -0.33893914275967452 0 0.2590829219617814 -0.31267410877129931 0 0.2543981425525324 -0.33893914275967452 0 0.2590829219617814 -0.31267410877129931 0 0.24087195768162309 -0.32614810142562012 0 0.2543981425525324 -0.33893914275967452 0 0.2590829219617814 -0.31267410877129931 0 0.2590829219617814 -0.31267410877129931 0 0.26376770137103039 -0.2864090747829241 0 0.27385105082646688 -0.29718155094811333 0 0.2590829219617814 -0.31267410877129931 0 0.26376770137103039 -0.2864090747829241 0 0.24821325608307901 -0.29522124281265988 0 0.2590829219617814 -0.31267410877129931 0 0.26376770137103039 -0.2864090747829241 0 0.26376770137103039 -0.2864090747829241 0 0.24785603391849151 -0.27709942466880599 0 0.24821325608307901 -0.29522124281265988 0 0.26376770137103039 -0.2864090747829241 0 0.27275834958840189 -0.28372268528309152 0 0.2724225943816766 -0.27409056785933389 0 0.26376770137103039 -0.2864090747829241 0 0.27275834958840189 -0.28372268528309152 0 0.27385105082646688 -0.29718155094811333 0 0.28072449650403741 -0.28691913250301798 0 0.27385105082646688 -0.29718155094811333 0 0.2869084388603575 -0.29706258589684881 0 0.27275834958840189 -0.28372268528309152 0 0.28072449650403741 -0.28691913250301798 0 0.27385105082646688 -0.29718155094811333 0 0.27275834958840189 -0.28372268528309152 0 0.28072449650403741 -0.28691913250301798 0 0.27996448038040939 -0.28063895974691061 0 0.27986439667319313 -0.31630171845149863 0 0.2590829219617814 -0.31267410877129931 0 0.27385105082646688 -0.29718155094811333 0 0.27986439667319313 -0.31630171845149863 0 0.27385105082646688 -0.29718155094811333 0 0.2869084388603575 -0.29706258589684881 0 0.27986439667319313 -0.31630171845149863 0 0.2869084388603575 -0.29706258589684881 0 0.29592063247569211 -0.31558436997640987 0 0.27986439667319313 -0.31630171845149863 0 0.2869084388603575 -0.29706258589684881 0 0.2869084388603575 -0.29706258589684881 0 0.30298021147195658 -0.29033858393126172 0 0.29395248104752192 -0.27782345334219888 0 0.28072449650403741 -0.28691913250301798 0 0.2869084388603575 -0.29706258589684881 0 0.29395248104752192 -0.27782345334219888 0 0.2869084388603575 -0.29706258589684881 0 0.29395248104752192 -0.27782345334219888 0 0.28072449650403741 -0.28691913250301798 0 0.29395248104752192 -0.27782345334219888 0 0.27996448038040939 -0.28063895974691061 0 0.31569414790308259 -0.28159305760617132 0 0.30298021147195658 -0.29033858393126172 0 0.29395248104752192 -0.27782345334219888 0 0.31296692944630888 -0.29314018565426941 0 0.31569414790308259 -0.28159305760617132 0 0.30298021147195658 -0.29033858393126172 0 0.31296692944630888 -0.29314018565426941 0 0.30298021147195658 -0.29033858393126172 0 0.30954970221622308 -0.30462347215273478 0 0.2869084388603575 -0.29706258589684881 0 0.30298021147195658 -0.29033858393126172 0 0.30954970221622308 -0.30462347215273478 0 0.29592063247569211 -0.31558436997640987 0 0.2869084388603575 -0.29706258589684881 0 0.30954970221622308 -0.30462347215273478 0 0.30517917142926537 -0.24716040808135001 0 0.31054181011664339 -0.26140137874582919 0 0.2976408850071105 -0.26774945168120262 0 0.30517917142926537 -0.24716040808135001 0 0.2976408850071105 -0.26774945168120262 0 0.31275786215232049 -0.27168837282467972 0 0.2976408850071105 -0.26774945168120262 0 0.29395248104752192 -0.27782345334219888 0 0.31275786215232049 -0.27168837282467972 0 0.2976408850071105 -0.26774945168120262 0 0.31275786215232049 -0.27168837282467972 0 0.31054181011664339 -0.26140137874582919 0 0.2976408850071105 -0.26774945168120262 0 0.31569414790308259 -0.28159305760617132 0 0.29395248104752192 -0.27782345334219888 0 0.31569414790308259 -0.28159305760617132 0 0.31275786215232049 -0.27168837282467972 0 0.29395248104752192 -0.27782345334219888 0 0.2976408850071105 -0.26774945168120262 0 0.28600938745522969 -0.26471871668720698 0 0.2976408850071105 -0.26774945168120262 0 0.29395248104752192 -0.27782345334219888 0 0.29395248104752192 -0.27782345334219888 0 0.27996448038040939 -0.28063895974691061 0 0.2724225943816766 -0.27409056785933389 0 0.29395248104752192 -0.27782345334219888 0 0.28600938745522969 -0.26471871668720698 0 0.27658132089261911 -0.27335422882897692 0 0.2976408850071105 -0.26774945168120262 0 0.29395248104752192 -0.27782345334219888 0 0.28600938745522969 -0.26471871668720698 0 0.29395248104752192 -0.27782345334219888 0 0.2724225943816766 -0.27409056785933389 0 0.28600938745522969 -0.26471871668720698 0 0.27658132089261911 -0.27335422882897692 0 0.30517917142926537 -0.24716040808135001 0 0.28600938745522969 -0.26471871668720698 0 0.30517917142926537 -0.24716040808135001 0 0.2976408850071105 -0.26774945168120262 0 0.28600938745522969 -0.26471871668720698 0 0.30517917142926537 -0.24716040808135001 0 0.28765229627979871 -0.24304032400626949 0 0.28600938745522969 -0.26471871668720698 0 0.28600938745522969 -0.26471871668720698 0 0.26845248078028039 -0.26014404079454911 0 0.28765229627979871 -0.24304032400626949 0 0.28600938745522969 -0.26471871668720698 0 0.26845248078028039 -0.26014404079454911 0 0.26376770137103039 -0.2864090747829241 0 0.26845248078028039 -0.26014404079454911 0 0.2724225943816766 -0.27409056785933389 0 0.28600938745522969 -0.26471871668720698 0 0.26845248078028039 -0.26014404079454911 0 0.27658132089261911 -0.27335422882897692 0 0.26376770137103039 -0.2864090747829241 0 0.26845248078028039 -0.26014404079454911 0 0.29395248104752192 -0.27782345334219888 0 0.27658132089261911 -0.27335422882897692 0 0.2724225943816766 -0.27409056785933389 0 0.27275834958840189 -0.28372268528309152 0 0.27996448038040939 -0.28063895974691061 0 0.2724225943816766 -0.27409056785933389 0 0.26845248078028039 -0.26014404079454911 0 0.27658132089261911 -0.27335422882897692 0 0.2724225943816766 -0.27409056785933389 0 0.26376770137103039 -0.2864090747829241 0 0.26845248078028039 -0.26014404079454911 0 0.24785603391849151 -0.27709942466880599 0 0.26845248078028039 -0.26014404079454911 0 0.2410490216361528 -0.25300372010805161 0 0.26845248078028039 -0.26014404079454911 0 0.2410490216361528 -0.25300372010805161 0 0.24785603391849151 -0.27709942466880599 0 0.25787859859726192 -0.24372773219337371 0 0.26845248078028039 -0.26014404079454911 0 0.2410490216361528 -0.25300372010805161 0 0.2410490216361528 -0.25300372010805161 0 0.24785603391849151 -0.27709942466880599 0 0.23139485578507429 -0.27647983237136509 0 0.23139485578507429 -0.27647983237136509 0 0.2171028506536257 -0.26700629366950379 0 0.21674952071488601 -0.28686299221921707 0 0.2410490216361528 -0.25300372010805161 0 0.23139485578507429 -0.27647983237136509 0 0.2171028506536257 -0.26700629366950379 0 0.2410490216361528 -0.25300372010805161 0 0.2171028506536257 -0.26700629366950379 0 0.2136455624920251 -0.24586339942155419 0 0.2171028506536257 -0.26700629366950379 0 0.1960217485778272 -0.26205501631648559 0 0.2136455624920251 -0.24586339942155419 0 0.2171028506536257 -0.26700629366950379 0 0.2037572178097509 -0.27803645254629672 0 0.1960217485778272 -0.26205501631648559 0 0.2171028506536257 -0.26700629366950379 0 0.2037572178097509 -0.27803645254629672 0 0.21674952071488601 -0.28686299221921707 0 0.2037572178097509 -0.27803645254629672 0 0.1960217485778272 -0.26205501631648559 0 0.18672217274589489 -0.28463667424064248 0 0.1960217485778272 -0.26205501631648559 0 0.2136455624920251 -0.24586339942155419 0 0.1970165427207646 -0.2431475676051908 0 0.1960217485778272 -0.26205501631648559 0 0.1970165427207646 -0.2431475676051908 0 0.18013525364959199 -0.24590787480667409 0 0.19163287831415901 -0.30538761534618902 0 0.20219697373587131 -0.29192032270869461 0 0.2153952098199983 -0.30425933719731207 0 0.2037572178097509 -0.27803645254629672 0 0.20219697373587131 -0.29192032270869461 0 0.18672217274589489 -0.28463667424064248 0 0.19163287831415901 -0.30538761534618902 0 0.20219697373587131 -0.29192032270869461 0 0.18672217274589489 -0.28463667424064248 0 0.20219697373587131 -0.29192032270869461 0 0.21674952071488601 -0.28686299221921707 0 0.2153952098199983 -0.30425933719731207 0 0.2037572178097509 -0.27803645254629672 0 0.20219697373587131 -0.29192032270869461 0 0.21674952071488601 -0.28686299221921707 0 0.19163287831415901 -0.30538761534618902 0 0.2153952098199983 -0.30425933719731207 0 0.20381788977078771 -0.32236963909420019 0 0.2153952098199983 -0.30425933719731207 0 0.2333373149176502 -0.29099433783704243 0 0.2370223082464416 -0.30892926800322767 0 0.2153952098199983 -0.30425933719731207 0 0.2370223082464416 -0.30892926800322767 0 0.22300958304019269 -0.32335118517261402 0 0.21674952071488601 -0.28686299221921707 0 0.2153952098199983 -0.30425933719731207 0 0.2333373149176502 -0.29099433783704243 0 0.23139485578507429 -0.27647983237136509 0 0.21674952071488601 -0.28686299221921707 0 0.2333373149176502 -0.29099433783704243 0 0.24785603391849151 -0.27709942466880599 0 0.2333373149176502 -0.29099433783704243 0 0.24821325608307901 -0.29522124281265988 0 0.24785603391849151 -0.27709942466880599 0 0.23139485578507429 -0.27647983237136509 0 0.2333373149176502 -0.29099433783704243 0 0.2333373149176502 -0.29099433783704243 0 0.24821325608307901 -0.29522124281265988 0 0.2370223082464416 -0.30892926800322767 0 0.2590829219617814 -0.31267410877129931 0 0.24821325608307901 -0.29522124281265988 0 0.2370223082464416 -0.30892926800322767 0 0.2590829219617814 -0.31267410877129931 0 0.2370223082464416 -0.30892926800322767 0 0.24087195768162309 -0.32614810142562012 0 0.2543981425525324 -0.33893914275967452 0 0.24087195768162309 -0.32614810142562012 0 0.2308468326071676 -0.34684680242128502 0 0.24087195768162309 -0.32614810142562012 0 0.22300958304019269 -0.32335118517261402 0 0.2308468326071676 -0.34684680242128502 0 0.22300958304019269 -0.32335118517261402 0 0.2308468326071676 -0.34684680242128502 0 0.21275128108028149 -0.33749920242868869 0 0.2370223082464416 -0.30892926800322767 0 0.24087195768162309 -0.32614810142562012 0 0.22300958304019269 -0.32335118517261402 0 0.24971336314328341 -0.36520417674804972 0 0.2308468326071676 -0.34684680242128502 0 0.229200177642885 -0.36995291413531828 0 0.2543981425525324 -0.33893914275967452 0 0.24971336314328341 -0.36520417674804972 0 0.2308468326071676 -0.34684680242128502 0 0.229200177642885 -0.36995291413531828 0 0.20725651587090471 -0.36571099534901208 0 0.22031030243082139 -0.38906492162812378 0 0.2308468326071676 -0.34684680242128502 0 0.229200177642885 -0.36995291413531828 0 0.20725651587090471 -0.36571099534901208 0 0.2308468326071676 -0.34684680242128502 0 0.20725651587090471 -0.36571099534901208 0 0.21275128108028149 -0.33749920242868869 0 0.20725651587090471 -0.36571099534901208 0 0.21275128108028149 -0.33749920242868869 0 0.194202729310988 -0.34235706906990038 0 0.20725651587090471 -0.36571099534901208 0 0.194202729310988 -0.34235706906990038 0 0.180238718969634 -0.3612454971324468 0 0.20725651587090471 -0.36571099534901208 0 0.194202729310988 -0.34235706906990038 0 0.20725651587090471 -0.36571099534901208 0 0.19261827162763251 -0.374541644607297 0 0.180238718969634 -0.3612454971324468 0 0.22300958304019269 -0.32335118517261402 0 0.20381788977078771 -0.32236963909420019 0 0.21275128108028149 -0.33749920242868869 0 0.2153952098199983 -0.30425933719731207 0 0.22300958304019269 -0.32335118517261402 0 0.20381788977078771 -0.32236963909420019 0 0.20381788977078771 -0.32236963909420019 0 0.21275128108028149 -0.33749920242868869 0 0.194202729310988 -0.34235706906990038 0 0.20381788977078771 -0.32236963909420019 0 0.194202729310988 -0.34235706906990038 0 0.18384400034678741 -0.32250280289756078 0 0.19163287831415901 -0.30538761534618902 0 0.20381788977078771 -0.32236963909420019 0 0.18384400034678741 -0.32250280289756078 0 0.18384400034678741 -0.32250280289756078 0 0.17702055828029431 -0.33666004199980942 0 0.15719449589681389 -0.32866913917705798 0 0.194202729310988 -0.34235706906990038 0 0.18384400034678741 -0.32250280289756078 0 0.17702055828029431 -0.33666004199980942 0 0.15719449589681389 -0.32866913917705798 0 0.16581699513551909 -0.35306125248096398 0 0.17702055828029431 -0.33666004199980942 0 0.15719449589681389 -0.32866913917705798 0 0.16581699513551909 -0.35306125248096398 0 0.18384400034678741 -0.32250280289756078 0 0.15719449589681389 -0.32866913917705798 0 0.17186855286937899 -0.30453082832045192 0 0.180238718969634 -0.3612454971324468 0 0.1834568796589737 -0.38583095226508418 0 0.17443949437422429 -0.37745336578486988 0 0.180238718969634 -0.3612454971324468 0 0.16581699513551909 -0.35306125248096398 0 0.17443949437422429 -0.37745336578486988 0 0.180238718969634 -0.3612454971324468 0 0.1834568796589737 -0.38583095226508418 0 0.19261827162763251 -0.374541644607297 0 0.180238718969634 -0.3612454971324468 0 0.1834568796589737 -0.38583095226508418 0 0.17702055828029431 -0.33666004199980942 0 0.180238718969634 -0.3612454971324468 0 0.16581699513551909 -0.35306125248096398 0 0.17702055828029431 -0.33666004199980942 0 0.180238718969634 -0.3612454971324468 0 0.194202729310988 -0.34235706906990038 0 0.17702055828029431 -0.33666004199980942 0 0.180238718969634 -0.3612454971324468 0 0.16581699513551909 -0.35306125248096398 0 0.1602354860011011 -0.36875954027416918 0 0.14952990885070691 -0.36034775620209553 0 0.16581699513551909 -0.35306125248096398 0 0.17443949437422429 -0.37745336578486988 0 0.16581699513551909 -0.35306125248096398 0 0.1602354860011011 -0.36875954027416918 0 0.17443949437422429 -0.37745336578486988 0 0.1602354860011011 -0.36875954027416918 0 0.14673951295096799 -0.37363029079717242 0 0.14952990885070691 -0.36034775620209553 0 0.16581699513551909 -0.35306125248096398 0 0.14952990885070691 -0.36034775620209553 0 0.144826286403443 -0.34676284914488159 0 0.14952990885070691 -0.36034775620209553 0 0.144826286403443 -0.34676284914488159 0 0.12334710111447229 -0.36406834251145731 0 0.144826286403443 -0.34676284914488159 0 0.12334710111447229 -0.36406834251145731 0 0.144826286403443 -0.34676284914488159 0 0.12334710111447229 -0.36406834251145731 0 0.11573058637367541 -0.34380091622275832 0 0.13273239812562251 -0.3803535413873157 0 0.1208593498238435 -0.38006314209191833 0 0.12334710111447229 -0.36406834251145731 0 0.14673951295096799 -0.37363029079717242 0 0.14952990885070691 -0.36034775620209553 0 0.12334710111447229 -0.36406834251145731 0 0.14673951295096799 -0.37363029079717242 0 0.13273239812562251 -0.3803535413873157 0 0.12334710111447229 -0.36406834251145731 0 0.15719449589681389 -0.32866913917705798 0 0.13978194378111039 -0.33004063130878142 0 0.14857199665810869 -0.30427702587315197 0 0.15719449589681389 -0.32866913917705798 0 0.14857199665810869 -0.30427702587315197 0 0.15719449589681389 -0.32866913917705798 0 0.144826286403443 -0.34676284914488159 0 0.13978194378111039 -0.33004063130878142 0 0.15719449589681389 -0.32866913917705798 0 0.16581699513551909 -0.35306125248096398 0 0.144826286403443 -0.34676284914488159 0 0.13978194378111039 -0.33004063130878142 0 0.1249111379911398 -0.32186001205002218 0 0.11573058637367541 -0.34380091622275832 0 0.144826286403443 -0.34676284914488159 0 0.13978194378111039 -0.33004063130878142 0 0.11573058637367541 -0.34380091622275832 0 0.13978194378111039 -0.33004063130878142 0 0.14857199665810869 -0.30427702587315197 0 0.1249111379911398 -0.32186001205002218 0 0.14857199665810869 -0.30427702587315197 0 0.13584279120622419 -0.29064916595208462 0 0.1212075847983899 -0.30357596212866123 0 0.14857199665810869 -0.30427702587315197 0 0.1212075847983899 -0.30357596212866123 0 0.1249111379911398 -0.32186001205002218 0 0.14857199665810869 -0.30427702587315197 0 0.14941647374314521 -0.28066083506566319 0 0.1659314811884508 -0.28303851802095531 0 0.14857199665810869 -0.30427702587315197 0 0.13584279120622419 -0.29064916595208462 0 0.14941647374314521 -0.28066083506566319 0 0.13554841089854469 -0.28148943716570812 0 0.13584279120622419 -0.29064916595208462 0 0.14941647374314521 -0.28066083506566319 0 0.13554841089854469 -0.28148943716570812 0 0.13584279120622419 -0.29064916595208462 0 0.1176113560141319 -0.2851589593963586 0 0.1376178273856396 -0.2676878026278281 0 0.13932302263067731 -0.26948878824872591 0 0.1176113560141319 -0.2851589593963586 0 0.13554841089854469 -0.28148943716570812 0 0.13932302263067731 -0.26948878824872591 0 0.1176113560141319 -0.2851589593963586 0 0.13932302263067731 -0.26948878824872591 0 0.1176113560141319 -0.2851589593963586 0 0.1376178273856396 -0.2676878026278281 0 0.1200034520355143 -0.24749468667538321 0 0.1376178273856396 -0.2676878026278281 0 0.1200034520355143 -0.24749468667538321 0 0.1412434604122122 -0.24631040783256791 0 0.1376178273856396 -0.2676878026278281 0 0.16103468924722281 -0.25381861710109321 0 0.1412434604122122 -0.24631040783256791 0 0.1376178273856396 -0.2676878026278281 0 0.13932302263067731 -0.26948878824872591 0 0.16103468924722281 -0.25381861710109321 0 0.13932302263067731 -0.26948878824872591 0 0.16103468924722281 -0.25381861710109321 0 0.13932302263067731 -0.26948878824872591 0 0.14941647374314521 -0.28066083506566319 0 0.16103468924722281 -0.25381861710109321 0 0.13554841089854469 -0.28148943716570812 0 0.13932302263067731 -0.26948878824872591 0 0.14941647374314521 -0.28066083506566319 0 0.14941647374314521 -0.28066083506566319 0 0.16103468924722281 -0.25381861710109321 0 0.1659314811884508 -0.28303851802095531 0 0.16103468924722281 -0.25381861710109321 0 0.1779690690817976 -0.26589134009717008 0 0.1659314811884508 -0.28303851802095531 0 0.16103468924722281 -0.25381861710109321 0 0.1779690690817976 -0.26589134009717008 0 0.18013525364959199 -0.24590787480667409 0 0.1960217485778272 -0.26205501631648559 0 0.1779690690817976 -0.26589134009717008 0 0.18013525364959199 -0.24590787480667409 0 0.1960217485778272 -0.26205501631648559 0 0.1779690690817976 -0.26589134009717008 0 0.18672217274589489 -0.28463667424064248 0 0.1779690690817976 -0.26589134009717008 0 0.18672217274589489 -0.28463667424064248 0 0.1659314811884508 -0.28303851802095531 0 0.18672217274589489 -0.28463667424064248 0 0.17186855286937899 -0.30453082832045192 0 0.1659314811884508 -0.28303851802095531 0 0.19163287831415901 -0.30538761534618902 0 0.18384400034678741 -0.32250280289756078 0 0.17186855286937899 -0.30453082832045192 0 0.19163287831415901 -0.30538761534618902 0 0.18672217274589489 -0.28463667424064248 0 0.17186855286937899 -0.30453082832045192 0 0.14857199665810869 -0.30427702587315197 0 0.17186855286937899 -0.30453082832045192 0 0.1659314811884508 -0.28303851802095531 0 0.15719449589681389 -0.32866913917705798 0 0.14857199665810869 -0.30427702587315197 0 0.17186855286937899 -0.30453082832045192 0 0.27004646425256568 -0.5 0 0.19840125792562099 -0.499999999999995 0 0.2258071254777905 -0.47806137695806639 0 0.19840125792562099 -0.499999999999995 0 0.1955652389629654 -0.47833395417678298 0 0.19840125792562099 -0.499999999999995 0 0.1955652389629654 -0.47833395417678298 0 0.1857239970351309 -0.48926605560099218 0 0.1955652389629654 -0.47833395417678298 0 0.2258071254777905 -0.47806137695806639 0 0.20496909670773639 -0.46039718082621561 0 0.19840125792562099 -0.499999999999995 0 0.1955652389629654 -0.47833395417678298 0 0.2258071254777905 -0.47806137695806639 0 0.2532296876789632 -0.47497352743918242 0 0.27004646425256568 -0.5 0 0.2258071254777905 -0.47806137695806639 0 0.2532296876789632 -0.47497352743918242 0 0.2258071254777905 -0.47806137695806639 0 0.23317765179809191 -0.45416130837427687 0 0.2258071254777905 -0.47806137695806639 0 0.23317765179809191 -0.45416130837427687 0 0.20496909670773639 -0.46039718082621561 0 0.23317765179809191 -0.45416130837427687 0 0.20496909670773639 -0.46039718082621561 0 0.26339579246569877 -0.46312143350125029 0 0.2532296876789632 -0.47497352743918242 0 0.23317765179809191 -0.45416130837427687 0 0.26138620688844749 -0.44792543592233808 0 0.2518592606704963 -0.43815060111373921 0 0.23317765179809191 -0.45416130837427687 0 0.26138620688844749 -0.44792543592233808 0 0.23317765179809191 -0.45416130837427687 0 0.2518592606704963 -0.43815060111373921 0 0.23317765179809191 -0.45416130837427687 0 0.24161391479158839 -0.43048581688246368 0 0.23317765179809191 -0.45416130837427687 0 0.21274467024756119 -0.44537306322652892 0 0.22596778666418391 -0.43195218695593612 0 0.23317765179809191 -0.45416130837427687 0 0.22596778666418391 -0.43195218695593612 0 0.24161391479158839 -0.43048581688246368 0 0.20738663592967541 -0.43977689630152639 0 0.21274467024756119 -0.44537306322652892 0 0.21231789143938981 -0.43260924517595267 0 0.20738663592967541 -0.43977689630152639 0 0.20306963394956029 -0.44528763306514119 0 0.2014143480821905 -0.43583764373848299 0 0.20738663592967541 -0.43977689630152639 0 0.21274467024756119 -0.44537306322652892 0 0.20306963394956029 -0.44528763306514119 0 0.21274467024756119 -0.44537306322652892 0 0.20306963394956029 -0.44528763306514119 0 0.20202636709778779 -0.45196992376671852 0 0.21274467024756119 -0.44537306322652892 0 0.20496909670773639 -0.46039718082621561 0 0.20202636709778779 -0.45196992376671852 0 0.23317765179809191 -0.45416130837427687 0 0.21274467024756119 -0.44537306322652892 0 0.20496909670773639 -0.46039718082621561 0 0.1955652389629654 -0.47833395417678298 0 0.20496909670773639 -0.46039718082621561 0 0.1927292200003092 -0.45666790835357102 0 0.1955652389629654 -0.47833395417678298 0 0.1927292200003092 -0.45666790835357102 0 0.1955652389629654 -0.47833395417678298 0 0.19047701204926121 -0.46094242075341862 0 0.1927292200003092 -0.45666790835357102 0 0.20496909670773639 -0.46039718082621561 0 0.1927292200003092 -0.45666790835357102 0 0.20202636709778779 -0.45196992376671852 0 0.19047701204926121 -0.46094242075341862 0 0.1927292200003092 -0.45666790835357102 0 0.1876592352144193 -0.45673372923780892 0 0.1927292200003092 -0.45666790835357102 0 0.1876592352144193 -0.45673372923780892 0 0.18777566972406101 -0.44981142861604279 0 0.1927292200003092 -0.45666790835357102 0 0.19595067699787469 -0.4453334870477933 0 0.18989320103765239 -0.43500186253035911 0 0.1927292200003092 -0.45666790835357102 0 0.18989320103765239 -0.43500186253035911 0 0.1927292200003092 -0.45666790835357102 0 0.18777566972406101 -0.44981142861604279 0 0.18989320103765239 -0.43500186253035911 0 0.19521760998379711 -0.43854214036159178 0 0.19595067699787469 -0.4453334870477933 0 0.1916906899727929 -0.43609695451772118 0 0.19595067699787469 -0.4453334870477933 0 0.1916906899727929 -0.43609695451772118 0 0.18989320103765239 -0.43500186253035911 0 0.19521760998379711 -0.43854214036159178 0 0.19821003569121751 -0.44088076654097252 0 0.19595067699787469 -0.4453334870477933 0 0.19821003569121751 -0.44088076654097252 0 0.20306963394956029 -0.44528763306514119 0 0.19595067699787469 -0.4453334870477933 0 0.19821003569121751 -0.44088076654097252 0 0.20306963394956029 -0.44528763306514119 0 0.2014143480821905 -0.43583764373848299 0 0.19521760998379711 -0.43854214036159178 0 0.19821003569121751 -0.44088076654097252 0 0.19632921389935129 -0.43529695882979857 0 0.20306963394956029 -0.44528763306514119 0 0.20202636709778779 -0.45196992376671852 0 0.19595067699787469 -0.4453334870477933 0 0.1927292200003092 -0.45666790835357102 0 0.20202636709778779 -0.45196992376671852 0 0.19595067699787469 -0.4453334870477933 0 0.18989320103765239 -0.43500186253035911 0 0.193210065479164 -0.42351508711829272 0 0.18667504034831339 -0.41041640739772162 0 0.18989320103765239 -0.43500186253035911 0 0.18667504034831339 -0.41041640739772162 0 0.1973860855611401 -0.42692030526330021 0 0.193210065479164 -0.42351508711829272 0 0.19846083006015189 -0.42045811652912207 0 0.1973860855611401 -0.42692030526330021 0 0.19846083006015189 -0.42045811652912207 0 0.20326441538295181 -0.42746054266679712 0 0.1973860855611401 -0.42692030526330021 0 0.19826447490927249 -0.43151164360587502 0 0.20326441538295181 -0.42746054266679712 0 0.2014143480821905 -0.43583764373848299 0 0.19826447490927249 -0.43151164360587502 0 0.20326441538295181 -0.42746054266679712 0 0.19821003569121751 -0.44088076654097252 0 0.2014143480821905 -0.43583764373848299 0 0.19632921389935129 -0.43529695882979857 0 0.2014143480821905 -0.43583764373848299 0 0.19632921389935129 -0.43529695882979857 0 0.19826447490927249 -0.43151164360587502 0 0.19632921389935129 -0.43529695882979857 0 0.19826447490927249 -0.43151164360587502 0 0.1929283116207289 -0.43204276753099607 0 0.1973860855611401 -0.42692030526330021 0 0.19826447490927249 -0.43151164360587502 0 0.1929283116207289 -0.43204276753099607 0 0.1929283116207289 -0.43204276753099607 0 0.18989320103765239 -0.43500186253035911 0 0.193210065479164 -0.42351508711829272 0 0.19521760998379711 -0.43854214036159178 0 0.19632921389935129 -0.43529695882979857 0 0.19377820557052011 -0.43520734882518619 0 0.19521760998379711 -0.43854214036159178 0 0.19377820557052011 -0.43520734882518619 0 0.1916906899727929 -0.43609695451772118 0 0.19632921389935129 -0.43529695882979857 0 0.1929283116207289 -0.43204276753099607 0 0.19377820557052011 -0.43520734882518619 0 0.1929283116207289 -0.43204276753099607 0 0.19210490899723079 -0.4345610298626873 0 0.18989320103765239 -0.43500186253035911 0 0.19377820557052011 -0.43520734882518619 0 0.19210490899723079 -0.4345610298626873 0 0.1916906899727929 -0.43609695451772118 0 0.1929283116207289 -0.43204276753099607 0 0.19377820557052011 -0.43520734882518619 0 0.19210490899723079 -0.4345610298626873 0 0.1916906899727929 -0.43609695451772118 0 0.18989320103765239 -0.43500186253035911 0 0.19210490899723079 -0.4345610298626873 0 0.1916906899727929 -0.43609695451772118 0 0.18989320103765239 -0.43500186253035911 0 0.1973860855611401 -0.42692030526330021 0 0.1929283116207289 -0.43204276753099607 0 0.193210065479164 -0.42351508711829272 0 0.193210065479164 -0.42351508711829272 0 0.1939169242469973 -0.41625106345825691 0 0.18667504034831339 -0.41041640739772162 0 0.193210065479164 -0.42351508711829272 0 0.1939169242469973 -0.41625106345825691 0 0.19846083006015189 -0.42045811652912207 0 0.1968341740193896 -0.41150644481021997 0 0.19418069224578771 -0.40518464808912641 0 0.18667504034831339 -0.41041640739772162 0 0.1939169242469973 -0.41625106345825691 0 0.1968341740193896 -0.41150644481021997 0 0.18667504034831339 -0.41041640739772162 0 0.1968341740193896 -0.41150644481021997 0 0.20469814770209749 -0.41520386531910081 0 0.20485234226760879 -0.40188257102108682 0 0.19846083006015189 -0.42045811652912207 0 0.20469814770209749 -0.41520386531910081 0 0.20326441538295181 -0.42746054266679712 0 0.1939169242469973 -0.41625106345825691 0 0.1968341740193896 -0.41150644481021997 0 0.19846083006015189 -0.42045811652912207 0 0.1968341740193896 -0.41150644481021997 0 0.19846083006015189 -0.42045811652912207 0 0.20469814770209749 -0.41520386531910081 0 0.20469814770209749 -0.41520386531910081 0 0.21626227209603979 -0.41615869782113413 0 0.20326441538295181 -0.42746054266679712 0 0.20469814770209749 -0.41520386531910081 0 0.21626227209603979 -0.41615869782113413 0 0.20485234226760879 -0.40188257102108682 0 0.21626227209603979 -0.41615869782113413 0 0.20326441538295181 -0.42746054266679712 0 0.21231789143938981 -0.43260924517595267 0 0.21626227209603979 -0.41615869782113413 0 0.21231789143938981 -0.43260924517595267 0 0.22596778666418391 -0.43195218695593612 0 0.20738663592967541 -0.43977689630152639 0 0.2014143480821905 -0.43583764373848299 0 0.21231789143938981 -0.43260924517595267 0 0.2014143480821905 -0.43583764373848299 0 0.20326441538295181 -0.42746054266679712 0 0.21231789143938981 -0.43260924517595267 0 0.21274467024756119 -0.44537306322652892 0 0.21231789143938981 -0.43260924517595267 0 0.22596778666418391 -0.43195218695593612 0 0.22596778666418391 -0.43195218695593612 0 0.24161391479158839 -0.43048581688246368 0 0.2333640889907381 -0.41241884790723538 0 0.25610826383841628 -0.42120346698794331 0 0.2518592606704963 -0.43815060111373921 0 0.24161391479158839 -0.43048581688246368 0 0.25610826383841628 -0.42120346698794331 0 0.24161391479158839 -0.43048581688246368 0 0.2333640889907381 -0.41241884790723538 0 0.21626227209603979 -0.41615869782113413 0 0.22596778666418391 -0.43195218695593612 0 0.2333640889907381 -0.41241884790723538 0 0.2333640889907381 -0.41241884790723538 0 0.24502858373403441 -0.39146921073642488 0 0.22031030243082139 -0.38906492162812378 0 0.21626227209603979 -0.41615869782113413 0 0.2333640889907381 -0.41241884790723538 0 0.22031030243082139 -0.38906492162812378 0 0.2333640889907381 -0.41241884790723538 0 0.22031030243082139 -0.38906492162812378 0 0.26125098829365018 -0.39969694482297641 0 0.2333640889907381 -0.41241884790723538 0 0.24502858373403441 -0.39146921073642488 0 0.24971336314328341 -0.36520417674804972 0 0.24502858373403441 -0.39146921073642488 0 0.24971336314328341 -0.36520417674804972 0 0.229200177642885 -0.36995291413531828 0 0.24502858373403441 -0.39146921073642488 0 0.229200177642885 -0.36995291413531828 0 0.24502858373403441 -0.39146921073642488 0 0.22031030243082139 -0.38906492162812378 0 0.20725651587090471 -0.36571099534901208 0 0.22031030243082139 -0.38906492162812378 0 0.19952097201101759 -0.38537913368264481 0 0.20725651587090471 -0.36571099534901208 0 0.22031030243082139 -0.38906492162812378 0 0.21626227209603979 -0.41615869782113413 0 0.22031030243082139 -0.38906492162812378 0 0.20485234226760879 -0.40188257102108682 0 0.22031030243082139 -0.38906492162812378 0 0.20485234226760879 -0.40188257102108682 0 0.19952097201101759 -0.38537913368264481 0 0.20485234226760879 -0.40188257102108682 0 0.19159455078491761 -0.39726910731705511 0 0.19952097201101759 -0.38537913368264481 0 0.1968341740193896 -0.41150644481021997 0 0.20485234226760879 -0.40188257102108682 0 0.19418069224578771 -0.40518464808912641 0 0.20485234226760879 -0.40188257102108682 0 0.19418069224578771 -0.40518464808912641 0 0.19159455078491761 -0.39726910731705511 0 0.19418069224578771 -0.40518464808912641 0 0.19159455078491761 -0.39726910731705511 0 0.18667504034831339 -0.41041640739772162 0 0.20725651587090471 -0.36571099534901208 0 0.19261827162763251 -0.374541644607297 0 0.19952097201101759 -0.38537913368264481 0 0.19261827162763251 -0.374541644607297 0 0.19952097201101759 -0.38537913368264481 0 0.1834568796589737 -0.38583095226508418 0 0.19159455078491761 -0.39726910731705511 0 0.19952097201101759 -0.38537913368264481 0 0.1834568796589737 -0.38583095226508418 0 0.17443949437422429 -0.37745336578486988 0 0.18306199361292941 -0.40184547908877583 0 0.1834568796589737 -0.38583095226508418 0 0.17443949437422429 -0.37745336578486988 0 0.18306199361292941 -0.40184547908877583 0 0.17443949437422429 -0.37745336578486988 0 0.18306199361292941 -0.40184547908877583 0 0.1699565165384864 -0.39219147373696051 0 0.19159455078491761 -0.39726910731705511 0 0.1834568796589737 -0.38583095226508418 0 0.18667504034831339 -0.41041640739772162 0 0.1834568796589737 -0.38583095226508418 0 0.18667504034831339 -0.41041640739772162 0 0.1834568796589737 -0.38583095226508418 0 0.18306199361292941 -0.40184547908877583 0 0.18667504034831339 -0.41041640739772162 0 0.18306199361292941 -0.40184547908877583 0 0.1699565165384864 -0.39219147373696051 0 0.17103987791038719 -0.40450309618882169 0 0.18306199361292941 -0.40184547908877583 0 0.17103987791038719 -0.40450309618882169 0 0.1814131781600461 -0.40758752999736902 0 0.1699565165384864 -0.39219147373696051 0 0.17103987791038719 -0.40450309618882169 0 0.15993177942481909 -0.39557864441750712 0 0.17103987791038719 -0.40450309618882169 0 0.15993177942481909 -0.39557864441750712 0 0.14638679418839309 -0.40849626541203388 0 0.1699565165384864 -0.39219147373696051 0 0.15993177942481909 -0.39557864441750712 0 0.1595700277473481 -0.38298567724053401 0 0.17443949437422429 -0.37745336578486988 0 0.1699565165384864 -0.39219147373696051 0 0.1595700277473481 -0.38298567724053401 0 0.1602354860011011 -0.36875954027416918 0 0.17443949437422429 -0.37745336578486988 0 0.1595700277473481 -0.38298567724053401 0 0.1602354860011011 -0.36875954027416918 0 0.14673951295096799 -0.37363029079717242 0 0.1595700277473481 -0.38298567724053401 0 0.14673951295096799 -0.37363029079717242 0 0.1595700277473481 -0.38298567724053401 0 0.14586341328622179 -0.39002728499933198 0 0.14673951295096799 -0.37363029079717242 0 0.14586341328622179 -0.39002728499933198 0 0.13273239812562251 -0.3803535413873157 0 0.15993177942481909 -0.39557864441750712 0 0.1595700277473481 -0.38298567724053401 0 0.14586341328622179 -0.39002728499933198 0 0.14586341328622179 -0.39002728499933198 0 0.13273239812562251 -0.3803535413873157 0 0.12412735500694751 -0.39493505064503392 0 0.13273239812562251 -0.3803535413873157 0 0.12412735500694751 -0.39493505064503392 0 0.1208593498238435 -0.38006314209191833 0 0.14586341328622179 -0.39002728499933198 0 0.14638679418839309 -0.40849626541203388 0 0.12412735500694751 -0.39493505064503392 0 0.14638679418839309 -0.40849626541203388 0 0.1185943653130178 -0.41089393958744808 0 0.12412735500694751 -0.39493505064503392 0 0.14638679418839309 -0.40849626541203388 0 0.12412735500694751 -0.39493505064503392 0 0.15993177942481909 -0.39557864441750712 0 0.14586341328622179 -0.39002728499933198 0 0.14638679418839309 -0.40849626541203388 0 0.14638679418839309 -0.40849626541203388 0 0.12945713117598301 -0.42527718494859718 0 0.1185943653130178 -0.41089393958744808 0 0.12945713117598301 -0.42527718494859718 0 0.1521605439778134 -0.43517333823265708 0 0.13567485458578729 -0.448289196286278 0 0.14638679418839309 -0.40849626541203388 0 0.12945713117598301 -0.42527718494859718 0 0.1521605439778134 -0.43517333823265708 0 0.14638679418839309 -0.40849626541203388 0 0.1521605439778134 -0.43517333823265708 0 0.16864623336983819 -0.42205748017903449 0 0.1521605439778134 -0.43517333823265708 0 0.16864623336983819 -0.42205748017903449 0 0.1521605439778134 -0.43517333823265708 0 0.16864623336983819 -0.42205748017903449 0 0.16573483381671769 -0.43911683261624462 0 0.16864623336983819 -0.42205748017903449 0 0.17670256027174869 -0.43608133600128551 0 0.16573483381671769 -0.43911683261624462 0 0.17103987791038719 -0.40450309618882169 0 0.14638679418839309 -0.40849626541203388 0 0.16962733287145829 -0.41306172809692981 0 0.14638679418839309 -0.40849626541203388 0 0.16864623336983819 -0.42205748017903449 0 0.14638679418839309 -0.40849626541203388 0 0.16864623336983819 -0.42205748017903449 0 0.16962733287145829 -0.41306172809692981 0 0.16864623336983819 -0.42205748017903449 0 0.17965678171287719 -0.41329759239238029 0 0.18989320103765239 -0.43500186253035911 0 0.17965678171287719 -0.41329759239238029 0 0.18667504034831339 -0.41041640739772162 0 0.16864623336983819 -0.42205748017903449 0 0.16962733287145829 -0.41306172809692981 0 0.17965678171287719 -0.41329759239238029 0 0.17103987791038719 -0.40450309618882169 0 0.16962733287145829 -0.41306172809692981 0 0.17965678171287719 -0.41329759239238029 0 0.17103987791038719 -0.40450309618882169 0 0.17965678171287719 -0.41329759239238029 0 0.1814131781600461 -0.40758752999736902 0 0.18306199361292941 -0.40184547908877583 0 0.1814131781600461 -0.40758752999736902 0 0.18667504034831339 -0.41041640739772162 0 0.17965678171287719 -0.41329759239238029 0 0.1814131781600461 -0.40758752999736902 0 0.18667504034831339 -0.41041640739772162 0 0.18989320103765239 -0.43500186253035911 0 0.16864623336983819 -0.42205748017903449 0 0.18989320103765239 -0.43500186253035911 0 0.16864623336983819 -0.42205748017903449 0 0.17965678171287719 -0.41329759239238029 0 0.18989320103765239 -0.43500186253035911 0 0.16864623336983819 -0.42205748017903449 0 0.17670256027174869 -0.43608133600128551 0 0.18989320103765239 -0.43500186253035911 0 0.17670256027174869 -0.43608133600128551 0 0.18208037526260021 -0.440172852945236 0 0.17851738694434799 -0.45081987712854771 0 0.17618275988476059 -0.44374183802639611 0 0.18401323307134959 -0.44581129240036288 0 0.17851738694434799 -0.45081987712854771 0 0.1776998484129505 -0.456552179461992 0 0.17120073938054131 -0.45123220200337888 0 0.17851738694434799 -0.45081987712854771 0 0.17618275988476059 -0.44374183802639611 0 0.17120073938054131 -0.45123220200337888 0 0.17670256027174869 -0.43608133600128551 0 0.17618275988476059 -0.44374183802639611 0 0.16573483381671769 -0.43911683261624462 0 0.17670256027174869 -0.43608133600128551 0 0.17618275988476059 -0.44374183802639611 0 0.18208037526260021 -0.440172852945236 0 0.18989320103765239 -0.43500186253035911 0 0.18208037526260021 -0.440172852945236 0 0.18401323307134959 -0.44581129240036288 0 0.18777566972406101 -0.44981142861604279 0 0.18989320103765239 -0.43500186253035911 0 0.18401323307134959 -0.44581129240036288 0 0.17618275988476059 -0.44374183802639611 0 0.18208037526260021 -0.440172852945236 0 0.18401323307134959 -0.44581129240036288 0 0.18777566972406101 -0.44981142861604279 0 0.18401323307134959 -0.44581129240036288 0 0.18385690407389799 -0.45446609953290928 0 0.17851738694434799 -0.45081987712854771 0 0.18401323307134959 -0.44581129240036288 0 0.18385690407389799 -0.45446609953290928 0 0.19047701204926121 -0.46094242075341862 0 0.1876592352144193 -0.45673372923780892 0 0.1806900259799068 -0.46227126151247672 0 0.1876592352144193 -0.45673372923780892 0 0.18777566972406101 -0.44981142861604279 0 0.18385690407389799 -0.45446609953290928 0 0.19047701204926121 -0.46094242075341862 0 0.1806900259799068 -0.46227126151247672 0 0.17298031468751371 -0.48047121037671059 0 0.1876592352144193 -0.45673372923780892 0 0.18385690407389799 -0.45446609953290928 0 0.1806900259799068 -0.46227126151247672 0 0.18385690407389799 -0.45446609953290928 0 0.1806900259799068 -0.46227126151247672 0 0.1776998484129505 -0.456552179461992 0 0.17851738694434799 -0.45081987712854771 0 0.18385690407389799 -0.45446609953290928 0 0.1776998484129505 -0.456552179461992 0 0.1806900259799068 -0.46227126151247672 0 0.1776998484129505 -0.456552179461992 0 0.17146684144139809 -0.46446192971202138 0 0.1776998484129505 -0.456552179461992 0 0.17146684144139809 -0.46446192971202138 0 0.17120073938054131 -0.45123220200337888 0 0.17146684144139809 -0.46446192971202138 0 0.15759213853868431 -0.45113306297151079 0 0.14900727366634989 -0.46501884712825781 0 0.17146684144139809 -0.46446192971202138 0 0.15759213853868431 -0.45113306297151079 0 0.17120073938054131 -0.45123220200337888 0 0.1521605439778134 -0.43517333823265708 0 0.15759213853868431 -0.45113306297151079 0 0.16573483381671769 -0.43911683261624462 0 0.15759213853868431 -0.45113306297151079 0 0.17120073938054131 -0.45123220200337888 0 0.16573483381671769 -0.43911683261624462 0 0.17618275988476059 -0.44374183802639611 0 0.17120073938054131 -0.45123220200337888 0 0.16573483381671769 -0.43911683261624462 0 0.1521605439778134 -0.43517333823265708 0 0.15759213853868431 -0.45113306297151079 0 0.13567485458578729 -0.448289196286278 0 0.1521605439778134 -0.43517333823265708 0 0.13567485458578729 -0.448289196286278 0 0.13567485458578729 -0.448289196286278 0 0.1191891651937612 -0.46140505433989892 0 0.12203304576274319 -0.43975504748265359 0 0.12945713117598301 -0.42527718494859718 0 0.13567485458578729 -0.448289196286278 0 0.12203304576274319 -0.43975504748265359 0 0.13567485458578729 -0.448289196286278 0 0.1191891651937612 -0.46140505433989892 0 0.13567485458578729 -0.448289196286278 0 0.13480127744719991 -0.46410976413563299 0 0.1191891651937612 -0.46140505433989892 0 0.13567485458578729 -0.448289196286278 0 0.13480127744719991 -0.46410976413563299 0 0.14900727366634989 -0.46501884712825781 0 0.15759213853868431 -0.45113306297151079 0 0.13567485458578729 -0.448289196286278 0 0.14900727366634989 -0.46501884712825781 0 0.14900727366634989 -0.46501884712825781 0 0.15577652408963519 -0.48266000469618581 0 0.13873200589539489 -0.47945912496791759 0 0.13480127744719991 -0.46410976413563299 0 0.14900727366634989 -0.46501884712825781 0 0.13873200589539489 -0.47945912496791759 0 0.13480127744719991 -0.46410976413563299 0 0.13873200589539489 -0.47945912496791759 0 0.11801755443736479 -0.48060781756800708 0 0.13873200589539489 -0.47945912496791759 0 0.13581988522262109 -0.50000000000000244 0 0.11801755443736479 -0.48060781756800708 0 0.13581988522262109 -0.50000000000000244 0 0.11801755443736479 -0.48060781756800708 0 0.15577652408963519 -0.48266000469618581 0 0.13873200589539489 -0.47945912496791759 0 0.13581988522262109 -0.50000000000000244 0 0.15577652408963519 -0.48266000469618581 0 0.13581988522262109 -0.50000000000000244 0 0.15548361732576529 -0.50000000000000178 0 0.15577652408963519 -0.48266000469618581 0 0.15548361732576529 -0.50000000000000178 0 0.17298031468751371 -0.48047121037671059 0 0.15548361732576529 -0.50000000000000178 0 0.17298031468751371 -0.48047121037671059 0 0.1769424376256932 -0.5 0 0.15548361732576529 -0.50000000000000178 0 0.17298031468751371 -0.48047121037671059 0 0.17146684144139809 -0.46446192971202138 0 0.15577652408963519 -0.48266000469618581 0 0.17298031468751371 -0.48047121037671059 0 0.17146684144139809 -0.46446192971202138 0 0.14900727366634989 -0.46501884712825781 0 0.15577652408963519 -0.48266000469618581 0 0.19047701204926121 -0.46094242075341862 0 0.17298031468751371 -0.48047121037671059 0 0.1806900259799068 -0.46227126151247672 0 0.17146684144139809 -0.46446192971202138 0 0.17298031468751371 -0.48047121037671059 0 0.1955652389629654 -0.47833395417678298 0 0.19047701204926121 -0.46094242075341862 0 0.17298031468751371 -0.48047121037671059 0 0.1955652389629654 -0.47833395417678298 0 0.17298031468751371 -0.48047121037671059 0 0.1857239970351309 -0.48926605560099218 0 0.19840125792562099 -0.499999999999995 0 0.1857239970351309 -0.48926605560099218 0 0.1769424376256932 -0.5 0 0.17298031468751371 -0.48047121037671059 0 0.1857239970351309 -0.48926605560099218 0 0.1769424376256932 -0.5 0 0.074737975103940479 -0.48487994098964171 0 0.071046826552429457 -0.50000000000000733 0 0.059434139084113012 -0.47963991399004141 0 0.071046826552429457 -0.50000000000000733 0 0.059434139084113012 -0.47963991399004141 0 0.074737975103940479 -0.48487994098964171 0 0.05802097188470097 -0.46975988197928431 0 0.059434139084113012 -0.47963991399004141 0 0.074737975103940479 -0.48487994098964171 0 0.071955909258469009 -0.46877079283141743 0 0.05802097188470097 -0.46975988197928431 0 0.074737975103940479 -0.48487994098964171 0 0.071955909258469009 -0.46877079283141743 0 0.082737354296077953 -0.47427357099325013 0 0.074737975103940479 -0.48487994098964171 0 0.05802097188470097 -0.46975988197928431 0 0.074737975103940479 -0.48487994098964171 0 0.082737354296077953 -0.47427357099325013 0 0.094811061721812542 -0.48112121468145302 0 0.082737354296077953 -0.47427357099325013 0 0.094811061721812542 -0.48112121468145302 0 0.1002152236521098 -0.46121563513601083 0 0.074737975103940479 -0.48487994098964171 0 0.091454978323179614 -0.49999999999999939 0 0.094811061721812542 -0.48112121468145302 0 0.074737975103940479 -0.48487994098964171 0 0.091454978323179614 -0.49999999999999939 0 0.074737975103940479 -0.48487994098964171 0 0.071046826552429457 -0.50000000000000733 0 0.091454978323179614 -0.49999999999999939 0 0.1136374317729003 -0.5 0 0.11801755443736479 -0.48060781756800708 0 0.094811061721812542 -0.48112121468145302 0 0.091454978323179614 -0.49999999999999939 0 0.1136374317729003 -0.5 0 0.094811061721812542 -0.48112121468145302 0 0.13581988522262109 -0.50000000000000244 0 0.1136374317729003 -0.5 0 0.11801755443736479 -0.48060781756800708 0 0.11801755443736479 -0.48060781756800708 0 0.094811061721812542 -0.48112121468145302 0 0.1002152236521098 -0.46121563513601083 0 0.11801755443736479 -0.48060781756800708 0 0.1002152236521098 -0.46121563513601083 0 0.1002152236521098 -0.46121563513601083 0 0.1191891651937612 -0.46140505433989892 0 0.1082504500781146 -0.44478934181291102 0 0.11801755443736479 -0.48060781756800708 0 0.1002152236521098 -0.46121563513601083 0 0.1191891651937612 -0.46140505433989892 0 0.13480127744719991 -0.46410976413563299 0 0.11801755443736479 -0.48060781756800708 0 0.1191891651937612 -0.46140505433989892 0 0.1191891651937612 -0.46140505433989892 0 0.12203304576274319 -0.43975504748265359 0 0.1082504500781146 -0.44478934181291102 0 0.1002152236521098 -0.46121563513601083 0 0.1082504500781146 -0.44478934181291102 0 0.082412892866854714 -0.44182345270401441 0 0.1002152236521098 -0.46121563513601083 0 0.082412892866854714 -0.44182345270401441 0 0.082737354296077953 -0.47427357099325013 0 0.1002152236521098 -0.46121563513601083 0 0.07989865607697158 -0.46093656822545309 0 0.1002152236521098 -0.46121563513601083 0 0.082412892866854714 -0.44182345270401441 0 0.07989865607697158 -0.46093656822545309 0 0.071955909258469009 -0.46877079283141743 0 0.082737354296077953 -0.47427357099325013 0 0.07989865607697158 -0.46093656822545309 0 0.071955909258469009 -0.46877079283141743 0 0.07989865607697158 -0.46093656822545309 0 0.064942869781788204 -0.45298741250561531 0 0.071955909258469009 -0.46877079283141743 0 0.064942869781788204 -0.45298741250561531 0 0.05802097188470097 -0.46975988197928431 0 0.082412892866854714 -0.44182345270401441 0 0.07989865607697158 -0.46093656822545309 0 0.064942869781788204 -0.45298741250561531 0 0.082412892866854714 -0.44182345270401441 0 0.064942869781788204 -0.45298741250561531 0 0.064610562081599654 -0.42243127027201799 0 0.082412892866854714 -0.44182345270401441 0 0.064610562081599654 -0.42243127027201799 0 0.085410796704641828 -0.41553833344022301 0 0.082412892866854714 -0.44182345270401441 0 0.064610562081599654 -0.42243127027201799 0 0.064610562081599654 -0.42243127027201799 0 0.085410796704641828 -0.41553833344022301 0 0.071260751408415451 -0.40583032332525898 0 0.082412892866854714 -0.44182345270401441 0 0.085410796704641828 -0.41553833344022301 0 0.10565257718969159 -0.42402980380391259 0 0.1082504500781146 -0.44478934181291102 0 0.10565257718969159 -0.42402980380391259 0 0.1082504500781146 -0.44478934181291102 0 0.082412892866854714 -0.44182345270401441 0 0.10565257718969159 -0.42402980380391259 0 0.12203304576274319 -0.43975504748265359 0 0.1082504500781146 -0.44478934181291102 0 0.10565257718969159 -0.42402980380391259 0 0.12945713117598301 -0.42527718494859718 0 0.12203304576274319 -0.43975504748265359 0 0.10565257718969159 -0.42402980380391259 0 0.12945713117598301 -0.42527718494859718 0 0.10565257718969159 -0.42402980380391259 0 0.1185943653130178 -0.41089393958744808 0 0.10565257718969159 -0.42402980380391259 0 0.10305470430126849 -0.40327026579491432 0 0.10565257718969159 -0.42402980380391259 0 0.1185943653130178 -0.41089393958744808 0 0.10305470430126849 -0.40327026579491432 0 0.085410796704641828 -0.41553833344022301 0 0.10565257718969159 -0.42402980380391259 0 0.10305470430126849 -0.40327026579491432 0 0.10305470430126849 -0.40327026579491432 0 0.1092296532162271 -0.39195520602732847 0 0.1018679158255022 -0.38137383587803358 0 0.10305470430126849 -0.40327026579491432 0 0.1018679158255022 -0.38137383587803358 0 0.084827885114816814 -0.39510276155480978 0 0.10305470430126849 -0.40327026579491432 0 0.1018679158255022 -0.38137383587803358 0 0.1185943653130178 -0.41089393958744808 0 0.10305470430126849 -0.40327026579491432 0 0.1092296532162271 -0.39195520602732847 0 0.1185943653130178 -0.41089393958744808 0 0.1092296532162271 -0.39195520602732847 0 0.12412735500694751 -0.39493505064503392 0 0.12412735500694751 -0.39493505064503392 0 0.1208593498238435 -0.38006314209191833 0 0.1018679158255022 -0.38137383587803358 0 0.1092296532162271 -0.39195520602732847 0 0.12412735500694751 -0.39493505064503392 0 0.1018679158255022 -0.38137383587803358 0 0.12412735500694751 -0.39493505064503392 0 0.1018679158255022 -0.38137383587803358 0 0.1208593498238435 -0.38006314209191833 0 0.1018679158255022 -0.38137383587803358 0 0.12334710111447229 -0.36406834251145731 0 0.1018679158255022 -0.38137383587803358 0 0.1001863568717406 -0.38034937241650962 0 0.10879209213087419 -0.36797725762153549 0 0.1018679158255022 -0.38137383587803358 0 0.1001863568717406 -0.38034937241650962 0 0.092680417082859706 -0.38189565836938699 0 0.1018679158255022 -0.38137383587803358 0 0.1001863568717406 -0.38034937241650962 0 0.1001863568717406 -0.38034937241650962 0 0.092680417082859706 -0.38189565836938699 0 0.078941289569781151 -0.36740614783332631 0 0.1018679158255022 -0.38137383587803358 0 0.084827885114816814 -0.39510276155480978 0 0.1018679158255022 -0.38137383587803358 0 0.092680417082859706 -0.38189565836938699 0 0.084827885114816814 -0.39510276155480978 0 0.083667078469080447 -0.3817485906143725 0 0.076461538166658155 -0.38231907318138902 0 0.078941289569781151 -0.36740614783332631 0 0.092680417082859706 -0.38189565836938699 0 0.083667078469080447 -0.3817485906143725 0 0.078941289569781151 -0.36740614783332631 0 0.084827885114816814 -0.39510276155480978 0 0.073546264855348126 -0.39398280964304111 0 0.076461538166658155 -0.38231907318138902 0 0.083667078469080447 -0.3817485906143725 0 0.084827885114816814 -0.39510276155480978 0 0.076461538166658155 -0.38231907318138902 0 0.092680417082859706 -0.38189565836938699 0 0.083667078469080447 -0.3817485906143725 0 0.084827885114816814 -0.39510276155480978 0 0.085410796704641828 -0.41553833344022301 0 0.10305470430126849 -0.40327026579491432 0 0.084827885114816814 -0.39510276155480978 0 0.085410796704641828 -0.41553833344022301 0 0.084827885114816814 -0.39510276155480978 0 0.071260751408415451 -0.40583032332525898 0 0.084827885114816814 -0.39510276155480978 0 0.073546264855348126 -0.39398280964304111 0 0.071260751408415451 -0.40583032332525898 0 0.073546264855348126 -0.39398280964304111 0 0.071260751408415451 -0.40583032332525898 0 0.061634884731502082 -0.39267908051070671 0 0.076461538166658155 -0.38231907318138902 0 0.061634884731502082 -0.39267908051070671 0 0.076461538166658155 -0.38231907318138902 0 0.061634884731502082 -0.39267908051070671 0 0.061904282875925747 -0.37237526148823941 0 0.073546264855348126 -0.39398280964304111 0 0.076461538166658155 -0.38231907318138902 0 0.061634884731502082 -0.39267908051070671 0 0.051370350477500881 -0.3764161884637201 0 0.045801185216693012 -0.38580832539780119 0 0.043663507306638913 -0.36868104746756258 0 0.051370350477500881 -0.3764161884637201 0 0.061634884731502082 -0.39267908051070671 0 0.045801185216693012 -0.38580832539780119 0 0.051370350477500881 -0.3764161884637201 0 0.061634884731502082 -0.39267908051070671 0 0.061904282875925747 -0.37237526148823941 0 0.071260751408415451 -0.40583032332525898 0 0.061634884731502082 -0.39267908051070671 0 0.04680823129634433 -0.40303908784002201 0 0.061634884731502082 -0.39267908051070671 0 0.04680823129634433 -0.40303908784002201 0 0.045801185216693012 -0.38580832539780119 0 0.061634884731502082 -0.39267908051070671 0 0.04680823129634433 -0.40303908784002201 0 0.04680823129634433 -0.40303908784002201 0 0.02837172461734 -0.38295609391969199 0 0.04680823129634433 -0.40303908784002201 0 0.02837172461734 -0.38295609391969199 0 0.028215565298714249 -0.40094151263492078 0 0.045801185216693012 -0.38580832539780119 0 0.02837172461734 -0.38295609391969199 0 0.043663507306638913 -0.36868104746756258 0 0.04680823129634433 -0.40303908784002201 0 0.045801185216693012 -0.38580832539780119 0 0.02837172461734 -0.38295609391969199 0 0.02837172461734 -0.38295609391969199 0 0.0122991559467155 -0.37891225603134221 0 0.011208636448502229 -0.39508796301279092 0 -0.002178803782163227 -0.37161627006544062 0 0.0122991559467155 -0.37891225603134221 0 0.011208636448502229 -0.39508796301279092 0 -0.002178803782163227 -0.37161627006544062 0 0.011208636448502229 -0.39508796301279092 0 -0.002178803782163227 -0.37161627006544062 0 -0.0066930742226519926 -0.39143820132839208 0 0.011208636448502229 -0.39508796301279092 0 -0.001728596279610697 -0.40597762003102339 0 0.011208636448502229 -0.39508796301279092 0 0.0082246319185010179 -0.41465428951275207 0 -0.0066930742226519926 -0.39143820132839208 0 -0.001728596279610697 -0.40597762003102339 0 0.011208636448502229 -0.39508796301279092 0 0.011208636448502229 -0.39508796301279092 0 0.028215565298714249 -0.40094151263492078 0 0.024596076679173799 -0.41855965596013778 0 0.02837172461734 -0.38295609391969199 0 0.011208636448502229 -0.39508796301279092 0 0.028215565298714249 -0.40094151263492078 0 0.011208636448502229 -0.39508796301279092 0 0.024596076679173799 -0.41855965596013778 0 0.011208636448502229 -0.39508796301279092 0 0.024596076679173799 -0.41855965596013778 0 0.0082246319185010179 -0.41465428951275207 0 0.024596076679173799 -0.41855965596013778 0 0.0082246319185010179 -0.41465428951275207 0 0.01039378864355619 -0.42848339288335913 0 -0.009537301248459449 -0.42510302968362512 0 0.0082246319185010179 -0.41465428951275207 0 0.01039378864355619 -0.42848339288335913 0 0.024596076679173799 -0.41855965596013778 0 0.036208764147486278 -0.43891974197010591 0 0.024596076679173799 -0.41855965596013778 0 0.036208764147486278 -0.43891974197010591 0 0.020713539006084219 -0.44010250100644183 0 0.024596076679173799 -0.41855965596013778 0 0.01039378864355619 -0.42848339288335913 0 0.020713539006084219 -0.44010250100644183 0 0.024596076679173799 -0.41855965596013778 0 0.01039378864355619 -0.42848339288335913 0 0.024596076679173799 -0.41855965596013778 0 0.043950702345966319 -0.42295947833088071 0 0.036208764147486278 -0.43891974197010591 0 0.043950702345966319 -0.42295947833088071 0 0.051347790295756007 -0.43901682978775403 0 0.036208764147486278 -0.43891974197010591 0 0.04680823129634433 -0.40303908784002201 0 0.024596076679173799 -0.41855965596013778 0 0.04680823129634433 -0.40303908784002201 0 0.028215565298714249 -0.40094151263492078 0 0.024596076679173799 -0.41855965596013778 0 0.04680823129634433 -0.40303908784002201 0 0.024596076679173799 -0.41855965596013778 0 0.043950702345966319 -0.42295947833088071 0 0.064610562081599654 -0.42243127027201799 0 0.071260751408415451 -0.40583032332525898 0 0.04680823129634433 -0.40303908784002201 0 0.064610562081599654 -0.42243127027201799 0 0.04680823129634433 -0.40303908784002201 0 0.064610562081599654 -0.42243127027201799 0 0.04680823129634433 -0.40303908784002201 0 0.043950702345966319 -0.42295947833088071 0 0.064610562081599654 -0.42243127027201799 0 0.043950702345966319 -0.42295947833088071 0 0.051347790295756007 -0.43901682978775403 0 0.064942869781788204 -0.45298741250561531 0 0.064610562081599654 -0.42243127027201799 0 0.051347790295756007 -0.43901682978775403 0 0.064942869781788204 -0.45298741250561531 0 0.051347790295756007 -0.43901682978775403 0 0.047821451615799627 -0.45927982798007361 0 0.064942869781788204 -0.45298741250561531 0 0.047821451615799627 -0.45927982798007361 0 0.05802097188470097 -0.46975988197928431 0 0.047821451615799627 -0.45927982798007361 0 0.023714967739582489 -0.4565662814222432 0 0.032020960621095843 -0.47777188036233098 0 0.047821451615799627 -0.45927982798007361 0 0.036208764147486278 -0.43891974197010591 0 0.051347790295756007 -0.43901682978775403 0 0.047821451615799627 -0.45927982798007361 0 0.036208764147486278 -0.43891974197010591 0 0.047821451615799627 -0.45927982798007361 0 0.036208764147486278 -0.43891974197010591 0 0.023714967739582489 -0.4565662814222432 0 0.036208764147486278 -0.43891974197010591 0 0.020713539006084219 -0.44010250100644183 0 0.023714967739582489 -0.4565662814222432 0 -0.0013374034004768371 -0.44947558896604423 0 0.01039378864355619 -0.42848339288335913 0 0.020713539006084219 -0.44010250100644183 0 -0.0013374034004768371 -0.44947558896604423 0 0.020713539006084219 -0.44010250100644183 0 0.023714967739582489 -0.4565662814222432 0 -0.0013374034004768371 -0.44947558896604423 0 0.0068624944475057766 -0.47384814824846327 0 -0.0013374034004768371 -0.44947558896604423 0 0.023714967739582489 -0.4565662814222432 0 0.0068624944475057766 -0.47384814824846327 0 0.023714967739582489 -0.4565662814222432 0 0.0068624944475057766 -0.47384814824846327 0 0.032020960621095843 -0.47777188036233098 0 0.0068624944475057766 -0.47384814824846327 0 0.0150623922954884 -0.49822070753088238 0 0.032020960621095843 -0.47777188036233098 0 -0.015217900669161011 -0.5 0 0.0024053695883212941 -0.48891336768777249 0 0.013537008404702511 -0.5 0 0.0068624944475057766 -0.47384814824846327 0 0.0024053695883212941 -0.48891336768777249 0 0.0150623922954884 -0.49822070753088238 0 0.0068624944475057766 -0.47384814824846327 0 0.0150623922954884 -0.49822070753088238 0 0.0024053695883212941 -0.48891336768777249 0 0.0150623922954884 -0.49822070753088238 0 0.013537008404702511 -0.5 0 0.0150623922954884 -0.49822070753088238 0 0.013537008404702511 -0.5 0 0.042291917478565873 -0.5 0 0.0150623922954884 -0.49822070753088238 0 0.042291917478565873 -0.5 0 0.032020960621095843 -0.47777188036233098 0 0.042291917478565873 -0.5 0 0.032020960621095843 -0.47777188036233098 0 0.059434139084113012 -0.47963991399004141 0 0.047821451615799627 -0.45927982798007361 0 0.032020960621095843 -0.47777188036233098 0 0.059434139084113012 -0.47963991399004141 0 0.047821451615799627 -0.45927982798007361 0 0.05802097188470097 -0.46975988197928431 0 0.059434139084113012 -0.47963991399004141 0 0.047821451615799627 -0.45927982798007361 0 0.059434139084113012 -0.47963991399004141 0 0.071046826552429457 -0.50000000000000733 0 0.042291917478565873 -0.5 0 0.059434139084113012 -0.47963991399004141 0 0.078456545354339768 -0.28525100698693651 0 0.075192778843485145 -0.3004755496101415 0 0.095899689397586599 -0.3008291305439913 0 0.078456545354339768 -0.28525100698693651 0 0.095711127176573443 -0.2751242682777974 0 0.095899689397586599 -0.3008291305439913 0 0.075192778843485145 -0.3004755496101415 0 0.095899689397586599 -0.3008291305439913 0 0.074188022781041252 -0.31649930169162399 0 0.095899689397586599 -0.3008291305439913 0 0.074188022781041252 -0.31649930169162399 0 0.075192778843485145 -0.3004755496101415 0 0.074188022781041252 -0.31649930169162399 0 0.058270312985904418 -0.30816514798469019 0 0.075192778843485145 -0.3004755496101415 0 0.068995976747761104 -0.2945131319279734 0 0.058270312985904418 -0.30816514798469019 0 0.068995976747761104 -0.2945131319279734 0 0.064064269807315097 -0.28416082313012542 0 0.058270312985904418 -0.30816514798469019 0 0.078456545354339768 -0.28525100698693651 0 0.075192778843485145 -0.3004755496101415 0 0.068995976747761104 -0.2945131319279734 0 0.078456545354339768 -0.28525100698693651 0 0.068995976747761104 -0.2945131319279734 0 0.064064269807315097 -0.28416082313012542 0 0.064064269807315097 -0.28416082313012542 0 0.069858226628725775 -0.26015649827556059 0 0.078456545354339768 -0.28525100698693651 0 0.064064269807315097 -0.28416082313012542 0 0.069858226628725775 -0.26015649827556059 0 0.069858226628725775 -0.26015649827556059 0 0.095711127176573443 -0.2751242682777974 0 0.096521476943682558 -0.25181800011133371 0 0.078456545354339768 -0.28525100698693651 0 0.069858226628725775 -0.26015649827556059 0 0.095711127176573443 -0.2751242682777974 0 0.095711127176573443 -0.2751242682777974 0 0.114720785939063 -0.26575264298982931 0 0.1176113560141319 -0.2851589593963586 0 0.095711127176573443 -0.2751242682777974 0 0.096521476943682558 -0.25181800011133371 0 0.114720785939063 -0.26575264298982931 0 0.1376178273856396 -0.2676878026278281 0 0.114720785939063 -0.26575264298982931 0 0.1200034520355143 -0.24749468667538321 0 0.096521476943682558 -0.25181800011133371 0 0.114720785939063 -0.26575264298982931 0 0.1200034520355143 -0.24749468667538321 0 0.1376178273856396 -0.2676878026278281 0 0.114720785939063 -0.26575264298982931 0 0.1176113560141319 -0.2851589593963586 0 0.13584279120622419 -0.29064916595208462 0 0.1176113560141319 -0.2851589593963586 0 0.1212075847983899 -0.30357596212866123 0 0.1176113560141319 -0.2851589593963586 0 0.095899689397586599 -0.3008291305439913 0 0.1212075847983899 -0.30357596212866123 0 0.1176113560141319 -0.2851589593963586 0 0.095899689397586599 -0.3008291305439913 0 0.095711127176573443 -0.2751242682777974 0 0.1176113560141319 -0.2851589593963586 0 0.095899689397586599 -0.3008291305439913 0 0.095899689397586599 -0.3008291305439913 0 0.1212075847983899 -0.30357596212866123 0 0.1047724191350739 -0.31963875894108951 0 0.1212075847983899 -0.30357596212866123 0 0.1249111379911398 -0.32186001205002218 0 0.1047724191350739 -0.31963875894108951 0 0.1249111379911398 -0.32186001205002218 0 0.1047724191350739 -0.31963875894108951 0 0.11573058637367541 -0.34380091622275832 0 0.094619564876377599 -0.33586527524184762 0 0.1047724191350739 -0.31963875894108951 0 0.11573058637367541 -0.34380091622275832 0 0.094619564876377599 -0.33586527524184762 0 0.1047724191350739 -0.31963875894108951 0 0.086339338786571823 -0.32698567366184278 0 0.095899689397586599 -0.3008291305439913 0 0.1047724191350739 -0.31963875894108951 0 0.086339338786571823 -0.32698567366184278 0 0.1018679158255022 -0.38137383587803358 0 0.12334710111447229 -0.36406834251145731 0 0.1018679158255022 -0.38137383587803358 0 0.12334710111447229 -0.36406834251145731 0 0.10879209213087419 -0.36797725762153549 0 0.12334710111447229 -0.36406834251145731 0 0.11573058637367541 -0.34380091622275832 0 0.10879209213087419 -0.36797725762153549 0 0.11573058637367541 -0.34380091622275832 0 0.097402960874061584 -0.35810732382917831 0 0.10879209213087419 -0.36797725762153549 0 0.094619564876377599 -0.33586527524184762 0 0.11573058637367541 -0.34380091622275832 0 0.097402960874061584 -0.35810732382917831 0 0.094619564876377599 -0.33586527524184762 0 0.097402960874061584 -0.35810732382917831 0 0.1001863568717406 -0.38034937241650962 0 0.097402960874061584 -0.35810732382917831 0 0.1001863568717406 -0.38034937241650962 0 0.097402960874061584 -0.35810732382917831 0 0.10879209213087419 -0.36797725762153549 0 0.1001863568717406 -0.38034937241650962 0 0.097402960874061584 -0.35810732382917831 0 0.078941289569781151 -0.36740614783332631 0 0.1001863568717406 -0.38034937241650962 0 0.078941289569781151 -0.36740614783332631 0 0.094619564876377599 -0.33586527524184762 0 0.097402960874061584 -0.35810732382917831 0 0.084740357312199394 -0.34701535865000288 0 0.078941289569781151 -0.36740614783332631 0 0.084740357312199394 -0.34701535865000288 0 0.072564810466095128 -0.35396504242622201 0 0.097402960874061584 -0.35810732382917831 0 0.078941289569781151 -0.36740614783332631 0 0.084740357312199394 -0.34701535865000288 0 0.078941289569781151 -0.36740614783332631 0 0.072564810466095128 -0.35396504242622201 0 0.057696222267823373 -0.35446292325014028 0 0.084740357312199394 -0.34701535865000288 0 0.072564810466095128 -0.35396504242622201 0 0.073102422775426085 -0.33909783780230318 0 0.064643683218506637 -0.34920539315333932 0 0.072564810466095128 -0.35396504242622201 0 0.073102422775426085 -0.33909783780230318 0 0.064643683218506637 -0.34920539315333932 0 0.072564810466095128 -0.35396504242622201 0 0.057696222267823373 -0.35446292325014028 0 0.078941289569781151 -0.36740614783332631 0 0.057696222267823373 -0.35446292325014028 0 0.076461538166658155 -0.38231907318138902 0 0.078941289569781151 -0.36740614783332631 0 0.061904282875925747 -0.37237526148823941 0 0.078941289569781151 -0.36740614783332631 0 0.061904282875925747 -0.37237526148823941 0 0.057696222267823373 -0.35446292325014028 0 0.095899689397586599 -0.3008291305439913 0 0.086339338786571823 -0.32698567366184278 0 0.074188022781041252 -0.31649930169162399 0 0.094619564876377599 -0.33586527524184762 0 0.084740357312199394 -0.34701535865000288 0 0.086339338786571823 -0.32698567366184278 0 0.084740357312199394 -0.34701535865000288 0 0.086339338786571823 -0.32698567366184278 0 0.073102422775426085 -0.33909783780230318 0 0.073102422775426085 -0.33909783780230318 0 0.074188022781041252 -0.31649930169162399 0 0.052476356164494947 -0.33216947283925541 0 0.064643683218506637 -0.34920539315333932 0 0.073102422775426085 -0.33909783780230318 0 0.060945063747813971 -0.34285112352430303 0 0.074188022781041252 -0.31649930169162399 0 0.052476356164494947 -0.33216947283925541 0 0.086339338786571823 -0.32698567366184278 0 0.073102422775426085 -0.33909783780230318 0 0.074188022781041252 -0.31649930169162399 0 0.052476356164494947 -0.33216947283925541 0 0.058270312985904418 -0.30816514798469019 0 0.052476356164494947 -0.33216947283925541 0 0.044648526871603783 -0.31770081170742831 0 0.058270312985904418 -0.30816514798469019 0 0.074188022781041252 -0.31649930169162399 0 0.052476356164494947 -0.33216947283925541 0 0.058270312985904418 -0.30816514798469019 0 0.052476356164494947 -0.33216947283925541 0 0.047583047975914103 -0.35244241635483559 0 0.073102422775426085 -0.33909783780230318 0 0.060945063747813971 -0.34285112352430303 0 0.052476356164494947 -0.33216947283925541 0 0.060945063747813971 -0.34285112352430303 0 0.052476356164494947 -0.33216947283925541 0 0.054181307711507642 -0.34983992205818981 0 0.052476356164494947 -0.33216947283925541 0 0.04071506683574927 -0.34065806194451792 0 0.047583047975914103 -0.35244241635483559 0 0.052476356164494947 -0.33216947283925541 0 0.04071506683574927 -0.34065806194451792 0 0.044648526871603783 -0.31770081170742831 0 0.04071506683574927 -0.34065806194451792 0 0.03015636661650286 -0.3225410253719756 0 0.04071506683574927 -0.34065806194451792 0 0.03015636661650286 -0.3225410253719756 0 0.02636863849756152 -0.33688388254537838 0 0.052476356164494947 -0.33216947283925541 0 0.04071506683574927 -0.34065806194451792 0 0.04071506683574927 -0.34065806194451792 0 0.044648526871603783 -0.31770081170742831 0 0.03015636661650286 -0.3225410253719756 0 0.044648526871603783 -0.31770081170742831 0 0.03015636661650286 -0.3225410253719756 0 0.034491627806478041 -0.30853974567073322 0 0.061904282875925747 -0.37237526148823941 0 0.053259535722039633 -0.3641180164926533 0 0.057696222267823373 -0.35446292325014028 0 0.051370350477500881 -0.3764161884637201 0 0.053259535722039633 -0.3641180164926533 0 0.043663507306638913 -0.36868104746756258 0 0.051370350477500881 -0.3764161884637201 0 0.061904282875925747 -0.37237526148823941 0 0.053259535722039633 -0.3641180164926533 0 0.053259535722039633 -0.3641180164926533 0 0.048773826387857627 -0.3544856011778737 0 0.043663507306638913 -0.36868104746756258 0 0.052476356164494947 -0.33216947283925541 0 0.047583047975914103 -0.35244241635483559 0 0.054181307711507642 -0.34983992205818981 0 0.053259535722039633 -0.3641180164926533 0 0.053244657324237762 -0.3582642649149802 0 0.048773826387857627 -0.3544856011778737 0 0.053244657324237762 -0.3582642649149802 0 0.048773826387857627 -0.3544856011778737 0 0.054181307711507642 -0.34983992205818981 0 0.048773826387857627 -0.3544856011778737 0 0.047583047975914103 -0.35244241635483559 0 0.054181307711507642 -0.34983992205818981 0 0.048773826387857627 -0.3544856011778737 0 0.047583047975914103 -0.35244241635483559 0 0.053259535722039633 -0.3641180164926533 0 0.053244657324237762 -0.3582642649149802 0 0.057696222267823373 -0.35446292325014028 0 0.053244657324237762 -0.3582642649149802 0 0.057696222267823373 -0.35446292325014028 0 0.054181307711507642 -0.34983992205818981 0 0.064643683218506637 -0.34920539315333932 0 0.057696222267823373 -0.35446292325014028 0 0.054181307711507642 -0.34983992205818981 0 0.064643683218506637 -0.34920539315333932 0 0.060945063747813971 -0.34285112352430303 0 0.054181307711507642 -0.34983992205818981 0 0.048773826387857627 -0.3544856011778737 0 0.047583047975914103 -0.35244241635483559 0 0.043663507306638913 -0.36868104746756258 0 0.04071506683574927 -0.34065806194451792 0 0.047583047975914103 -0.35244241635483559 0 0.04071506683574927 -0.34065806194451792 0 0.047583047975914103 -0.35244241635483559 0 0.03985573710467899 -0.35136837444597901 0 0.04071506683574927 -0.34065806194451792 0 0.03985573710467899 -0.35136837444597901 0 0.03205896378917665 -0.35434441690964041 0 0.04071506683574927 -0.34065806194451792 0 0.03205896378917665 -0.35434441690964041 0 0.025431496553892478 -0.35168882095041942 0 0.04071506683574927 -0.34065806194451792 0 0.025431496553892478 -0.35168882095041942 0 0.03985573710467899 -0.35136837444597901 0 0.03205896378917665 -0.35434441690964041 0 0.039065869817875902 -0.35802860257492208 0 0.047583047975914103 -0.35244241635483559 0 0.03985573710467899 -0.35136837444597901 0 0.039065869817875902 -0.35802860257492208 0 0.02837172461734 -0.38295609391969199 0 0.033371525452051833 -0.36592480980272157 0 0.043663507306638913 -0.36868104746756258 0 0.047583047975914103 -0.35244241635483559 0 0.039065869817875902 -0.35802860257492208 0 0.043663507306638913 -0.36868104746756258 0 0.047583047975914103 -0.35244241635483559 0 0.043663507306638913 -0.36868104746756258 0 0.039065869817875902 -0.35802860257492208 0 0.033371525452051833 -0.36592480980272157 0 0.043663507306638913 -0.36868104746756258 0 0.03205896378917665 -0.35434441690964041 0 0.039065869817875902 -0.35802860257492208 0 0.033371525452051833 -0.36592480980272157 0 0.02837172461734 -0.38295609391969199 0 0.0099352179383349771 -0.36287309999936251 0 0.02837172461734 -0.38295609391969199 0 0.023697561729227701 -0.3656138881417908 0 0.0099352179383349771 -0.36287309999936251 0 0.02837172461734 -0.38295609391969199 0 0.033371525452051833 -0.36592480980272157 0 0.023697561729227701 -0.3656138881417908 0 0.02837172461734 -0.38295609391969199 0 0.0122991559467155 -0.37891225603134221 0 0.0099352179383349771 -0.36287309999936251 0 0.03205896378917665 -0.35434441690964041 0 0.033371525452051833 -0.36592480980272157 0 0.023697561729227701 -0.3656138881417908 0 0.023697561729227701 -0.3656138881417908 0 0.025431496553892478 -0.35168882095041942 0 0.0099352179383349771 -0.36287309999936251 0 0.025431496553892478 -0.35168882095041942 0 0.0075807645751098419 -0.34453611388615663 0 0.025431496553892478 -0.35168882095041942 0 0.0075807645751098419 -0.34453611388615663 0 0.02636863849756152 -0.33688388254537838 0 0.025431496553892478 -0.35168882095041942 0 0.0099352179383349771 -0.36287309999936251 0 0.03205896378917665 -0.35434441690964041 0 0.023697561729227701 -0.3656138881417908 0 0.025431496553892478 -0.35168882095041942 0 0.03205896378917665 -0.35434441690964041 0 0.025431496553892478 -0.35168882095041942 0 -0.0096343958099064687 -0.34155580596031437 0 0.0099352179383349771 -0.36287309999936251 0 -0.0096343958099064687 -0.34155580596031437 0 0.0075807645751098419 -0.34453611388615663 0 0.0099352179383349771 -0.36287309999936251 0 0.025431496553892478 -0.35168882095041942 0 0.0075807645751098419 -0.34453611388615663 0 0.0099352179383349771 -0.36287309999936251 0 -0.002178803782163227 -0.37161627006544062 0 0.0122991559467155 -0.37891225603134221 0 0.0099352179383349771 -0.36287309999936251 0 -0.0070150904897389628 -0.35875101633193152 0 -0.002178803782163227 -0.37161627006544062 0 0.0099352179383349771 -0.36287309999936251 0 -0.002178803782163227 -0.37161627006544062 0 0.0099352179383349771 -0.36287309999936251 0 0.03015636661650286 -0.3225410253719756 0 0.019597666397256509 -0.30442398879943339 0 0.03015636661650286 -0.3225410253719756 0 0.014793392922354411 -0.31628120652474823 0 0.019597666397256509 -0.30442398879943339 0 0.03015636661650286 -0.3225410253719756 0 0.01453256369494863 -0.32953892791496292 0 0.014793392922354411 -0.31628120652474823 0 0.03015636661650286 -0.3225410253719756 0 0.02636863849756152 -0.33688388254537838 0 0.01453256369494863 -0.32953892791496292 0 0.0075807645751098419 -0.34453611388615663 0 0.02636863849756152 -0.33688388254537838 0 0.01453256369494863 -0.32953892791496292 0 0.04071506683574927 -0.34065806194451792 0 0.025431496553892478 -0.35168882095041942 0 0.02636863849756152 -0.33688388254537838 0 0.0075807645751098419 -0.34453611388615663 0 0.01453256369494863 -0.32953892791496292 0 0.0034794820758208261 -0.33361449123698089 0 -0.010269967403673339 -0.33738340682189533 0 0.0075807645751098419 -0.34453611388615663 0 0.0034794820758208261 -0.33361449123698089 0 0.01453256369494863 -0.32953892791496292 0 0.0034794820758208261 -0.33361449123698089 0 0.001904989571353899 -0.32214434476741449 0 0.001904989571353899 -0.32214434476741449 0 0.014793392922354411 -0.31628120652474823 0 0.0019518825097332619 -0.30029273945570772 0 0.01453256369494863 -0.32953892791496292 0 0.001904989571353899 -0.32214434476741449 0 0.014793392922354411 -0.31628120652474823 0 0.0019518825097332619 -0.30029273945570772 0 0.0090389661780101715 -0.28630695222689118 0 0.019597666397256509 -0.30442398879943339 0 0.014793392922354411 -0.31628120652474823 0 0.0019518825097332619 -0.30029273945570772 0 0.019597666397256509 -0.30442398879943339 0 -0.0020851015340006161 -0.28052611142458661 0 0.0019518825097332619 -0.30029273945570772 0 0.0090389661780101715 -0.28630695222689118 0 0.0090389661780101715 -0.28630695222689118 0 0.019597666397256509 -0.30442398879943339 0 0.0090389661780101715 -0.28630695222689118 0 0.019597666397256509 -0.30442398879943339 0 0.033821918158706138 -0.27707393290215671 0 0.03015636661650286 -0.3225410253719756 0 0.019597666397256509 -0.30442398879943339 0 0.034491627806478041 -0.30853974567073322 0 0.019597666397256509 -0.30442398879943339 0 0.034491627806478041 -0.30853974567073322 0 0.043330632548044458 -0.29475484461045087 0 0.044648526871603783 -0.31770081170742831 0 0.034491627806478041 -0.30853974567073322 0 0.043330632548044458 -0.29475484461045087 0 0.019597666397256509 -0.30442398879943339 0 0.043330632548044458 -0.29475484461045087 0 0.033821918158706138 -0.27707393290215671 0 0.043330632548044458 -0.29475484461045087 0 0.062049371387241412 -0.28749956346879602 0 0.033821918158706138 -0.27707393290215671 0 0.064064269807315097 -0.28416082313012542 0 0.058270312985904418 -0.30816514798469019 0 0.062049371387241412 -0.28749956346879602 0 0.033821918158706138 -0.27707393290215671 0 0.064064269807315097 -0.28416082313012542 0 0.062049371387241412 -0.28749956346879602 0 0.058270312985904418 -0.30816514798469019 0 0.043330632548044458 -0.29475484461045087 0 0.062049371387241412 -0.28749956346879602 0 0.058270312985904418 -0.30816514798469019 0 0.044648526871603783 -0.31770081170742831 0 0.043330632548044458 -0.29475484461045087 0 0.058270312985904418 -0.30816514798469019 0 0.069858226628725775 -0.26015649827556059 0 0.051624075113339378 -0.26919050519125598 0 0.046498349670861652 -0.24826912251879649 0 0.064064269807315097 -0.28416082313012542 0 0.069858226628725775 -0.26015649827556059 0 0.051624075113339378 -0.26919050519125598 0 0.062049371387241412 -0.28749956346879602 0 0.051624075113339378 -0.26919050519125598 0 0.033821918158706138 -0.27707393290215671 0 0.064064269807315097 -0.28416082313012542 0 0.062049371387241412 -0.28749956346879602 0 0.051624075113339378 -0.26919050519125598 0 0.051624075113339378 -0.26919050519125598 0 0.033821918158706138 -0.27707393290215671 0 0.034240698289148337 -0.25967273023798509 0 0.051624075113339378 -0.26919050519125598 0 0.034240698289148337 -0.25967273023798509 0 0.046498349670861652 -0.24826912251879649 0 0.034240698289148337 -0.25967273023798509 0 0.02296875629887114 -0.2464092256209898 0 0.046498349670861652 -0.24826912251879649 0 0.034240698289148337 -0.25967273023798509 0 0.0055944649301708496 -0.26664830233551728 0 0.02296875629887114 -0.2464092256209898 0 0.0090389661780101715 -0.28630695222689118 0 0.033821918158706138 -0.27707393290215671 0 0.0055944649301708496 -0.26664830233551728 0 0.033821918158706138 -0.27707393290215671 0 0.034240698289148337 -0.25967273023798509 0 0.0055944649301708496 -0.26664830233551728 0 0.033821918158706138 -0.27707393290215671 0 0.0055944649301708496 -0.26664830233551728 0 -0.0020851015340006161 -0.28052611142458661 0 0.0090389661780101715 -0.28630695222689118 0 0.0055944649301708496 -0.26664830233551728 0 0.0055944649301708496 -0.26664830233551728 0 0.0055632338660241776 -0.24332209518663511 0 0.02296875629887114 -0.2464092256209898 0 -0.0080727856436109482 -0.2481099565327444 0 0.0055944649301708496 -0.26664830233551728 0 0.0055632338660241776 -0.24332209518663511 0 0.0055632338660241776 -0.24332209518663511 0 0.0032521440618358652 -0.23009641691855939 0 0.019268989126464159 -0.2308348024940351 0 -0.0084819670471955304 -0.2367225590632196 0 0.0055632338660241776 -0.24332209518663511 0 0.0032521440618358652 -0.23009641691855939 0 -0.0075276580997289226 -0.21896018305478171 0 0.0032521440618358652 -0.23009641691855939 0 0.012041166441398349 -0.21677938876306921 0 0.0032521440618358652 -0.23009641691855939 0 0.019268989126464159 -0.2308348024940351 0 0.012041166441398349 -0.21677938876306921 0 0.019268989126464159 -0.2308348024940351 0 0.028464877365028059 -0.21915571909051779 0 0.012041166441398349 -0.21677938876306921 0 0.019268989126464159 -0.2308348024940351 0 0.028464877365028059 -0.21915571909051779 0 0.041174919052571327 -0.22964645066930789 0 0.0055632338660241776 -0.24332209518663511 0 0.019268989126464159 -0.2308348024940351 0 0.02296875629887114 -0.2464092256209898 0 0.019268989126464159 -0.2308348024940351 0 0.02296875629887114 -0.2464092256209898 0 0.041174919052571327 -0.22964645066930789 0 -0.0075276580997289226 -0.21896018305478171 0 0.003555539334036632 -0.19934620758084881 0 0.012041166441398349 -0.21677938876306921 0 0.003555539334036632 -0.19934620758084881 0 0.012041166441398349 -0.21677938876306921 0 0.02523310686075431 -0.20228300343967229 0 0.028464877365028059 -0.21915571909051779 0 0.012041166441398349 -0.21677938876306921 0 0.02523310686075431 -0.20228300343967229 0 0.02523310686075431 -0.20228300343967229 0 0.033125333554059701 -0.1865598477748947 0 0.018588522793563201 -0.18166153924030251 0 0.003555539334036632 -0.19934620758084881 0 0.02523310686075431 -0.20228300343967229 0 0.018588522793563201 -0.18166153924030251 0 0.048648578511840943 -0.20623258170594561 0 0.049880579816306267 -0.17970719815632741 0 0.033125333554059701 -0.1865598477748947 0 0.02523310686075431 -0.20228300343967229 0 0.048648578511840943 -0.20623258170594561 0 0.033125333554059701 -0.1865598477748947 0 0.028464877365028059 -0.21915571909051779 0 0.02523310686075431 -0.20228300343967229 0 0.048648578511840943 -0.20623258170594561 0 0.028464877365028059 -0.21915571909051779 0 0.048648578511840943 -0.20623258170594561 0 0.041174919052571327 -0.22964645066930789 0 0.048648578511840943 -0.20623258170594561 0 0.059757914812518881 -0.22869522271940709 0 0.066598585428591164 -0.21133354617687591 0 0.048648578511840943 -0.20623258170594561 0 0.067160325985138131 -0.18691533881804831 0 0.049880579816306267 -0.17970719815632741 0 0.048648578511840943 -0.20623258170594561 0 0.066598585428591164 -0.21133354617687591 0 0.067160325985138131 -0.18691533881804831 0 0.069858226628725775 -0.26015649827556059 0 0.046498349670861652 -0.24826912251879649 0 0.059757914812518881 -0.22869522271940709 0 0.02296875629887114 -0.2464092256209898 0 0.046498349670861652 -0.24826912251879649 0 0.041174919052571327 -0.22964645066930789 0 0.048648578511840943 -0.20623258170594561 0 0.041174919052571327 -0.22964645066930789 0 0.059757914812518881 -0.22869522271940709 0 0.046498349670861652 -0.24826912251879649 0 0.041174919052571327 -0.22964645066930789 0 0.059757914812518881 -0.22869522271940709 0 0.069858226628725775 -0.26015649827556059 0 0.059757914812518881 -0.22869522271940709 0 0.080941623453078815 -0.2334444244951252 0 0.069858226628725775 -0.26015649827556059 0 0.096521476943682558 -0.25181800011133371 0 0.080941623453078815 -0.2334444244951252 0 0.096521476943682558 -0.25181800011133371 0 0.080941623453078815 -0.2334444244951252 0 0.102389076685389 -0.22730157072293841 0 0.080941623453078815 -0.2334444244951252 0 0.084774701335263575 -0.20710845477049339 0 0.102389076685389 -0.22730157072293841 0 0.059757914812518881 -0.22869522271940709 0 0.080941623453078815 -0.2334444244951252 0 0.066598585428591164 -0.21133354617687591 0 0.080941623453078815 -0.2334444244951252 0 0.066598585428591164 -0.21133354617687591 0 0.084774701335263575 -0.20710845477049339 0 0.084774701335263575 -0.20710845477049339 0 0.067160325985138131 -0.18691533881804831 0 0.066598585428591164 -0.21133354617687591 0 0.084774701335263575 -0.20710845477049339 0 0.067160325985138131 -0.18691533881804831 0 0.092537347032927528 -0.18889969997864839 0 0.084774701335263575 -0.20710845477049339 0 0.067160325985138131 -0.18691533881804831 0 0.084774701335263575 -0.20710845477049339 0 0.102389076685389 -0.22730157072293841 0 0.084774701335263575 -0.20710845477049339 0 0.10575093398731179 -0.20517541990618701 0 0.102389076685389 -0.22730157072293841 0 0.092537347032927528 -0.18889969997864839 0 0.10575093398731179 -0.20517541990618701 0 0.11404320040195411 -0.17785048998131209 0 0.092537347032927528 -0.18889969997864839 0 0.084774701335263575 -0.20710845477049339 0 0.10575093398731179 -0.20517541990618701 0 0.10575093398731179 -0.20517541990618701 0 0.11404320040195411 -0.17785048998131209 0 0.12592289232087811 -0.19910656028939411 0 0.10575093398731179 -0.20517541990618701 0 0.1284413173888232 -0.22347585252773641 0 0.12592289232087811 -0.19910656028939411 0 0.10575093398731179 -0.20517541990618701 0 0.102389076685389 -0.22730157072293841 0 0.1284413173888232 -0.22347585252773641 0 0.1200034520355143 -0.24749468667538321 0 0.102389076685389 -0.22730157072293841 0 0.1284413173888232 -0.22347585252773641 0 0.1200034520355143 -0.24749468667538321 0 0.102389076685389 -0.22730157072293841 0 0.096521476943682558 -0.25181800011133371 0 0.1200034520355143 -0.24749468667538321 0 0.102389076685389 -0.22730157072293841 0 0.099885875260422058 -0.15149088269105351 0 0.1161887790728692 -0.1476769396888597 0 0.1105045846919957 -0.16013033574144619 0 0.099885875260422058 -0.15149088269105351 0 0.099597293261818404 -0.1347502866929414 0 0.1161887790728692 -0.1476769396888597 0 0.099597293261818404 -0.1347502866929414 0 0.1161887790728692 -0.1476769396888597 0 0.099597293261818404 -0.1347502866929414 0 0.1047785765018954 -0.13712350701568179 0 0.1161887790728692 -0.1476769396888597 0 0.099597293261818404 -0.1347502866929414 0 0.093527805260815264 -0.13002146576964491 0 0.104312872852085 -0.12243825994362539 0 0.099597293261818404 -0.1347502866929414 0 0.093527805260815264 -0.13002146576964491 0 0.099597293261818404 -0.1347502866929414 0 0.093527805260815264 -0.13002146576964491 0 0.092996203934319052 -0.1329056080468716 0 0.099597293261818404 -0.1347502866929414 0 0.1088944047617572 -0.13480079442927331 0 0.104312872852085 -0.12243825994362539 0 0.099597293261818404 -0.1347502866929414 0 0.1047785765018954 -0.13712350701568179 0 0.1088944047617572 -0.13480079442927331 0 0.099597293261818404 -0.1347502866929414 0 0.1088944047617572 -0.13480079442927331 0 0.1047785765018954 -0.13712350701568179 0 0.1088944047617572 -0.13480079442927331 0 0.1088944047617572 -0.13480079442927331 0 0.1161887790728692 -0.1476769396888597 0 0.13638976604354719 -0.13495016646355951 0 0.1088944047617572 -0.13480079442927331 0 0.12800820934211829 -0.12401417466047961 0 0.13638976604354719 -0.13495016646355951 0 0.1047785765018954 -0.13712350701568179 0 0.1088944047617572 -0.13480079442927331 0 0.1161887790728692 -0.1476769396888597 0 0.1088944047617572 -0.13480079442927331 0 0.104312872852085 -0.12243825994362539 0 0.12800820934211829 -0.12401417466047961 0 0.1088944047617572 -0.13480079442927331 0 0.12800820934211829 -0.12401417466047961 0 0.1088944047617572 -0.13480079442927331 0 0.13638976604354719 -0.13495016646355951 0 0.1161887790728692 -0.1476769396888597 0 0.1105045846919957 -0.16013033574144619 0 0.1305387904294309 -0.15561497697083931 0 0.1105045846919957 -0.16013033574144619 0 0.11404320040195411 -0.17785048998131209 0 0.1305387904294309 -0.15561497697083931 0 0.092537347032927528 -0.18889969997864839 0 0.11404320040195411 -0.17785048998131209 0 0.090957573454969964 -0.1674487964172009 0 0.1105045846919957 -0.16013033574144619 0 0.11404320040195411 -0.17785048998131209 0 0.090957573454969964 -0.1674487964172009 0 0.099885875260422058 -0.15149088269105351 0 0.1105045846919957 -0.16013033574144619 0 0.090957573454969964 -0.1674487964172009 0 0.099885875260422058 -0.15149088269105351 0 0.090957573454969964 -0.1674487964172009 0 0.080257725164813276 -0.1505404030764457 0 0.090957573454969964 -0.1674487964172009 0 0.065342325237630991 -0.1650228072456788 0 0.080257725164813276 -0.1505404030764457 0 0.092537347032927528 -0.18889969997864839 0 0.090957573454969964 -0.1674487964172009 0 0.067160325985138131 -0.18691533881804831 0 0.090957573454969964 -0.1674487964172009 0 0.067160325985138131 -0.18691533881804831 0 0.065342325237630991 -0.1650228072456788 0 0.065342325237630991 -0.1650228072456788 0 0.080257725164813276 -0.1505404030764457 0 0.056224073158944461 -0.14994265306170279 0 0.080257725164813276 -0.1505404030764457 0 0.069539210615093855 -0.1345869923500955 0 0.056224073158944461 -0.14994265306170279 0 0.099885875260422058 -0.15149088269105351 0 0.099597293261818404 -0.1347502866929414 0 0.080257725164813276 -0.1505404030764457 0 0.099597293261818404 -0.1347502866929414 0 0.080257725164813276 -0.1505404030764457 0 0.069539210615093855 -0.1345869923500955 0 0.099597293261818404 -0.1347502866929414 0 0.092996203934319052 -0.1329056080468716 0 0.069539210615093855 -0.1345869923500955 0 0.099597293261818404 -0.1347502866929414 0 0.069539210615093855 -0.1345869923500955 0 0.092996203934319052 -0.1329056080468716 0 0.069539210615093855 -0.1345869923500955 0 0.079322302472514483 -0.11895376470488229 0 0.093527805260815264 -0.13002146576964491 0 0.092996203934319052 -0.1329056080468716 0 0.079322302472514483 -0.11895376470488229 0 0.093527805260815264 -0.13002146576964491 0 0.092996203934319052 -0.1329056080468716 0 0.069539210615093855 -0.1345869923500955 0 0.052298963826290519 -0.1211548808236817 0 0.066569319149528045 -0.1206454253796948 0 0.069539210615093855 -0.1345869923500955 0 0.039481127968369292 -0.1344236980072451 0 0.052298963826290519 -0.1211548808236817 0 0.069539210615093855 -0.1345869923500955 0 0.056224073158944461 -0.14994265306170279 0 0.039481127968369292 -0.1344236980072451 0 0.069539210615093855 -0.1345869923500955 0 0.039481127968369292 -0.1344236980072451 0 0.056224073158944461 -0.14994265306170279 0 0.038811693183881758 -0.15444647348478721 0 0.047368807546727579 -0.16279517251764489 0 0.056224073158944461 -0.14994265306170279 0 0.038811693183881758 -0.15444647348478721 0 0.039481127968369292 -0.1344236980072451 0 0.038811693183881758 -0.15444647348478721 0 0.039481127968369292 -0.1344236980072451 0 0.019056913867763529 -0.155566515408149 0 0.034777770017858589 -0.1343981464191871 0 0.039481127968369292 -0.1344236980072451 0 0.022320289212787989 -0.1422177528203018 0 0.034777770017858589 -0.1343981464191871 0 0.039481127968369292 -0.1344236980072451 0 0.034777770017858589 -0.1343981464191871 0 0.029299678594365521 -0.12697140115214181 0 0.037800108132664212 -0.12348471533883321 0 0.034777770017858589 -0.1343981464191871 0 0.039481127968369292 -0.1344236980072451 0 0.037800108132664212 -0.12348471533883321 0 0.039481127968369292 -0.1344236980072451 0 0.052298963826290519 -0.1211548808236817 0 0.039481127968369292 -0.1344236980072451 0 0.052298963826290519 -0.1211548808236817 0 0.037800108132664212 -0.12348471533883321 0 0.067160325985138131 -0.18691533881804831 0 0.065342325237630991 -0.1650228072456788 0 0.049880579816306267 -0.17970719815632741 0 0.065342325237630991 -0.1650228072456788 0 0.049880579816306267 -0.17970719815632741 0 0.047368807546727579 -0.16279517251764489 0 0.065342325237630991 -0.1650228072456788 0 0.056224073158944461 -0.14994265306170279 0 0.047368807546727579 -0.16279517251764489 0 0.049880579816306267 -0.17970719815632741 0 0.047368807546727579 -0.16279517251764489 0 0.031927543377605602 -0.16950432842919569 0 0.038811693183881758 -0.15444647348478721 0 0.047368807546727579 -0.16279517251764489 0 0.031927543377605602 -0.16950432842919569 0 0.049880579816306267 -0.17970719815632741 0 0.031927543377605602 -0.16950432842919569 0 0.033125333554059701 -0.1865598477748947 0 0.031927543377605602 -0.16950432842919569 0 0.033125333554059701 -0.1865598477748947 0 0.018588522793563201 -0.18166153924030251 0 0.031927543377605602 -0.16950432842919569 0 0.018588522793563201 -0.18166153924030251 0 0.019056913867763529 -0.155566515408149 0 0.038811693183881758 -0.15444647348478721 0 0.031927543377605602 -0.16950432842919569 0 0.019056913867763529 -0.155566515408149 0 -0.0013673002328405961 -0.1767093328090546 0 0.018588522793563201 -0.18166153924030251 0 0.019056913867763529 -0.155566515408149 0 -0.0013673002328405961 -0.1767093328090546 0 0.019056913867763529 -0.155566515408149 0 -0.0013673002328405961 -0.1767093328090546 0 0.019056913867763529 -0.155566515408149 0 0.0027310736070901482 -0.15493719994590471 0 -0.0013673002328405961 -0.1767093328090546 0 0.003555539334036632 -0.19934620758084881 0 0.018588522793563201 -0.18166153924030251 0 0.020222670022858619 -0.12863691797839069 0 0.022320289212787989 -0.1422177528203018 0 0.0088678229424013627 -0.13941235935176011 0 0.020222670022858619 -0.12863691797839069 0 0.02665510196196769 -0.1330560545925053 0 0.022320289212787989 -0.1422177528203018 0 0.034777770017858589 -0.1343981464191871 0 0.029299678594365521 -0.12697140115214181 0 0.02665510196196769 -0.1330560545925053 0 0.020222670022858619 -0.12863691797839069 0 0.029299678594365521 -0.12697140115214181 0 0.02665510196196769 -0.1330560545925053 0 0.034777770017858589 -0.1343981464191871 0 0.02665510196196769 -0.1330560545925053 0 0.022320289212787989 -0.1422177528203018 0 0.039481127968369292 -0.1344236980072451 0 0.019056913867763529 -0.155566515408149 0 0.019056913867763529 -0.155566515408149 0 0.022320289212787989 -0.1422177528203018 0 0.0088678229424013627 -0.13941235935176011 0 0.039481127968369292 -0.1344236980072451 0 0.019056913867763529 -0.155566515408149 0 0.022320289212787989 -0.1422177528203018 0 0.019056913867763529 -0.155566515408149 0 0.0027310736070901482 -0.15493719994590471 0 0.0088678229424013627 -0.13941235935176011 0 0.020222670022858619 -0.12863691797839069 0 0.0088678229424013627 -0.13941235935176011 0 0.0015243557028834459 -0.11711868301268021 0 0.020222670022858619 -0.12863691797839069 0 0.0015243557028834459 -0.11711868301268021 0 0.0144479962461943 -0.1082343501681014 0 0.020222670022858619 -0.12863691797839069 0 0.02728947708542654 -0.1146689930447462 0 0.0144479962461943 -0.1082343501681014 0 0.020222670022858619 -0.12863691797839069 0 0.029299678594365521 -0.12697140115214181 0 0.02728947708542654 -0.1146689930447462 0 0.0144479962461943 -0.1082343501681014 0 0.01674231050701382 -0.093658367309864349 0 0.03170108987002046 -0.10050694789866579 0 0.02728947708542654 -0.1146689930447462 0 0.0144479962461943 -0.1082343501681014 0 0.03170108987002046 -0.10050694789866579 0 0.01674231050701382 -0.093658367309864349 0 0.02745527456064175 -0.089089442263575569 0 0.03170108987002046 -0.10050694789866579 0 0.0144479962461943 -0.1082343501681014 0 0.001856719827670471 -0.098182337095309047 0 0.01674231050701382 -0.093658367309864349 0 0.0015243557028834459 -0.11711868301268021 0 0.0144479962461943 -0.1082343501681014 0 0.001856719827670471 -0.098182337095309047 0 0.001856719827670471 -0.098182337095309047 0 0.0065051428120863272 -0.082127796022149757 0 0.01674231050701382 -0.093658367309864349 0 0.0065051428120863272 -0.082127796022149757 0 0.018539693253586439 -0.071597204448153262 0 0.01731060528333208 -0.084118202510935727 0 0.0065051428120863272 -0.082127796022149757 0 0.01674231050701382 -0.093658367309864349 0 0.01731060528333208 -0.084118202510935727 0 0.0065051428120863272 -0.082127796022149757 0 0.018539693253586439 -0.071597204448153262 0 0.00035237720396625368 -0.061086817302918282 0 0.018539693253586439 -0.071597204448153262 0 0.00035237720396625368 -0.061086817302918282 0 0.029337839486141829 -0.062098975348790997 0 0.018539693253586439 -0.071597204448153262 0 0.036998616429076953 -0.080413518666692163 0 0.029337839486141829 -0.062098975348790997 0 0.018539693253586439 -0.071597204448153262 0 0.039278739387756327 -0.087755278287702396 0 0.018539693253586439 -0.071597204448153262 0 0.02745527456064175 -0.089089442263575569 0 0.039278739387756327 -0.087755278287702396 0 0.018539693253586439 -0.071597204448153262 0 0.01731060528333208 -0.084118202510935727 0 0.02745527456064175 -0.089089442263575569 0 0.01674231050701382 -0.093658367309864349 0 0.01731060528333208 -0.084118202510935727 0 0.02745527456064175 -0.089089442263575569 0 0.018539693253586439 -0.071597204448153262 0 0.036998616429076953 -0.080413518666692163 0 0.039278739387756327 -0.087755278287702396 0 0.02745527456064175 -0.089089442263575569 0 0.039278739387756327 -0.087755278287702396 0 0.036114206476440321 -0.094502097047588079 0 0.036998616429076953 -0.080413518666692163 0 0.039278739387756327 -0.087755278287702396 0 0.050747139898636717 -0.081209848062237813 0 0.058323301768317432 -0.063111133394663815 0 0.029337839486141829 -0.062098975348790997 0 0.036998616429076953 -0.080413518666692163 0 0.058323301768317432 -0.063111133394663815 0 0.029337839486141829 -0.062098975348790997 0 0.036998616429076953 -0.080413518666692163 0 0.058323301768317432 -0.063111133394663815 0 0.058323301768317432 -0.063111133394663815 0 0.050747139898636717 -0.081209848062237813 0 0.060228637404373828 -0.081759239016750626 0 0.036998616429076953 -0.080413518666692163 0 0.058323301768317432 -0.063111133394663815 0 0.050747139898636717 -0.081209848062237813 0 0.039278739387756327 -0.087755278287702396 0 0.050747139898636717 -0.081209848062237813 0 0.060818353003097771 -0.090653503469919336 0 0.050747139898636717 -0.081209848062237813 0 0.060228637404373828 -0.081759239016750626 0 0.060818353003097771 -0.090653503469919336 0 0.060017785521926562 -0.10391335212725129 0 0.042153090511964017 -0.099193769589441219 0 0.043653631303676513 -0.1092911725859987 0 0.060017785521926562 -0.10391335212725129 0 0.043653631303676513 -0.1092911725859987 0 0.039278739387756327 -0.087755278287702396 0 0.060818353003097771 -0.090653503469919336 0 0.060017785521926562 -0.10391335212725129 0 0.060017785521926562 -0.10391335212725129 0 0.053375718786791107 -0.1112883554404277 0 0.043653631303676513 -0.1092911725859987 0 0.039278739387756327 -0.087755278287702396 0 0.060017785521926562 -0.10391335212725129 0 0.039278739387756327 -0.087755278287702396 0 0.060017785521926562 -0.10391335212725129 0 0.042153090511964017 -0.099193769589441219 0 0.060017785521926562 -0.10391335212725129 0 0.053375718786791107 -0.1112883554404277 0 0.065116799684213397 -0.10788606364011991 0 0.052298963826290519 -0.1211548808236817 0 0.066569319149528045 -0.1206454253796948 0 0.065116799684213397 -0.10788606364011991 0 0.052298963826290519 -0.1211548808236817 0 0.065116799684213397 -0.10788606364011991 0 0.052298963826290519 -0.1211548808236817 0 0.053375718786791107 -0.1112883554404277 0 0.065116799684213397 -0.10788606364011991 0 0.052298963826290519 -0.1211548808236817 0 0.053375718786791107 -0.1112883554404277 0 0.043653631303676513 -0.1092911725859987 0 0.02728947708542654 -0.1146689930447462 0 0.037800108132664212 -0.12348471533883321 0 0.043653631303676513 -0.1092911725859987 0 0.02728947708542654 -0.1146689930447462 0 0.043653631303676513 -0.1092911725859987 0 0.052298963826290519 -0.1211548808236817 0 0.037800108132664212 -0.12348471533883321 0 0.043653631303676513 -0.1092911725859987 0 0.029299678594365521 -0.12697140115214181 0 0.02728947708542654 -0.1146689930447462 0 0.037800108132664212 -0.12348471533883321 0 0.02728947708542654 -0.1146689930447462 0 0.03170108987002046 -0.10050694789866579 0 0.043653631303676513 -0.1092911725859987 0 0.036114206476440321 -0.094502097047588079 0 0.03170108987002046 -0.10050694789866579 0 0.042153090511964017 -0.099193769589441219 0 0.02745527456064175 -0.089089442263575569 0 0.036114206476440321 -0.094502097047588079 0 0.03170108987002046 -0.10050694789866579 0 0.039278739387756327 -0.087755278287702396 0 0.036114206476440321 -0.094502097047588079 0 0.042153090511964017 -0.099193769589441219 0 0.03170108987002046 -0.10050694789866579 0 0.042153090511964017 -0.099193769589441219 0 0.043653631303676513 -0.1092911725859987 0 0.025695344612614111 0.0095801541182225364 0 0.02812452509478746 -0.0099579005571815878 0 0.006935528729737548 -0.0054826371559186567 0 0.02812452509478746 -0.0099579005571815878 0 0.006935528729737548 -0.0054826371559186567 0 0.01889941714368459 -0.025130787452367569 0 0.006935528729737548 -0.0054826371559186567 0 0.0027408304473846411 -0.028176541972939319 0 0.01889941714368459 -0.025130787452367569 0 0.02812452509478746 -0.0099579005571815878 0 0.01889941714368459 -0.025130787452367569 0 0.035567370731091272 -0.02454493013615917 0 0.01889941714368459 -0.025130787452367569 0 0.02846567832778216 -0.042756626880165419 0 0.035567370731091272 -0.02454493013615917 0 0.01889941714368459 -0.025130787452367569 0 0.02846567832778216 -0.042756626880165419 0 0.0096258971738255473 -0.043108802377643002 0 0.02846567832778216 -0.042756626880165419 0 0.0096258971738255473 -0.043108802377643002 0 0.016945448047928951 -0.052262805477379423 0 0.01889941714368459 -0.025130787452367569 0 0.0096258971738255473 -0.043108802377643002 0 -0.01026660782967455 -0.041229232136501717 0 0.0027408304473846411 -0.028176541972939319 0 0.0096258971738255473 -0.043108802377643002 0 0.0027408304473846411 -0.028176541972939319 0 0.01889941714368459 -0.025130787452367569 0 0.0096258971738255473 -0.043108802377643002 0 0.0096258971738255473 -0.043108802377643002 0 0.00035237720396625368 -0.061086817302918282 0 0.016945448047928951 -0.052262805477379423 0 0.00035237720396625368 -0.061086817302918282 0 0.016945448047928951 -0.052262805477379423 0 0.029337839486141829 -0.062098975348790997 0 0.0096258971738255473 -0.043108802377643002 0 0.00035237720396625368 -0.061086817302918282 0 0.00035237720396625368 -0.061086817302918282 0 0.029337839486141829 -0.062098975348790997 0 0.02846567832778216 -0.042756626880165419 0 0.016945448047928951 -0.052262805477379423 0 0.029337839486141829 -0.062098975348790997 0 0.02846567832778216 -0.042756626880165419 0 0.029337839486141829 -0.062098975348790997 0 0.044041605111135473 -0.049431168693685697 0 0.058323301768317432 -0.063111133394663815 0 0.029337839486141829 -0.062098975348790997 0 0.044041605111135473 -0.049431168693685697 0 0.058323301768317432 -0.063111133394663815 0 0.044041605111135473 -0.049431168693685697 0 0.059903341899081253 -0.040049795258846832 0 0.059903341899081253 -0.040049795258846832 0 0.045154502468205723 -0.035444412579530127 0 0.052999286202529479 -0.022291816621987929 0 0.044041605111135473 -0.049431168693685697 0 0.059903341899081253 -0.040049795258846832 0 0.045154502468205723 -0.035444412579530127 0 0.02846567832778216 -0.042756626880165419 0 0.044041605111135473 -0.049431168693685697 0 0.045154502468205723 -0.035444412579530127 0 0.02846567832778216 -0.042756626880165419 0 0.045154502468205723 -0.035444412579530127 0 0.035567370731091272 -0.02454493013615917 0 0.045154502468205723 -0.035444412579530127 0 0.035567370731091272 -0.02454493013615917 0 0.052999286202529479 -0.022291816621987929 0 0.035567370731091272 -0.02454493013615917 0 0.052999286202529479 -0.022291816621987929 0 0.04138045704507981 -0.013293391242584921 0 0.02812452509478746 -0.0099579005571815878 0 0.035567370731091272 -0.02454493013615917 0 0.04138045704507981 -0.013293391242584921 0 0.059903341899081253 -0.040049795258846832 0 0.052999286202529479 -0.022291816621987929 0 0.073093181043766914 -0.026775388104941698 0 0.052999286202529479 -0.022291816621987929 0 0.049896637954744763 -0.0073960790217490677 0 0.04138045704507981 -0.013293391242584921 0 0.052999286202529479 -0.022291816621987929 0 0.049896637954744763 -0.0073960790217490677 0 0.066530330394949447 -0.012320269852860621 0 0.049896637954744763 -0.0073960790217490677 0 0.040314465242246092 -0.002276229875846851 0 0.04138045704507981 -0.013293391242584921 0 0.025695344612614111 0.0095801541182225364 0 0.02812452509478746 -0.0099579005571815878 0 0.040314465242246092 -0.002276229875846851 0 0.046640351189982193 0.001482106492276504 0 0.049896637954744763 -0.0073960790217490677 0 0.040314465242246092 -0.002276229875846851 0 0.02812452509478746 -0.0099579005571815878 0 0.040314465242246092 -0.002276229875846851 0 0.04138045704507981 -0.013293391242584921 0 0.075461568133428525 0.0044331687040122013 0 0.081703970602104437 -0.011974759962048749 0 0.098011391193308373 -0.0056982583262641584 0 0.075461568133428525 0.0044331687040122013 0 0.049896637954744763 -0.0073960790217490677 0 0.075461568133428525 0.0044331687040122013 0 0.049896637954744763 -0.0073960790217490677 0 0.066530330394949447 -0.012320269852860621 0 0.075461568133428525 0.0044331687040122013 0 0.081703970602104437 -0.011974759962048749 0 0.066530330394949447 -0.012320269852860621 0 0.081703970602104437 -0.011974759962048749 0 0.066530330394949447 -0.012320269852860621 0 0.073093181043766914 -0.026775388104941698 0 0.052999286202529479 -0.022291816621987929 0 0.066530330394949447 -0.012320269852860621 0 0.073093181043766914 -0.026775388104941698 0 0.081703970602104437 -0.011974759962048749 0 0.097837743661838034 -0.031049975793767819 0 0.098011391193308373 -0.0056982583262641584 0 0.081703970602104437 -0.011974759962048749 0 0.073093181043766914 -0.026775388104941698 0 0.097837743661838034 -0.031049975793767819 0 0.078080522715077566 -0.047080554594215653 0 0.097861902682226248 -0.045151270938537998 0 0.097837743661838034 -0.031049975793767819 0 0.073093181043766914 -0.026775388104941698 0 0.078080522715077566 -0.047080554594215653 0 0.097837743661838034 -0.031049975793767819 0 0.078080522715077566 -0.047080554594215653 0 0.097837743661838034 -0.031049975793767819 0 0.059903341899081253 -0.040049795258846832 0 0.073093181043766914 -0.026775388104941698 0 0.078080522715077566 -0.047080554594215653 0 0.058323301768317432 -0.063111133394663815 0 0.078080522715077566 -0.047080554594215653 0 0.058323301768317432 -0.063111133394663815 0 0.059903341899081253 -0.040049795258846832 0 0.078080522715077566 -0.047080554594215653 0 0.058323301768317432 -0.063111133394663815 0 0.078080522715077566 -0.047080554594215653 0 0.081939961595450139 -0.063935815506958552 0 0.078080522715077566 -0.047080554594215653 0 0.094142039140793971 -0.055881476276546937 0 0.081939961595450139 -0.063935815506958552 0 0.078080522715077566 -0.047080554594215653 0 0.094142039140793971 -0.055881476276546937 0 0.097861902682226248 -0.045151270938537998 0 0.094142039140793971 -0.055881476276546937 0 0.081939961595450139 -0.063935815506958552 0 0.1067368008806147 -0.064801708903802782 0 0.094142039140793971 -0.055881476276546937 0 0.1075629424949773 -0.053875431803618333 0 0.097861902682226248 -0.045151270938537998 0 0.094142039140793971 -0.055881476276546937 0 0.1075629424949773 -0.053875431803618333 0 0.1067368008806147 -0.064801708903802782 0 0.1075629424949773 -0.053875431803618333 0 0.1067368008806147 -0.064801708903802782 0 0.1075629424949773 -0.053875431803618333 0 0.1232921759667842 -0.047663851323270827 0 0.1067368008806147 -0.064801708903802782 0 0.1232921759667842 -0.047663851323270827 0 0.1067368008806147 -0.064801708903802782 0 0.1075629424949773 -0.053875431803618333 0 0.1232921759667842 -0.047663851323270827 0 0.1109518143893137 -0.039435966374661548 0 0.1232921759667842 -0.047663851323270827 0 0.1067368008806147 -0.064801708903802782 0 0.13548767730717889 -0.06580567532731052 0 0.1232921759667842 -0.047663851323270827 0 0.1109518143893137 -0.039435966374661548 0 0.124582941869709 -0.030507807285028901 0 0.1109518143893137 -0.039435966374661548 0 0.097861902682226248 -0.045151270938537998 0 0.097837743661838034 -0.031049975793767819 0 0.1075629424949773 -0.053875431803618333 0 0.1109518143893137 -0.039435966374661548 0 0.097861902682226248 -0.045151270938537998 0 0.097837743661838034 -0.031049975793767819 0 0.1175949646085984 -0.015019396993320021 0 0.097837743661838034 -0.031049975793767819 0 0.1175949646085984 -0.015019396993320021 0 0.098011391193308373 -0.0056982583262641584 0 0.1109518143893137 -0.039435966374661548 0 0.097837743661838034 -0.031049975793767819 0 0.1175949646085984 -0.015019396993320021 0 0.1109518143893137 -0.039435966374661548 0 0.124582941869709 -0.030507807285028901 0 0.1175949646085984 -0.015019396993320021 0 0.124582941869709 -0.030507807285028901 0 0.1175949646085984 -0.015019396993320021 0 0.13165260102391191 -0.019660205177744808 0 0.11882011836095251 0.0065886106746579649 0 0.1175949646085984 -0.015019396993320021 0 0.098011391193308373 -0.0056982583262641584 0 0.11882011836095251 0.0065886106746579649 0 0.13735218555535891 0.001011181807127467 0 0.1175949646085984 -0.015019396993320021 0 0.073111172643960082 -0.099610417542301155 0 0.10058413041743761 -0.090581864498492995 0 0.088608598291174498 -0.101420796185217 0 0.073111172643960082 -0.099610417542301155 0 0.10058413041743761 -0.090581864498492995 0 0.083297568291202648 -0.10670285905343881 0 0.088608598291174498 -0.101420796185217 0 0.073111172643960082 -0.099610417542301155 0 0.083297568291202648 -0.10670285905343881 0 0.088608598291174498 -0.101420796185217 0 0.097441521812097198 -0.10878804364663471 0 0.093527805260815264 -0.13002146576964491 0 0.079322302472514483 -0.11895376470488229 0 0.097441521812097198 -0.10878804364663471 0 0.083297568291202648 -0.10670285905343881 0 0.079322302472514483 -0.11895376470488229 0 0.097441521812097198 -0.10878804364663471 0 0.093527805260815264 -0.13002146576964491 0 0.079322302472514483 -0.11895376470488229 0 0.079322302472514483 -0.11895376470488229 0 0.065116799684213397 -0.10788606364011991 0 0.083297568291202648 -0.10670285905343881 0 0.079322302472514483 -0.11895376470488229 0 0.065116799684213397 -0.10788606364011991 0 0.079322302472514483 -0.11895376470488229 0 0.066569319149528045 -0.1206454253796948 0 0.065116799684213397 -0.10788606364011991 0 0.069539210615093855 -0.1345869923500955 0 0.079322302472514483 -0.11895376470488229 0 0.066569319149528045 -0.1206454253796948 0 0.060017785521926562 -0.10391335212725129 0 0.065116799684213397 -0.10788606364011991 0 0.060017785521926562 -0.10391335212725129 0 0.073111172643960082 -0.099610417542301155 0 0.065116799684213397 -0.10788606364011991 0 0.073111172643960082 -0.099610417542301155 0 0.083297568291202648 -0.10670285905343881 0 0.065116799684213397 -0.10788606364011991 0 0.073111172643960082 -0.099610417542301155 0 0.060017785521926562 -0.10391335212725129 0 0.065116799684213397 -0.10788606364011991 0 0.073111172643960082 -0.099610417542301155 0 0.060818353003097771 -0.090653503469919336 0 0.060017785521926562 -0.10391335212725129 0 0.073111172643960082 -0.099610417542301155 0 0.060818353003097771 -0.090653503469919336 0 0.073111172643960082 -0.099610417542301155 0 0.074211161232423301 -0.082716200610011378 0 0.060228637404373828 -0.081759239016750626 0 0.060818353003097771 -0.090653503469919336 0 0.074211161232423301 -0.082716200610011378 0 0.058323301768317432 -0.063111133394663815 0 0.081939961595450139 -0.063935815506958552 0 0.058323301768317432 -0.063111133394663815 0 0.074211161232423301 -0.082716200610011378 0 0.081939961595450139 -0.063935815506958552 0 0.058323301768317432 -0.063111133394663815 0 0.060228637404373828 -0.081759239016750626 0 0.074211161232423301 -0.082716200610011378 0 0.074211161232423301 -0.082716200610011378 0 0.081939961595450139 -0.063935815506958552 0 0.089190063779311518 -0.082965808471458069 0 0.081939961595450139 -0.063935815506958552 0 0.089190063779311518 -0.082965808471458069 0 0.1052689549146623 -0.0663211994006144 0 0.073111172643960082 -0.099610417542301155 0 0.074211161232423301 -0.082716200610011378 0 0.089190063779311518 -0.082965808471458069 0 0.073111172643960082 -0.099610417542301155 0 0.089190063779311518 -0.082965808471458069 0 0.073111172643960082 -0.099610417542301155 0 0.089190063779311518 -0.082965808471458069 0 0.10058413041743761 -0.090581864498492995 0 0.089190063779311518 -0.082965808471458069 0 0.1017080788123951 -0.087804556385465471 0 0.1052689549146623 -0.0663211994006144 0 0.089190063779311518 -0.082965808471458069 0 0.10058413041743761 -0.090581864498492995 0 0.1017080788123951 -0.087804556385465471 0 0.1017080788123951 -0.087804556385465471 0 0.1084674426683357 -0.077888137089068013 0 0.1052689549146623 -0.0663211994006144 0 0.089190063779311518 -0.082965808471458069 0 0.1052689549146623 -0.0663211994006144 0 0.081939961595450139 -0.063935815506958552 0 0.1067368008806147 -0.064801708903802782 0 0.1052689549146623 -0.0663211994006144 0 0.081939961595450139 -0.063935815506958552 0 0.1067368008806147 -0.064801708903802782 0 0.1017080788123951 -0.087804556385465471 0 0.1052689549146623 -0.0663211994006144 0 0.1084674426683357 -0.077888137089068013 0 0.1067368008806147 -0.064801708903802782 0 0.1052689549146623 -0.0663211994006144 0 0.1067368008806147 -0.064801708903802782 0 0.1052689549146623 -0.0663211994006144 0 0.1067368008806147 -0.064801708903802782 0 0.13548767730717889 -0.06580567532731052 0 0.1084674426683357 -0.077888137089068013 0 0.1067368008806147 -0.064801708903802782 0 0.1232061248222129 -0.075206297362028066 0 0.1067368008806147 -0.064801708903802782 0 0.1232061248222129 -0.075206297362028066 0 0.13548767730717889 -0.06580567532731052 0 0.1017080788123951 -0.087804556385465471 0 0.1084674426683357 -0.077888137089068013 0 0.1272797878356694 -0.088593758706814907 0 0.1017080788123951 -0.087804556385465471 0 0.1272797878356694 -0.088593758706814907 0 0.1084674426683357 -0.077888137089068013 0 0.1232061248222129 -0.075206297362028066 0 0.1272797878356694 -0.088593758706814907 0 0.1017080788123951 -0.087804556385465471 0 0.11567178204704499 -0.10568275569041199 0 0.1272797878356694 -0.088593758706814907 0 0.1017080788123951 -0.087804556385465471 0 0.11567178204704499 -0.10568275569041199 0 0.097441521812097198 -0.10878804364663471 0 0.1017080788123951 -0.087804556385465471 0 0.097441521812097198 -0.10878804364663471 0 0.088608598291174498 -0.101420796185217 0 0.10058413041743761 -0.090581864498492995 0 0.097441521812097198 -0.10878804364663471 0 0.10058413041743761 -0.090581864498492995 0 0.1017080788123951 -0.087804556385465471 0 0.097441521812097198 -0.10878804364663471 0 0.093527805260815264 -0.13002146576964491 0 0.097441521812097198 -0.10878804364663471 0 0.104312872852085 -0.12243825994362539 0 0.093527805260815264 -0.13002146576964491 0 0.097441521812097198 -0.10878804364663471 0 0.11567178204704499 -0.10568275569041199 0 0.097441521812097198 -0.10878804364663471 0 0.104312872852085 -0.12243825994362539 0 0.11567178204704499 -0.10568275569041199 0 0.104312872852085 -0.12243825994362539 0 0.12800820934211829 -0.12401417466047961 0 0.12800820934211829 -0.12401417466047961 0 0.14712201392247631 -0.1132275548916801 0 0.13655559816636781 -0.1031347463460832 0 0.12800820934211829 -0.12401417466047961 0 0.14712201392247631 -0.1132275548916801 0 0.11567178204704499 -0.10568275569041199 0 0.12800820934211829 -0.12401417466047961 0 0.13655559816636781 -0.1031347463460832 0 0.12800820934211829 -0.12401417466047961 0 0.14712201392247631 -0.1132275548916801 0 0.1486045981545247 -0.12747252536747111 0 0.14712201392247631 -0.1132275548916801 0 0.16095359288685571 -0.1184472051676727 0 0.1486045981545247 -0.12747252536747111 0 0.15146120268426411 -0.099532086410862586 0 0.13655559816636781 -0.1031347463460832 0 0.1528514968589437 -0.089382961028164357 0 0.14712201392247631 -0.1132275548916801 0 0.15146120268426411 -0.099532086410862586 0 0.16623581850283431 -0.10244093512288061 0 0.14712201392247631 -0.1132275548916801 0 0.15146120268426411 -0.099532086410862586 0 0.13655559816636781 -0.1031347463460832 0 0.11567178204704499 -0.10568275569041199 0 0.13655559816636781 -0.1031347463460832 0 0.1272797878356694 -0.088593758706814907 0 0.1272797878356694 -0.088593758706814907 0 0.13805891541926751 -0.078942206783145619 0 0.1528514968589437 -0.089382961028164357 0 0.1272797878356694 -0.088593758706814907 0 0.1528514968589437 -0.089382961028164357 0 0.13655559816636781 -0.1031347463460832 0 0.1272797878356694 -0.088593758706814907 0 0.1528514968589437 -0.089382961028164357 0 0.1232061248222129 -0.075206297362028066 0 0.1272797878356694 -0.088593758706814907 0 0.13805891541926751 -0.078942206783145619 0 0.1232061248222129 -0.075206297362028066 0 0.13805891541926751 -0.078942206783145619 0 0.13548767730717889 -0.06580567532731052 0 0.13548767730717889 -0.06580567532731052 0 0.16423855373374319 -0.066809641750814969 0 0.13548767730717889 -0.06580567532731052 0 0.1516507619880918 -0.076739651506421189 0 0.16423855373374319 -0.066809641750814969 0 0.13548767730717889 -0.06580567532731052 0 0.16423855373374319 -0.066809641750814969 0 0.16004124225532049 -0.061841453839887157 0 0.13805891541926751 -0.078942206783145619 0 0.13548767730717889 -0.06580567532731052 0 0.1516507619880918 -0.076739651506421189 0 0.13805891541926751 -0.078942206783145619 0 0.1516507619880918 -0.076739651506421189 0 0.1528514968589437 -0.089382961028164357 0 0.15146120268426411 -0.099532086410862586 0 0.1528514968589437 -0.089382961028164357 0 0.15581646250916109 -0.090151240212135456 0 0.1528514968589437 -0.089382961028164357 0 0.15581646250916109 -0.090151240212135456 0 0.17842320588221819 -0.090172163349513806 0 0.1528514968589437 -0.089382961028164357 0 0.17842320588221819 -0.090172163349513806 0 0.15581646250916109 -0.090151240212135456 0 0.16859491992305889 -0.093070393687126218 0 0.17842320588221819 -0.090172163349513806 0 0.1528514968589437 -0.089382961028164357 0 0.1653897445003264 -0.079862578323319361 0 0.17842320588221819 -0.090172163349513806 0 0.1516507619880918 -0.076739651506421189 0 0.1528514968589437 -0.089382961028164357 0 0.1653897445003264 -0.079862578323319361 0 0.1516507619880918 -0.076739651506421189 0 0.1653897445003264 -0.079862578323319361 0 0.16423855373374319 -0.066809641750814969 0 0.1653897445003264 -0.079862578323319361 0 0.16423855373374319 -0.066809641750814969 0 0.17833356117891219 -0.077628002067558224 0 0.16423855373374319 -0.066809641750814969 0 0.1727598808088672 -0.056322389892066158 0 0.1929894301603077 -0.067813608174319001 0 0.16423855373374319 -0.066809641750814969 0 0.1929894301603077 -0.067813608174319001 0 0.16423855373374319 -0.066809641750814969 0 0.17833356117891219 -0.077628002067558224 0 0.1929894301603077 -0.067813608174319001 0 0.17833356117891219 -0.077628002067558224 0 0.19040307974074269 -0.080139672987034255 0 0.1929894301603077 -0.067813608174319001 0 0.16859491992305889 -0.093070393687126218 0 0.17842320588221819 -0.090172163349513806 0 0.17335524666804841 -0.094081054567607611 0 0.17842320588221819 -0.090172163349513806 0 0.17824607109877541 -0.095663109832525739 0 0.17335524666804841 -0.094081054567607611 0 0.1653897445003264 -0.079862578323319361 0 0.17833356117891219 -0.077628002067558224 0 0.17842320588221819 -0.090172163349513806 0 0.17833356117891219 -0.077628002067558224 0 0.1854866420256687 -0.084161575248007242 0 0.19040307974074269 -0.080139672987034255 0 0.17833356117891219 -0.077628002067558224 0 0.17842320588221819 -0.090172163349513806 0 0.1854866420256687 -0.084161575248007242 0 0.18404025852736719 -0.096743595743047278 0 0.18504385230606449 -0.10434071571553651 0 0.19243594079672521 -0.096163448387799222 0 0.17824607109877541 -0.095663109832525739 0 0.18504385230606449 -0.10434071571553651 0 0.16623581850283431 -0.10244093512288061 0 0.18504385230606449 -0.10434071571553651 0 0.18014950107347269 -0.1188522098678762 0 0.16623581850283431 -0.10244093512288061 0 0.18404025852736719 -0.096743595743047278 0 0.17824607109877541 -0.095663109832525739 0 0.18504385230606449 -0.10434071571553651 0 0.17842320588221819 -0.090172163349513806 0 0.18404025852736719 -0.096743595743047278 0 0.19243594079672521 -0.096163448387799222 0 0.17842320588221819 -0.090172163349513806 0 0.18404025852736719 -0.096743595743047278 0 0.17824607109877541 -0.095663109832525739 0 0.17824607109877541 -0.095663109832525739 0 0.17335524666804841 -0.094081054567607611 0 0.16623581850283431 -0.10244093512288061 0 0.17824607109877541 -0.095663109832525739 0 0.16623581850283431 -0.10244093512288061 0 0.18504385230606449 -0.10434071571553651 0 0.18014950107347269 -0.1188522098678762 0 0.1922879604253335 -0.1099500278873989 0 0.18014950107347269 -0.1188522098678762 0 0.16623581850283431 -0.10244093512288061 0 0.18014950107347269 -0.1188522098678762 0 0.16095359288685571 -0.1184472051676727 0 0.16623581850283431 -0.10244093512288061 0 0.14712201392247631 -0.1132275548916801 0 0.16095359288685571 -0.1184472051676727 0 0.16623581850283431 -0.10244093512288061 0 0.18014950107347269 -0.1188522098678762 0 0.16095359288685571 -0.1184472051676727 0 0.16265603278097029 -0.1302428005884553 0 0.14712201392247631 -0.1132275548916801 0 0.16623581850283431 -0.10244093512288061 0 0.15581646250916109 -0.090151240212135456 0 0.16859491992305889 -0.093070393687126218 0 0.16623581850283431 -0.10244093512288061 0 0.15146120268426411 -0.099532086410862586 0 0.15581646250916109 -0.090151240212135456 0 0.16623581850283431 -0.10244093512288061 0 0.15581646250916109 -0.090151240212135456 0 0.16623581850283431 -0.10244093512288061 0 0.16859491992305889 -0.093070393687126218 0 0.17335524666804841 -0.094081054567607611 0 0.16623581850283431 -0.10244093512288061 0 0.13735218555535891 0.001011181807127467 0 0.1449152044553462 -0.019939696741877431 0 0.14216046477152491 0.0049125148476896544 0 0.15727218843160701 -0.01758578836774349 0 0.15849764294065671 -0.0060544572746906826 0 0.14216046477152491 0.0049125148476896544 0 0.15727218843160701 -0.01758578836774349 0 0.14216046477152491 0.0049125148476896544 0 0.1449152044553462 -0.019939696741877431 0 0.15727218843160701 -0.01758578836774349 0 0.14216046477152491 0.0049125148476896544 0 0.13735218555535891 0.001011181807127467 0 0.1449152044553462 -0.019939696741877431 0 0.13735218555535891 0.001011181807127467 0 0.1175949646085984 -0.015019396993320021 0 0.13735218555535891 0.001011181807127467 0 0.1175949646085984 -0.015019396993320021 0 0.13165260102391191 -0.019660205177744808 0 0.13735218555535891 0.001011181807127467 0 0.13165260102391191 -0.019660205177744808 0 0.1449152044553462 -0.019939696741877431 0 0.13165260102391191 -0.019660205177744808 0 0.13984755105295521 -0.030525993742740402 0 0.1449152044553462 -0.019939696741877431 0 0.124582941869709 -0.030507807285028901 0 0.13165260102391191 -0.019660205177744808 0 0.13984755105295521 -0.030525993742740402 0 0.1449152044553462 -0.019939696741877431 0 0.15247822335533329 -0.040890575290882317 0 0.15727218843160701 -0.01758578836774349 0 0.13984755105295521 -0.030525993742740402 0 0.1449152044553462 -0.019939696741877431 0 0.15247822335533329 -0.040890575290882317 0 0.1449152044553462 -0.019939696741877431 0 0.15247822335533329 -0.040890575290882317 0 0.15247822335533329 -0.040890575290882317 0 0.1379109625223634 -0.045605004272587249 0 0.14629243763992239 -0.054068479542427092 0 0.13984755105295521 -0.030525993742740402 0 0.15247822335533329 -0.040890575290882317 0 0.1379109625223634 -0.045605004272587249 0 0.1232921759667842 -0.047663851323270827 0 0.13984755105295521 -0.030525993742740402 0 0.1379109625223634 -0.045605004272587249 0 0.1232921759667842 -0.047663851323270827 0 0.124582941869709 -0.030507807285028901 0 0.13984755105295521 -0.030525993742740402 0 0.1232921759667842 -0.047663851323270827 0 0.13984755105295521 -0.030525993742740402 0 0.1232921759667842 -0.047663851323270827 0 0.13548767730717889 -0.06580567532731052 0 0.1379109625223634 -0.045605004272587249 0 0.13548767730717889 -0.06580567532731052 0 0.1379109625223634 -0.045605004272587249 0 0.14629243763992239 -0.054068479542427092 0 0.13548767730717889 -0.06580567532731052 0 0.14629243763992239 -0.054068479542427092 0 0.16004124225532049 -0.061841453839887157 0 0.15247822335533329 -0.040890575290882317 0 0.14629243763992239 -0.054068479542427092 0 0.16004124225532049 -0.061841453839887157 0 0.15247822335533329 -0.040890575290882317 0 0.16004124225532049 -0.061841453839887157 0 0.1644158146278025 -0.049784627651503079 0 0.1644158146278025 -0.049784627651503079 0 0.1727598808088672 -0.056322389892066158 0 0.1723839120916891 -0.040084091583176683 0 0.15247822335533329 -0.040890575290882317 0 0.16004124225532049 -0.061841453839887157 0 0.16423855373374319 -0.066809641750814969 0 0.16004124225532049 -0.061841453839887157 0 0.1727598808088672 -0.056322389892066158 0 0.16004124225532049 -0.061841453839887157 0 0.1644158146278025 -0.049784627651503079 0 0.1727598808088672 -0.056322389892066158 0 0.1727598808088672 -0.056322389892066158 0 0.18434240851125541 -0.050289724698312777 0 0.1723839120916891 -0.040084091583176683 0 0.1727598808088672 -0.056322389892066158 0 0.18434240851125541 -0.050289724698312777 0 0.1929894301603077 -0.067813608174319001 0 0.1723839120916891 -0.040084091583176683 0 0.18077822909658589 -0.032018797610549231 0 0.17598651952492231 -0.0227560541305885 0 0.18434240851125541 -0.050289724698312777 0 0.1723839120916891 -0.040084091583176683 0 0.18674227588606429 -0.037749552466939278 0 0.1723839120916891 -0.040084091583176683 0 0.18674227588606429 -0.037749552466939278 0 0.18077822909658589 -0.032018797610549231 0 0.18674227588606429 -0.037749552466939278 0 0.18077822909658589 -0.032018797610549231 0 0.18610830639217099 -0.030062433202775862 0 0.15247822335533329 -0.040890575290882317 0 0.1723839120916891 -0.040084091583176683 0 0.15727218843160701 -0.01758578836774349 0 0.15247822335533329 -0.040890575290882317 0 0.1644158146278025 -0.049784627651503079 0 0.1723839120916891 -0.040084091583176683 0 0.1723839120916891 -0.040084091583176683 0 0.15727218843160701 -0.01758578836774349 0 0.1723839120916891 -0.040084091583176683 0 0.1668946229318731 -0.019675061199070819 0 0.17598651952492231 -0.0227560541305885 0 0.1723839120916891 -0.040084091583176683 0 0.15727218843160701 -0.01758578836774349 0 0.1668946229318731 -0.019675061199070819 0 0.1668946229318731 -0.019675061199070819 0 0.17598651952492231 -0.0227560541305885 0 0.16985348277487761 -0.0099868764823510571 0 0.18077822909658589 -0.032018797610549231 0 0.18438258456793261 -0.021379302004443181 0 0.17598651952492231 -0.0227560541305885 0 0.18077822909658589 -0.032018797610549231 0 0.18610830639217099 -0.030062433202775862 0 0.18438258456793261 -0.021379302004443181 0 0.18438258456793261 -0.021379302004443181 0 0.17598651952492231 -0.0227560541305885 0 0.17878486519392331 -0.011645355321630489 0 0.17598651952492231 -0.0227560541305885 0 0.17878486519392331 -0.011645355321630489 0 0.16985348277487761 -0.0099868764823510571 0 0.17878486519392331 -0.011645355321630489 0 0.17506184651935949 -0.0021247232161890161 0 0.16985348277487761 -0.0099868764823510571 0 0.18438258456793261 -0.021379302004443181 0 0.17878486519392331 -0.011645355321630489 0 0.18863989258252481 -0.001979820774580698 0 0.17878486519392331 -0.011645355321630489 0 0.17506184651935949 -0.0021247232161890161 0 0.18863989258252481 -0.001979820774580698 0 0.1628037813635097 0.0015330777282007481 0 0.17506184651935949 -0.0021247232161890161 0 0.16985348277487761 -0.0099868764823510571 0 0.1668946229318731 -0.019675061199070819 0 0.16985348277487761 -0.0099868764823510571 0 0.15849764294065671 -0.0060544572746906826 0 0.15727218843160701 -0.01758578836774349 0 0.1668946229318731 -0.019675061199070819 0 0.15849764294065671 -0.0060544572746906826 0 0.1628037813635097 0.0015330777282007481 0 0.16985348277487761 -0.0099868764823510571 0 0.15849764294065671 -0.0060544572746906826 0 0.1628037813635097 0.0015330777282007481 0 0.15453230216132671 0.0032055715019124438 0 0.15849764294065671 -0.0060544572746906826 0 0.21174544862736719 0.0096628206364345465 0 0.20589386385567829 -0.0063134785331596111 0 0.2185782736923042 -0.0038367730406402641 0 0.20589386385567829 -0.0063134785331596111 0 0.2185782736923042 -0.0038367730406402641 0 0.2199828155312514 -0.0225516893132638 0 0.20589386385567829 -0.0063134785331596111 0 0.18863989258252481 -0.001979820774580698 0 0.1936475112771239 -0.030998707124919651 0 0.20589386385567829 -0.0063134785331596111 0 0.1936475112771239 -0.030998707124919651 0 0.20001428446098229 -0.034334459813343092 0 0.18863989258252481 -0.001979820774580698 0 0.1936475112771239 -0.030998707124919651 0 0.20589386385567829 -0.0063134785331596111 0 0.20001428446098229 -0.034334459813343092 0 0.18438258456793261 -0.021379302004443181 0 0.18863989258252481 -0.001979820774580698 0 0.1936475112771239 -0.030998707124919651 0 0.18610830639217099 -0.030062433202775862 0 0.18438258456793261 -0.021379302004443181 0 0.1936475112771239 -0.030998707124919651 0 0.20589386385567829 -0.0063134785331596111 0 0.20001428446098229 -0.034334459813343092 0 0.2199828155312514 -0.0225516893132638 0 0.20001428446098229 -0.034334459813343092 0 0.22061008072662569 -0.045125245157715169 0 0.20001428446098229 -0.034334459813343092 0 0.22061008072662569 -0.045125245157715169 0 0.2199828155312514 -0.0225516893132638 0 0.20001428446098229 -0.034334459813343092 0 0.19683654360934791 -0.049478981375062181 0 0.22061008072662569 -0.045125245157715169 0 0.1936475112771239 -0.030998707124919651 0 0.19683654360934791 -0.049478981375062181 0 0.18674227588606429 -0.037749552466939278 0 0.1936475112771239 -0.030998707124919651 0 0.19683654360934791 -0.049478981375062181 0 0.1936475112771239 -0.030998707124919651 0 0.20001428446098229 -0.034334459813343092 0 0.19683654360934791 -0.049478981375062181 0 0.1936475112771239 -0.030998707124919651 0 0.20001428446098229 -0.034334459813343092 0 0.18674227588606429 -0.037749552466939278 0 0.18610830639217099 -0.030062433202775862 0 0.1936475112771239 -0.030998707124919651 0 0.18434240851125541 -0.050289724698312777 0 0.18674227588606429 -0.037749552466939278 0 0.19683654360934791 -0.049478981375062181 0 0.20001428446098229 -0.034334459813343092 0 0.19683654360934791 -0.049478981375062181 0 0.19683654360934791 -0.049478981375062181 0 0.1929894301603077 -0.067813608174319001 0 0.2000429458732931 -0.068059913463883598 0 0.19683654360934791 -0.049478981375062181 0 0.21158346953455981 -0.057932445704329483 0 0.2000429458732931 -0.068059913463883598 0 0.19683654360934791 -0.049478981375062181 0 0.2000429458732931 -0.068059913463883598 0 0.19683654360934791 -0.049478981375062181 0 0.1929894301603077 -0.067813608174319001 0 0.18434240851125541 -0.050289724698312777 0 0.19683654360934791 -0.049478981375062181 0 0.1929894301603077 -0.067813608174319001 0 0.19683654360934791 -0.049478981375062181 0 0.21158346953455981 -0.057932445704329483 0 0.22061008072662569 -0.045125245157715169 0 0.24120587699226881 -0.055916030502087773 0 0.22061008072662569 -0.045125245157715169 0 0.2288443079289719 -0.069065642820655804 0 0.21158346953455981 -0.057932445704329483 0 0.22061008072662569 -0.045125245157715169 0 0.2288443079289719 -0.069065642820655804 0 0.24120587699226881 -0.055916030502087773 0 0.22061008072662569 -0.045125245157715169 0 0.25030159180115191 -0.034143426788088307 0 0.24120587699226881 -0.055916030502087773 0 0.23430517811137791 -0.037629801295311363 0 0.25030159180115191 -0.034143426788088307 0 0.23430517811137791 -0.037629801295311363 0 0.23651070060392609 -0.023431292744830981 0 0.22061008072662569 -0.045125245157715169 0 0.23430517811137791 -0.037629801295311363 0 0.2199828155312514 -0.0225516893132638 0 0.24120587699226881 -0.055916030502087773 0 0.22061008072662569 -0.045125245157715169 0 0.23430517811137791 -0.037629801295311363 0 0.2199828155312514 -0.0225516893132638 0 0.23651070060392609 -0.023431292744830981 0 0.2300866381754704 -0.0072438550720441714 0 0.23430517811137791 -0.037629801295311363 0 0.2199828155312514 -0.0225516893132638 0 0.23651070060392609 -0.023431292744830981 0 0.25030159180115191 -0.034143426788088307 0 0.23651070060392609 -0.023431292744830981 0 0.2464198669495459 -0.012097030270161889 0 0.23790413247208811 0.0091049515404343275 0 0.2464198669495459 -0.012097030270161889 0 0.2300866381754704 -0.0072438550720441714 0 0.23651070060392609 -0.023431292744830981 0 0.2464198669495459 -0.012097030270161889 0 0.2300866381754704 -0.0072438550720441714 0 0.2185782736923042 -0.0038367730406402641 0 0.2199828155312514 -0.0225516893132638 0 0.2300866381754704 -0.0072438550720441714 0 0.22518260227175371 0.0072623370788317187 0 0.2185782736923042 -0.0038367730406402641 0 0.2300866381754704 -0.0072438550720441714 0 0.20666963866093291 -0.1113398018781358 0 0.20399491490549271 -0.090961365670864353 0 0.20666963866093291 -0.1113398018781358 0 0.23081911420975029 -0.091789222750733895 0 0.20666963866093291 -0.1113398018781358 0 0.20399491490549271 -0.090961365670864353 0 0.23081911420975029 -0.091789222750733895 0 0.2184940671700534 -0.12394732724419751 0 0.20666963866093291 -0.1113398018781358 0 0.22056261316880149 -0.1108234873110058 0 0.2184940671700534 -0.12394732724419751 0 0.20975191972323501 -0.12432290509972491 0 0.20666963866093291 -0.1113398018781358 0 0.2184940671700534 -0.12394732724419751 0 0.20666963866093291 -0.1113398018781358 0 0.20975191972323501 -0.12432290509972491 0 0.20666963866093291 -0.1113398018781358 0 0.1971408692894723 -0.1190539635876471 0 0.20975191972323501 -0.12432290509972491 0 0.20666963866093291 -0.1113398018781358 0 0.18014950107347269 -0.1188522098678762 0 0.1971408692894723 -0.1190539635876471 0 0.19406318364410949 -0.13526348461287321 0 0.20666963866093291 -0.1113398018781358 0 0.1971408692894723 -0.1190539635876471 0 0.18014950107347269 -0.1188522098678762 0 0.1971408692894723 -0.1190539635876471 0 0.1922879604253335 -0.1099500278873989 0 0.20666963866093291 -0.1113398018781358 0 0.1971408692894723 -0.1190539635876471 0 0.1922879604253335 -0.1099500278873989 0 0.20666963866093291 -0.1113398018781358 0 0.19243594079672521 -0.096163448387799222 0 0.20399491490549271 -0.090961365670864353 0 0.18504385230606449 -0.10434071571553651 0 0.1922879604253335 -0.1099500278873989 0 0.19243594079672521 -0.096163448387799222 0 0.20666963866093291 -0.1113398018781358 0 0.1922879604253335 -0.1099500278873989 0 0.19243594079672521 -0.096163448387799222 0 0.20666963866093291 -0.1113398018781358 0 0.19243594079672521 -0.096163448387799222 0 0.1854866420256687 -0.084161575248007242 0 0.19040307974074269 -0.080139672987034255 0 0.20399491490549271 -0.090961365670864353 0 0.17842320588221819 -0.090172163349513806 0 0.19243594079672521 -0.096163448387799222 0 0.20399491490549271 -0.090961365670864353 0 0.17842320588221819 -0.090172163349513806 0 0.20399491490549271 -0.090961365670864353 0 0.17842320588221819 -0.090172163349513806 0 0.1854866420256687 -0.084161575248007242 0 0.20399491490549271 -0.090961365670864353 0 0.2000429458732931 -0.068059913463883598 0 0.20399491490549271 -0.090961365670864353 0 0.19040307974074269 -0.080139672987034255 0 0.2000429458732931 -0.068059913463883598 0 0.20399491490549271 -0.090961365670864353 0 0.19040307974074269 -0.080139672987034255 0 0.1929894301603077 -0.067813608174319001 0 0.2000429458732931 -0.068059913463883598 0 0.19040307974074269 -0.080139672987034255 0 0.1929894301603077 -0.067813608174319001 0 0.1929894301603077 -0.067813608174319001 0 0.2000429458732931 -0.068059913463883598 0 0.2000429458732931 -0.068059913463883598 0 0.2288443079289719 -0.069065642820655804 0 0.2000429458732931 -0.068059913463883598 0 0.21771238563745279 -0.081480669998114597 0 0.2288443079289719 -0.069065642820655804 0 0.21158346953455981 -0.057932445704329483 0 0.2000429458732931 -0.068059913463883598 0 0.2288443079289719 -0.069065642820655804 0 0.2000429458732931 -0.068059913463883598 0 0.20399491490549271 -0.090961365670864353 0 0.21771238563745279 -0.081480669998114597 0 0.20399491490549271 -0.090961365670864353 0 0.21771238563745279 -0.081480669998114597 0 0.23081911420975029 -0.091789222750733895 0 0.20399491490549271 -0.090961365670864353 0 0.23081911420975029 -0.091789222750733895 0 0.21771238563745279 -0.081480669998114597 0 0.23081911420975029 -0.091789222750733895 0 0.2288443079289719 -0.069065642820655804 0 0.25764566998465072 -0.070071372177431313 0 0.24120587699226881 -0.055916030502087773 0 0.2288443079289719 -0.069065642820655804 0 0.25764566998465072 -0.070071372177431313 0 0.2288443079289719 -0.069065642820655804 0 0.25764566998465072 -0.070071372177431313 0 0.2288443079289719 -0.069065642820655804 0 0.24423239209720191 -0.080930297464084477 0 0.25666672159796139 -0.092586939936295867 0 0.23081911420975029 -0.091789222750733895 0 0.23081911420975029 -0.091789222750733895 0 0.2288443079289719 -0.069065642820655804 0 0.24423239209720191 -0.080930297464084477 0 0.25666672159796139 -0.092586939936295867 0 0.23081911420975029 -0.091789222750733895 0 0.24423239209720191 -0.080930297464084477 0 0.23081911420975029 -0.091789222750733895 0 0.24423239209720191 -0.080930297464084477 0 0.25666672159796139 -0.092586939936295867 0 0.23081911420975029 -0.091789222750733895 0 0.23839025179526999 -0.1151992729885977 0 0.20666963866093291 -0.1113398018781358 0 0.23081911420975029 -0.091789222750733895 0 0.22056261316880149 -0.1108234873110058 0 0.23081911420975029 -0.091789222750733895 0 0.22056261316880149 -0.1108234873110058 0 0.23839025179526999 -0.1151992729885977 0 0.2184940671700534 -0.12394732724419751 0 0.22056261316880149 -0.1108234873110058 0 0.23839025179526999 -0.1151992729885977 0 0.2184940671700534 -0.12394732724419751 0 0.23839025179526999 -0.1151992729885977 0 0.22928680998153819 -0.13545484142638689 0 0.25915390151091949 -0.11811210275817149 0 0.25133622254172122 -0.13557462765415079 0 0.23839025179526999 -0.1151992729885977 0 0.25133622254172122 -0.13557462765415079 0 0.25208407187516418 -0.1419613505697605 0 0.23274332603383319 -0.13914027229300069 0 0.25133622254172122 -0.13557462765415079 0 0.23839025179526999 -0.1151992729885977 0 0.22928680998153819 -0.13545484142638689 0 0.25133622254172122 -0.13557462765415079 0 0.22928680998153819 -0.13545484142638689 0 0.25133622254172122 -0.13557462765415079 0 0.23274332603383319 -0.13914027229300069 0 0.22928680998153819 -0.13545484142638689 0 0.25208407187516418 -0.1419613505697605 0 0.23274332603383319 -0.13914027229300069 0 0.2530488896403309 -0.16079061319898569 0 0.23274332603383319 -0.13914027229300069 0 0.2530488896403309 -0.16079061319898569 0 0.23274332603383319 -0.13914027229300069 0 0.2334622085995452 -0.15779257262933219 0 0.2530488896403309 -0.16079061319898569 0 0.25208407187516418 -0.1419613505697605 0 0.23274332603383319 -0.13914027229300069 0 0.22694604844669111 -0.15137512496012309 0 0.2202725953444182 -0.1456731206256075 0 0.22100128495381829 -0.16152072110389429 0 0.22694604844669111 -0.15137512496012309 0 0.23274332603383319 -0.13914027229300069 0 0.2334622085995452 -0.15779257262933219 0 0.22694604844669111 -0.15137512496012309 0 0.2202725953444182 -0.1456731206256075 0 0.23274332603383319 -0.13914027229300069 0 0.23274332603383319 -0.13914027229300069 0 0.20959101376118139 -0.13576323162740581 0 0.22928680998153819 -0.13545484142638689 0 0.2116749968128239 -0.1353591630196288 0 0.23274332603383319 -0.13914027229300069 0 0.22928680998153819 -0.13545484142638689 0 0.2116749968128239 -0.1353591630196288 0 0.2184940671700534 -0.12394732724419751 0 0.22928680998153819 -0.13545484142638689 0 0.2116749968128239 -0.1353591630196288 0 0.2202725953444182 -0.1456731206256075 0 0.23274332603383319 -0.13914027229300069 0 0.20959101376118139 -0.13576323162740581 0 0.23274332603383319 -0.13914027229300069 0 0.22928680998153819 -0.13545484142638689 0 0.2184940671700534 -0.12394732724419751 0 0.22928680998153819 -0.13545484142638689 0 0.23274332603383319 -0.13914027229300069 0 0.20959101376118139 -0.13576323162740581 0 0.2116749968128239 -0.1353591630196288 0 0.20975191972323501 -0.12432290509972491 0 0.2116749968128239 -0.1353591630196288 0 0.19406318364410949 -0.13526348461287321 0 0.2184940671700534 -0.12394732724419751 0 0.20975191972323501 -0.12432290509972491 0 0.2116749968128239 -0.1353591630196288 0 0.20959101376118139 -0.13576323162740581 0 0.2116749968128239 -0.1353591630196288 0 0.19406318364410949 -0.13526348461287321 0 0.2202725953444182 -0.1456731206256075 0 0.21077041390333781 -0.15496976615408631 0 0.22100128495381829 -0.16152072110389429 0 0.2202725953444182 -0.1456731206256075 0 0.20959101376118139 -0.13576323162740581 0 0.21077041390333781 -0.15496976615408631 0 0.20959101376118139 -0.13576323162740581 0 0.21077041390333781 -0.15496976615408631 0 0.19406318364410949 -0.13526348461287321 0 0.21077041390333781 -0.15496976615408631 0 0.19019323353294471 -0.15547991582157239 0 0.19406318364410949 -0.13526348461287321 0 0.21077041390333781 -0.15496976615408631 0 0.19406318364410949 -0.13526348461287321 0 0.20975191972323501 -0.12432290509972491 0 0.1971408692894723 -0.1190539635876471 0 0.19406318364410949 -0.13526348461287321 0 0.2116749968128239 -0.1353591630196288 0 0.19406318364410949 -0.13526348461287321 0 0.2064216300685435 -0.1763378775815001 0 0.19333004299069351 -0.19482382871724169 0 0.185888281266576 -0.1738959907954824 0 0.21077041390333781 -0.15496976615408631 0 0.19019323353294471 -0.15547991582157239 0 0.2064216300685435 -0.1763378775815001 0 0.19019323353294471 -0.15547991582157239 0 0.2064216300685435 -0.1763378775815001 0 0.185888281266576 -0.1738959907954824 0 0.21077041390333781 -0.15496976615408631 0 0.2064216300685435 -0.1763378775815001 0 0.22100128495381829 -0.16152072110389429 0 0.2064216300685435 -0.1763378775815001 0 0.22637928715471201 -0.1750627007060517 0 0.22100128495381829 -0.16152072110389429 0 0.2064216300685435 -0.1763378775815001 0 0.22637928715471201 -0.1750627007060517 0 0.2213864998634191 -0.19074186604973761 0 0.22637928715471201 -0.1750627007060517 0 0.2363010186387848 -0.18586727398715949 0 0.2213864998634191 -0.19074186604973761 0 0.22637928715471201 -0.1750627007060517 0 0.22100128495381829 -0.16152072110389429 0 0.2334622085995452 -0.15779257262933219 0 0.22637928715471201 -0.1750627007060517 0 0.2334622085995452 -0.15779257262933219 0 0.24133419147104179 -0.17110858194103351 0 0.22694604844669111 -0.15137512496012309 0 0.22100128495381829 -0.16152072110389429 0 0.2334622085995452 -0.15779257262933219 0 0.2530488896403309 -0.16079061319898569 0 0.2334622085995452 -0.15779257262933219 0 0.24133419147104179 -0.17110858194103351 0 0.2550208565069661 -0.17514012483034949 0 0.2530488896403309 -0.16079061319898569 0 0.24133419147104179 -0.17110858194103351 0 0.22637928715471201 -0.1750627007060517 0 0.24133419147104179 -0.17110858194103351 0 0.2363010186387848 -0.18586727398715949 0 0.25030889548151403 -0.1837077448593728 0 0.2550208565069661 -0.17514012483034949 0 0.24133419147104179 -0.17110858194103351 0 0.25030889548151403 -0.1837077448593728 0 0.24133419147104179 -0.17110858194103351 0 0.2363010186387848 -0.18586727398715949 0 0.25030889548151403 -0.1837077448593728 0 0.2363010186387848 -0.18586727398715949 0 0.24624710011957149 -0.19756578472926509 0 0.2363010186387848 -0.18586727398715949 0 0.24624710011957149 -0.19756578472926509 0 0.23232272155890341 -0.19906227567560569 0 0.24624710011957149 -0.19756578472926509 0 0.2390873575194972 -0.2119906927462733 0 0.23232272155890341 -0.19906227567560569 0 0.25806059678156651 -0.21160485628964759 0 0.24624710011957149 -0.19756578472926509 0 0.2390873575194972 -0.2119906927462733 0 0.25806059678156651 -0.21160485628964759 0 0.2390873575194972 -0.2119906927462733 0 0.2485278721491469 -0.22983386195931649 0 0.22156570902884701 -0.2081716276760221 0 0.2275965143199381 -0.22680811778712909 0 0.21130945108473639 -0.22000441216527869 0 0.2390873575194972 -0.2119906927462733 0 0.22156570902884701 -0.2081716276760221 0 0.23232272155890341 -0.19906227567560569 0 0.2390873575194972 -0.2119906927462733 0 0.22156570902884701 -0.2081716276760221 0 0.2275965143199381 -0.22680811778712909 0 0.22156570902884701 -0.2081716276760221 0 0.2213864998634191 -0.19074186604973761 0 0.23232272155890341 -0.19906227567560569 0 0.2363010186387848 -0.18586727398715949 0 0.2213864998634191 -0.19074186604973761 0 0.23232272155890341 -0.19906227567560569 0 0.2410490216361528 -0.25300372010805161 0 0.2485278721491469 -0.22983386195931649 0 0.2275965143199381 -0.22680811778712909 0 0.25787859859726192 -0.24372773219337371 0 0.2410490216361528 -0.25300372010805161 0 0.2485278721491469 -0.22983386195931649 0 0.2390873575194972 -0.2119906927462733 0 0.2485278721491469 -0.22983386195931649 0 0.2275965143199381 -0.22680811778712909 0 0.2410490216361528 -0.25300372010805161 0 0.2275965143199381 -0.22680811778712909 0 0.2136455624920251 -0.24586339942155419 0 0.2410490216361528 -0.25300372010805161 0 0.2136455624920251 -0.24586339942155419 0 0.2136455624920251 -0.24586339942155419 0 0.1995187067769538 -0.22648505830905971 0 0.1970165427207646 -0.2431475676051908 0 0.2275965143199381 -0.22680811778712909 0 0.2136455624920251 -0.24586339942155419 0 0.21130945108473639 -0.22000441216527869 0 0.2136455624920251 -0.24586339942155419 0 0.21130945108473639 -0.22000441216527869 0 0.1995187067769538 -0.22648505830905971 0 0.1995187067769538 -0.22648505830905971 0 0.1970165427207646 -0.2431475676051908 0 0.1843931124890181 -0.23269732176232691 0 0.21130945108473639 -0.22000441216527869 0 0.1995187067769538 -0.22648505830905971 0 0.19847161958806309 -0.21206345826637629 0 0.2064216300685435 -0.1763378775815001 0 0.2213864998634191 -0.19074186604973761 0 0.20705859430259141 -0.20063481153153051 0 0.22156570902884701 -0.2081716276760221 0 0.2213864998634191 -0.19074186604973761 0 0.20705859430259141 -0.20063481153153051 0 0.22156570902884701 -0.2081716276760221 0 0.21130945108473639 -0.22000441216527869 0 0.20705859430259141 -0.20063481153153051 0 0.21130945108473639 -0.22000441216527869 0 0.20705859430259141 -0.20063481153153051 0 0.19847161958806309 -0.21206345826637629 0 0.19847161958806309 -0.21206345826637629 0 0.19333004299069351 -0.19482382871724169 0 0.184507054165965 -0.21658659277756609 0 0.1995187067769538 -0.22648505830905971 0 0.19847161958806309 -0.21206345826637629 0 0.184507054165965 -0.21658659277756609 0 0.20705859430259141 -0.20063481153153051 0 0.19847161958806309 -0.21206345826637629 0 0.19333004299069351 -0.19482382871724169 0 0.2064216300685435 -0.1763378775815001 0 0.20705859430259141 -0.20063481153153051 0 0.19333004299069351 -0.19482382871724169 0 0.1776330785524223 -0.18942424135099509 0 0.184507054165965 -0.21658659277756609 0 0.16837846483810831 -0.20319749351435479 0 0.19333004299069351 -0.19482382871724169 0 0.1776330785524223 -0.18942424135099509 0 0.184507054165965 -0.21658659277756609 0 0.1776330785524223 -0.18942424135099509 0 0.184507054165965 -0.21658659277756609 0 0.184507054165965 -0.21658659277756609 0 0.1749867686249286 -0.21735889230250449 0 0.16837846483810831 -0.20319749351435479 0 0.1749867686249286 -0.21735889230250449 0 0.16837846483810831 -0.20319749351435479 0 0.15045483047290331 -0.2082327262959493 0 0.1749867686249286 -0.21735889230250449 0 0.15045483047290331 -0.2082327262959493 0 0.1749867686249286 -0.21735889230250449 0 0.16226861639455931 -0.22172210758959859 0 0.15045483047290331 -0.2082327262959493 0 0.16837846483810831 -0.20319749351435479 0 0.15045483047290331 -0.2082327262959493 0 0.15431059237432221 -0.18438501484475869 0 0.1776330785524223 -0.18942424135099509 0 0.16837846483810831 -0.20319749351435479 0 0.15431059237432221 -0.18438501484475869 0 0.1970165427207646 -0.2431475676051908 0 0.18013525364959199 -0.24590787480667409 0 0.1843931124890181 -0.23269732176232691 0 0.18013525364959199 -0.24590787480667409 0 0.1843931124890181 -0.23269732176232691 0 0.17030829067285161 -0.2305872157882054 0 0.1995187067769538 -0.22648505830905971 0 0.1749867686249286 -0.21735889230250449 0 0.1995187067769538 -0.22648505830905971 0 0.1749867686249286 -0.21735889230250449 0 0.1843931124890181 -0.23269732176232691 0 0.1995187067769538 -0.22648505830905971 0 0.184507054165965 -0.21658659277756609 0 0.1749867686249286 -0.21735889230250449 0 0.1749867686249286 -0.21735889230250449 0 0.1843931124890181 -0.23269732176232691 0 0.17030829067285161 -0.2305872157882054 0 0.16226861639455931 -0.22172210758959859 0 0.17030829067285161 -0.2305872157882054 0 0.15332457580755371 -0.23070959597173549 0 0.1749867686249286 -0.21735889230250449 0 0.16226861639455931 -0.22172210758959859 0 0.17030829067285161 -0.2305872157882054 0 0.16103468924722281 -0.25381861710109321 0 0.18013525364959199 -0.24590787480667409 0 0.17030829067285161 -0.2305872157882054 0 0.16103468924722281 -0.25381861710109321 0 0.17030829067285161 -0.2305872157882054 0 0.15332457580755371 -0.23070959597173549 0 0.16103468924722281 -0.25381861710109321 0 0.1412434604122122 -0.24631040783256791 0 0.15332457580755371 -0.23070959597173549 0 0.1412434604122122 -0.24631040783256791 0 0.15332457580755371 -0.23070959597173549 0 0.1284413173888232 -0.22347585252773641 0 0.15332457580755371 -0.23070959597173549 0 0.1284413173888232 -0.22347585252773641 0 0.15045483047290331 -0.2082327262959493 0 0.16226861639455931 -0.22172210758959859 0 0.15332457580755371 -0.23070959597173549 0 0.15045483047290331 -0.2082327262959493 0 0.1200034520355143 -0.24749468667538321 0 0.1412434604122122 -0.24631040783256791 0 0.1284413173888232 -0.22347585252773641 0 0.15045483047290331 -0.2082327262959493 0 0.12592289232087811 -0.19910656028939411 0 0.15431059237432221 -0.18438501484475869 0 0.15045483047290331 -0.2082327262959493 0 0.12592289232087811 -0.19910656028939411 0 0.1284413173888232 -0.22347585252773641 0 0.15045483047290331 -0.2082327262959493 0 0.12592289232087811 -0.19910656028939411 0 0.11404320040195411 -0.17785048998131209 0 0.12592289232087811 -0.19910656028939411 0 0.1362427207560932 -0.1734399905344442 0 0.12592289232087811 -0.19910656028939411 0 0.1362427207560932 -0.1734399905344442 0 0.15431059237432221 -0.18438501484475869 0 0.1362427207560932 -0.1734399905344442 0 0.15431059237432221 -0.18438501484475869 0 0.1498051255961938 -0.157092757972084 0 0.11404320040195411 -0.17785048998131209 0 0.1362427207560932 -0.1734399905344442 0 0.1305387904294309 -0.15561497697083931 0 0.1362427207560932 -0.1734399905344442 0 0.1498051255961938 -0.157092757972084 0 0.1305387904294309 -0.15561497697083931 0 0.1498051255961938 -0.157092757972084 0 0.1305387904294309 -0.15561497697083931 0 0.13638976604354719 -0.13495016646355951 0 0.1161887790728692 -0.1476769396888597 0 0.1305387904294309 -0.15561497697083931 0 0.13638976604354719 -0.13495016646355951 0 0.12800820934211829 -0.12401417466047961 0 0.13638976604354719 -0.13495016646355951 0 0.1486045981545247 -0.12747252536747111 0 0.13638976604354719 -0.13495016646355951 0 0.16388512732533739 -0.13509953849785281 0 0.13638976604354719 -0.13495016646355951 0 0.1486045981545247 -0.12747252536747111 0 0.16388512732533739 -0.13509953849785281 0 0.1498051255961938 -0.157092757972084 0 0.13638976604354719 -0.13495016646355951 0 0.16388512732533739 -0.13509953849785281 0 0.16388512732533739 -0.13509953849785281 0 0.17075910293887969 -0.16226188992442411 0 0.1498051255961938 -0.157092757972084 0 0.16388512732533739 -0.13509953849785281 0 0.17075910293887969 -0.16226188992442411 0 0.18014950107347269 -0.1188522098678762 0 0.16265603278097029 -0.1302428005884553 0 0.16388512732533739 -0.13509953849785281 0 0.16095359288685571 -0.1184472051676727 0 0.1486045981545247 -0.12747252536747111 0 0.16265603278097029 -0.1302428005884553 0 0.1486045981545247 -0.12747252536747111 0 0.16265603278097029 -0.1302428005884553 0 0.16388512732533739 -0.13509953849785281 0 0.16265603278097029 -0.1302428005884553 0 0.16388512732533739 -0.13509953849785281 0 0.19406318364410949 -0.13526348461287321 0 0.16388512732533739 -0.13509953849785281 0 0.18014950107347269 -0.1188522098678762 0 0.19406318364410949 -0.13526348461287321 0 0.18014950107347269 -0.1188522098678762 0 0.19406318364410949 -0.13526348461287321 0 0.16388512732533739 -0.13509953849785281 0 0.19019323353294471 -0.15547991582157239 0 0.16388512732533739 -0.13509953849785281 0 0.17075910293887969 -0.16226188992442411 0 0.19019323353294471 -0.15547991582157239 0 0.19406318364410949 -0.13526348461287321 0 0.16388512732533739 -0.13509953849785281 0 0.19019323353294471 -0.15547991582157239 0 0.185888281266576 -0.1738959907954824 0 0.17075910293887969 -0.16226188992442411 0 0.1776330785524223 -0.18942424135099509 0 0.185888281266576 -0.1738959907954824 0 0.17075910293887969 -0.16226188992442411 0 0.1776330785524223 -0.18942424135099509 0 0.17075910293887969 -0.16226188992442411 0 0.19333004299069351 -0.19482382871724169 0 0.1776330785524223 -0.18942424135099509 0 0.185888281266576 -0.1738959907954824 0 0.1776330785524223 -0.18942424135099509 0 0.15431059237432221 -0.18438501484475869 0 0.17075910293887969 -0.16226188992442411 0 0.15431059237432221 -0.18438501484475869 0 0.1498051255961938 -0.157092757972084 0 0.17075910293887969 -0.16226188992442411 0 
</DataArray>
</Points>
<Cells>
<DataArray type="UInt32" Name="connectivity" format="ascii">
0 1 2 3 4 5 6 7 8 9 10 11 12 13 14 15 16 17 18 19 20 21 22 23 24 25 26 27 28 29 30 31 32 33 34 35 36 37 38 39 40 41 42 43 44 45 46 47 48 49 50 51 52 53 54 55 56 57 58 59 60 61 62 63 64 65 66 67 68 69 70 71 72 73 74 75 76 77 78 79 80 81 82 83 84 85 86 87 88 89 90 91 92 93 94 95 96 97 98 99 100 101 102 103 104 105 106 107 108 109 110 111 112 113 114 115 116 117 118 119 120 121 122 123 124 125 126 127 128 129 130 131 132 133 134 135 136 137 138 139 140 141 142 143 144 145 146 147 148 149 150 151 152 153 154 155 156 157 158 159 160 161 162 163 164 165 166 167 168 169 170 171 172 173 174 175 176 177 178 179 180 181 182 183 184 185 186 187 188 189 190 191 192 193 194 195 196 197 198 199 200 201 202 203 204 205 206 207 208 209 210 211 212 213 214 215 216 217 218 219 220 221 222 223 224 225 226 227 228 229 230 231 232 233 234 235 236 237 238 239 240 241 242 243 244 245 246 247 248 249 250 251 252 253 254 255 256 257 258 259 260 261 262 263 264 265 266 267 268 269 270 271 272 273 274 275 276 277 278 279 280 281 282 283 284 285 286 287 288 289 290 291 292 293 294 295 296 297 298 299 300 301 302 303 304 305 306 307 308 309 310 311 312 313 314 315 316 317 318 319 320 321 322 323 324 325 326 327 328 329 330 331 332 333 334 335 336 337 338 339 340 341 342 343 344 345 346 347 348 349 350 351 352 353 354 355 356 357 358 359 360 361 362 363 364 365 366 367 368 369 370 371 372 373 374 375 376 377 378 379 380 381 382 383 384 385 386 387 388 389 390 391 392 393 394 395 396 397 398 399 400 401 402 403 404 405 406 407 408 409 410 411 412 413 414 415 416 417 418 419 420 421 422 423 424 425 426 427 428 429 430 431 432 433 434 435 436 437 438 439 440 441 442 443 444 445 446 447 448 449 450 451 452 453 454 455 456 457 458 459 460 461 462 463 464 465 466 467 468 469 470 471 472 473 474 475 476 477 478 479 480 481 482 483 484 485 486 487 488 489 490 491 492 493 494 495 496 497 498 499 500 501 502 503 504 505 506 507 508 509 510 511 512 513 514 515 516 517 518 519 520 521 522 523 524 525 526 527 528 529 530 531 532 533 534 535 536 537 538 539 540 541 542 543 544 545 546 547 548 549 550 551 552 553 554 555 556 557 558 559 560 561 562 563 564 565 566 567 568 569 570 571 572 573 574 575 576 577 578 579 580 581 582 583 584 585 586 587 588 589 590 591 592 593 594 595 596 597 598 599 600 601 602 603 604 605 606 607 608 609 610 611 612 613 614 615 616 617 618 619 620 621 622 623 624 625 626 627 628 629 630 631 632 633 634 635 636 637 638 639 640 641 642 643 644 645 646 647 648 649 650 651 652 653 654 655 656 657 658 659 660 661 662 663 664 665 666 667 668 669 670 671 672 673 674 675 676 677 678 679 680 681 682 683 684 685 686 687 688 689 690 691 692 693 694 695 696 697 698 699 700 701 702 703 704 705 706 707 708 709 710 711 712 713 714 715 716 717 718 719 720 721 722 723 724 725 726 727 728 729 730 731 732 733 734 735 736 737 738 739 740 741 742 743 744 745 746 747 748 749 750 751 752 753 754 755 756 757 758 759 760 761 762 763 764 765 766 767 768 769 770 771 772 773 774 775 776 777 778 779 780 781 782 783 784 785 786 787 788 789 790 791 792 793 794 795 796 797 798 799 800 801 802 803 804 805 806 807 808 809 810 811 812 813 814 815 816 817 818 819 820 821 822 823 824 825 826 827 828 829 830 831 832 833 834 835 836 837 838 839 840 841 842 843 844 845 846 847 848 849 850 851 852 853 854 855 856 857 858 859 860 861 862 863 864 865 866 867 868 869 870 871 872 873 874 875 876 877 878 879 880 881 882 883 884 885 886 887 888 889 890 891 892 893 894 895 896 897 898 899 900 901 902 903 904 905 906 907 908 909 910 911 912 913 914 915 916 917 918 919 920 921 922 923 924 925 926 927 928 929 930 931 932 933 934 935 936 937 938 939 940 941 942 943 944 945 946 947 948 949 950 951 952 953 954 955 956 957 958 959 960 961 962 963 964 965 966 967 968 969 970 971 972 973 974 975 976 977 978 979 980 981 982 983 984 985 986 987 988 989 990 991 992 993 994 995 996 997 998 999 1000 1001 1002 1003 1004 1005 1006 1007 1008 1009 1010 1011 1012 1013 1014 1015 1016 1017 1018 1019 1020 1021 1022 1023 1024 1025 1026 1027 1028 1029 1030 1031 1032 1033 1034 1035 1036 1037 1038 1039 1040 1041 1042 1043 1044 1045 1046 1047 1048 1049 1050 1051 1052 1053 1054 1055 1056 1057 1058 1059 1060 1061 1062 1063 1064 1065 1066 1067 1068 1069 1070 1071 1072 1073 1074 1075 1076 1077 1078 1079 1080 1081 1082 1083 1084 1085 1086 1087 1088 1089 1090 1091 1092 1093 1094 1095 1096 1097 1098 1099 1100 1101 1102 1103 1104 1105 1106 1107 1108 1109 1110 1111 1112 1113 1114 1115 1116 1117 1118 1119 1120 1121 1122 1123 1124 1125 1126 1127 1128 1129 1130 1131 1132 1133 1134 1135 1136 1137 1138 1139 1140 1141 1142 1143 1144 1145 1146 1147 1148 1149 1150 1151 1152 1153 1154 1155 1156 1157 1158 1159 1160 1161 1162 1163 1164 1165 1166 1167 1168 1169 1170 1171 1172 1173 1174 1175 1176 1177 1178 1179 1180 1181 1182 1183 1184 1185 1186 1187 1188 1189 1190 1191 1192 1193 1194 1195 1196 1197 1198 1199 1200 1201 1202 1203 1204 1205 1206 1207 1208 1209 1210 1211 1212 1213 1214 1215 1216 1217 1218 1219 1220 1221 1222 1223 1224 1225 1226 1227 1228 1229 1230 1231 1232 1233 1234 1235 1236 1237 1238 1239 1240 1241 1242 1243 1244 1245 1246 1247 1248 1249 1250 1251 1252 1253 1254 1255 1256 1257 1258 1259 1260 1261 1262 1263 1264 1265 1266 1267 1268 1269 1270 1271 1272 1273 1274 1275 1276 1277 1278 1279 1280 1281 1282 1283 1284 1285 1286 1287 1288 1289 1290 1291 1292 1293 1294 1295 1296 1297 1298 1299 1300 1301 1302 1303 1304 1305 1306 1307 1308 1309 1310 1311 1312 1313 1314 1315 1316 1317 1318 1319 1320 1321 1322 1323 1324 1325 1326 1327 1328 1329 1330 1331 1332 1333 1334 1335 1336 1337 1338 1339 1340 1341 1342 1343 1344 1345 1346 1347 1348 1349 1350 1351 1352 1353 1354 1355 1356 1357 1358 1359 1360 1361 1362 1363 1364 1365 1366 1367 1368 1369 1370 1371 1372 1373 1374 1375 1376 1377 1378 1379 1380 1381 1382 1383 1384 1385 1386 1387 1388 1389 1390 1391 1392 1393 1394 1395 1396 1397 1398 1399 1400 1401 1402 1403 1404 1405 1406 1407 1408 1409 1410 1411 1412 1413 1414 1415 1416 1417 1418 1419 1420 1421 1422 1423 1424 1425 1426 1427 1428 1429 1430 1431 1432 1433 1434 1435 1436 1437 1438 1439 1440 1441 1442 1443 1444 1445 1446 1447 1448 1449 1450 1451 1452 1453 1454 1455 1456 1457 1458 1459 1460 1461 1462 1463 1464 1465 1466 1467 1468 1469 1470 1471 1472 1473 1474 1475 1476 1477 1478 1479 1480 1481 1482 1483 1484 1485 1486 1487 1488 1489 1490 1491 1492 1493 1494 1495 1496 1497 1498 1499 1500 1501 1502 1503 1504 1505 1506 1507 1508 1509 1510 1511 1512 1513 1514 1515 1516 1517 1518 1519 1520 1521 1522 1523 1524 1525 1526 1527 1528 1529 1530 1531 1532 1533 1534 1535 1536 1537 1538 1539 1540 1541 1542 1543 1544 1545 1546 1547 1548 1549 1550 1551 1552 1553 1554 1555 1556 1557 1558 1559 1560 1561 1562 1563 1564 1565 1566 1567 1568 1569 1570 1571 1572 1573 1574 1575 1576 1577 1578 1579 1580 1581 1582 1583 1584 1585 1586 1587 1588 1589 1590 1591 1592 1593 1594 1595 1596 1597 1598 1599 1600 1601 1602 1603 1604 1605 1606 1607 1608 1609 1610 1611 1612 1613 1614 1615 1616 1617 1618 1619 1620 1621 1622 1623 1624 1625 1626 1627 1628 1629 1630 1631 1632 1633 1634 1635 1636 1637 1638 1639 1640 1641 1642 1643 1644 1645 1646 1647 1648 1649 1650 1651 1652 1653 1654 1655 1656 1657 1658 1659 1660 1661 1662 1663 1664 1665 1666 1667 1668 1669 1670 1671 1672 1673 1674 1675 1676 1677 1678 1679 1680 1681 1682 1683 1684 1685 1686 1687 1688 1689 1690 1691 1692 1693 1694 1695 1696 1697 1698 1699 1700 1701 1702 1703 1704 1705 1706 1707 1708 1709 1710 1711 1712 1713 1714 1715 1716 1717 1718 1719 1720 1721 1722 1723 1724 1725 1726 1727 1728 1729 1730 1731 1732 1733 1734 1735 1736 1737 1738 1739 1740 1741 1742 1743 1744 1745 1746 1747 1748 1749 1750 1751 1752 1753 1754 1755 1756 1757 1758 1759 1760 1761 1762 1763 1764 1765 1766 1767 1768 1769 1770 1771 1772 1773 1774 1775 1776 1777 1778 1779 1780 1781 1782 1783 1784 1785 1786 1787 1788 1789 1790 1791 1792 1793 1794 1795 1796 1797 1798 1799 1800 1801 1802 1803 1804 1805 1806 1807 1808 1809 1810 1811 1812 1813 1814 1815 1816 1817 1818 1819 1820 1821 1822 1823 1824 1825 1826 1827 1828 1829 1830 1831 1832 1833 1834 1835 1836 1837 1838 1839 1840 1841 1842 1843 1844 1845 1846 1847 1848 1849 1850 1851 1852 1853 1854 1855 1856 1857 1858 1859 1860 1861 1862 1863 1864 1865 1866 1867 1868 1869 1870 1871 1872 1873 1874 1875 1876 1877 1878 1879 1880 1881 1882 1883 1884 1885 1886 1887 1888 1889 1890 1891 1892 1893 1894 1895 1896 1897 1898 1899 1900 1901 1902 1903 1904 1905 1906 1907 1908 1909 1910 1911 1912 1913 1914 1915 1916 1917 1918 1919 1920 1921 1922 1923 1924 1925 1926 1927 1928 1929 1930 1931 1932 1933 1934 1935 1936 1937 1938 1939 1940 1941 1942 1943 1944 1945 1946 1947 1948 1949 1950 1951 1952 1953 1954 1955 1956 1957 1958 1959 1960 1961 1962 1963 1964 1965 1966 1967 1968 1969 1970 1971 1972 1973 1974 1975 1976 1977 1978 1979 1980 1981 1982 1983 1984 1985 1986 1987 1988 1989 1990 1991 1992 1993 1994 1995 1996 1997 1998 1999 2000 2001 2002 2003 2004 2005 2006 2007 2008 2009 2010 2011 2012 2013 2014 2015 2016 2017 2018 2019 2020 2021 2022 2023 2024 2025 2026 2027 2028 2029 2030 2031 2032 2033 2034 2035 2036 2037 2038 2039 2040 2041 2042 2043 2044 2045 2046 2047 2048 2049 2050 2051 2052 2053 2054 2055 2056 2057 2058 2059 2060 2061 2062 2063 2064 2065 2066 2067 2068 2069 2070 2071 2072 2073 2074 2075 2076 2077 2078 2079 2080 2081 2082 2083 2084 2085 2086 2087 2088 2089 2090 2091 2092 2093 2094 2095 2096 2097 2098 2099 2100 2101 2102 2103 2104 2105 2106 2107 2108 2109 2110 2111 2112 2113 2114 2115 2116 2117 2118 2119 2120 2121 2122 2123 2124 2125 2126 2127 2128 2129 2130 2131 2132 2133 2134 2135 2136 2137 2138 2139 2140 2141 2142 2143 2144 2145 2146 2147 2148 2149 2150 2151 2152 2153 2154 2155 2156 2157 2158 2159 2160 2161 2162 2163 2164 2165 2166 2167 2168 2169 2170 2171 2172 2173 2174 2175 2176 2177 2178 2179 2180 2181 2182 2183 2184 2185 2186 2187 2188 2189 2190 2191 2192 2193 2194 2195 2196 2197 2198 2199 2200 2201 2202 2203 2204 2205 2206 2207 2208 2209 2210 2211 2212 2213 2214 2215 2216 2217 2218 2219 2220 2221 2222 2223 2224 2225 2226 2227 2228 2229 2230 2231 2232 2233 2234 2235 2236 2237 2238 2239 2240 2241 2242 2243 2244 2245 2246 2247 2248 2249 2250 2251 2252 2253 2254 2255 2256 2257 2258 2259 2260 2261 2262 2263 2264 2265 2266 2267 2268 2269 2270 2271 2272 2273 2274 2275 2276 2277 2278 2279 2280 2281 2282 2283 2284 2285 2286 2287 2288 2289 2290 2291 2292 2293 2294 2295 2296 2297 2298 2299 2300 2301 2302 2303 2304 2305 2306 2307 2308 2309 2310 2311 2312 2313 2314 2315 2316 2317 2318 2319 2320 2321 2322 2323 2324 2325 2326 2327 2328 2329 2330 2331 2332 2333 2334 2335 2336 2337 2338 2339 2340 2341 2342 2343 2344 2345 2346 2347 2348 2349 2350 2351 2352 2353 2354 2355 2356 2357 2358 2359 2360 2361 2362 2363 2364 2365 2366 2367 2368 2369 2370 2371 2372 2373 2374 2375 2376 2377 2378 2379 2380 2381 2382 2383 2384 2385 2386 2387 2388 2389 2390 2391 2392 2393 2394 2395 2396 2397 2398 2399 2400 2401 2402 2403 2404 2405 2406 2407 2408 2409 2410 2411 2412 2413 2414 2415 2416 2417 2418 2419 2420 2421 2422 2423 2424 2425 2426 2427 2428 2429 2430 2431 2432 2433 2434 2435 2436 2437 2438 2439 2440 2441 2442 2443 2444 2445 2446 2447 2448 2449 2450 2451 2452 2453 2454 2455 2456 2457 2458 2459 2460 2461 2462 2463 2464 2465 2466 2467 2468 2469 2470 2471 2472 2473 2474 2475 2476 2477 2478 2479 2480 2481 2482 2483 2484 2485 2486 2487 2488 2489 2490 2491 2492 2493 2494 2495 2496 2497 2498 2499 2500 2501 2502 2503 2504 2505 2506 2507 2508 2509 2510 2511 2512 2513 2514 2515 2516 2517 2518 2519 2520 2521 2522 2523 2524 2525 2526 2527 2528 2529 2530 2531 2532 2533 2534 2535 2536 2537 2538 2539 2540 2541 2542 2543 2544 2545 2546 2547 2548 2549 2550 2551 2552 2553 2554 2555 2556 2557 2558 2559 2560 2561 2562 2563 2564 2565 2566 2567 2568 2569 2570 2571 2572 2573 2574 2575 2576 2577 2578 2579 2580 2581 2582 2583 2584 2585 2586 2587 2588 2589 2590 2591 2592 2593 2594 2595 2596 2597 2598 2599 2600 2601 2602 2603 2604 2605 2606 2607 2608 2609 2610 2611 2612 2613 2614 2615 2616 2617 2618 2619 2620 2621 2622 2623 2624 2625 2626 2627 2628 2629 2630 2631 2632 2633 2634 2635 2636 2637 2638 2639 2640 2641 2642 2643 2644 2645 2646 2647 2648 2649 2650 2651 2652 2653 2654 2655 2656 2657 2658 2659 2660 2661 2662 2663 2664 2665 2666 2667 2668 2669 2670 2671 2672 2673 2674 2675 2676 2677 2678 2679 2680 2681 2682 2683 2684 2685 2686 2687 2688 2689 2690 2691 2692 2693 2694 2695 2696 2697 2698 2699 2700 2701 2702 2703 2704 2705 2706 2707 2708 2709 2710 2711 2712 2713 2714 2715 2716 2717 2718 2719 2720 2721 2722 2723 2724 2725 2726 2727 2728 2729 2730 2731 2732 2733 2734 2735 2736 2737 2738 2739 2740 2741 2742 2743 2744 2745 2746 2747 2748 2749 2750 2751 2752 2753 2754 2755 2756 2757 2758 2759 2760 2761 2762 2763 2764 2765 2766 2767 2768 2769 2770 2771 2772 2773 2774 2775 2776 2777 2778 2779 2780 2781 2782 2783 2784 2785 2786 2787 2788 2789 2790 2791 2792 2793 2794 2795 2796 2797 2798 2799 2800 2801 2802 2803 2804 2805 2806 2807 2808 2809 2810 2811 2812 2813 2814 2815 2816 2817 2818 2819 2820 2821 2822 2823 2824 2825 2826 2827 2828 2829 2830 2831 2832 2833 2834 2835 2836 2837 2838 2839 2840 2841 2842 2843 2844 2845 2846 2847 2848 2849 2850 2851 2852 2853 2854 2855 2856 2857 2858 2859 2860 2861 2862 2863 2864 2865 2866 2867 2868 2869 2870 2871 2872 2873 2874 2875 2876 2877 2878 2879 2880 2881 2882 2883 2884 2885 2886 2887 2888 2889 2890 2891 2892 2893 2894 2895 2896 2897 2898 2899 2900 2901 2902 2903 2904 2905 2906 2907 2908 2909 2910 2911 2912 2913 2914 2915 2916 2917 2918 2919 2920 2921 2922 2923 2924 2925 2926 2927 2928 2929 2930 2931 2932 2933 2934 2935 2936 2937 2938 2939 2940 2941 2942 2943 2944 2945 2946 2947 2948 2949 2950 2951 2952 2953 2954 2955 2956 2957 2958 2959 2960 2961 2962 2963 2964 2965 2966 2967 2968 2969 2970 2971 2972 2973 2974 2975 2976 2977 2978 2979 2980 2981 2982 2983 2984 2985 2986 2987 2988 2989 2990 2991 2992 2993 2994 2995 2996 2997 2998 2999 3000 3001 3002 3003 3004 3005 3006 3007 3008 3009 3010 3011 3012 3013 3014 3015 3016 3017 3018 3019 3020 3021 3022 3023 3024 3025 3026 3027 3028 3029 3030 3031 3032 3033 3034 3035 3036 3037 3038 3039 3040 3041 3042 3043 3044 3045 3046 3047 3048 3049 3050 3051 3052 3053 3054 3055 3056 3057 3058 3059 3060 3061 3062 3063 3064 3065 3066 3067 3068 3069 3070 3071 3072 3073 3074 3075 3076 3077 3078 3079 3080 3081 3082 3083 3084 3085 3086 3087 3088 3089 3090 3091 3092 3093 3094 3095 3096 3097 3098 3099 3100 3101 3102 3103 3104 3105 3106 3107 3108 3109 3110 3111 3112 3113 3114 3115 3116 3117 3118 3119 3120 3121 3122 3123 3124 3125 3126 3127 3128 3129 3130 3131 3132 3133 3134 3135 3136 3137 3138 3139 3140 3141 3142 3143 3144 3145 3146 3147 3148 3149 3150 3151 3152 3153 3154 3155 3156 3157 3158 3159 3160 3161 3162 3163 3164 3165 3166 3167 3168 3169 3170 3171 3172 3173 3174 3175 3176 3177 3178 3179 3180 3181 3182 3183 3184 3185 3186 3187 3188 3189 3190 3191 3192 3193 3194 3195 3196 3197 3198 3199 3200 3201 3202 3203 3204 3205 3206 3207 3208 3209 3210 3211 3212 3213 3214 3215 3216 3217 3218 3219 3220 3221 3222 3223 3224 3225 3226 3227 3228 3229 3230 3231 3232 3233 3234 3235 3236 3237 3238 3239 3240 3241 3242 3243 3244 3245 3246 3247 3248 3249 3250 3251 3252 3253 3254 3255 3256 3257 3258 3259 3260 3261 3262 3263 3264 3265 3266 3267 3268 3269 3270 3271 3272 3273 3274 3275 3276 3277 3278 3279 3280 3281 3282 3283 3284 3285 3286 3287 3288 3289 3290 3291 3292 3293 3294 3295 3296 3297 3298 3299 3300 3301 3302 3303 3304 3305 3306 3307 3308 3309 3310 3311 3312 3313 3314 3315 3316 3317 3318 3319 3320 3321 3322 3323 3324 3325 3326 3327 3328 3329 3330 3331 3332 3333 3334 3335 3336 3337 3338 3339 3340 3341 3342 3343 3344 3345 3346 3347 3348 3349 3350 3351 3352 3353 3354 3355 3356 3357 3358 3359 3360 3361 3362 3363 3364 3365 3366 3367 3368 3369 3370 3371 3372 3373 3374 3375 3376 3377 3378 3379 3380 3381 3382 3383 3384 3385 3386 3387 3388 3389 3390 3391 3392 3393 3394 3395 3396 3397 3398 3399 3400 3401 3402 3403 3404 3405 3406 3407 3408 3409 3410 3411 3412 3413 3414 3415 3416 3417 3418 3419 3420 3421 3422 3423 3424 3425 3426 3427 3428 3429 3430 3431 3432 3433 3434 3435 3436 3437 3438 3439 3440 3441 3442 3443 3444 3445 3446 3447 3448 3449 3450 3451 3452 3453 3454 3455 3456 3457 3458 3459 3460 3461 3462 3463 3464 3465 3466 3467 3468 3469 3470 3471 3472 3473 3474 3475 3476 3477 3478 3479 3480 3481 3482 3483 3484 3485 3486 3487 3488 3489 3490 3491 3492 3493 3494 3495 3496 3497 3498 3499 3500 3501 3502 3503 3504 3505 3506 3507 3508 3509 3510 3511 3512 3513 3514 3515 3516 3517 3518 3519 3520 3521 3522 3523 3524 3525 3526 3527 3528 3529 3530 3531 3532 3533 3534 3535 3536 3537 3538 3539 3540 3541 3542 3543 3544 3545 3546 3547 3548 3549 3550 3551 3552 3553 3554 3555 3556 3557 3558 3559 3560 3561 3562 3563 3564 3565 3566 3567 3568 3569 3570 3571 3572 3573 3574 3575 3576 3577 3578 3579 3580 3581 3582 3583 3584 3585 3586 3587 3588 3589 3590 3591 3592 3593 3594 3595 3596 3597 3598 3599 3600 3601 3602 3603 3604 3605 3606 3607 3608 3609 3610 3611 3612 3613 3614 3615 3616 3617 3618 3619 3620 3621 3622 3623 3624 3625 3626 3627 3628 3629 3630 3631 3632 3633 3634 3635 3636 3637 3638 3639 3640 3641 3642 3643 3644 3645 3646 3647 3648 3649 3650 3651 3652 3653 3654 3655 3656 3657 3658 3659 3660 3661 3662 3663 3664 3665 3666 3667 3668 3669 3670 3671 3672 3673 3674 3675 3676 3677 3678 3679 3680 3681 3682 3683 3684 3685 3686 3687 3688 3689 3690 3691 3692 3693 3694 3695 3696 3697 3698 3699 3700 3701 3702 3703 3704 3705 3706 3707 3708 3709 3710 3711 3712 3713 3714 3715 3716 3717 3718 3719 3720 3721 3722 3723 3724 3725 3726 3727 3728 3729 3730 3731 3732 3733 3734 3735 3736 3737 3738 3739 3740 3741 3742 3743 3744 3745 3746 3747 3748 3749 3750 3751 3752 3753 3754 3755 3756 3757 3758 3759 3760 3761 3762 3763 3764 3765 3766 3767 3768 3769 3770 3771 3772 3773 3774 3775 3776 3777 3778 3779 3780 3781 3782 3783 3784 3785 3786 3787 3788 3789 3790 3791 3792 3793 3794 3795 3796 3797 3798 3799 3800 3801 3802 3803 3804 3805 3806 3807 3808 3809 3810 3811 3812 3813 3814 3815 3816 3817 3818 3819 3820 3821 3822 3823 3824 3825 3826 3827 3828 3829 3830 3831 3832 3833 3834 3835 3836 3837 3838 3839 3840 3841 3842 3843 3844 3845 3846 3847 3848 3849 3850 3851 3852 3853 3854 3855 3856 3857 3858 3859 3860 3861 3862 3863 3864 3865 3866 3867 3868 3869 3870 3871 3872 3873 3874 3875 3876 3877 3878 3879 3880 3881 3882 3883 3884 3885 3886 3887 3888 3889 3890 3891 3892 3893 3894 3895 3896 3897 3898 3899 3900 3901 3902 3903 3904 3905 3906 3907 3908 3909 3910 3911 3912 3913 3914 3915 3916 3917 3918 3919 3920 3921 3922 3923 3924 3925 3926 3927 3928 3929 3930 3931 3932 3933 3934 3935 3936 3937 3938 3939 3940 3941 3942 3943 3944 3945 3946 3947 3948 3949 3950 3951 3952 3953 3954 3955 3956 3957 3958 3959 3960 3961 3962 3963 3964 3965 3966 3967 3968 3969 3970 3971 3972 3973 3974 3975 3976 3977 3978 3979 3980 3981 3982 3983 3984 3985 3986 3987 3988 3989 3990 3991 3992 3993 3994 3995 3996 3997 3998 3999 4000 4001 4002 4003 4004 4005 4006 4007 4008 4009 4010 4011 4012 4013 4014 4015 4016 4017 4018 4019 4020 4021 4022 4023 4024 4025 4026 4027 4028 4029 4030 4031 4032 4033 4034 4035 4036 4037 4038 4039 4040 4041 4042 4043 4044 4045 4046 4047 4048 4049 4050 4051 4052 4053 4054 4055 4056 4057 4058 4059 4060 4061 4062 4063 4064 4065 4066 4067 4068 4069 4070 4071 4072 4073 4074 4075 4076 4077 4078 4079 4080 4081 4082 4083 4084 4085 4086 4087 4088 4089 4090 4091 4092 4093 4094 4095 4096 4097 4098 4099 4100 4101 4102 4103 4104 4105 4106 4107 4108 4109 4110 4111 4112 4113 4114 4115 4116 4117 4118 4119 4120 4121 4122 4123 4124 4125 4126 4127 4128 4129 4130 4131 4132 4133 4134 4135 4136 4137 4138 4139 4140 4141 4142 4143 4144 4145 4146 4147 4148 4149 4150 4151 4152 4153 4154 4155 4156 4157 4158 4159 4160 4161 4162 4163 4164 4165 4166 4167 4168 4169 4170 4171 4172 4173 4174 4175 4176 4177 4178 4179 4180 4181 4182 4183 4184 4185 4186 4187 4188 4189 4190 4191 4192 4193 4194 4195 4196 4197 4198 4199 4200 4201 4202 4203 4204 4205 4206 4207 4208 4209 4210 4211 4212 4213 4214 4215 4216 4217 4218 4219 4220 4221 4222 4223 4224 4225 4226 4227 4228 4229 4230 4231 4232 4233 4234 4235 4236 4237 4238 4239 4240 4241 4242 4243 4244 4245 4246 4247 4248 4249 4250 4251 4252 4253 4254 4255 4256 4257 4258 4259 4260 4261 4262 4263 4264 4265 4266 4267 4268 4269 4270 4271 4272 4273 4274 4275 4276 4277 4278 4279 4280 4281 4282 4283 4284 4285 4286 4287 4288 4289 4290 4291 4292 4293 4294 4295 4296 4297 4298 4299 4300 4301 4302 4303 4304 4305 4306 4307 4308 4309 4310 4311 4312 4313 4314 4315 4316 4317 4318 4319 4320 4321 4322 4323 4324 4325 4326 4327 4328 4329 4330 4331 4332 4333 4334 4335 4336 4337 4338 4339 4340 4341 4342 4343 4344 4345 4346 4347 4348 4349 4350 4351 4352 4353 4354 4355 4356 4357 4358 4359 4360 4361 4362 4363 4364 4365 4366 4367 4368 4369 4370 4371 4372 4373 4374 4375 4376 4377 4378 4379 4380 4381 4382 4383 4384 4385 4386 4387 4388 4389 4390 4391 4392 4393 4394 4395 4396 4397 4398 4399 4400 4401 4402 4403 4404 4405 4406 4407 4408 4409 4410 4411 4412 4413 4414 4415 4416 4417 4418 4419 4420 4421 4422 4423 4424 4425 4426 4427 4428 4429 4430 4431 4432 4433 4434 4435 4436 4437 4438 4439 4440 4441 4442 4443 4444 4445 4446 4447 4448 4449 4450 4451 4452 4453 4454 4455 4456 4457 4458 4459 4460 4461 4462 4463 4464 4465 4466 4467 4468 4469 4470 4471 4472 4473 4474 4475 4476 4477 4478 4479 4480 4481 4482 4483 4484 4485 4486 4487 4488 4489 4490 4491 4492 4493 4494 4495 4496 4497 4498 4499 4500 4501 4502 4503 4504 4505 4506 4507 4508 4509 4510 4511 4512 4513 4514 4515 4516 4517 4518 4519 4520 4521 4522 4523 4524 4525 4526 4527 4528 4529 4530 4531 4532 4533 4534 4535 4536 4537 4538 4539 4540 4541 4542 4543 4544 4545 4546 4547 4548 4549 4550 4551 4552 4553 4554 4555 4556 4557 4558 4559 4560 4561 4562 4563 4564 4565 4566 4567 4568 4569 4570 4571 4572 4573 4574 4575 4576 4577 4578 4579 4580 4581 4582 4583 4584 4585 4586 4587 4588 4589 4590 4591 4592 4593 4594 4595 4596 4597 4598 4599 4600 4601 4602 4603 4604 4605 4606 4607 4608 4609 4610 4611 4612 4613 4614 4615 4616 4617 4618 4619 4620 4621 4622 4623 4624 4625 4626 4627 4628 4629 4630 4631 4632 4633 4634 4635 4636 4637 4638 4639 4640 4641 4642 4643 4644 4645 4646 4647 4648 4649 4650 4651 4652 4653 4654 4655 4656 4657 4658 4659 4660 4661 4662 4663 4664 4665 4666 4667 4668 4669 4670 4671 4672 4673 4674 4675 4676 4677 4678 4679 4680 4681 4682 4683 4684 4685 4686 4687 4688 4689 4690 4691 4692 4693 4694 4695 4696 4697 4698 4699 4700 4701 4702 4703 4704 4705 4706 4707 4708 4709 4710 4711 4712 4713 4714 4715 4716 4717 4718 4719 4720 4721 4722 4723 4724 4725 4726 4727 4728 4729 4730 4731 4732 4733 4734 4735 4736 4737 4738 4739 4740 4741 4742 4743 4744 4745 4746 4747 4748 4749 4750 4751 4752 4753 4754 4755 4756 4757 4758 4759 4760 4761 4762 4763 4764 4765 4766 4767 4768 4769 4770 4771 4772 4773 4774 4775 4776 4777 4778 4779 4780 4781 4782 4783 4784 4785 4786 4787 4788 4789 4790 4791 4792 4793 4794 4795 4796 4797 4798 4799 4800 4801 4802 4803 4804 4805 4806 4807 4808 4809 4810 4811 4812 4813 4814 4815 4816 4817 4818 4819 4820 4821 4822 4823 4824 4825 4826 4827 4828 4829 4830 4831 4832 4833 4834 4835 4836 4837 4838 4839 4840 4841 4842 4843 4844 4845 4846 4847 4848 4849 4850 4851 4852 4853 4854 4855 4856 4857 4858 4859 4860 4861 4862 4863 4864 4865 4866 4867 4868 4869 4870 4871 4872 4873 4874 4875 4876 4877 4878 4879 4880 4881 4882 4883 4884 4885 4886 4887 4888 4889 4890 4891 4892 4893 4894 4895 4896 4897 4898 4899 4900 4901 4902 4903 4904 4905 4906 4907 4908 4909 4910 4911 4912 4913 4914 4915 4916 4917 4918 4919 4920 4921 4922 4923 4924 4925 4926 4927 4928 4929 4930 4931 4932 4933 4934 4935 4936 4937 4938 4939 4940 4941 4942 4943 4944 4945 4946 4947 4948 4949 4950 4951 4952 4953 4954 4955 4956 4957 4958 4959 4960 4961 4962 4963 4964 4965 4966 4967 4968 4969 4970 4971 4972 4973 4974 4975 4976 4977 4978 4979 4980 4981 4982 4983 4984 4985 4986 4987 4988 4989 4990 4991 4992 4993 4994 4995 4996 4997 4998 4999 5000 5001 5002 5003 5004 5005 5006 5007 5008 5009 5010 5011 5012 5013 5014 5015 5016 5017 5018 5019 5020 5021 5022 5023 5024 5025 5026 5027 5028 5029 5030 5031 5032 5033 5034 5035 5036 5037 5038 5039 5040 5041 5042 5043 5044 5045 5046 5047 5048 5049 5050 5051 5052 5053 5054 5055 5056 5057 5058 5059 5060 5061 5062 5063 5064 5065 5066 5067 5068 5069 5070 5071 5072 5073 5074 5075 5076 5077 5078 5079 5080 5081 5082 5083 5084 5085 5086 5087 5088 5089 5090 5091 5092 5093 5094 5095 5096 5097 5098 5099 5100 5101 5102 5103 5104 5105 5106 5107 5108 5109 5110 5111 5112 5113 5114 5115 5116 5117 5118 5119 5120 5121 5122 5123 5124 5125 5126 5127 5128 5129 5130 5131 5132 5133 5134 5135 5136 5137 5138 5139 5140 5141 5142 5143 5144 5145 5146 5147 5148 5149 5150 5151 5152 5153 5154 5155 5156 5157 5158 5159 5160 5161 5162 5163 5164 5165 5166 5167 5168 5169 5170 5171 5172 5173 5174 5175 5176 5177 5178 5179 5180 5181 5182 5183 5184 5185 5186 5187 5188 5189 5190 5191 5192 5193 5194 5195 5196 5197 5198 5199 5200 5201 5202 5203 5204 5205 5206 5207 5208 5209 5210 5211 5212 5213 5214 5215 5216 5217 5218 5219 5220 5221 5222 5223 5224 5225 5226 5227 5228 5229 5230 5231 5232 5233 5234 5235 5236 5237 5238 5239 5240 5241 5242 5243 5244 5245 5246 5247 5248 5249 5250 5251 5252 5253 5254 5255 5256 5257 5258 5259 5260 5261 5262 5263 5264 5265 5266 5267 5268 5269 5270 5271 5272 5273 5274 5275 5276 5277 5278 5279 5280 5281 5282 5283 5284 5285 5286 5287 5288 5289 5290 5291 5292 5293 5294 5295 5296 5297 5298 5299 5300 5301 5302 5303 5304 5305 5306 5307 5308 5309 5310 5311 5312 5313 5314 5315 5316 5317 5318 5319 5320 5321 5322 5323 5324 5325 5326 5327 5328 5329 5330 5331 5332 5333 5334 5335 5336 5337 5338 5339 5340 5341 5342 5343 5344 5345 5346 5347 5348 5349 5350 5351 5352 5353 5354 5355 5356 5357 5358 5359 5360 5361 5362 5363 5364 5365 5366 5367 5368 5369 5370 5371 5372 5373 5374 5375 5376 5377 5378 5379 5380 5381 5382 5383 5384 5385 5386 5387 5388 5389 5390 5391 5392 5393 5394 5395 5396 5397 5398 5399 5400 5401 5402 5403 5404 5405 5406 5407 5408 5409 5410 5411 5412 5413 5414 5415 5416 5417 5418 5419 5420 5421 5422 5423 5424 5425 5426 5427 5428 5429 5430 5431 5432 5433 5434 5435 5436 5437 5438 5439 5440 5441 5442 5443 5444 5445 5446 5447 5448 5449 5450 5451 5452 5453 5454 5455 5456 5457 5458 5459 5460 5461 5462 5463 5464 5465 5466 5467 5468 5469 5470 5471 5472 5473 5474 5475 5476 5477 5478 5479 5480 5481 5482 5483 5484 5485 5486 5487 5488 5489 5490 5491 5492 5493 5494 5495 5496 5497 5498 5499 5500 5501 5502 5503 5504 5505 5506 5507 5508 5509 5510 5511 5512 5513 5514 5515 5516 5517 5518 5519 5520 5521 5522 5523 5524 5525 5526 5527 5528 5529 5530 5531 5532 5533 5534 5535 5536 5537 5538 5539 5540 5541 5542 5543 5544 5545 5546 5547 5548 5549 5550 5551 5552 5553 5554 5555 5556 5557 5558 5559 5560 5561 5562 5563 5564 5565 5566 5567 5568 5569 5570 5571 5572 5573 5574 5575 5576 5577 5578 5579 5580 5581 5582 5583 5584 5585 5586 5587 5588 5589 5590 5591 5592 5593 5594 5595 5596 5597 5598 5599 5600 5601 5602 5603 5604 5605 5606 5607 5608 5609 5610 5611 5612 5613 5614 5615 5616 5617 5618 5619 5620 5621 5622 5623 5624 5625 5626 5627 5628 5629 5630 5631 5632 5633 5634 5635 5636 5637 5638 5639 5640 5641 5642 5643 5644 5645 5646 5647 5648 5649 5650 5651 5652 5653 5654 5655 5656 5657 5658 5659 5660 5661 5662 5663 5664 5665 5666 5667 5668 5669 5670 5671 5672 5673 5674 5675 5676 5677 5678 5679 5680 5681 5682 5683 5684 5685 5686 5687 5688 5689 5690 5691 5692 5693 5694 5695 5696 5697 5698 5699 5700 5701 5702 5703 5704 5705 5706 5707 5708 5709 5710 5711 5712 5713 5714 5715 5716 5717 5718 5719 5720 5721 5722 5723 5724 5725 5726 5727 5728 5729 5730 5731 5732 5733 5734 5735 5736 5737 5738 5739 5740 5741 5742 5743 5744 5745 5746 5747 5748 5749 5750 5751 5752 5753 5754 5755 5756 5757 5758 5759 5760 5761 5762 5763 5764 5765 5766 5767 5768 5769 5770 5771 5772 5773 5774 5775 5776 5777 5778 5779 5780 5781 5782 5783 5784 5785 5786 5787 5788 5789 5790 5791 5792 5793 5794 5795 5796 5797 5798 5799 5800 5801 5802 5803 5804 5805 5806 5807 5808 5809 5810 5811 5812 5813 5814 5815 5816 5817 5818 5819 5820 5821 5822 5823 5824 5825 5826 5827 5828 5829 5830 5831 5832 5833 5834 5835 5836 5837 5838 5839 5840 5841 5842 5843 5844 5845 5846 5847 5848 5849 5850 5851 5852 5853 5854 5855 5856 5857 5858 5859 5860 5861 5862 5863 5864 5865 5866 5867 5868 5869 5870 5871 5872 5873 5874 5875 5876 5877 5878 5879 5880 5881 5882 5883 5884 5885 5886 5887 5888 5889 5890 5891 5892 5893 5894 5895 5896 5897 5898 5899 5900 5901 5902 5903 5904 5905 5906 5907 5908 5909 5910 5911 5912 5913 5914 5915 5916 5917 5918 5919 5920 5921 5922 5923 5924 5925 5926 5927 5928 5929 5930 5931 5932 5933 5934 5935 5936 5937 5938 5939 5940 5941 5942 5943 5944 5945 5946 5947 5948 5949 5950 5951 5952 5953 5954 5955 5956 5957 5958 5959 5960 5961 5962 5963 5964 5965 5966 5967 5968 5969 5970 5971 5972 5973 5974 5975 5976 5977 5978 5979 5980 5981 5982 5983 5984 5985 5986 5987 5988 5989 5990 5991 5992 5993 5994 5995 5996 5997 5998 5999 6000 6001 6002 6003 6004 6005 6006 6007 6008 6009 6010 6011 6012 6013 6014 6015 6016 6017 6018 6019 6020 6021 6022 6023 6024 6025 6026 6027 6028 6029 6030 6031 6032 6033 6034 6035 6036 6037 6038 6039 6040 6041 6042 6043 6044 6045 6046 6047 6048 6049 6050 6051 6052 6053 6054 6055 6056 6057 6058 6059 6060 6061 6062 6063 6064 6065 6066 6067 6068 6069 6070 6071 6072 6073 6074 6075 6076 6077 6078 6079 6080 6081 6082 6083 6084 6085 6086 6087 6088 6089 6090 6091 6092 6093 6094 6095 6096 6097 6098 6099 6100 6101 6102 6103 6104 6105 6106 6107 6108 6109 6110 6111 6112 6113 6114 6115 6116 6117 6118 6119 6120 6121 6122 6123 6124 6125 6126 6127 6128 6129 6130 6131 6132 6133 6134 6135 6136 6137 6138 6139 6140 6141 6142 6143 6144 6145 6146 6147 6148 6149 6150 6151 6152 6153 6154 6155 6156 6157 6158 6159 6160 6161 6162 6163 6164 6165 6166 6167 6168 6169 6170 6171 6172 6173 6174 6175 6176 6177 6178 6179 6180 6181 6182 6183 6184 6185 6186 6187 6188 6189 6190 6191 6192 6193 6194 6195 6196 6197 6198 6199 6200 6201 6202 6203 6204 6205 6206 6207 6208 6209 6210 6211 6212 6213 6214 6215 6216 6217 6218 6219 6220 6221 6222 6223 6224 6225 6226 6227 6228 6229 6230 6231 6232 6233 6234 6235 6236 6237 6238 6239 6240 6241 6242 6243 6244 6245 6246 6247 6248 6249 6250 6251 6252 6253 6254 6255 6256 6257 6258 6259 6260 6261 6262 6263 6264 6265 6266 6267 6268 6269 6270 6271 6272 6273 6274 6275 6276 6277 6278 6279 6280 6281 6282 6283 6284 6285 6286 6287 6288 6289 6290 6291 6292 6293 6294 6295 6296 6297 6298 6299 6300 6301 6302 6303 6304 6305 6306 6307 6308 6309 6310 6311 6312 6313 6314 6315 6316 6317 6318 6319 6320 6321 6322 6323 6324 6325 6326 6327 6328 6329 6330 6331 6332 6333 6334 6335 6336 6337 6338 6339 6340 6341 6342 6343 6344 6345 6346 6347 6348 6349 6350 6351 6352 6353 6354 6355 6356 6357 6358 6359 6360 6361 6362 6363 6364 6365 6366 6367 6368 6369 6370 6371 6372 6373 6374 6375 6376 6377 6378 6379 6380 6381 6382 6383 6384 6385 6386 6387 6388 6389 6390 6391 6392 6393 6394 6395 6396 6397 6398 6399 6400 6401 6402 6403 6404 6405 6406 6407 6408 6409 6410 6411 6412 6413 6414 6415 6416 6417 6418 6419 6420 6421 6422 6423 6424 6425 6426 6427 6428 6429 6430 6431 6432 6433 6434 6435 6436 6437 6438 6439 6440 6441 6442 6443 6444 6445 6446 6447 6448 6449 6450 6451 6452 6453 6454 6455 6456 6457 6458 6459 6460 6461 6462 6463 6464 6465 6466 6467 6468 6469 6470 6471 6472 6473 6474 6475 6476 6477 6478 6479 6480 6481 6482 6483 6484 6485 6486 6487 6488 6489 6490 6491 6492 6493 6494 6495 6496 6497 6498 6499 6500 6501 6502 6503 6504 6505 6506 6507 6508 6509 6510 6511 6512 6513 6514 6515 6516 6517 6518 6519 6520 6521 6522 6523 6524 6525 6526 6527 6528 6529 6530 6531 6532 6533 6534 6535 6536 6537 6538 6539 6540 6541 6542 6543 6544 6545 6546 6547 6548 6549 6550 6551 6552 6553 6554 6555 6556 6557 6558 6559 6560 6561 6562 6563 6564 6565 6566 6567 6568 6569 6570 6571 6572 6573 6574 6575 6576 6577 6578 6579 6580 6581 6582 6583 6584 6585 6586 6587 6588 6589 6590 6591 6592 6593 6594 6595 6596 6597 6598 6599 6600 6601 6602 6603 6604 6605 6606 6607 6608 6609 6610 6611 6612 6613 6614 6615 6616 6617 6618 6619 6620 6621 6622 6623 6624 6625 6626 6627 6628 6629 6630 6631 6632 6633 6634 6635 6636 6637 6638 6639 6640 6641 6642 6643 6644 6645 6646 6647 6648 6649 6650 6651 6652 6653 6654 6655 6656 6657 6658 6659 6660 6661 6662 6663 6664 6665 6666 6667 6668 6669 6670 6671 6672 6673 6674 6675 6676 6677 6678 6679 6680 6681 6682 6683 6684 6685 6686 6687 6688 6689 6690 6691 6692 6693 6694 6695 6696 6697 6698 6699 6700 6701 6702 6703 6704 6705 6706 6707 6708 6709 6710 6711 6712 6713 6714 6715 6716 6717 6718 6719 6720 6721 6722 6723 6724 6725 6726 6727 6728 6729 6730 6731 6732 6733 6734 6735 6736 6737 6738 6739 6740 6741 6742 6743 6744 6745 6746 6747 6748 6749 6750 6751 6752 6753 6754 6755 6756 6757 6758 6759 6760 6761 6762 6763 6764 6765 6766 6767 6768 6769 6770 6771 6772 6773 6774 6775 6776 6777 6778 6779 6780 6781 6782 6783 6784 6785 6786 6787 6788 6789 6790 6791 6792 6793 6794 6795 6796 6797 6798 6799 6800 6801 6802 6803 6804 6805 6806 6807 6808 6809 6810 6811 6812 6813 6814 6815 6816 6817 6818 6819 6820 6821 6822 6823 6824 6825 6826 6827 6828 6829 6830 6831 6832 6833 6834 6835 6836 6837 6838 6839 6840 6841 6842 6843 6844 6845 6846 6847 6848 6849 6850 6851 6852 6853 6854 6855 6856 6857 6858 6859 6860 6861 6862 6863 6864 6865 6866 6867 6868 6869 6870 6871 6872 6873 6874 6875 6876 6877 6878 6879 6880 6881 6882 6883 6884 6885 6886 6887 6888 6889 6890 6891 6892 6893 6894 6895 6896 6897 6898 6899 6900 6901 6902 6903 6904 6905 6906 6907 6908 6909 6910 6911 6912 6913 6914 6915 6916 6917 6918 6919 6920 6921 6922 6923 6924 6925 6926 6927 6928 6929 6930 6931 6932 6933 6934 6935 6936 6937 6938 6939 6940 6941 6942 6943 6944 6945 6946 6947 6948 6949 6950 6951 6952 6953 6954 6955 6956 6957 6958 6959 6960 6961 6962 6963 6964 6965 6966 6967 6968 6969 6970 6971 6972 6973 6974 6975 6976 6977 6978 6979 6980 6981 6982 6983 6984 6985 6986 6987 6988 6989 6990 6991 6992 6993 6994 6995 6996 6997 6998 6999 7000 7001 7002 7003 7004 7005 7006 7007 7008 7009 7010 7011 7012 7013 7014 7015 7016 7017 7018 7019 7020 7021 7022 7023 7024 7025 7026 7027 7028 7029 7030 7031 7032 7033 7034 7035 7036 7037 7038 7039 7040 7041 7042 7043 7044 7045 7046 7047 7048 7049 7050 7051 7052 7053 7054 7055 7056 7057 7058 7059 7060 7061 7062 7063 7064 7065 7066 7067 7068 7069 7070 7071 7072 7073 7074 7075 7076 7077 7078 7079 7080 7081 7082 7083 7084 7085 7086 7087 7088 7089 7090 7091 7092 7093 7094 7095 7096 7097 7098 7099 7100 7101 7102 7103 7104 7105 7106 7107 7108 7109 7110 7111 7112 7113 7114 7115 7116 7117 7118 7119 7120 7121 7122 7123 7124 7125 7126 7127 7128 7129 7130 7131 7132 7133 7134 7135 7136 7137 7138 7139 7140 7141 7142 7143 7144 7145 7146 7147 7148 7149 7150 7151 7152 7153 7154 7155 7156 7157 7158 7159 7160 7161 7162 7163 7164 7165 7166 7167 7168 7169 7170 7171 7172 7173 7174 7175 7176 7177 7178 7179 7180 7181 7182 7183 7184 7185 7186 7187 7188 7189 7190 7191 7192 7193 7194 7195 7196 7197 7198 7199 7200 7201 7202 7203 7204 7205 7206 7207 7208 7209 7210 7211 7212 7213 7214 7215 7216 7217 7218 7219 7220 7221 7222 7223 7224 7225 7226 7227 7228 7229 7230 7231 7232 7233 7234 7235 7236 7237 7238 7239 7240 7241 7242 7243 7244 7245 7246 7247 7248 7249 7250 7251 7252 7253 7254 7255 7256 7257 7258 7259 7260 7261 7262 7263 7264 7265 7266 7267 7268 7269 7270 7271 7272 7273 7274 7275 7276 7277 7278 7279 7280 7281 7282 7283 7284 7285 7286 7287 7288 7289 7290 7291 7292 7293 7294 7295 7296 7297 7298 7299 7300 7301 7302 7303 7304 7305 7306 7307 7308 7309 7310 7311 7312 7313 7314 7315 7316 7317 7318 7319 7320 7321 7322 7323 7324 7325 7326 7327 7328 7329 7330 7331 7332 7333 7334 7335 7336 7337 7338 7339 7340 7341 7342 7343 7344 7345 7346 7347 7348 7349 7350 7351 7352 7353 7354 7355 7356 7357 7358 7359 7360 7361 7362 7363 7364 7365 7366 7367 7368 7369 7370 7371 7372 7373 7374 7375 7376 7377 7378 7379 7380 7381 7382 7383 7384 7385 7386 7387 7388 7389 7390 7391 7392 7393 7394 7395 7396 7397 7398 7399 7400 7401 7402 7403 7404 7405 7406 7407 7408 7409 7410 7411 7412 7413 7414 7415 7416 7417 7418 7419 7420 7421 7422 7423 7424 7425 7426 7427 7428 7429 7430 7431 7432 7433 7434 7435 7436 7437 7438 7439 7440 7441 7442 7443 7444 7445 7446 7447 7448 7449 7450 7451 7452 7453 7454 7455 7456 7457 7458 7459 7460 7461 7462 7463 7464 7465 7466 7467 7468 7469 7470 7471 7472 7473 7474 7475 7476 7477 7478 7479 7480 7481 7482 7483 7484 7485 7486 7487 7488 7489 7490 7491 7492 7493 7494 7495 7496 7497 7498 7499 7500 7501 7502 7503 7504 7505 7506 7507 7508 7509 7510 7511 7512 7513 7514 7515 7516 7517 7518 7519 7520 7521 7522 7523 7524 7525 7526 7527 7528 7529 7530 7531 7532 7533 7534 7535 7536 7537 7538 7539 7540 7541 7542 7543 7544 7545 7546 7547 7548 7549 7550 7551 7552 7553 7554 7555 7556 7557 7558 7559 7560 7561 7562 7563 7564 7565 7566 7567 7568 7569 7570 7571 7572 7573 7574 7575 7576 7577 7578 7579 7580 7581 7582 7583 7584 7585 7586 7587 7588 7589 7590 7591 7592 7593 7594 7595 7596 7597 7598 7599 7600 7601 7602 7603 7604 7605 7606 7607 7608 7609 7610 7611 7612 7613 7614 7615 7616 7617 7618 7619 7620 7621 7622 7623 7624 7625 7626 7627 7628 7629 7630 7631 7632 7633 7634 7635 7636 7637 7638 7639 7640 7641 7642 7643 7644 7645 7646 7647 7648 7649 7650 7651 7652 7653 7654 7655 7656 7657 7658 7659 7660 7661 7662 7663 7664 7665 7666 7667 7668 7669 7670 7671 7672 7673 7674 7675 7676 7677 7678 7679 7680 7681 7682 7683 7684 7685 7686 7687 7688 7689 7690 7691 7692 7693 7694 7695 7696 7697 7698 7699 7700 7701 7702 7703 7704 7705 7706 7707 7708 7709 7710 7711 7712 7713 7714 7715 7716 7717 7718 7719 7720 7721 7722 7723 7724 7725 7726 7727 7728 7729 7730 7731 7732 7733 7734 7735 7736 7737 7738 7739 7740 7741 7742 7743 7744 7745 7746 7747 7748 7749 7750 7751 7752 7753 7754 7755 7756 7757 7758 7759 7760 7761 7762 7763 7764 7765 7766 7767 7768 7769 7770 7771 7772 7773 7774 7775 7776 7777 7778 7779 7780 7781 7782 7783 7784 7785 7786 7787 7788 7789 7790 7791 7792 7793 7794 7795 7796 7797 7798 7799 7800 7801 7802 7803 7804 7805 7806 7807 7808 7809 7810 7811 7812 7813 7814 7815 7816 7817 7818 7819 7820 7821 7822 7823 7824 7825 7826 7827 7828 7829 7830 7831 7832 7833 7834 7835 7836 7837 7838 7839 7840 7841 7842 7843 7844 7845 7846 7847 7848 7849 7850 7851 7852 7853 7854 7855 7856 7857 7858 7859 7860 7861 7862 7863 7864 7865 7866 7867 7868 7869 7870 7871 7872 7873 7874 7875 7876 7877 7878 7879 7880 7881 7882 7883 7884 7885 7886 7887 7888 7889 7890 7891 7892 7893 7894 7895 7896 7897 7898 7899 7900 7901 7902 7903 7904 7905 7906 7907 7908 7909 7910 7911 7912 7913 7914 7915 7916 7917 7918 7919 7920 7921 7922 7923 7924 7925 7926 7927 7928 7929 7930 7931 7932 7933 7934 7935 7936 7937 7938 7939 7940 7941 7942 7943 7944 7945 7946 7947 7948 7949 7950 7951 7952 7953 7954 7955 7956 7957 7958 7959 7960 7961 7962 7963 7964 7965 7966 7967 7968 7969 7970 7971 7972 7973 7974 7975 7976 7977 7978 7979 7980 7981 7982 7983 7984 7985 7986 7987 7988 7989 7990 7991 7992 7993 7994 7995 7996 7997 7998 7999 8000 8001 8002 8003 8004 8005 8006 8007 8008 8009 8010 8011 8012 8013 8014 8015 8016 8017 8018 8019 8020 8021 8022 8023 8024 8025 8026 8027 8028 8029 8030 8031 8032 8033 8034 8035 8036 8037 8038 8039 8040 8041 8042 8043 8044 8045 8046 8047 8048 8049 8050 8051 8052 8053 8054 8055 8056 8057 8058 8059 8060 8061 8062 8063 8064 8065 8066 8067 8068 8069 8070 8071 8072 8073 8074 8075 8076 8077 8078 8079 8080 8081 8082 8083 8084 8085 8086 8087 8088 8089 8090 8091 8092 8093 8094 8095 8096 8097 8098 8099 8100 8101 8102 8103 8104 8105 8106 8107 8108 8109 8110 8111 8112 8113 8114 8115 8116 8117 8118 8119 8120 8121 8122 8123 8124 8125 8126 8127 8128 8129 8130 8131 8132 8133 8134 8135 8136 8137 8138 8139 8140 8141 8142 8143 8144 8145 8146 8147 8148 8149 8150 8151 8152 8153 8154 8155 8156 8157 8158 8159 8160 8161 8162 8163 8164 8165 8166 8167 8168 8169 8170 8171 8172 8173 8174 8175 8176 8177 8178 8179 8180 8181 8182 8183 8184 8185 8186 8187 8188 8189 8190 8191 8192 8193 8194 8195 8196 8197 8198 8199 8200 8201 8202 8203 8204 8205 8206 8207 8208 8209 8210 8211 8212 8213 8214 8215 8216 8217 8218 8219 8220 8221 8222 8223 8224 8225 8226 8227 8228 8229 8230 8231 8232 8233 8234 8235 8236 8237 8238 8239 8240 8241 8242 8243 8244 8245 8246 8247 8248 8249 8250 8251 8252 8253 8254 8255 8256 8257 8258 8259 8260 8261 8262 8263 8264 8265 8266 8267 8268 8269 8270 8271 8272 8273 8274 8275 8276 8277 8278 8279 8280 8281 8282 8283 8284 8285 8286 8287 8288 8289 8290 8291 8292 8293 8294 8295 8296 8297 8298 8299 8300 8301 8302 8303 8304 8305 8306 8307 8308 8309 8310 8311 8312 8313 8314 8315 8316 8317 8318 8319 8320 8321 8322 8323 8324 8325 8326 8327 8328 8329 8330 8331 8332 8333 8334 8335 8336 8337 8338 8339 8340 8341 8342 8343 8344 8345 8346 8347 8348 8349 8350 8351 8352 8353 8354 8355 8356 8357 8358 8359 8360 8361 8362 8363 8364 8365 8366 8367 8368 8369 8370 8371 8372 8373 8374 8375 8376 8377 8378 8379 8380 8381 8382 8383 8384 8385 8386 8387 8388 8389 8390 8391 8392 8393 8394 8395 8396 8397 8398 8399 8400 8401 8402 8403 8404 8405 8406 8407 8408 8409 8410 8411 8412 8413 8414 8415 8416 8417 8418 8419 8420 8421 8422 8423 8424 8425 8426 8427 8428 8429 8430 8431 8432 8433 8434 8435 8436 8437 8438 8439 8440 8441 8442 8443 8444 8445 8446 8447 8448 8449 8450 8451 8452 8453 8454 8455 8456 8457 8458 8459 8460 8461 8462 8463 8464 8465 8466 8467 8468 8469 8470 8471 8472 8473 8474 8475 8476 8477 8478 8479 8480 8481 8482 8483 8484 8485 8486 8487 8488 8489 8490 8491 8492 8493 8494 8495 8496 8497 8498 8499 8500 8501 8502 8503 8504 8505 8506 8507 8508 8509 8510 8511 8512 8513 8514 8515 8516 8517 8518 8519 8520 8521 8522 8523 8524 8525 8526 8527 8528 8529 8530 8531 8532 8533 8534 8535 8536 8537 8538 8539 8540 8541 8542 8543 8544 8545 8546 8547 8548 8549 8550 8551 8552 8553 8554 8555 8556 8557 8558 8559 8560 8561 8562 8563 8564 8565 8566 8567 8568 8569 8570 8571 8572 8573 8574 8575 8576 8577 8578 8579 8580 8581 8582 8583 8584 8585 8586 8587 8588 8589 8590 8591 8592 8593 8594 8595 8596 8597 8598 8599 8600 8601 8602 8603 8604 8605 8606 8607 8608 8609 8610 8611 8612 8613 8614 8615 8616 8617 8618 8619 8620 8621 8622 8623 8624 8625 8626 8627 8628 8629 8630 8631 8632 8633 8634 8635 8636 8637 8638 8639 8640 8641 8642 8643 8644 8645 8646 8647 8648 8649 8650 8651 8652 8653 8654 8655 8656 8657 8658 8659 8660 8661 8662 8663 8664 8665 8666 8667 8668 8669 8670 8671 8672 8673 8674 8675 8676 8677 8678 8679 8680 8681 8682 8683 8684 8685 8686 8687 8688 8689 8690 8691 8692 8693 8694 8695 8696 8697 8698 8699 8700 8701 8702 8703 8704 8705 8706 8707 8708 8709 8710 8711 8712 8713 8714 8715 8716 8717 8718 8719 8720 8721 8722 8723 8724 8725 8726 8727 8728 8729 8730 8731 8732 8733 8734 8735 8736 8737 8738 8739 8740 8741 8742 8743 8744 8745 8746 8747 8748 8749 8750 8751 8752 8753 8754 8755 8756 8757 8758 8759 8760 8761 8762 8763 8764 8765 8766 8767 8768 8769 8770 8771 8772 8773 8774 8775 8776 8777 8778 8779 8780 8781 8782 8783 8784 8785 8786 8787 8788 8789 8790 8791 8792 8793 8794 8795 8796 8797 8798 8799 8800 8801 8802 8803 8804 8805 8806 8807 8808 8809 8810 8811 8812 8813 8814 8815 8816 8817 8818 8819 8820 8821 8822 8823 8824 8825 8826 8827 8828 8829 8830 8831 8832 8833 8834 8835 8836 8837 8838 8839 8840 8841 8842 8843 8844 8845 8846 8847 8848 8849 8850 8851 8852 8853 8854 8855 8856 8857 8858 8859 8860 8861 8862 8863 8864 8865 8866 8867 8868 8869 8870 8871 8872 8873 8874 8875 8876 8877 8878 8879 8880 8881 8882 8883 8884 8885 8886 8887 8888 8889 8890 8891 8892 8893 8894 8895 8896 8897 8898 8899 8900 8901 8902 8903 8904 8905 8906 8907 8908 8909 8910 8911 8912 8913 8914 8915 8916 8917 8918 8919 8920 8921 8922 8923 8924 8925 8926 8927 8928 8929 8930 8931 8932 8933 8934 8935 8936 8937 8938 8939 8940 8941 8942 8943 8944 8945 8946 8947 8948 8949 8950 8951 8952 8953 8954 8955 8956 8957 8958 8959 8960 8961 8962 8963 8964 8965 8966 8967 8968 8969 8970 8971 8972 8973 8974 8975 8976 8977 8978 8979 8980 8981 8982 8983 8984 8985 8986 8987 8988 8989 8990 8991 8992 8993 8994 8995 8996 8997 8998 8999 9000 9001 9002 9003 9004 9005 9006 9007 9008 9009 9010 9011 9012 9013 9014 9015 9016 9017 9018 9019 9020 9021 9022 9023 9024 9025 9026 9027 9028 9029 9030 9031 9032 9033 9034 9035 9036 9037 9038 9039 9040 9041 9042 9043 9044 9045 9046 9047 9048 9049 9050 9051 9052 9053 9054 9055 9056 9057 9058 9059 9060 9061 9062 9063 9064 9065 9066 9067 9068 9069 9070 9071 9072 9073 9074 9075 9076 9077 9078 9079 9080 9081 9082 9083 9084 9085 9086 9087 9088 9089 9090 9091 9092 9093 9094 9095 9096 9097 9098 9099 9100 9101 9102 9103 9104 9105 9106 9107 9108 9109 9110 9111 9112 9113 9114 9115 9116 9117 9118 9119 9120 9121 9122 9123 9124 9125 9126 9127 9128 9129 9130 9131 9132 9133 9134 9135 9136 9137 9138 9139 9140 9141 9142 9143 9144 9145 9146 9147 9148 9149 9150 9151 9152 9153 9154 9155 9156 9157 9158 9159 9160 9161 9162 9163 9164 9165 9166 9167 9168 9169 9170 9171 9172 9173 9174 9175 9176 9177 9178 9179 9180 9181 9182 9183 9184 9185 9186 9187 9188 9189 9190 9191 9192 9193 9194 9195 9196 9197 9198 9199 9200 9201 9202 9203 9204 9205 9206 9207 9208 9209 9210 9211 9212 9213 9214 9215 9216 9217 9218 9219 9220 9221 9222 9223 9224 9225 9226 9227 9228 9229 9230 9231 9232 9233 9234 9235 9236 9237 9238 9239 9240 9241 9242 9243 9244 9245 9246 9247 9248 9249 9250 9251 9252 9253 9254 9255 9256 9257 9258 9259 9260 9261 9262 9263 9264 9265 9266 9267 9268 9269 9270 9271 9272 9273 9274 9275 9276 9277 9278 9279 9280 9281 9282 9283 9284 9285 9286 9287 9288 9289 9290 9291 9292 9293 9294 9295 9296 9297 9298 9299 9300 9301 9302 9303 9304 9305 9306 9307 9308 9309 9310 9311 9312 9313 9314 9315 9316 9317 9318 9319 9320 9321 9322 9323 9324 9325 9326 9327 9328 9329 9330 9331 9332 9333 9334 9335 9336 9337 9338 9339 9340 9341 9342 9343 9344 9345 9346 9347 9348 9349 9350 9351 9352 9353 9354 9355 9356 9357 9358 9359 9360 9361 9362 9363 9364 9365 9366 9367 9368 9369 9370 9371 9372 9373 9374 9375 9376 9377 9378 9379 9380 9381 9382 9383 9384 9385 9386 9387 9388 9389 9390 9391 9392 9393 9394 9395 9396 9397 9398 9399 9400 9401 9402 9403 9404 9405 9406 9407 9408 9409 9410 9411 9412 9413 9414 9415 9416 9417 9418 9419 9420 9421 9422 9423 9424 9425 9426 9427 9428 9429 9430 9431 9432 9433 9434 9435 9436 9437 9438 9439 9440 9441 9442 9443 9444 9445 9446 9447 9448 9449 9450 9451 9452 9453 9454 9455 9456 9457 9458 9459 9460 9461 9462 9463 9464 9465 9466 9467 9468 9469 9470 9471 9472 9473 9474 9475 9476 9477 9478 9479 9480 9481 9482 9483 9484 9485 9486 9487 9488 9489 9490 9491 9492 9493 9494 9495 9496 9497 9498 9499 9500 9501 9502 9503 9504 9505 9506 9507 9508 9509 9510 9511 9512 9513 9514 9515 9516 9517 9518 9519 9520 9521 9522 9523 9524 9525 9526 9527 9528 9529 9530 9531 9532 9533 9534 9535 9536 9537 9538 9539 9540 9541 9542 9543 9544 9545 9546 9547 9548 9549 9550 9551 9552 9553 9554 9555 9556 9557 9558 9559 9560 9561 9562 9563 9564 9565 9566 9567 9568 9569 9570 9571 9572 9573 9574 9575 9576 9577 9578 9579 9580 9581 9582 9583 9584 9585 9586 9587 9588 9589 9590 9591 9592 9593 9594 9595 9596 9597 9598 9599 9600 9601 9602 9603 9604 9605 9606 9607 9608 9609 9610 9611 9612 9613 9614 9615 9616 9617 9618 9619 9620 9621 9622 9623 9624 9625 9626 9627 9628 9629 9630 9631 9632 9633 9634 9635 9636 9637 9638 9639 9640 9641 9642 9643 9644 9645 9646 9647 9648 9649 9650 9651 9652 9653 9654 9655 9656 9657 9658 9659 9660 9661 9662 9663 9664 9665 9666 9667 9668 9669 9670 9671 9672 9673 9674 9675 9676 9677 9678 9679 9680 9681 9682 9683 9684 9685 9686 9687 9688 9689 9690 9691 9692 9693 9694 9695 9696 9697 9698 9699 9700 9701 9702 9703 9704 9705 9706 9707 9708 9709 9710 9711 9712 9713 9714 9715 9716 9717 9718 9719 9720 9721 9722 9723 9724 9725 9726 9727 9728 9729 9730 9731 9732 9733 9734 9735 9736 9737 9738 9739 9740 9741 9742 9743 9744 9745 9746 9747 9748 9749 9750 9751 9752 9753 9754 9755 9756 9757 9758 9759 9760 9761 9762 9763 9764 9765 9766 9767 9768 9769 9770 9771 9772 9773 9774 9775 9776 9777 9778 9779 9780 9781 9782 9783 9784 9785 9786 9787 9788 9789 9790 9791 9792 9793 9794 9795 9796 9797 9798 9799 9800 9801 9802 9803 9804 9805 9806 9807 9808 9809 9810 9811 9812 9813 9814 9815 9816 9817 9818 9819 9820 9821 9822 9823 9824 9825 9826 9827 9828 9829 9830 9831 9832 9833 9834 9835 9836 9837 9838 9839 9840 9841 9842 9843 9844 9845 9846 9847 9848 9849 9850 9851 9852 9853 9854 9855 9856 9857 9858 9859 9860 9861 9862 9863 9864 9865 9866 9867 9868 9869 9870 9871 9872 9873 9874 9875 9876 9877 9878 9879 9880 9881 9882 9883 9884 9885 9886 9887 9888 9889 9890 9891 9892 9893 9894 9895 9896 9897 9898 9899 9900 9901 9902 9903 9904 9905 9906 9907 9908 9909 9910 9911 9912 9913 9914 9915 9916 9917 9918 9919 9920 9921 9922 9923 9924 9925 9926 9927 9928 9929 9930 9931 9932 9933 9934 9935 9936 9937 9938 9939 9940 9941 9942 9943 9944 9945 9946 9947 9948 9949 9950 9951 9952 9953 9954 9955 9956 9957 9958 9959 9960 9961 9962 9963 9964 9965 9966 9967 9968 9969 9970 9971 9972 9973 9974 9975 9976 9977 9978 9979 9980 9981 9982 9983 9984 9985 9986 9987 9988 9989 9990 9991 9992 9993 9994 9995 9996 9997 9998 9999 10000 10001 10002 10003 10004 10005 10006 10007 10008 10009 10010 10011 10012 10013 10014 10015 10016 10017 10018 10019 10020 10021 10022 10023 10024 10025 10026 10027 10028 10029 10030 10031 10032 10033 10034 10035 10036 10037 10038 10039 10040 10041 10042 10043 10044 10045 10046 10047 10048 10049 10050 10051 10052 10053 10054 10055 10056 10057 10058 10059 10060 10061 10062 10063 10064 10065 10066 10067 10068 10069 10070 10071 10072 10073 10074 10075 10076 10077 10078 10079 10080 10081 10082 10083 10084 10085 10086 10087 10088 10089 10090 10091 10092 10093 10094 10095 10096 10097 10098 10099 10100 10101 10102 10103 10104 10105 10106 10107 10108 10109 10110 10111 10112 10113 10114 10115 10116 10117 10118 10119 10120 10121 10122 10123 10124 10125 10126 10127 10128 10129 10130 10131 10132 10133 10134 10135 10136 10137 10138 10139 10140 10141 10142 10143 10144 10145 10146 10147 10148 10149 10150 10151 10152 10153 10154 10155 10156 10157 10158 10159 10160 10161 10162 10163 10164 10165 10166 10167 10168 10169 10170 10171 10172 10173 10174 10175 10176 10177 10178 10179 10180 10181 10182 10183 10184 10185 10186 10187 10188 10189 10190 10191 10192 10193 10194 10195 10196 10197 10198 10199 10200 10201 10202 10203 10204 10205 10206 10207 10208 10209 10210 10211 10212 10213 10214 10215 10216 10217 10218 10219 10220 10221 10222 10223 10224 10225 10226 10227 10228 10229 10230 10231 10232 10233 10234 10235 10236 10237 10238 10239 10240 10241 10242 10243 10244 10245 10246 10247 10248 10249 10250 10251 10252 10253 10254 10255 10256 10257 10258 10259 10260 10261 10262 10263 10264 10265 10266 10267 10268 10269 10270 10271 10272 10273 10274 10275 10276 10277 10278 10279 10280 10281 10282 10283 10284 10285 10286 10287 10288 10289 10290 10291 10292 10293 10294 10295 10296 10297 10298 10299 10300 10301 10302 10303 10304 10305 10306 10307 10308 10309 10310 10311 10312 10313 10314 10315 10316 10317 10318 10319 10320 10321 10322 10323 10324 10325 10326 10327 10328 10329 10330 10331 10332 10333 10334 10335 10336 10337 10338 10339 10340 10341 10342 10343 10344 10345 10346 10347 10348 10349 10350 10351 10352 10353 10354 10355 10356 10357 10358 10359 10360 10361 10362 10363 10364 10365 10366 10367 10368 10369 10370 10371 10372 10373 10374 10375 10376 10377 10378 10379 10380 10381 10382 10383 10384 10385 10386 10387 10388 10389 10390 10391 10392 10393 10394 10395 10396 10397 10398 10399 10400 10401 10402 10403 10404 10405 10406 10407 10408 10409 10410 10411 10412 10413 10414 10415 10416 10417 10418 10419 10420 10421 10422 10423 10424 10425 10426 10427 10428 10429 10430 10431 10432 10433 10434 10435 10436 10437 10438 10439 10440 10441 10442 10443 10444 10445 10446 10447 10448 10449 10450 10451 10452 10453 10454 10455 10456 10457 10458 10459 10460 10461 10462 10463 10464 10465 10466 10467 10468 10469 10470 10471 10472 10473 10474 10475 10476 10477 10478 10479 10480 10481 10482 10483 10484 10485 10486 10487 10488 10489 10490 10491 10492 10493 10494 10495 10496 10497 10498 10499 10500 10501 10502 10503 10504 10505 10506 10507 10508 10509 10510 10511 10512 10513 10514 10515 10516 10517 10518 10519 10520 10521 10522 10523 10524 10525 10526 10527 10528 10529 10530 10531 10532 10533 10534 10535 10536 10537 10538 10539 10540 10541 10542 10543 10544 10545 10546 10547 10548 10549 10550 10551 10552 10553 10554 10555 10556 10557 10558 10559 10560 10561 10562 10563 10564 10565 10566 10567 10568 10569 10570 10571 10572 10573 10574 10575 10576 10577 10578 10579 10580 10581 10582 10583 10584 10585 10586 10587 10588 10589 10590 10591 10592 10593 10594 10595 10596 10597 10598 10599 10600 10601 10602 10603 10604 10605 10606 10607 10608 10609 10610 10611 10612 10613 10614 10615 10616 10617 10618 10619 10620 10621 10622 10623 10624 10625 10626 10627 10628 10629 10630 10631 10632 10633 10634 10635 10636 10637 10638 10639 10640 10641 10642 10643 10644 10645 10646 10647 10648 10649 10650 10651 10652 10653 10654 10655 10656 10657 10658 10659 10660 10661 10662 10663 10664 10665 10666 10667 10668 10669 10670 10671 10672 10673 10674 10675 10676 10677 10678 10679 10680 10681 10682 10683 10684 10685 10686 10687 10688 10689 10690 10691 10692 10693 10694 10695 10696 10697 10698 10699 10700 10701 10702 10703 10704 10705 10706 10707 10708 10709 10710 10711 10712 10713 10714 10715 10716 10717 10718 10719 10720 10721 10722 10723 10724 10725 10726 10727 10728 10729 10730 10731 10732 10733 10734 10735 10736 10737 10738 10739 10740 10741 10742 10743 10744 10745 10746 10747 10748 10749 10750 10751 10752 10753 10754 10755 10756 10757 10758 10759 10760 10761 10762 10763 10764 10765 10766 10767 10768 10769 10770 10771 10772 10773 10774 10775 10776 10777 10778 10779 10780 10781 10782 10783 10784 10785 10786 10787 10788 10789 10790 10791 10792 10793 10794 10795 10796 10797 10798 10799 10800 10801 10802 10803 10804 10805 10806 10807 10808 10809 10810 10811 10812 10813 10814 10815 10816 10817 10818 10819 10820 10821 10822 10823 10824 10825 10826 10827 10828 10829 10830 10831 10832 10833 10834 10835 10836 10837 10838 10839 10840 10841 10842 10843 10844 10845 10846 10847 10848 10849 10850 10851 10852 10853 10854 10855 10856 10857 10858 10859 10860 10861 10862 10863 10864 10865 10866 10867 10868 10869 10870 10871 10872 10873 10874 10875 10876 10877 10878 10879 10880 10881 10882 10883 10884 10885 10886 10887 10888 10889 10890 10891 10892 10893 10894 10895 10896 10897 10898 10899 10900 10901 10902 10903 10904 10905 10906 10907 10908 10909 10910 10911 10912 10913 10914 10915 10916 10917 10918 10919 10920 10921 10922 10923 10924 10925 10926 10927 10928 10929 10930 10931 10932 10933 10934 10935 10936 10937 10938 10939 10940 10941 10942 10943 10944 10945 10946 10947 10948 10949 10950 10951 10952 10953 10954 10955 10956 10957 10958 10959 10960 10961 10962 10963 10964 10965 10966 10967 10968 10969 10970 10971 10972 10973 10974 10975 10976 10977 10978 10979 10980 10981 10982 10983 10984 10985 10986 10987 10988 10989 10990 10991 10992 10993 10994 10995 10996 10997 10998 10999 11000 11001 11002 11003 11004 11005 11006 11007 11008 11009 11010 11011 11012 11013 11014 11015 11016 11017 11018 11019 11020 11021 11022 11023 11024 11025 11026 11027 11028 11029 11030 11031 11032 11033 11034 11035 11036 11037 11038 11039 11040 11041 11042 11043 11044 11045 11046 11047 11048 11049 11050 11051 11052 11053 11054 11055 11056 11057 11058 11059 11060 11061 11062 11063 11064 11065 11066 11067 11068 11069 11070 11071 11072 11073 11074 11075 11076 11077 11078 11079 11080 11081 11082 11083 11084 11085 11086 11087 11088 11089 11090 11091 11092 11093 11094 11095 11096 11097 11098 11099 11100 11101 11102 11103 11104 11105 11106 11107 11108 11109 11110 11111 11112 11113 11114 11115 11116 11117 11118 11119 11120 11121 11122 11123 11124 11125 11126 11127 11128 11129 11130 11131 11132 11133 11134 11135 11136 11137 11138 11139 11140 11141 11142 11143 11144 11145 11146 11147 11148 11149 11150 11151 11152 11153 11154 11155 11156 11157 11158 11159 11160 11161 11162 11163 11164 11165 11166 11167 11168 11169 11170 11171 11172 11173 11174 11175 11176 11177 11178 11179 11180 11181 11182 11183 11184 11185 11186 11187 11188 11189 11190 11191 11192 11193 11194 11195 11196 11197 11198 11199 11200 11201 11202 11203 11204 11205 11206 11207 11208 11209 11210 11211 11212 11213 11214 11215 11216 11217 11218 11219 11220 11221 11222 11223 11224 11225 11226 11227 11228 11229 11230 11231 11232 11233 11234 11235 11236 11237 11238 11239 11240 11241 11242 11243 11244 11245 11246 11247 11248 11249 11250 11251 11252 11253 11254 11255 11256 11257 11258 11259 11260 11261 11262 11263 11264 11265 11266 11267 11268 11269 11270 11271 11272 11273 11274 11275 11276 11277 11278 11279 11280 11281 11282 11283 11284 11285 11286 11287 11288 11289 11290 11291 11292 11293 11294 11295 11296 11297 11298 11299 11300 11301 11302 11303 11304 11305 11306 11307 11308 11309 11310 11311 11312 11313 11314 11315 11316 11317 11318 11319 11320 11321 11322 11323 11324 11325 11326 11327 11328 11329 11330 11331 11332 11333 11334 11335 11336 11337 11338 11339 11340 11341 11342 11343 11344 11345 11346 11347 11348 11349 11350 11351 11352 11353 11354 11355 11356 11357 11358 11359 11360 11361 11362 11363 11364 11365 11366 11367 11368 11369 11370 11371 11372 11373 11374 11375 11376 11377 11378 11379 11380 11381 11382 11383 11384 11385 11386 11387 11388 11389 11390 11391 11392 11393 11394 11395 11396 11397 11398 11399 11400 11401 11402 11403 11404 11405 11406 11407 11408 11409 11410 11411 11412 11413 11414 11415 11416 11417 11418 11419 11420 11421 11422 11423 11424 11425 11426 11427 11428 11429 11430 11431 11432 11433 11434 11435 11436 11437 11438 11439 11440 11441 11442 11443 11444 11445 11446 11447 11448 11449 11450 11451 11452 11453 11454 11455 11456 11457 11458 11459 11460 11461 11462 11463 11464 11465 11466 11467 11468 11469 11470 11471 11472 11473 11474 11475 11476 11477 11478 11479 11480 11481 11482 11483 11484 11485 11486 11487 11488 11489 11490 11491 11492 11493 11494 11495 11496 11497 11498 11499 11500 11501 11502 11503 11504 11505 11506 11507 11508 11509 11510 11511 11512 11513 11514 11515 11516 11517 11518 11519 11520 11521 11522 11523 11524 11525 11526 11527 11528 11529 11530 11531 11532 11533 11534 11535 11536 11537 11538 11539 11540 11541 11542 11543 11544 11545 11546 11547 11548 11549 11550 11551 11552 11553 11554 11555 11556 11557 11558 11559 11560 11561 11562 11563 11564 11565 11566 11567 11568 11569 11570 11571 11572 11573 11574 11575 11576 11577 11578 11579 11580 11581 11582 11583 11584 11585 11586 11587 11588 11589 11590 11591 11592 11593 11594 11595 11596 11597 11598 11599 11600 11601 11602 11603 11604 11605 11606 11607 11608 11609 11610 11611 11612 11613 11614 11615 11616 11617 11618 11619 11620 11621 11622 11623 11624 11625 11626 11627 11628 11629 11630 11631 11632 11633 11634 11635 11636 11637 11638 11639 11640 11641 11642 11643 11644 11645 11646 11647 11648 11649 11650 11651 11652 11653 11654 11655 11656 11657 11658 11659 11660 11661 11662 11663 11664 11665 11666 11667 11668 11669 11670 11671 11672 11673 11674 11675 11676 11677 11678 11679 11680 11681 11682 11683 11684 11685 11686 11687 11688 11689 11690 11691 11692 11693 11694 11695 11696 11697 11698 11699 11700 11701 11702 11703 11704 11705 11706 11707 11708 11709 11710 11711 11712 11713 11714 11715 11716 11717 11718 11719 11720 11721 11722 11723 11724 11725 11726 11727 11728 11729 11730 11731 11732 11733 11734 11735 11736 11737 11738 11739 11740 11741 11742 11743 11744 11745 11746 11747 11748 11749 11750 11751 11752 11753 11754 11755 11756 11757 11758 11759 11760 11761 11762 11763 11764 11765 11766 11767 11768 11769 11770 11771 11772 11773 11774 11775 11776 11777 11778 11779 11780 11781 11782 11783 11784 11785 11786 11787 11788 11789 11790 11791 11792 11793 11794 11795 11796 11797 11798 11799 11800 11801 11802 11803 11804 11805 11806 11807 11808 11809 11810 11811 11812 11813 11814 11815 11816 11817 11818 11819 11820 11821 11822 11823 11824 11825 11826 11827 11828 11829 11830 11831 11832 11833 11834 11835 11836 11837 11838 11839 11840 11841 11842 11843 11844 11845 11846 11847 11848 11849 11850 11851 11852 11853 11854 11855 11856 11857 11858 11859 11860 11861 11862 11863 11864 11865 11866 11867 11868 11869 11870 11871 11872 11873 11874 11875 11876 11877 11878 11879 11880 11881 11882 11883 11884 11885 11886 11887 11888 11889 11890 11891 11892 11893 11894 11895 11896 11897 11898 11899 11900 11901 11902 11903 11904 11905 11906 11907 11908 11909 11910 11911 11912 11913 11914 11915 11916 11917 11918 11919 11920 11921 11922 11923 11924 11925 11926 11927 11928 11929 11930 11931 11932 11933 11934 11935 11936 11937 11938 11939 11940 11941 11942 11943 11944 11945 11946 11947 11948 11949 11950 11951 11952 11953 11954 11955 11956 11957 11958 11959 11960 11961 11962 11963 11964 11965 11966 11967 11968 11969 11970 11971 11972 11973 11974 11975 11976 11977 11978 11979 11980 11981 11982 11983 11984 11985 11986 11987 11988 11989 11990 11991 11992 11993 11994 11995 11996 11997 11998 11999 12000 12001 12002 12003 12004 12005 12006 12007 12008 12009 12010 12011 12012 12013 12014 12015 12016 12017 12018 12019 12020 12021 12022 12023 12024 12025 12026 12027 12028 12029 12030 12031 12032 12033 12034 12035 12036 12037 12038 12039 12040 12041 12042 12043 12044 12045 12046 12047 12048 12049 12050 12051 12052 12053 12054 12055 12056 12057 12058 12059 12060 12061 12062 12063 12064 12065 12066 12067 12068 12069 12070 12071 12072 12073 12074 12075 12076 12077 12078 12079 12080 12081 12082 12083 12084 12085 12086 12087 12088 12089 12090 12091 12092 12093 12094 12095 12096 12097 12098 12099 12100 12101 12102 12103 12104 12105 12106 12107 12108 12109 12110 12111 12112 12113 12114 12115 12116 12117 12118 12119 12120 12121 12122 12123 12124 12125 12126 12127 12128 12129 12130 12131 12132 12133 12134 12135 12136 12137 12138 12139 12140 12141 12142 12143 12144 12145 12146 12147 12148 12149 12150 12151 12152 12153 12154 12155 12156 12157 12158 12159 12160 12161 12162 12163 12164 12165 12166 12167 12168 12169 12170 12171 12172 12173 12174 12175 12176 12177 12178 12179 12180 12181 12182 12183 12184 12185 12186 12187 12188 12189 12190 12191 12192 12193 12194 12195 12196 12197 12198 12199 12200 12201 12202 12203 12204 12205 12206 12207 12208 12209 12210 12211 12212 12213 12214 12215 12216 12217 12218 12219 12220 12221 12222 12223 12224 12225 12226 12227 12228 12229 12230 12231 12232 12233 12234 12235 12236 12237 12238 12239 12240 12241 12242 12243 12244 12245 12246 12247 12248 12249 12250 12251 12252 12253 12254 12255 12256 12257 12258 12259 12260 12261 12262 12263 12264 12265 12266 12267 12268 12269 12270 12271 12272 12273 12274 12275 12276 12277 12278 12279 12280 12281 12282 12283 12284 12285 12286 12287 12288 12289 12290 12291 12292 12293 12294 12295 12296 12297 12298 12299 12300 12301 12302 12303 12304 12305 12306 12307 12308 12309 12310 12311 12312 12313 12314 12315 12316 12317 12318 12319 12320 12321 12322 12323 12324 12325 12326 12327 12328 12329 12330 12331 12332 12333 12334 12335 12336 12337 12338 12339 12340 12341 12342 12343 12344 12345 12346 12347 12348 12349 12350 12351 12352 12353 12354 12355 12356 12357 12358 12359 12360 12361 12362 12363 12364 12365 12366 12367 12368 12369 12370 12371 12372 12373 12374 12375 12376 12377 12378 12379 12380 12381 12382 12383 12384 12385 12386 12387 12388 12389 12390 12391 12392 12393 12394 12395 12396 12397 12398 12399 12400 12401 12402 12403 12404 12405 12406 12407 12408 12409 12410 12411 12412 12413 12414 12415 12416 12417 12418 12419 12420 12421 12422 12423 12424 12425 12426 12427 12428 12429 12430 12431 12432 12433 12434 12435 12436 12437 12438 12439 12440 12441 12442 12443 12444 12445 12446 12447 12448 12449 12450 12451 12452 12453 12454 12455 12456 12457 12458 12459 12460 12461 12462 12463 12464 12465 12466 12467 12468 12469 12470 12471 12472 12473 12474 12475 12476 12477 12478 12479 12480 12481 12482 12483 12484 12485 12486 12487 12488 12489 12490 12491 12492 12493 12494 12495 12496 12497 12498 12499 12500 12501 12502 12503 12504 12505 12506 12507 12508 12509 12510 12511 12512 12513 12514 12515 12516 12517 12518 12519 12520 12521 12522 12523 12524 12525 12526 12527 12528 12529 12530 12531 12532 12533 12534 12535 12536 12537 12538 12539 12540 12541 12542 12543 12544 12545 12546 12547 12548 12549 12550 12551 12552 12553 12554 12555 12556 12557 12558 12559 12560 12561 12562 12563 12564 12565 12566 12567 12568 12569 12570 12571 12572 12573 12574 12575 12576 12577 12578 12579 12580 12581 12582 12583 12584 12585 12586 12587 12588 12589 12590 12591 12592 12593 12594 12595 12596 12597 12598 12599 12600 12601 12602 12603 12604 12605 12606 12607 12608 12609 12610 12611 12612 12613 12614 12615 12616 12617 12618 12619 12620 12621 12622 12623 12624 12625 12626 12627 12628 12629 12630 12631 12632 12633 12634 12635 12636 12637 12638 12639 12640 12641 12642 12643 12644 12645 12646 12647 12648 12649 12650 12651 12652 12653 12654 12655 12656 12657 12658 12659 12660 12661 12662 12663 12664 12665 12666 12667 12668 12669 12670 12671 12672 12673 12674 12675 12676 12677 12678 12679 12680 12681 12682 12683 12684 12685 12686 12687 12688 12689 12690 12691 12692 12693 12694 12695 12696 12697 12698 12699 12700 12701 12702 12703 12704 12705 12706 12707 12708 12709 12710 12711 12712 12713 12714 12715 12716 12717 12718 12719 12720 12721 12722 12723 12724 12725 12726 12727 12728 12729 12730 12731 12732 12733 12734 12735 12736 12737 12738 12739 12740 12741 12742 12743 12744 12745 12746 12747 12748 12749 12750 12751 12752 12753 12754 12755 12756 12757 12758 12759 12760 12761 12762 12763 12764 12765 12766 12767 12768 12769 12770 12771 12772 12773 12774 12775 12776 12777 12778 12779 12780 12781 12782 12783 12784 12785 12786 12787 12788 12789 12790 12791 12792 12793 12794 12795 12796 12797 12798 12799 12800 12801 12802 12803 12804 12805 12806 12807 12808 12809 12810 12811 12812 12813 12814 12815 12816 12817 12818 12819 12820 12821 12822 12823 12824 12825 12826 12827 12828 12829 12830 12831 12832 12833 12834 12835 12836 12837 12838 12839 12840 12841 12842 12843 12844 12845 12846 12847 12848 12849 12850 12851 12852 12853 12854 12855 12856 12857 12858 12859 12860 12861 12862 12863 12864 12865 12866 12867 12868 12869 12870 12871 12872 12873 12874 12875 12876 12877 12878 12879 12880 12881 12882 12883 12884 12885 12886 12887 12888 12889 12890 12891 12892 12893 12894 12895 12896 12897 12898 12899 12900 12901 12902 12903 12904 12905 12906 12907 12908 12909 12910 12911 12912 12913 12914 12915 12916 12917 12918 12919 12920 12921 12922 12923 12924 12925 12926 12927 12928 12929 12930 12931 12932 12933 12934 12935 12936 12937 12938 12939 12940 12941 12942 12943 12944 12945 12946 12947 12948 12949 12950 12951 12952 12953 12954 12955 12956 12957 12958 12959 12960 12961 12962 12963 12964 12965 12966 12967 12968 12969 12970 12971 12972 12973 12974 12975 12976 12977 12978 12979 12980 12981 12982 12983 12984 12985 12986 12987 12988 12989 12990 12991 12992 12993 12994 12995 12996 12997 12998 12999 13000 13001 13002 13003 13004 13005 13006 13007 13008 13009 13010 13011 13012 13013 13014 13015 13016 13017 13018 13019 13020 13021 13022 13023 13024 13025 13026 13027 13028 13029 13030 13031 13032 13033 13034 13035 13036 13037 13038 13039 13040 13041 13042 13043 13044 13045 13046 13047 13048 13049 13050 13051 13052 13053 13054 13055 13056 13057 13058 13059 13060 13061 13062 13063 13064 13065 13066 13067 13068 13069 13070 13071 13072 13073 13074 13075 13076 13077 13078 13079 13080 13081 13082 13083 13084 13085 13086 13087 13088 13089 13090 13091 13092 13093 13094 13095 13096 13097 13098 13099 13100 13101 13102 13103 13104 13105 13106 13107 13108 13109 13110 13111 13112 13113 13114 13115 13116 13117 13118 13119 13120 13121 13122 13123 13124 13125 13126 13127 13128 13129 13130 13131 13132 13133 13134 13135 13136 13137 13138 13139 13140 13141 13142 13143 13144 13145 13146 13147 13148 13149 13150 13151 13152 13153 13154 13155 13156 13157 13158 13159 13160 13161 13162 13163 13164 13165 13166 13167 13168 13169 13170 13171 13172 13173 13174 13175 13176 13177 13178 13179 13180 13181 13182 13183 13184 13185 13186 13187 13188 13189 13190 13191 13192 13193 13194 13195 13196 13197 13198 13199 13200 13201 13202 13203 13204 13205 13206 13207 13208 13209 13210 13211 13212 13213 13214 13215 13216 13217 13218 13219 13220 13221 13222 13223 13224 13225 13226 13227 13228 13229 13230 13231 13232 13233 13234 13235 13236 13237 13238 13239 13240 13241 13242 13243 13244 13245 13246 13247 13248 13249 13250 13251 13252 13253 13254 13255 13256 13257 13258 13259 13260 13261 13262 13263 13264 13265 13266 13267 13268 13269 13270 13271 13272 13273 13274 13275 13276 13277 13278 13279 13280 13281 13282 13283 13284 13285 13286 13287 13288 13289 13290 13291 13292 13293 13294 13295 13296 13297 13298 13299 13300 13301 13302 13303 13304 13305 13306 13307 13308 13309 13310 13311 13312 13313 13314 13315 13316 13317 13318 13319 13320 13321 13322 13323 13324 13325 13326 13327 13328 13329 13330 13331 13332 13333 13334 13335 13336 13337 13338 13339 13340 13341 13342 13343 13344 13345 13346 13347 13348 13349 13350 13351 13352 13353 13354 13355 13356 13357 13358 13359 13360 13361 13362 13363 13364 13365 13366 13367 13368 13369 13370 13371 13372 13373 13374 13375 13376 13377 13378 13379 13380 13381 13382 13383 13384 13385 13386 13387 13388 13389 13390 13391 13392 13393 13394 13395 13396 13397 13398 13399 13400 13401 13402 13403 13404 13405 13406 13407 13408 13409 13410 13411 13412 13413 13414 13415 13416 13417 13418 13419 13420 13421 13422 13423 13424 13425 13426 13427 13428 13429 13430 13431 13432 13433 13434 13435 13436 13437 13438 13439 13440 13441 13442 13443 13444 13445 13446 13447 13448 13449 13450 13451 13452 13453 13454 13455 13456 13457 13458 13459 13460 13461 13462 13463 13464 13465 13466 13467 13468 13469 13470 13471 13472 13473 13474 13475 13476 13477 13478 13479 13480 13481 13482 13483 13484 13485 13486 13487 13488 13489 13490 13491 13492 13493 13494 13495 13496 13497 13498 13499 13500 13501 13502 13503 13504 13505 13506 13507 13508 13509 13510 13511 13512 13513 13514 13515 13516 13517 13518 13519 13520 13521 13522 13523 13524 13525 13526 13527 13528 13529 13530 13531 13532 13533 13534 13535 13536 13537 13538 13539 13540 13541 13542 13543 13544 13545 13546 13547 13548 13549 13550 13551 13552 13553 13554 13555 13556 13557 13558 13559 13560 13561 13562 13563 13564 13565 13566 13567 13568 13569 13570 13571 13572 13573 13574 13575 13576 13577 13578 13579 13580 13581 13582 13583 13584 13585 13586 13587 13588 13589 13590 13591 13592 13593 13594 13595 13596 13597 13598 13599 13600 13601 13602 13603 13604 13605 13606 13607 13608 13609 13610 13611 13612 13613 13614 13615 13616 13617 13618 13619 13620 13621 13622 13623 13624 13625 13626 13627 13628 13629 13630 13631 13632 13633 13634 13635 13636 13637 13638 13639 13640 13641 13642 13643 13644 13645 13646 13647 13648 13649 13650 13651 13652 13653 13654 13655 13656 13657 13658 13659 13660 13661 13662 13663 13664 13665 13666 13667 13668 13669 13670 13671 13672 13673 13674 13675 13676 13677 13678 13679 13680 13681 13682 13683 13684 13685 13686 13687 13688 13689 13690 13691 13692 13693 13694 13695 13696 13697 13698 13699 13700 13701 13702 13703 13704 13705 13706 13707 13708 13709 13710 13711 13712 13713 13714 13715 13716 13717 13718 13719 13720 13721 13722 13723 13724 13725 13726 13727 13728 13729 13730 13731 13732 13733 13734 13735 13736 13737 13738 13739 13740 13741 13742 13743 13744 13745 13746 13747 13748 13749 13750 13751 13752 13753 13754 13755 13756 13757 13758 13759 13760 13761 13762 13763 13764 13765 13766 13767 13768 13769 13770 13771 13772 13773 13774 13775 13776 13777 13778 13779 13780 13781 13782 13783 13784 13785 13786 13787 13788 13789 13790 13791 13792 13793 13794 13795 13796 13797 13798 13799 13800 13801 13802 13803 13804 13805 13806 13807 13808 13809 13810 13811 13812 13813 13814 13815 13816 13817 13818 13819 13820 13821 13822 13823 13824 13825 13826 13827 13828 13829 13830 13831 13832 13833 13834 13835 13836 13837 13838 13839 13840 13841 13842 13843 13844 13845 13846 13847 13848 13849 13850 13851 13852 13853 13854 13855 13856 13857 13858 13859 13860 13861 13862 13863 13864 13865 13866 13867 13868 13869 13870 13871 13872 13873 13874 13875 13876 13877 13878 13879 13880 13881 13882 13883 13884 13885 13886 13887 13888 13889 13890 13891 13892 13893 13894 13895 13896 13897 13898 13899 13900 13901 13902 13903 13904 13905 13906 13907 13908 13909 13910 13911 13912 13913 13914 13915 13916 13917 13918 13919 13920 13921 13922 13923 13924 13925 13926 13927 13928 13929 13930 13931 13932 13933 13934 13935 13936 13937 13938 13939 13940 13941 13942 13943 13944 13945 13946 13947 13948 13949 13950 13951 13952 13953 13954 13955 13956 13957 13958 13959 13960 13961 13962 13963 13964 13965 13966 13967 13968 13969 13970 13971 13972 13973 13974 13975 13976 13977 13978 13979 13980 13981 13982 13983 13984 13985 13986 13987 13988 13989 13990 13991 13992 13993 13994 13995 13996 13997 13998 13999 14000 14001 14002 14003 14004 14005 14006 14007 14008 14009 14010 14011 14012 14013 14014 14015 14016 14017 14018 14019 14020 14021 14022 14023 14024 14025 14026 14027 14028 14029 14030 14031 14032 14033 14034 14035 14036 14037 14038 14039 14040 14041 14042 14043 14044 14045 14046 14047 14048 14049 14050 14051 14052 14053 14054 14055 14056 14057 14058 14059 14060 14061 14062 14063 14064 14065 14066 14067 14068 14069 14070 14071 14072 14073 14074 14075 14076 14077 14078 14079 14080 14081 14082 14083 14084 14085 14086 14087 14088 14089 14090 14091 14092 14093 14094 14095 14096 14097 14098 14099 14100 14101 14102 14103 14104 14105 14106 14107 14108 14109 14110 14111 14112 14113 14114 14115 14116 14117 14118 14119 14120 14121 14122 14123 14124 14125 14126 14127 14128 14129 14130 14131 14132 14133 14134 14135 14136 14137 14138 14139 14140 14141 14142 14143 14144 14145 14146 14147 14148 14149 14150 14151 14152 14153 14154 14155 14156 14157 14158 14159 14160 14161 14162 14163 14164 14165 14166 14167 14168 14169 14170 14171 14172 14173 14174 14175 14176 14177 14178 14179 14180 14181 14182 14183 14184 14185 14186 14187 14188 14189 14190 14191 14192 14193 14194 14195 14196 14197 14198 14199 14200 14201 14202 14203 14204 14205 14206 14207 14208 14209 14210 14211 14212 14213 14214 14215 14216 14217 14218 14219 14220 14221 14222 14223 14224 14225 14226 14227 14228 14229 14230 14231 14232 14233 14234 14235 14236 14237 14238 14239 14240 14241 14242 14243 14244 14245 14246 14247 14248 14249 14250 14251 14252 14253 14254 14255 14256 14257 14258 14259 14260 14261 14262 14263 14264 14265 14266 14267 14268 14269 14270 14271 14272 14273 14274 14275 14276 14277 14278 14279 14280 14281 14282 14283 14284 14285 14286 14287 14288 14289 14290 14291 14292 14293 14294 14295 14296 14297 14298 14299 14300 14301 14302 14303 14304 14305 14306 14307 14308 14309 14310 14311 14312 14313 14314 14315 14316 14317 14318 14319 14320 14321 14322 14323 14324 14325 14326 14327 14328 14329 14330 14331 14332 14333 14334 14335 14336 14337 14338 14339 14340 14341 14342 14343 14344 14345 14346 14347 14348 14349 14350 14351 14352 14353 14354 14355 14356 14357 14358 14359 14360 14361 14362 14363 14364 14365 14366 14367 14368 14369 14370 14371 14372 14373 14374 14375 14376 14377 14378 14379 14380 14381 14382 14383 14384 14385 14386 14387 14388 14389 14390 14391 14392 14393 14394 14395 14396 14397 14398 14399 14400 14401 14402 14403 14404 14405 14406 14407 14408 14409 14410 14411 14412 14413 14414 14415 14416 14417 14418 14419 14420 14421 14422 14423 14424 14425 14426 14427 14428 14429 14430 14431 14432 14433 14434 14435 14436 14437 14438 14439 14440 14441 14442 14443 14444 14445 14446 14447 14448 14449 14450 14451 14452 14453 14454 14455 14456 14457 14458 14459 14460 14461 14462 14463 14464 14465 14466 14467 14468 14469 14470 14471 14472 14473 14474 14475 14476 14477 14478 14479 14480 14481 14482 14483 14484 14485 14486 14487 14488 14489 14490 14491 14492 14493 14494 14495 14496 14497 14498 14499 14500 14501 14502 14503 14504 14505 14506 14507 14508 14509 14510 14511 14512 14513 14514 14515 14516 14517 14518 14519 14520 14521 14522 14523 14524 14525 14526 14527 14528 14529 14530 14531 14532 14533 14534 14535 14536 14537 14538 14539 14540 14541 14542 14543 14544 14545 14546 14547 14548 14549 14550 14551 14552 14553 14554 14555 14556 14557 14558 14559 14560 14561 14562 14563 14564 14565 14566 14567 14568 14569 14570 14571 14572 14573 14574 14575 14576 14577 14578 14579 14580 14581 14582 14583 14584 14585 14586 14587 14588 14589 14590 14591 14592 14593 14594 14595 14596 14597 14598 14599 14600 14601 14602 14603 14604 14605 14606 14607 14608 14609 14610 14611 14612 14613 14614 14615 14616 14617 14618 14619 14620 14621 14622 14623 14624 14625 14626 14627 14628 14629 14630 14631 14632 14633 14634 14635 14636 14637 14638 14639 14640 14641 14642 14643 14644 14645 14646 14647 14648 14649 14650 14651 14652 14653 14654 14655 14656 14657 14658 14659 14660 14661 14662 14663 14664 14665 14666 14667 14668 14669 14670 14671 14672 14673 14674 14675 14676 14677 14678 14679 14680 14681 14682 14683 14684 14685 14686 14687 14688 14689 14690 14691 14692 14693 14694 14695 14696 14697 14698 14699 14700 14701 14702 14703 14704 14705 14706 14707 14708 14709 14710 14711 14712 14713 14714 14715 14716 14717 14718 14719 14720 14721 14722 14723 14724 14725 14726 14727 14728 14729 14730 14731 14732 14733 14734 14735 14736 14737 14738 14739 14740 14741 14742 14743 14744 14745 14746 14747 14748 14749 14750 14751 14752 14753 14754 14755 14756 14757 14758 14759 14760 14761 14762 14763 14764 14765 14766 14767 14768 14769 14770 14771 14772 14773 14774 14775 14776 14777 14778 14779 14780 14781 14782 14783 14784 14785 14786 14787 14788 14789 14790 14791 14792 14793 14794 14795 14796 14797 14798 14799 14800 14801 14802 14803 14804 14805 14806 14807 14808 14809 14810 14811 14812 14813 14814 14815 14816 14817 14818 14819 14820 14821 14822 14823 14824 14825 14826 14827 14828 14829 14830 14831 14832 14833 14834 14835 14836 14837 14838 14839 14840 14841 14842 14843 14844 14845 14846 14847 14848 14849 14850 14851 14852 14853 14854 14855 14856 14857 14858 14859 14860 14861 14862 14863 14864 14865 14866 14867 14868 14869 14870 14871 14872 14873 14874 14875 14876 14877 14878 14879 14880 14881 14882 14883 14884 14885 14886 14887 14888 14889 14890 14891 14892 14893 14894 14895 14896 14897 14898 14899 14900 14901 14902 14903 14904 14905 14906 14907 14908 14909 14910 14911 14912 14913 14914 14915 14916 14917 14918 14919 14920 14921 14922 14923 14924 14925 14926 14927 14928 14929 14930 14931 14932 14933 14934 14935 14936 14937 14938 14939 14940 14941 14942 14943 14944 14945 14946 14947 14948 14949 14950 14951 14952 14953 14954 14955 14956 14957 14958 14959 14960 14961 14962 14963 14964 14965 14966 14967 14968 14969 14970 14971 14972 14973 14974 14975 14976 14977 14978 14979 14980 14981 14982 14983 14984 14985 14986 14987 14988 14989 14990 14991 14992 14993 14994 14995 14996 14997 14998 14999 15000 15001 15002 15003 15004 15005 15006 15007 15008 15009 15010 15011 15012 15013 15014 15015 15016 15017 15018 15019 15020 15021 15022 15023 15024 15025 15026 15027 15028 15029 15030 15031 15032 15033 15034 15035 15036 15037 15038 15039 15040 15041 15042 15043 15044 15045 15046 15047 15048 15049 15050 15051 15052 15053 15054 15055 15056 15057 15058 15059 15060 15061 15062 15063 15064 15065 15066 15067 15068 15069 15070 15071 15072 15073 15074 15075 15076 15077 15078 15079 15080 15081 15082 15083 15084 15085 15086 15087 15088 15089 15090 15091 15092 15093 15094 15095 15096 15097 15098 15099 15100 15101 15102 15103 15104 15105 15106 15107 15108 15109 15110 15111 15112 15113 15114 15115 15116 15117 15118 15119 15120 15121 15122 15123 15124 15125 15126 15127 15128 15129 15130 15131 15132 15133 15134 15135 15136 15137 15138 15139 15140 15141 15142 15143 15144 15145 15146 15147 15148 15149 15150 15151 15152 15153 15154 15155 15156 15157 15158 15159 15160 15161 15162 15163 15164 15165 15166 15167 15168 15169 15170 15171 15172 15173 15174 15175 15176 15177 15178 15179 15180 15181 15182 15183 15184 15185 15186 15187 15188 15189 15190 15191 15192 15193 15194 15195 15196 15197 15198 15199 15200 15201 15202 15203 15204 15205 15206 15207 15208 15209 15210 15211 15212 15213 15214 15215 15216 15217 15218 15219 15220 15221 15222 15223 15224 15225 15226 15227 15228 15229 15230 15231 15232 15233 15234 15235 15236 15237 15238 15239 15240 15241 15242 15243 15244 15245 15246 15247 15248 15249 15250 15251 15252 15253 15254 15255 15256 15257 15258 15259 15260 15261 15262 15263 15264 15265 15266 15267 15268 15269 15270 15271 15272 15273 15274 15275 15276 15277 15278 15279 15280 15281 15282 15283 15284 15285 15286 15287 15288 15289 15290 15291 15292 15293 15294 15295 15296 15297 15298 15299 15300 15301 15302 15303 15304 15305 15306 15307 15308 15309 15310 15311 15312 15313 15314 15315 15316 15317 15318 15319 15320 15321 15322 15323 15324 15325 15326 15327 15328 15329 15330 15331 15332 15333 15334 15335 15336 15337 15338 15339 15340 15341 15342 15343 15344 15345 15346 15347 15348 15349 15350 15351 15352 15353 15354 15355 15356 15357 15358 15359 15360 15361 15362 15363 15364 15365 15366 15367 15368 15369 15370 15371 15372 15373 15374 15375 15376 15377 15378 15379 15380 15381 15382 15383 15384 15385 15386 15387 15388 15389 15390 15391 15392 15393 15394 15395 15396 15397 15398 15399 15400 15401 15402 15403 15404 15405 15406 15407 15408 15409 15410 15411 15412 15413 15414 15415 15416 15417 15418 15419 15420 15421 15422 15423 15424 15425 15426 15427 15428 15429 15430 15431 15432 15433 15434 15435 15436 15437 15438 15439 15440 15441 15442 15443 15444 15445 15446 15447 15448 15449 15450 15451 15452 15453 15454 15455 15456 15457 15458 15459 15460 15461 15462 15463 15464 15465 15466 15467 15468 15469 15470 15471 15472 15473 15474 15475 15476 15477 15478 15479 15480 15481 15482 15483 15484 15485 15486 15487 15488 15489 15490 15491 15492 15493 15494 15495 15496 15497 15498 15499 15500 15501 15502 15503 15504 15505 15506 15507 15508 15509 15510 15511 15512 15513 15514 15515 15516 15517 15518 15519 15520 15521 15522 15523 15524 15525 15526 15527 15528 15529 15530 15531 15532 15533 15534 15535 15536 15537 15538 15539 15540 15541 15542 15543 15544 15545 15546 15547 15548 15549 15550 15551 15552 15553 15554 15555 15556 15557 15558 15559 15560 15561 15562 15563 15564 15565 15566 15567 15568 15569 15570 15571 15572 15573 15574 15575 15576 15577 15578 15579 15580 15581 15582 15583 15584 15585 15586 15587 15588 15589 15590 15591 15592 15593 15594 15595 15596 15597 15598 15599 15600 15601 15602 15603 15604 15605 15606 15607 15608 15609 15610 15611 15612 15613 15614 15615 15616 15617 15618 15619 15620 15621 15622 15623 15624 15625 15626 15627 15628 15629 15630 15631 15632 15633 15634 15635 15636 15637 15638 15639 15640 15641 15642 15643 15644 15645 15646 15647 15648 15649 15650 15651 15652 15653 15654 15655 15656 15657 15658 15659 15660 15661 15662 15663 15664 15665 15666 15667 15668 15669 15670 15671 15672 15673 15674 15675 15676 15677 15678 15679 15680 15681 15682 15683 15684 15685 15686 15687 15688 15689 15690 15691 15692 15693 15694 15695 15696 15697 15698 15699 15700 15701 15702 15703 15704 15705 15706 15707 15708 15709 15710 15711 15712 15713 15714 15715 15716 15717 15718 15719 15720 15721 15722 15723 15724 15725 15726 15727 15728 15729 15730 15731 15732 15733 15734 15735 15736 15737 15738 15739 15740 15741 15742 15743 15744 15745 15746 15747 15748 15749 15750 15751 15752 15753 15754 15755 15756 15757 15758 15759 15760 15761 15762 15763 15764 15765 15766 15767 15768 15769 15770 15771 15772 15773 15774 15775 15776 15777 15778 15779 15780 15781 15782 15783 15784 15785 15786 15787 15788 15789 15790 15791 15792 15793 15794 15795 15796 15797 15798 15799 15800 15801 15802 15803 15804 15805 15806 15807 15808 15809 15810 15811 15812 15813 15814 15815 15816 15817 15818 15819 15820 15821 15822 15823 15824 15825 15826 15827 15828 15829 15830 15831 15832 15833 15834 15835 15836 15837 15838 15839 15840 15841 15842 15843 15844 15845 15846 15847 15848 15849 15850 15851 15852 15853 15854 15855 15856 15857 15858 15859 15860 15861 15862 15863 15864 15865 15866 15867 15868 15869 15870 15871 15872 15873 15874 15875 15876 15877 15878 15879 15880 15881 15882 15883 15884 15885 15886 15887 15888 15889 15890 15891 15892 15893 15894 15895 15896 15897 15898 15899 15900 15901 15902 15903 15904 15905 15906 15907 15908 15909 15910 15911 15912 15913 15914 15915 15916 15917 15918 15919 15920 15921 15922 15923 15924 15925 15926 15927 15928 15929 15930 15931 15932 15933 15934 15935 15936 15937 15938 15939 15940 15941 15942 15943 15944 15945 15946 15947 15948 15949 15950 15951 15952 15953 15954 15955 15956 15957 15958 15959 15960 15961 15962 15963 15964 15965 15966 15967 15968 15969 15970 15971 15972 15973 15974 15975 15976 15977 15978 15979 15980 15981 15982 15983 15984 15985 15986 15987 15988 15989 15990 15991 15992 15993 15994 15995 15996 15997 15998 15999 16000 16001 16002 16003 16004 16005 16006 16007 16008 16009 16010 16011 16012 16013 16014 16015 16016 16017 16018 16019 16020 16021 16022 16023 16024 16025 16026 16027 16028 16029 16030 16031 16032 16033 16034 16035 16036 16037 16038 16039 16040 16041 16042 16043 16044 16045 16046 16047 16048 16049 16050 16051 16052 16053 16054 16055 16056 16057 16058 16059 16060 16061 16062 16063 16064 16065 16066 16067 16068 16069 16070 16071 16072 16073 16074 16075 16076 16077 16078 16079 16080 16081 16082 16083 16084 16085 16086 16087 16088 16089 16090 16091 16092 16093 16094 16095 16096 16097 16098 16099 16100 16101 16102 16103 16104 16105 16106 16107 16108 16109 16110 16111 16112 16113 16114 16115 16116 16117 16118 16119 16120 16121 16122 16123 16124 16125 16126 16127 16128 16129 16130 16131 16132 16133 16134 16135 16136 16137 16138 16139 16140 16141 16142 16143 16144 16145 16146 16147 16148 16149 16150 16151 16152 16153 16154 16155 16156 16157 16158 16159 16160 16161 16162 16163 16164 16165 16166 16167 16168 16169 16170 16171 16172 16173 16174 16175 16176 16177 16178 16179 16180 16181 16182 16183 16184 16185 16186 16187 16188 16189 16190 16191 16192 16193 16194 16195 16196 16197 16198 16199 16200 16201 16202 16203 16204 16205 16206 16207 16208 16209 16210 16211 16212 16213 16214 16215 16216 16217 16218 16219 16220 16221 16222 16223 16224 16225 16226 16227 16228 16229 16230 16231 16232 16233 16234 16235 16236 16237 16238 16239 16240 16241 16242 16243 16244 16245 16246 16247 16248 16249 16250 16251 16252 16253 16254 16255 16256 16257 16258 16259 16260 16261 16262 16263 16264 16265 16266 16267 16268 16269 16270 16271 16272 16273 16274 16275 16276 16277 16278 16279 16280 16281 16282 16283 16284 16285 16286 16287 16288 16289 16290 16291 16292 16293 16294 16295 16296 16297 16298 16299 16300 16301 16302 16303 16304 16305 16306 16307 16308 16309 16310 16311 16312 16313 16314 16315 16316 16317 16318 16319 16320 16321 16322 16323 16324 16325 16326 16327 16328 16329 16330 16331 16332 16333 16334 16335 16336 16337 16338 16339 16340 16341 16342 16343 16344 16345 16346 16347 16348 16349 16350 16351 16352 16353 16354 16355 16356 16357 16358 16359 16360 16361 16362 16363 16364 16365 16366 16367 16368 16369 16370 16371 16372 16373 16374 16375 16376 16377 16378 16379 16380 16381 16382 16383 16384 16385 16386 16387 16388 16389 16390 16391 16392 16393 16394 16395 16396 16397 16398 16399 16400 16401 16402 16403 16404 16405 16406 16407 16408 16409 16410 16411 16412 16413 16414 16415 16416 16417 16418 16419 16420 16421 16422 16423 16424 16425 16426 16427 16428 16429 16430 16431 16432 16433 16434 16435 16436 16437 16438 16439 16440 16441 16442 16443 16444 16445 16446 16447 16448 16449 16450 16451 16452 16453 16454 16455 16456 16457 16458 16459 16460 16461 16462 16463 16464 16465 16466 16467 16468 16469 16470 16471 16472 16473 16474 16475 16476 16477 16478 16479 16480 16481 16482 16483 16484 16485 16486 16487 16488 16489 16490 16491 16492 16493 16494 16495 16496 16497 16498 16499 16500 16501 16502 16503 16504 16505 16506 16507 16508 16509 16510 16511 16512 16513 16514 16515 16516 16517 16518 16519 16520 16521 16522 16523 16524 16525 16526 16527 16528 16529 16530 16531 16532 16533 16534 16535 16536 16537 16538 16539 16540 16541 16542 16543 16544 16545 16546 16547 16548 16549 16550 16551 16552 16553 16554 16555 16556 16557 16558 16559 16560 16561 16562 16563 16564 16565 16566 16567 16568 16569 16570 16571 16572 16573 16574 16575 16576 16577 16578 16579 16580 16581 16582 16583 16584 16585 16586 16587 16588 16589 16590 16591 16592 16593 16594 16595 16596 16597 16598 16599 16600 16601 16602 16603 16604 16605 16606 16607 16608 16609 16610 16611 16612 16613 16614 16615 16616 16617 16618 16619 16620 16621 16622 16623 16624 16625 16626 16627 16628 16629 16630 16631 16632 16633 16634 16635 16636 16637 16638 16639 16640 16641 16642 16643 16644 16645 16646 16647 16648 16649 16650 16651 16652 16653 16654 16655 16656 16657 16658 16659 16660 16661 16662 16663 16664 16665 16666 16667 16668 16669 16670 16671 16672 16673 16674 16675 16676 16677 16678 16679 16680 16681 16682 16683 16684 16685 16686 16687 16688 16689 16690 16691 16692 16693 16694 16695 16696 16697 16698 16699 16700 16701 16702 16703 16704 16705 16706 16707 16708 16709 16710 16711 16712 16713 16714 16715 16716 16717 16718 16719 16720 16721 16722 16723 16724 16725 16726 16727 16728 16729 16730 16731 16732 16733 16734 16735 16736 16737 16738 16739 16740 16741 16742 16743 16744 16745 16746 16747 16748 16749 16750 16751 16752 16753 16754 16755 16756 16757 16758 16759 16760 16761 16762 16763 16764 16765 16766 16767 16768 16769 16770 16771 16772 16773 16774 16775 16776 16777 16778 16779 16780 16781 16782 16783 16784 16785 16786 16787 16788 16789 16790 16791 16792 16793 16794 16795 16796 16797 16798 16799 16800 16801 16802 16803 16804 16805 16806 16807 16808 16809 16810 16811 16812 16813 16814 16815 16816 16817 16818 16819 16820 16821 16822 16823 16824 16825 16826 16827 16828 16829 16830 16831 16832 16833 16834 16835 16836 16837 16838 16839 16840 16841 16842 16843 16844 16845 16846 16847 16848 16849 16850 16851 16852 16853 16854 16855 16856 16857 16858 16859 16860 16861 16862 16863 16864 16865 16866 16867 16868 16869 16870 16871 16872 16873 16874 16875 16876 16877 16878 16879 16880 16881 16882 16883 16884 16885 16886 16887 16888 16889 16890 16891 16892 16893 16894 16895 16896 16897 16898 16899 16900 16901 16902 16903 16904 16905 16906 16907 16908 16909 16910 16911 16912 16913 16914 16915 16916 16917 16918 16919 16920 16921 16922 16923 16924 16925 16926 16927 16928 16929 16930 16931 16932 16933 16934 16935 16936 16937 16938 16939 16940 16941 16942 16943 16944 16945 16946 16947 16948 16949 16950 16951 16952 16953 16954 16955 16956 16957 16958 16959 16960 16961 16962 16963 16964 16965 16966 16967 16968 16969 16970 16971 16972 16973 16974 16975 16976 16977 16978 16979 16980 16981 16982 16983 16984 16985 16986 16987 16988 16989 16990 16991 16992 16993 16994 16995 16996 16997 16998 16999 17000 17001 17002 17003 17004 17005 17006 17007 17008 17009 17010 17011 17012 17013 17014 17015 17016 17017 17018 17019 17020 17021 17022 17023 17024 17025 17026 17027 17028 17029 17030 17031 17032 17033 17034 17035 17036 17037 17038 17039 17040 17041 17042 17043 17044 17045 17046 17047 17048 17049 17050 17051 17052 17053 17054 17055 17056 17057 17058 17059 17060 17061 17062 17063 17064 17065 17066 17067 17068 17069 17070 17071 17072 17073 17074 17075 17076 17077 17078 17079 17080 17081 17082 17083 17084 17085 17086 17087 17088 17089 17090 17091 17092 17093 17094 17095 17096 17097 17098 17099 17100 17101 17102 17103 17104 17105 17106 17107 17108 17109 17110 17111 17112 17113 17114 17115 17116 17117 17118 17119 17120 17121 17122 17123 17124 17125 17126 17127 17128 17129 17130 17131 17132 17133 17134 17135 17136 17137 17138 17139 17140 17141 17142 17143 17144 17145 17146 17147 17148 17149 17150 17151 17152 17153 17154 17155 17156 17157 17158 17159 17160 17161 17162 17163 17164 17165 17166 17167 17168 17169 17170 17171 17172 17173 17174 17175 17176 17177 17178 17179 17180 17181 17182 17183 17184 17185 17186 17187 17188 17189 17190 17191 17192 17193 17194 17195 17196 17197 17198 17199 17200 17201 17202 17203 17204 17205 17206 17207 17208 17209 17210 17211 17212 17213 17214 17215 17216 17217 17218 17219 17220 17221 17222 17223 17224 17225 17226 17227 17228 17229 17230 17231 17232 17233 17234 17235 17236 17237 17238 17239 17240 17241 17242 17243 17244 17245 17246 17247 17248 17249 17250 17251 17252 17253 17254 17255 17256 17257 17258 17259 17260 17261 17262 17263 17264 17265 17266 17267 17268 17269 17270 17271 17272 17273 17274 17275 17276 17277 17278 17279 17280 17281 17282 17283 17284 17285 17286 17287 17288 17289 17290 17291 17292 17293 17294 17295 17296 17297 17298 17299 17300 17301 17302 17303 17304 17305 17306 17307 17308 17309 17310 17311 17312 17313 17314 17315 17316 17317 17318 17319 17320 17321 17322 17323 17324 17325 17326 17327 17328 17329 17330 17331 17332 17333 17334 17335 17336 17337 17338 17339 17340 17341 17342 17343 17344 17345 17346 17347 17348 17349 17350 17351 17352 17353 17354 17355 17356 17357 17358 17359 17360 17361 17362 17363 17364 17365 17366 17367 17368 17369 17370 17371 17372 17373 17374 17375 17376 17377 17378 17379 17380 17381 17382 17383 17384 17385 17386 17387 17388 17389 17390 17391 17392 17393 17394 17395 17396 17397 17398 17399 17400 17401 17402 17403 17404 17405 17406 17407 17408 17409 17410 17411 17412 17413 17414 17415 17416 17417 17418 17419 17420 17421 17422 17423 17424 17425 17426 17427 17428 17429 17430 17431 17432 17433 17434 17435 17436 17437 17438 17439 17440 17441 17442 17443 17444 17445 17446 17447 17448 17449 17450 17451 17452 17453 17454 17455 17456 17457 17458 17459 17460 17461 17462 17463 17464 17465 17466 17467 17468 17469 17470 17471 17472 17473 17474 17475 17476 17477 17478 17479 17480 17481 17482 17483 17484 17485 17486 17487 17488 17489 17490 17491 17492 17493 17494 17495 17496 17497 17498 17499 17500 17501 17502 17503 17504 17505 17506 17507 17508 17509 17510 17511 17512 17513 17514 17515 17516 17517 17518 17519 17520 17521 17522 17523 17524 17525 17526 17527 17528 17529 17530 17531 17532 17533 17534 17535 17536 17537 17538 17539 17540 17541 17542 17543 17544 17545 17546 17547 17548 17549 17550 17551 17552 17553 17554 17555 17556 17557 17558 17559 17560 17561 17562 17563 17564 17565 17566 17567 17568 17569 17570 17571 17572 17573 17574 17575 17576 17577 17578 17579 17580 17581 17582 17583 17584 17585 17586 17587 17588 17589 17590 17591 17592 17593 17594 17595 17596 17597 17598 17599 17600 17601 17602 17603 17604 17605 17606 17607 17608 17609 17610 17611 17612 17613 17614 17615 17616 17617 17618 17619 17620 17621 17622 17623 17624 17625 17626 17627 17628 17629 17630 17631 17632 17633 17634 17635 17636 17637 17638 17639 17640 17641 17642 17643 17644 17645 17646 17647 17648 17649 17650 17651 17652 17653 17654 17655 17656 17657 17658 17659 17660 17661 17662 17663 17664 17665 17666 17667 17668 17669 17670 17671 17672 17673 17674 17675 17676 17677 17678 17679 17680 17681 17682 17683 17684 17685 17686 17687 17688 17689 17690 17691 17692 17693 17694 17695 17696 17697 17698 17699 17700 17701 17702 17703 17704 17705 17706 17707 17708 17709 17710 17711 17712 17713 17714 17715 17716 17717 17718 17719 17720 17721 17722 17723 17724 17725 17726 17727 17728 17729 17730 17731 17732 17733 17734 17735 17736 17737 17738 17739 17740 17741 17742 17743 17744 17745 17746 17747 17748 17749 17750 17751 17752 17753 17754 17755 17756 17757 17758 17759 17760 17761 17762 17763 17764 17765 17766 17767 17768 17769 17770 17771 17772 17773 17774 17775 17776 17777 17778 17779 17780 17781 17782 17783 17784 17785 17786 17787 17788 17789 17790 17791 17792 17793 17794 17795 17796 17797 17798 17799 17800 17801 17802 17803 17804 17805 17806 17807 17808 17809 17810 17811 17812 17813 17814 17815 17816 17817 17818 17819 17820 17821 17822 17823 17824 17825 17826 17827 17828 17829 17830 17831 17832 17833 17834 17835 17836 17837 17838 17839 17840 17841 17842 17843 17844 17845 17846 17847 17848 17849 17850 17851 17852 17853 17854 17855 17856 17857 17858 17859 17860 17861 17862 17863 17864 17865 17866 17867 17868 17869 17870 17871 17872 17873 17874 17875 17876 17877 17878 17879 17880 17881 17882 17883 17884 17885 17886 17887 17888 17889 17890 17891 17892 17893 17894 17895 17896 17897 17898 17899 17900 17901 17902 17903 17904 17905 17906 17907 17908 17909 17910 17911 17912 17913 17914 17915 17916 17917 17918 17919 17920 17921 17922 17923 17924 17925 17926 17927 17928 17929 17930 17931 17932 17933 17934 17935 17936 17937 17938 17939 17940 17941 17942 17943 17944 17945 17946 17947 17948 17949 17950 17951 17952 17953 17954 17955 17956 17957 17958 17959 17960 17961 17962 17963 17964 17965 17966 17967 17968 17969 17970 17971 17972 17973 17974 17975 17976 17977 17978 17979 17980 17981 17982 17983 17984 17985 17986 17987 17988 17989 17990 17991 17992 17993 17994 17995 17996 17997 17998 17999 18000 18001 18002 18003 18004 18005 18006 18007 18008 18009 18010 18011 18012 18013 18014 18015 18016 18017 18018 18019 18020 18021 18022 18023 18024 18025 18026 18027 18028 18029 18030 18031 18032 18033 18034 18035 18036 18037 18038 18039 18040 18041 18042 18043 18044 18045 18046 18047 18048 18049 18050 18051 18052 18053 18054 18055 18056 18057 18058 18059 18060 18061 18062 18063 18064 18065 18066 18067 18068 18069 18070 18071 18072 18073 18074 18075 18076 18077 18078 18079 18080 18081 18082 18083 18084 18085 18086 18087 18088 18089 18090 18091 18092 18093 18094 18095 18096 18097 18098 18099 18100 18101 18102 18103 18104 18105 18106 18107 18108 18109 18110 18111 18112 18113 18114 18115 18116 18117 18118 18119 18120 18121 18122 18123 18124 18125 18126 18127 18128 18129 18130 18131 18132 18133 18134 18135 18136 18137 18138 18139 18140 18141 18142 18143 18144 18145 18146 18147 18148 18149 18150 18151 18152 18153 18154 18155 18156 18157 18158 18159 18160 18161 18162 18163 18164 18165 18166 18167 18168 18169 18170 18171 18172 18173 18174 18175 18176 18177 18178 18179 18180 18181 18182 18183 18184 18185 18186 18187 18188 18189 18190 18191 18192 18193 18194 18195 18196 18197 18198 18199 18200 18201 18202 18203 18204 18205 18206 18207 18208 18209 18210 18211 18212 18213 18214 18215 18216 18217 18218 18219 18220 18221 18222 18223 18224 18225 18226 18227 18228 18229 18230 18231 18232 18233 18234 18235 18236 18237 18238 18239 18240 18241 18242 18243 18244 18245 18246 18247 18248 18249 18250 18251 18252 18253 18254 18255 18256 18257 18258 18259 18260 18261 18262 18263 18264 18265 18266 18267 18268 18269 18270 18271 18272 18273 18274 18275 18276 18277 18278 18279 18280 18281 18282 18283 18284 18285 18286 18287 18288 18289 18290 18291 18292 18293 18294 18295 18296 18297 18298 18299 18300 18301 18302 18303 18304 18305 18306 18307 18308 18309 18310 18311 18312 18313 18314 18315 18316 18317 18318 18319 18320 18321 18322 18323 18324 18325 18326 18327 18328 18329 18330 18331 18332 18333 18334 18335 18336 18337 18338 18339 18340 18341 18342 18343 18344 18345 18346 18347 18348 18349 18350 18351 18352 18353 18354 18355 18356 18357 18358 18359 18360 18361 18362 18363 18364 18365 18366 18367 18368 18369 18370 18371 18372 18373 18374 18375 18376 18377 18378 18379 18380 18381 18382 18383 18384 18385 18386 18387 18388 18389 18390 18391 18392 18393 18394 18395 18396 18397 18398 18399 18400 18401 18402 18403 18404 18405 18406 18407 18408 18409 18410 18411 18412 18413 18414 18415 18416 18417 18418 18419 18420 18421 18422 18423 18424 18425 18426 18427 18428 18429 18430 18431 18432 18433 18434 18435 18436 18437 18438 18439 18440 18441 18442 18443 18444 18445 18446 18447 18448 18449 18450 18451 18452 18453 18454 18455 18456 18457 18458 18459 18460 18461 18462 18463 18464 18465 18466 18467 18468 18469 18470 18471 18472 18473 18474 18475 18476 18477 18478 18479 18480 18481 18482 18483 18484 18485 18486 18487 18488 18489 18490 18491 18492 18493 18494 18495 18496 18497 18498 18499 18500 18501 18502 18503 18504 18505 18506 18507 18508 18509 18510 18511 18512 18513 18514 18515 18516 18517 18518 18519 18520 18521 18522 18523 18524 18525 18526 18527 18528 18529 18530 18531 18532 18533 18534 18535 18536 18537 18538 18539 18540 18541 18542 18543 18544 18545 18546 18547 18548 18549 18550 18551 18552 18553 18554 18555 18556 18557 18558 18559 18560 18561 18562 18563 18564 18565 18566 18567 18568 18569 18570 18571 18572 18573 18574 18575 18576 18577 18578 18579 18580 18581 18582 18583 18584 18585 18586 18587 18588 18589 18590 18591 18592 18593 18594 18595 18596 18597 18598 18599 18600 18601 18602 18603 18604 18605 18606 18607 18608 18609 18610 18611 18612 18613 18614 18615 18616 18617 18618 18619 18620 18621 18622 18623 18624 18625 18626 18627 18628 18629 18630 18631 18632 18633 18634 18635 18636 18637 18638 18639 18640 18641 18642 18643 18644 18645 18646 18647 18648 18649 18650 18651 18652 18653 18654 18655 18656 18657 18658 18659 18660 18661 18662 18663 18664 18665 18666 18667 18668 18669 18670 18671 18672 18673 18674 18675 18676 18677 18678 18679 18680 18681 18682 18683 18684 18685 18686 18687 18688 18689 18690 18691 18692 18693 18694 18695 18696 18697 18698 18699 18700 18701 18702 18703 18704 18705 18706 18707 18708 18709 18710 18711 18712 18713 18714 18715 18716 18717 18718 18719 18720 18721 18722 18723 18724 18725 18726 18727 18728 18729 18730 18731 18732 18733 18734 18735 18736 18737 18738 18739 18740 18741 18742 18743 18744 18745 18746 18747 18748 18749 18750 18751 18752 18753 18754 18755 18756 18757 18758 18759 18760 18761 18762 18763 18764 18765 18766 18767 18768 18769 18770 18771 18772 18773 18774 18775 18776 18777 18778 18779 18780 18781 18782 18783 18784 18785 18786 18787 18788 18789 18790 18791 18792 18793 18794 18795 18796 18797 18798 18799 18800 18801 18802 18803 18804 18805 18806 18807 18808 18809 18810 18811 18812 18813 18814 18815 18816 18817 18818 18819 18820 18821 18822 18823 18824 18825 18826 18827 18828 18829 18830 18831 18832 18833 18834 18835 18836 18837 18838 18839 18840 18841 18842 18843 18844 18845 18846 18847 18848 18849 18850 18851 18852 18853 18854 18855 18856 18857 18858 18859 18860 18861 18862 18863 18864 18865 18866 18867 18868 18869 18870 18871 18872 18873 18874 18875 18876 18877 18878 18879 18880 18881 18882 18883 18884 18885 18886 18887 18888 18889 18890 18891 18892 18893 18894 18895 18896 18897 18898 18899 18900 18901 18902 18903 18904 18905 18906 18907 18908 18909 18910 18911 18912 18913 18914 18915 18916 18917 18918 18919 18920 18921 18922 18923 18924 18925 18926 18927 18928 18929 18930 18931 18932 18933 18934 18935 18936 18937 18938 18939 18940 18941 18942 18943 18944 18945 18946 18947 18948 18949 18950 18951 18952 18953 18954 18955 18956 18957 18958 18959 18960 18961 18962 18963 18964 18965 18966 18967 18968 18969 18970 18971 18972 18973 18974 18975 18976 18977 18978 18979 18980 18981 18982 18983 18984 18985 18986 18987 18988 18989 18990 18991 18992 18993 18994 18995 18996 18997 18998 18999 19000 19001 19002 19003 19004 19005 19006 19007 19008 19009 19010 19011 19012 19013 19014 19015 19016 19017 19018 19019 19020 19021 19022 19023 19024 19025 19026 19027 19028 19029 19030 19031 19032 19033 19034 19035 19036 19037 19038 19039 19040 19041 19042 19043 19044 19045 19046 19047 19048 19049 19050 19051 19052 19053 19054 19055 19056 19057 19058 19059 19060 19061 19062 19063 19064 19065 19066 19067 19068 19069 19070 19071 19072 19073 19074 19075 19076 19077 19078 19079 19080 19081 19082 19083 19084 19085 19086 19087 19088 19089 19090 19091 19092 19093 19094 19095 19096 19097 19098 19099 19100 19101 19102 19103 19104 19105 19106 19107 19108 19109 19110 19111 19112 19113 19114 19115 19116 19117 19118 19119 19120 19121 19122 19123 19124 19125 19126 19127 19128 19129 19130 19131 19132 19133 19134 19135 19136 19137 19138 19139 19140 19141 19142 19143 19144 19145 19146 19147 19148 19149 19150 19151 19152 19153 19154 19155 19156 19157 19158 19159 19160 19161 19162 19163 19164 19165 19166 19167 19168 19169 19170 19171 19172 19173 19174 19175 19176 19177 19178 19179 19180 19181 19182 19183 19184 19185 19186 19187 19188 19189 19190 19191 19192 19193 19194 19195 19196 19197 19198 19199 19200 19201 19202 19203 19204 19205 19206 19207 19208 19209 19210 19211 19212 19213 19214 19215 19216 19217 19218 19219 19220 19221 19222 19223 19224 19225 19226 19227 19228 19229 19230 19231 19232 19233 19234 19235 19236 19237 19238 19239 19240 19241 19242 19243 19244 19245 19246 19247 19248 19249 19250 19251 19252 19253 19254 19255 19256 19257 19258 19259 19260 19261 19262 19263 19264 19265 19266 19267 19268 19269 19270 19271 19272 19273 19274 19275 19276 19277 19278 19279 19280 19281 19282 19283 19284 19285 19286 19287 19288 19289 19290 19291 19292 19293 19294 19295 19296 19297 19298 19299 19300 19301 19302 19303 19304 19305 19306 19307 19308 19309 19310 19311 19312 19313 19314 19315 19316 19317 19318 19319 19320 19321 19322 19323 19324 19325 19326 19327 19328 19329 19330 19331 19332 19333 19334 19335 19336 19337 19338 19339 19340 19341 19342 19343 19344 19345 19346 19347 19348 19349 19350 19351 19352 19353 19354 19355 19356 19357 19358 19359 19360 19361 19362 19363 19364 19365 19366 19367 19368 19369 19370 19371 19372 19373 19374 19375 19376 19377 19378 19379 19380 19381 19382 19383 19384 19385 19386 19387 19388 19389 19390 19391 19392 19393 19394 19395 19396 19397 19398 19399 19400 19401 19402 19403 19404 19405 19406 19407 19408 19409 19410 19411 19412 19413 19414 19415 19416 19417 19418 19419 19420 19421 19422 19423 19424 19425 19426 19427 19428 19429 19430 19431 19432 19433 19434 19435 19436 19437 19438 19439 19440 19441 19442 19443 19444 19445 19446 19447 19448 19449 19450 19451 19452 19453 19454 19455 19456 19457 19458 19459 19460 19461 19462 19463 19464 19465 19466 19467 19468 19469 19470 19471 19472 19473 19474 19475 19476 19477 19478 19479 19480 19481 19482 19483 19484 19485 19486 19487 19488 19489 19490 19491 19492 19493 19494 19495 19496 19497 19498 19499 19500 19501 19502 19503 19504 19505 19506 19507 19508 19509 19510 19511 19512 19513 19514 19515 19516 19517 19518 19519 19520 19521 19522 19523 19524 19525 19526 19527 19528 19529 19530 19531 19532 19533 19534 19535 19536 19537 19538 19539 19540 19541 19542 19543 19544 19545 19546 19547 19548 19549 19550 19551 19552 19553 19554 19555 19556 19557 19558 19559 19560 19561 19562 19563 19564 19565 19566 19567 19568 19569 19570 19571 19572 19573 19574 19575 19576 19577 19578 19579 19580 19581 19582 19583 19584 19585 19586 19587 19588 19589 19590 19591 19592 19593 19594 19595 19596 19597 19598 19599 19600 19601 19602 19603 19604 19605 19606 19607 19608 19609 19610 19611 19612 19613 19614 19615 19616 19617 19618 19619 19620 19621 19622 19623 19624 19625 19626 19627 19628 19629 19630 19631 19632 19633 19634 19635 19636 19637 19638 19639 19640 19641 19642 19643 19644 19645 19646 19647 19648 19649 19650 19651 19652 19653 19654 19655 19656 19657 19658 19659 19660 19661 19662 19663 19664 19665 19666 19667 19668 19669 19670 19671 19672 19673 19674 19675 19676 19677 19678 19679 19680 19681 19682 19683 19684 19685 19686 19687 19688 19689 19690 19691 19692 19693 19694 19695 19696 19697 19698 19699 19700 19701 19702 19703 19704 19705 19706 19707 19708 19709 19710 19711 19712 19713 19714 19715 19716 19717 19718 19719 19720 19721 19722 19723 19724 19725 19726 19727 19728 19729 19730 19731 19732 19733 19734 19735 19736 19737 19738 19739 19740 19741 19742 19743 19744 19745 19746 19747 19748 19749 19750 19751 19752 19753 19754 19755 19756 19757 19758 19759 19760 19761 19762 19763 19764 19765 19766 19767 19768 19769 19770 19771 19772 19773 19774 19775 19776 19777 19778 19779 19780 19781 19782 19783 19784 19785 19786 19787 19788 19789 19790 19791 19792 19793 19794 19795 19796 19797 19798 19799 19800 19801 19802 19803 19804 19805 19806 19807 19808 19809 19810 19811 19812 19813 19814 19815 19816 19817 19818 19819 19820 19821 19822 19823 19824 19825 19826 19827 19828 19829 19830 19831 19832 19833 19834 19835 19836 19837 19838 19839 19840 19841 19842 19843 19844 19845 19846 19847 19848 19849 19850 19851 19852 19853 19854 19855 19856 19857 19858 19859 19860 19861 19862 19863 19864 19865 19866 19867 19868 19869 19870 19871 19872 19873 19874 19875 19876 19877 19878 19879 19880 19881 19882 19883 19884 19885 19886 19887 19888 19889 19890 19891 19892 19893 19894 19895 19896 19897 19898 19899 19900 19901 19902 19903 19904 19905 19906 19907 19908 19909 19910 19911 19912 19913 19914 19915 19916 19917 19918 19919 19920 19921 19922 19923 19924 19925 19926 19927 19928 19929 19930 19931 19932 19933 19934 19935 19936 19937 19938 19939 19940 19941 19942 19943 19944 19945 19946 19947 19948 19949 19950 19951 19952 19953 19954 19955 19956 19957 19958 19959 19960 19961 19962 19963 19964 19965 19966 19967 19968 19969 19970 19971 19972 19973 19974 19975 19976 19977 19978 19979 19980 19981 19982 19983 19984 19985 19986 19987 19988 19989 19990 19991 19992 19993 19994 19995 19996 19997 19998 19999 20000 20001 20002 20003 20004 20005 20006 20007 20008 20009 20010 20011 20012 20013 20014 20015 20016 20017 20018 20019 20020 20021 20022 20023 20024 20025 20026 20027 20028 20029 20030 20031 20032 20033 20034 20035 20036 20037 20038 20039 20040 20041 20042 20043 20044 20045 20046 20047 20048 20049 20050 20051 20052 20053 20054 20055 20056 20057 20058 20059 20060 20061 20062 20063 20064 20065 20066 20067 20068 20069 20070 20071 20072 20073 20074 20075 20076 20077 20078 20079 20080 20081 20082 20083 20084 20085 20086 20087 20088 20089 20090 20091 20092 20093 20094 20095 20096 20097 20098 20099 20100 20101 20102 20103 20104 20105 20106 20107 20108 20109 20110 20111 20112 20113 20114 20115 20116 20117 20118 20119 20120 20121 20122 20123 20124 20125 20126 20127 20128 20129 20130 20131 20132 20133 20134 20135 20136 20137 20138 20139 20140 20141 20142 20143 20144 20145 20146 20147 20148 20149 20150 20151 20152 20153 20154 20155 20156 20157 20158 20159 20160 20161 20162 20163 20164 20165 20166 20167 20168 20169 20170 20171 20172 20173 20174 20175 20176 20177 20178 20179 20180 20181 20182 20183 20184 20185 20186 20187 20188 20189 20190 20191 20192 20193 20194 20195 20196 20197 20198 20199 20200 20201 20202 20203 20204 20205 20206 20207 20208 20209 20210 20211 20212 20213 20214 20215 20216 20217 20218 20219 20220 20221 20222 20223 20224 20225 20226 20227 20228 20229 20230 20231 20232 20233 20234 20235 20236 20237 20238 20239 20240 20241 20242 20243 20244 20245 20246 20247 20248 20249 20250 20251 20252 20253 20254 20255 20256 20257 20258 20259 20260 20261 20262 20263 20264 20265 20266 20267 20268 20269 20270 20271 20272 20273 20274 20275 20276 20277 20278 20279 20280 20281 20282 20283 20284 20285 20286 20287 20288 20289 20290 20291 20292 20293 20294 20295 20296 20297 20298 20299 20300 20301 20302 20303 20304 20305 20306 20307 20308 20309 20310 20311 20312 20313 20314 20315 20316 20317 20318 20319 20320 20321 20322 20323 20324 20325 20326 20327 20328 20329 20330 20331 20332 20333 20334 20335 20336 20337 20338 20339 20340 20341 20342 20343 20344 20345 20346 20347 20348 20349 20350 20351 20352 20353 20354 20355 20356 20357 20358 20359 20360 20361 20362 20363 20364 20365 20366 20367 20368 20369 20370 20371 20372 20373 20374 20375 20376 20377 20378 20379 20380 20381 20382 20383 20384 20385 20386 20387 20388 20389 20390 20391 20392 20393 20394 20395 20396 20397 20398 20399 20400 20401 20402 20403 20404 20405 20406 20407 20408 20409 20410 20411 20412 20413 20414 20415 20416 20417 20418 20419 20420 20421 20422 20423 20424 20425 20426 20427 20428 20429 20430 20431 20432 20433 20434 20435 20436 20437 20438 20439 20440 20441 20442 20443 20444 20445 20446 20447 20448 20449 20450 20451 20452 20453 20454 20455 20456 20457 20458 20459 20460 20461 20462 20463 20464 20465 20466 20467 20468 20469 20470 20471 20472 20473 20474 20475 20476 20477 20478 20479 20480 20481 20482 20483 20484 20485 20486 20487 20488 20489 20490 20491 20492 20493 20494 20495 20496 20497 20498 20499 20500 20501 20502 20503 20504 20505 20506 20507 20508 20509 20510 20511 20512 20513 20514 20515 20516 20517 20518 20519 20520 20521 20522 20523 20524 20525 20526 20527 20528 20529 20530 20531 20532 20533 20534 20535 20536 20537 20538 20539 20540 20541 20542 20543 20544 20545 20546 20547 20548 20549 20550 20551 20552 20553 20554 20555 20556 20557 20558 20559 20560 20561 20562 20563 20564 20565 20566 20567 20568 20569 20570 20571 20572 20573 20574 20575 20576 20577 20578 20579 20580 20581 20582 20583 20584 20585 20586 20587 20588 20589 20590 20591 20592 20593 20594 20595 20596 20597 20598 20599 20600 20601 20602 20603 20604 20605 20606 20607 20608 20609 20610 20611 20612 20613 20614 20615 20616 20617 20618 20619 20620 20621 20622 20623 20624 20625 20626 20627 20628 20629 20630 20631 20632 20633 20634 20635 20636 20637 20638 20639 20640 20641 20642 20643 20644 20645 20646 20647 20648 20649 20650 20651 20652 20653 20654 20655 20656 20657 20658 20659 20660 20661 20662 20663 20664 20665 20666 20667 20668 20669 20670 20671 20672 20673 20674 20675 20676 20677 20678 20679 20680 20681 20682 20683 20684 20685 20686 20687 20688 20689 20690 20691 20692 20693 20694 20695 20696 20697 20698 20699 20700 20701 20702 20703 20704 20705 20706 20707 20708 20709 20710 20711 20712 20713 20714 20715 20716 20717 20718 20719 20720 20721 20722 20723 20724 20725 20726 20727 20728 20729 20730 20731 20732 20733 20734 20735 20736 20737 20738 20739 20740 20741 20742 20743 20744 20745 20746 20747 20748 20749 20750 20751 20752 20753 20754 20755 20756 20757 20758 20759 20760 20761 20762 20763 20764 20765 20766 20767 20768 20769 20770 20771 20772 20773 20774 20775 20776 20777 20778 20779 20780 20781 20782 20783 20784 20785 20786 20787 20788 20789 20790 20791 20792 20793 20794 20795 20796 20797 20798 20799 20800 20801 20802 20803 20804 20805 20806 20807 20808 20809 20810 20811 20812 20813 20814 20815 20816 20817 20818 20819 20820 20821 20822 20823 20824 20825 20826 20827 20828 20829 20830 20831 20832 20833 20834 20835 20836 20837 20838 20839 20840 20841 20842 20843 20844 20845 20846 20847 20848 20849 20850 20851 20852 20853 20854 20855 20856 20857 20858 20859 20860 20861 20862 20863 20864 20865 20866 20867 20868 20869 20870 20871 20872 20873 20874 20875 20876 20877 20878 20879 20880 20881 20882 20883 20884 20885 20886 20887 20888 20889 20890 20891 20892 20893 20894 20895 20896 20897 20898 20899 20900 20901 20902 20903 20904 20905 20906 20907 20908 20909 20910 20911 20912 20913 20914 20915 20916 20917 20918 20919 20920 20921 20922 20923 20924 20925 20926 20927 20928 20929 20930 20931 20932 20933 20934 20935 20936 20937 20938 20939 20940 20941 20942 20943 20944 20945 20946 20947 20948 20949 20950 20951 20952 20953 20954 20955 20956 20957 20958 20959 20960 20961 20962 20963 20964 20965 20966 20967 20968 20969 20970 20971 20972 20973 20974 20975 20976 20977 20978 20979 20980 20981 20982 20983 20984 20985 20986 20987 20988 20989 20990 20991 20992 20993 20994 20995 20996 20997 20998 20999 21000 21001 21002 21003 21004 21005 21006 21007 21008 21009 21010 21011 21012 21013 21014 21015 21016 21017 21018 21019 21020 21021 21022 21023 21024 21025 21026 21027 21028 21029 21030 21031 21032 21033 21034 21035 21036 21037 21038 21039 21040 21041 21042 21043 21044 21045 21046 21047 21048 21049 21050 21051 21052 21053 21054 21055 21056 21057 21058 21059 21060 21061 21062 21063 21064 21065 21066 21067 21068 21069 21070 21071 21072 21073 21074 21075 21076 21077 21078 21079 21080 21081 21082 21083 21084 21085 21086 21087 21088 21089 21090 21091 21092 21093 21094 21095 21096 21097 21098 21099 21100 21101 21102 21103 21104 21105 21106 21107 21108 21109 21110 21111 21112 21113 21114 21115 21116 21117 21118 21119 21120 21121 21122 21123 21124 21125 21126 21127 21128 21129 21130 21131 21132 21133 21134 21135 21136 21137 21138 21139 21140 21141 21142 21143 21144 21145 21146 21147 21148 21149 21150 21151 21152 21153 21154 21155 21156 21157 21158 21159 21160 21161 21162 21163 21164 21165 21166 21167 21168 21169 21170 21171 21172 21173 21174 21175 21176 21177 21178 21179 21180 21181 21182 21183 21184 21185 21186 21187 21188 21189 21190 21191 21192 21193 21194 21195 21196 21197 21198 21199 21200 21201 21202 21203 21204 21205 21206 21207 21208 21209 21210 21211 21212 21213 21214 21215 21216 21217 21218 21219 21220 21221 21222 21223 21224 21225 21226 21227 21228 21229 21230 21231 21232 21233 21234 21235 21236 21237 21238 21239 21240 21241 21242 21243 21244 21245 21246 21247 21248 21249 21250 21251 21252 21253 21254 21255 21256 21257 21258 21259 21260 21261 21262 21263 21264 21265 21266 21267 21268 21269 21270 21271 21272 21273 21274 21275 21276 21277 21278 21279 21280 21281 21282 21283 21284 21285 21286 21287 21288 21289 21290 21291 21292 21293 21294 21295 21296 21297 21298 21299 21300 21301 21302 21303 21304 21305 21306 21307 21308 21309 21310 21311 21312 21313 21314 21315 21316 21317 21318 21319 21320 21321 21322 21323 21324 21325 21326 21327 21328 21329 21330 21331 21332 21333 21334 21335 21336 21337 21338 21339 21340 21341 21342 21343 21344 21345 21346 21347 21348 21349 21350 21351 21352 21353 21354 21355 21356 21357 21358 21359 21360 21361 21362 21363 21364 21365 21366 21367 21368 21369 21370 21371 21372 21373 21374 21375 21376 21377 21378 21379 21380 21381 21382 21383 21384 21385 21386 21387 21388 21389 21390 21391 21392 21393 21394 21395 21396 21397 21398 21399 21400 21401 21402 21403 21404 21405 21406 21407 21408 21409 21410 21411 21412 21413 21414 21415 21416 21417 21418 21419 21420 21421 21422 21423 21424 21425 21426 21427 21428 21429 21430 21431 21432 21433 21434 21435 21436 21437 21438 21439 21440 21441 21442 21443 21444 21445 21446 21447 21448 21449 21450 21451 21452 21453 21454 21455 21456 21457 21458 21459 21460 21461 21462 21463 21464 21465 21466 21467 21468 21469 21470 21471 21472 21473 21474 21475 21476 21477 21478 21479 21480 21481 21482 21483 21484 21485 21486 21487 21488 21489 21490 21491 21492 21493 21494 21495 21496 21497 21498 21499 21500 21501 21502 21503 21504 21505 21506 21507 21508 21509 21510 21511 21512 21513 21514 21515 21516 21517 21518 21519 21520 21521 21522 21523 21524 21525 21526 21527 21528 21529 21530 21531 21532 21533 21534 21535 21536 21537 21538 21539 21540 21541 21542 21543 21544 21545 21546 21547 21548 21549 21550 21551 21552 21553 21554 21555 21556 21557 21558 21559 21560 21561 21562 21563 21564 21565 21566 21567 21568 21569 21570 21571 21572 21573 21574 21575 21576 21577 21578 21579 21580 21581 21582 21583 21584 21585 21586 21587 21588 21589 21590 21591 21592 21593 21594 21595 21596 21597 21598 21599 21600 21601 21602 21603 21604 21605 21606 21607 21608 21609 21610 21611 21612 21613 21614 21615 21616 21617 21618 21619 21620 21621 21622 21623 21624 21625 21626 21627 21628 21629 21630 21631 21632 21633 21634 21635 21636 21637 21638 21639 21640 21641 21642 21643 21644 21645 21646 21647 21648 21649 21650 21651 21652 21653 21654 21655 21656 21657 21658 21659 21660 21661 21662 21663 21664 21665 21666 21667 21668 21669 21670 21671 21672 21673 21674 21675 21676 21677 21678 21679 21680 21681 21682 21683 21684 21685 21686 21687 21688 21689 21690 21691 21692 21693 21694 21695 21696 21697 21698 21699 21700 21701 21702 21703 21704 21705 21706 21707 21708 21709 21710 21711 21712 21713 21714 21715 21716 21717 21718 21719 21720 21721 21722 21723 21724 21725 21726 21727 21728 21729 21730 21731 21732 21733 21734 21735 21736 21737 21738 21739 21740 21741 21742 21743 21744 21745 21746 21747 21748 21749 21750 21751 21752 21753 21754 21755 21756 21757 21758 21759 21760 21761 21762 21763 21764 21765 21766 21767 21768 21769 21770 21771 21772 21773 21774 21775 21776 21777 21778 21779 21780 21781 21782 21783 21784 21785 21786 21787 21788 21789 21790 21791 21792 21793 21794 21795 21796 21797 21798 21799 21800 21801 21802 21803 21804 21805 21806 21807 21808 21809 21810 21811 21812 21813 21814 21815 21816 21817 21818 21819 21820 21821 21822 21823 21824 21825 21826 21827 21828 21829 21830 21831 21832 21833 21834 21835 21836 21837 21838 21839 21840 21841 21842 21843 21844 21845 21846 21847 21848 21849 21850 21851 21852 21853 21854 21855 21856 21857 21858 21859 21860 21861 21862 21863 21864 21865 21866 21867 21868 21869 21870 21871 21872 21873 21874 21875 21876 21877 21878 21879 21880 21881 21882 21883 21884 21885 21886 21887 21888 21889 21890 21891 21892 21893 21894 21895 21896 21897 21898 21899 21900 21901 21902 21903 21904 21905 21906 21907 21908 21909 21910 21911 21912 21913 21914 21915 21916 21917 21918 21919 21920 21921 21922 21923 21924 21925 21926 21927 21928 21929 21930 21931 21932 21933 21934 21935 21936 21937 21938 21939 21940 21941 21942 21943 21944 21945 21946 21947 21948 21949 21950 21951 21952 21953 21954 21955 21956 21957 21958 21959 21960 21961 21962 21963 21964 21965 21966 21967 21968 21969 21970 21971 21972 21973 21974 21975 21976 21977 21978 21979 21980 21981 21982 21983 21984 21985 21986 21987 21988 21989 21990 21991 21992 21993 21994 21995 21996 21997 21998 21999 22000 22001 22002 22003 22004 22005 22006 22007 22008 22009 22010 22011 22012 22013 22014 22015 22016 22017 22018 22019 22020 22021 22022 22023 22024 22025 22026 22027 22028 22029 22030 22031 22032 22033 22034 22035 22036 22037 22038 22039 22040 22041 22042 22043 22044 22045 22046 22047 22048 22049 22050 22051 22052 22053 22054 22055 22056 22057 22058 22059 22060 22061 22062 22063 22064 22065 22066 22067 22068 22069 22070 22071 22072 22073 22074 22075 22076 22077 22078 22079 22080 22081 22082 22083 22084 22085 22086 22087 22088 22089 22090 22091 22092 22093 22094 22095 22096 22097 22098 22099 22100 22101 22102 22103 22104 22105 22106 22107 22108 22109 22110 22111 22112 22113 22114 22115 22116 22117 22118 22119 22120 22121 22122 22123 22124 22125 22126 22127 22128 22129 22130 22131 22132 22133 22134 22135 22136 22137 22138 22139 22140 22141 22142 22143 22144 22145 22146 22147 22148 22149 22150 22151 22152 22153 22154 22155 22156 22157 22158 22159 22160 22161 22162 22163 22164 22165 22166 22167 22168 22169 22170 22171 22172 22173 22174 22175 22176 22177 22178 22179 22180 22181 22182 22183 22184 22185 22186 22187 22188 22189 22190 22191 22192 22193 22194 22195 22196 22197 22198 22199 22200 22201 22202 22203 22204 22205 22206 22207 22208 22209 22210 22211 22212 22213 22214 22215 22216 22217 22218 22219 22220 22221 22222 22223 22224 22225 22226 22227 22228 22229 22230 22231 22232 22233 22234 22235 22236 22237 22238 22239 22240 22241 22242 22243 22244 22245 22246 22247 22248 22249 22250 22251 22252 22253 22254 22255 22256 22257 22258 22259 22260 22261 22262 22263 22264 22265 22266 22267 22268 22269 22270 22271 22272 22273 22274 22275 22276 22277 22278 22279 22280 22281 22282 22283 22284 22285 22286 22287 22288 22289 22290 22291 22292 22293 22294 22295 22296 22297 22298 22299 22300 22301 22302 22303 22304 22305 22306 22307 22308 22309 22310 22311 22312 22313 22314 22315 22316 22317 22318 22319 22320 22321 22322 22323 22324 22325 22326 22327 22328 22329 22330 22331 22332 22333 22334 22335 22336 22337 22338 22339 22340 22341 22342 22343 22344 22345 22346 22347 22348 22349 22350 22351 22352 22353 22354 22355 22356 22357 22358 22359 22360 22361 22362 22363 22364 22365 22366 22367 22368 22369 22370 22371 22372 22373 22374 22375 22376 22377 22378 22379 22380 22381 22382 22383 22384 22385 22386 22387 22388 22389 22390 22391 22392 22393 22394 22395 22396 22397 22398 22399 22400 22401 22402 22403 22404 22405 22406 22407 22408 22409 22410 22411 22412 22413 22414 22415 22416 22417 22418 22419 22420 22421 22422 22423 22424 22425 22426 22427 22428 22429 22430 22431 22432 22433 22434 22435 22436 22437 22438 22439 22440 22441 22442 22443 22444 22445 22446 22447 22448 22449 22450 22451 22452 22453 22454 22455 22456 22457 22458 22459 22460 22461 22462 22463 22464 22465 22466 22467 22468 22469 22470 22471 22472 22473 22474 22475 22476 22477 22478 22479 22480 22481 22482 22483 22484 22485 22486 22487 22488 22489 22490 22491 22492 22493 22494 22495 22496 22497 22498 22499 22500 22501 22502 22503 22504 22505 22506 22507 22508 22509 22510 22511 22512 22513 22514 22515 22516 22517 22518 22519 22520 22521 22522 22523 22524 22525 22526 22527 22528 22529 22530 22531 22532 22533 22534 22535 22536 22537 22538 22539 22540 22541 22542 22543 22544 22545 22546 22547 22548 22549 22550 22551 22552 22553 22554 22555 22556 22557 22558 22559 22560 22561 22562 22563 22564 22565 22566 22567 22568 22569 22570 22571 22572 22573 22574 22575 22576 22577 22578 22579 22580 22581 22582 22583 22584 22585 22586 22587 22588 22589 22590 22591 22592 22593 22594 22595 22596 22597 22598 22599 22600 22601 22602 22603 22604 22605 22606 22607 22608 22609 22610 22611 22612 22613 22614 22615 22616 22617 22618 22619 22620 22621 22622 22623 22624 22625 22626 22627 22628 22629 22630 22631 22632 22633 22634 22635 22636 22637 22638 22639 22640 22641 22642 22643 22644 22645 22646 22647 22648 22649 22650 22651 22652 22653 22654 22655 22656 22657 22658 22659 22660 22661 22662 22663 22664 22665 22666 22667 22668 22669 22670 22671 22672 22673 22674 22675 22676 22677 22678 22679 22680 22681 22682 22683 22684 22685 22686 22687 22688 22689 22690 22691 22692 22693 22694 22695 22696 22697 22698 22699 22700 22701 22702 22703 22704 22705 22706 22707 22708 22709 22710 22711 22712 22713 22714 22715 22716 22717 22718 22719 22720 22721 22722 22723 22724 22725 22726 22727 22728 22729 22730 22731 22732 22733 22734 22735 22736 22737 22738 22739 22740 22741 22742 22743 22744 22745 22746 22747 22748 22749 22750 22751 22752 22753 22754 22755 22756 22757 22758 22759 22760 22761 22762 22763 22764 22765 22766 22767 22768 22769 22770 22771 22772 22773 22774 22775 22776 22777 22778 22779 22780 22781 22782 22783 22784 22785 22786 22787 22788 22789 22790 22791 22792 22793 22794 22795 22796 22797 22798 22799 22800 22801 22802 22803 22804 22805 22806 22807 22808 22809 22810 22811 22812 22813 22814 22815 22816 22817 22818 22819 22820 22821 22822 22823 22824 22825 22826 22827 22828 22829 22830 22831 22832 22833 22834 22835 22836 22837 22838 22839 22840 22841 22842 22843 22844 22845 22846 22847 22848 22849 22850 22851 22852 22853 22854 22855 22856 22857 22858 22859 22860 22861 22862 22863 22864 22865 22866 22867 22868 22869 22870 22871 22872 22873 22874 22875 22876 22877 22878 22879 22880 22881 22882 22883 22884 22885 22886 22887 22888 22889 22890 22891 22892 22893 22894 22895 22896 22897 22898 22899 22900 22901 22902 22903 22904 22905 22906 22907 22908 22909 22910 22911 22912 22913 22914 22915 22916 22917 22918 22919 22920 22921 22922 22923 22924 22925 22926 22927 22928 22929 22930 22931 22932 22933 22934 22935 22936 22937 22938 22939 22940 22941 22942 22943 22944 22945 22946 22947 22948 22949 22950 22951 22952 22953 22954 22955 22956 22957 22958 22959 22960 22961 22962 22963 22964 22965 22966 22967 22968 22969 22970 22971 22972 22973 22974 22975 22976 22977 22978 22979 22980 22981 22982 22983 22984 22985 22986 22987 22988 22989 22990 22991 22992 22993 22994 22995 22996 22997 22998 22999 23000 23001 23002 23003 23004 23005 23006 23007 23008 23009 23010 23011 23012 23013 23014 23015 23016 23017 23018 23019 23020 23021 23022 23023 23024 23025 23026 23027 23028 23029 23030 23031 23032 23033 23034 23035 23036 23037 23038 23039 23040 23041 23042 23043 23044 23045 23046 23047 23048 23049 23050 23051 23052 23053 23054 23055 23056 23057 23058 23059 23060 23061 23062 23063 23064 23065 23066 23067 23068 23069 23070 23071 23072 23073 23074 23075 23076 23077 23078 23079 23080 23081 23082 23083 23084 23085 23086 23087 23088 23089 23090 23091 23092 23093 23094 23095 23096 23097 23098 23099 23100 23101 23102 23103 23104 23105 23106 23107 23108 23109 23110 23111 23112 23113 23114 23115 23116 23117 23118 23119 23120 23121 23122 23123 23124 23125 23126 23127 23128 23129 23130 23131 23132 23133 23134 23135 23136 23137 23138 23139 23140 23141 23142 23143 23144 23145 23146 23147 23148 23149 23150 23151 23152 23153 23154 23155 23156 23157 23158 23159 23160 23161 23162 23163 23164 23165 23166 23167 23168 23169 23170 23171 23172 23173 23174 23175 23176 23177 23178 23179 23180 23181 23182 23183 23184 23185 23186 23187 23188 23189 23190 23191 23192 23193 23194 23195 23196 23197 23198 23199 23200 23201 23202 23203 23204 23205 23206 23207 23208 23209 23210 23211 23212 23213 23214 23215 23216 23217 23218 23219 23220 23221 23222 23223 23224 23225 23226 23227 23228 23229 23230 23231 23232 23233 23234 23235 23236 23237 23238 23239 23240 23241 23242 23243 23244 23245 23246 23247 23248 23249 23250 23251 23252 23253 23254 23255 23256 23257 23258 23259 23260 23261 23262 23263 23264 23265 23266 23267 23268 23269 23270 23271 23272 23273 23274 23275 23276 23277 23278 23279 23280 23281 23282 23283 23284 23285 23286 23287 23288 23289 23290 23291 23292 23293 23294 23295 23296 23297 23298 23299 23300 23301 23302 23303 23304 23305 23306 23307 23308 23309 23310 23311 23312 23313 23314 23315 23316 23317 23318 23319 23320 23321 23322 23323 23324 23325 23326 23327 23328 23329 23330 23331 23332 23333 23334 23335 23336 23337 23338 23339 23340 23341 23342 23343 23344 23345 23346 23347 23348 23349 23350 23351 23352 23353 23354 23355 23356 23357 23358 23359 23360 23361 23362 23363 23364 23365 23366 23367 23368 23369 23370 23371 23372 23373 23374 23375 23376 23377 23378 23379 23380 23381 23382 23383 23384 23385 23386 23387 23388 23389 23390 23391 23392 23393 23394 23395 23396 23397 23398 23399 23400 23401 23402 23403 23404 23405 23406 23407 23408 23409 23410 23411 23412 23413 23414 23415 23416 23417 23418 23419 23420 23421 23422 23423 23424 23425 23426 23427 23428 23429 23430 23431 23432 23433 23434 23435 23436 23437 23438 23439 23440 23441 23442 23443 23444 23445 23446 23447 23448 23449 23450 23451 23452 23453 23454 23455 23456 23457 23458 23459 23460 23461 23462 23463 23464 23465 23466 23467 23468 23469 23470 23471 23472 23473 23474 23475 23476 23477 23478 23479 23480 23481 23482 23483 23484 23485 23486 23487 23488 23489 23490 23491 23492 23493 23494 23495 23496 23497 23498 23499 23500 23501 23502 23503 23504 23505 23506 23507 23508 23509 23510 23511 23512 23513 23514 23515 23516 23517 23518 23519 23520 23521 23522 23523 23524 23525 23526 23527 23528 23529 23530 23531 23532 23533 23534 23535 23536 23537 23538 23539 23540 23541 23542 23543 23544 23545 23546 23547 23548 23549 23550 23551 23552 23553 23554 23555 23556 23557 23558 23559 23560 23561 23562 23563 23564 23565 23566 23567 23568 23569 23570 23571 23572 23573 23574 23575 23576 23577 23578 23579 23580 23581 23582 23583 23584 23585 23586 23587 23588 23589 23590 23591 23592 23593 23594 23595 23596 23597 23598 23599 23600 23601 23602 23603 23604 23605 23606 23607 23608 23609 23610 23611 23612 23613 23614 23615 23616 23617 23618 23619 23620 23621 23622 23623 23624 23625 23626 23627 23628 23629 23630 23631 23632 23633 23634 23635 23636 23637 23638 23639 23640 23641 23642 23643 23644 23645 23646 23647 23648 23649 23650 23651 23652 23653 23654 23655 23656 23657 23658 23659 23660 23661 23662 23663 23664 23665 23666 23667 23668 23669 23670 23671 23672 23673 23674 23675 23676 23677 23678 23679 23680 23681 23682 23683 23684 23685 23686 23687 23688 23689 23690 23691 23692 23693 23694 23695 23696 23697 23698 23699 23700 23701 23702 23703 23704 23705 23706 23707 23708 23709 23710 23711 23712 23713 23714 23715 23716 23717 23718 23719 23720 23721 23722 23723 23724 23725 23726 23727 23728 23729 23730 23731 23732 23733 23734 23735 23736 23737 23738 23739 23740 23741 23742 23743 23744 23745 23746 23747 23748 23749 23750 23751 23752 23753 23754 23755 23756 23757 23758 23759 23760 23761 23762 23763 23764 23765 23766 23767 23768 23769 23770 23771 23772 23773 23774 23775 23776 23777 23778 23779 23780 23781 23782 23783 23784 23785 23786 23787 23788 23789 23790 23791 23792 23793 23794 23795 23796 23797 23798 23799 23800 23801 23802 23803 23804 23805 23806 23807 23808 23809 23810 23811 23812 23813 23814 23815 23816 23817 23818 23819 23820 23821 23822 23823 23824 23825 23826 23827 23828 23829 23830 23831 23832 23833 23834 23835 23836 23837 23838 23839 23840 23841 23842 23843 23844 23845 23846 23847 23848 23849 23850 23851 23852 23853 23854 23855 23856 23857 23858 23859 23860 23861 23862 23863 23864 23865 23866 23867 23868 23869 23870 23871 23872 23873 23874 23875 23876 23877 23878 23879 23880 23881 23882 23883 23884 23885 23886 23887 23888 23889 23890 23891 23892 23893 23894 23895 23896 23897 23898 23899 23900 23901 23902 23903 23904 23905 23906 23907 23908 23909 23910 23911 23912 23913 23914 23915 23916 23917 23918 23919 23920 23921 23922 23923 23924 23925 23926 23927 23928 23929 23930 23931 23932 23933 23934 23935 23936 23937 23938 23939 23940 23941 23942 23943 23944 23945 23946 23947 23948 23949 23950 23951 23952 23953 23954 23955 23956 23957 23958 23959 23960 23961 23962 23963 23964 23965 23966 23967 23968 23969 23970 23971 23972 23973 23974 23975 23976 23977 23978 23979 23980 23981 23982 23983 23984 23985 23986 23987 23988 23989 23990 23991 23992 23993 23994 23995 23996 23997 23998 23999 24000 24001 24002 24003 24004 24005 24006 24007 24008 24009 24010 24011 24012 24013 24014 24015 24016 24017 24018 24019 24020 24021 24022 24023 24024 24025 24026 24027 24028 24029 24030 24031 24032 24033 24034 24035 24036 24037 24038 24039 24040 24041 24042 24043 24044 24045 24046 24047 24048 24049 24050 24051 24052 24053 24054 24055 24056 24057 24058 24059 24060 24061 24062 24063 24064 24065 24066 24067 24068 24069 24070 24071 24072 24073 24074 24075 24076 24077 24078 24079 24080 24081 24082 24083 24084 24085 24086 24087 24088 24089 24090 24091 24092 24093 24094 24095 24096 24097 24098 24099 24100 24101 24102 24103 24104 24105 24106 24107 24108 24109 24110 24111 24112 24113 24114 24115 24116 24117 24118 24119 24120 24121 24122 24123 24124 24125 24126 24127 24128 24129 24130 24131 24132 24133 24134 24135 24136 24137 24138 24139 24140 24141 24142 24143 24144 24145 24146 24147 24148 24149 24150 24151 24152 24153 24154 24155 24156 24157 24158 24159 24160 24161 24162 24163 24164 24165 24166 24167 24168 24169 24170 24171 24172 24173 24174 24175 24176 24177 24178 24179 24180 24181 24182 24183 24184 24185 24186 24187 24188 24189 24190 24191 24192 24193 24194 24195 24196 24197 24198 24199 24200 24201 24202 24203 24204 24205 24206 24207 24208 24209 24210 24211 24212 24213 24214 24215 24216 24217 24218 24219 24220 24221 24222 24223 24224 24225 24226 24227 24228 24229 24230 24231 24232 24233 24234 24235 24236 24237 24238 24239 24240 24241 24242 24243 24244 24245 24246 24247 24248 24249 24250 24251 24252 24253 24254 24255 24256 24257 24258 24259 24260 24261 24262 24263 24264 24265 24266 24267 24268 24269 24270 24271 24272 24273 24274 24275 24276 24277 24278 24279 24280 24281 24282 24283 24284 24285 24286 24287 24288 24289 24290 24291 24292 24293 24294 24295 24296 24297 24298 24299 24300 24301 24302 24303 24304 24305 24306 24307 24308 24309 24310 24311 24312 24313 24314 24315 24316 24317 24318 24319 24320 24321 24322 24323 24324 24325 24326 24327 24328 24329 24330 24331 24332 24333 24334 24335 24336 24337 24338 24339 24340 24341 24342 24343 24344 24345 24346 24347 24348 24349 24350 24351 24352 24353 24354 24355 24356 24357 24358 24359 24360 24361 24362 24363 24364 24365 24366 24367 24368 24369 24370 24371 24372 24373 24374 24375 24376 24377 24378 24379 24380 24381 24382 24383 24384 24385 24386 24387 24388 24389 24390 24391 24392 24393 24394 24395 24396 24397 24398 24399 24400 24401 24402 24403 24404 24405 24406 24407 24408 24409 24410 24411 24412 24413 24414 24415 24416 24417 24418 24419 24420 24421 24422 24423 24424 24425 24426 24427 24428 24429 24430 24431 24432 24433 24434 24435 24436 24437 24438 24439 24440 24441 24442 24443 24444 24445 24446 24447 24448 24449 24450 24451 24452 24453 24454 24455 24456 24457 24458 24459 24460 24461 24462 24463 24464 24465 24466 24467 24468 24469 24470 24471 24472 24473 24474 24475 24476 24477 24478 24479 24480 24481 24482 24483 24484 24485 24486 24487 24488 24489 24490 24491 24492 24493 24494 24495 24496 24497 24498 24499 24500 24501 24502 24503 24504 24505 24506 24507 24508 24509 24510 24511 24512 24513 24514 24515 24516 24517 24518 24519 24520 24521 24522 24523 24524 24525 24526 24527 24528 24529 24530 24531 24532 24533 24534 24535 24536 24537 24538 24539 24540 24541 24542 24543 24544 24545 24546 24547 24548 24549 24550 24551 24552 24553 24554 24555 24556 24557 24558 24559 24560 24561 24562 24563 24564 24565 24566 24567 24568 24569 24570 24571 24572 24573 24574 24575 24576 24577 24578 24579 24580 24581 24582 24583 24584 24585 24586 24587 24588 24589 24590 24591 24592 24593 24594 24595 24596 24597 24598 24599 24600 24601 24602 24603 24604 24605 24606 24607 24608 24609 24610 24611 24612 24613 24614 24615 24616 24617 24618 24619 24620 24621 24622 24623 24624 24625 24626 24627 24628 24629 24630 24631 24632 24633 24634 24635 24636 24637 24638 24639 24640 24641 24642 24643 24644 24645 24646 24647 24648 24649 24650 24651 24652 24653 24654 24655 24656 24657 24658 24659 24660 24661 24662 24663 24664 24665 24666 24667 24668 24669 24670 24671 24672 24673 24674 24675 24676 24677 24678 24679 24680 24681 24682 24683 24684 24685 24686 24687 24688 24689 24690 24691 24692 24693 24694 24695 24696 24697 24698 24699 24700 24701 24702 24703 24704 24705 24706 24707 24708 24709 24710 24711 24712 24713 24714 24715 24716 24717 24718 24719 24720 24721 24722 24723 24724 24725 24726 24727 24728 24729 24730 24731 24732 24733 24734 24735 24736 24737 24738 24739 24740 24741 24742 24743 24744 24745 24746 24747 24748 24749 24750 24751 24752 24753 24754 24755 24756 24757 24758 24759 24760 24761 24762 24763 24764 24765 24766 24767 24768 24769 24770 24771 24772 24773 24774 24775 24776 24777 24778 24779 24780 24781 24782 24783 24784 24785 24786 24787 24788 24789 24790 24791 24792 24793 24794 24795 24796 24797 24798 24799 24800 24801 24802 24803 24804 24805 24806 24807 24808 24809 24810 24811 24812 24813 24814 24815 24816 24817 24818 24819 24820 24821 24822 24823 24824 24825 24826 24827 24828 24829 24830 24831 24832 24833 24834 24835 24836 24837 24838 24839 24840 24841 24842 24843 24844 24845 24846 24847 24848 24849 24850 24851 24852 24853 24854 24855 24856 24857 24858 24859 24860 24861 24862 24863 24864 24865 24866 24867 24868 24869 24870 24871 24872 24873 24874 24875 24876 24877 24878 24879 24880 24881 24882 24883 24884 24885 24886 24887 24888 24889 24890 24891 24892 24893 24894 24895 24896 24897 24898 24899 24900 24901 24902 24903 24904 24905 24906 24907 24908 24909 24910 24911 24912 24913 24914 24915 24916 24917 24918 24919 24920 24921 24922 24923 24924 24925 24926 24927 24928 24929 24930 24931 24932 24933 24934 24935 24936 24937 24938 24939 24940 24941 24942 24943 24944 24945 24946 24947 24948 24949 24950 24951 24952 24953 24954 24955 24956 24957 24958 24959 24960 24961 24962 24963 24964 24965 24966 24967 24968 24969 24970 24971 24972 24973 24974 24975 24976 24977 24978 24979 24980 24981 24982 24983 24984 24985 24986 24987 24988 24989 24990 24991 24992 24993 24994 24995 24996 24997 24998 24999 25000 25001 25002 25003 25004 25005 25006 25007 25008 25009 25010 25011 25012 25013 25014 25015 25016 25017 25018 25019 25020 25021 25022 25023 25024 25025 25026 25027 25028 25029 25030 25031 25032 25033 25034 25035 25036 25037 25038 25039 25040 25041 25042 25043 25044 25045 25046 25047 25048 25049 25050 25051 25052 25053 25054 25055 25056 25057 25058 25059 25060 25061 25062 25063 25064 25065 25066 25067 25068 25069 25070 25071 25072 25073 25074 25075 25076 25077 25078 25079 25080 25081 25082 25083 25084 25085 25086 25087 25088 25089 25090 25091 25092 25093 25094 25095 25096 25097 25098 25099 25100 25101 25102 25103 25104 25105 25106 25107 25108 25109 25110 25111 25112 25113 25114 25115 25116 25117 25118 25119 25120 25121 25122 25123 25124 25125 25126 25127 25128 25129 25130 25131 25132 25133 25134 25135 25136 25137 25138 25139 25140 25141 25142 25143 25144 25145 25146 25147 25148 25149 25150 25151 25152 25153 25154 25155 25156 25157 25158 25159 25160 25161 25162 25163 25164 25165 25166 25167 25168 25169 25170 25171 25172 25173 25174 25175 25176 25177 25178 25179 25180 25181 25182 25183 25184 25185 25186 25187 25188 25189 25190 25191 25192 25193 25194 25195 25196 25197 25198 25199 25200 25201 25202 25203 25204 25205 25206 25207 25208 25209 25210 25211 25212 25213 25214 25215 25216 25217 25218 25219 25220 25221 25222 25223 25224 25225 25226 25227 25228 25229 25230 25231 25232 25233 25234 25235 25236 25237 25238 25239 25240 25241 25242 25243 25244 25245 25246 25247 25248 25249 25250 25251 25252 25253 25254 25255 25256 25257 25258 25259 25260 25261 25262 25263 25264 25265 25266 25267 25268 25269 25270 25271 25272 25273 25274 25275 25276 25277 25278 25279 25280 25281 25282 25283 25284 25285 25286 25287 25288 25289 25290 25291 25292 25293 25294 25295 25296 25297 25298 25299 25300 25301 25302 25303 25304 25305 25306 25307 25308 25309 25310 25311 25312 25313 25314 25315 25316 25317 25318 25319 25320 25321 25322 25323 25324 25325 25326 25327 25328 25329 25330 25331 25332 25333 25334 25335 25336 25337 25338 25339 25340 25341 25342 25343 25344 25345 25346 25347 25348 25349 25350 25351 25352 25353 25354 25355 25356 25357 25358 25359 25360 25361 25362 25363 25364 25365 25366 25367 25368 25369 25370 25371 25372 25373 25374 25375 25376 25377 25378 25379 25380 25381 25382 25383 25384 25385 25386 25387 25388 25389 25390 25391 25392 25393 25394 25395 25396 25397 25398 25399 25400 25401 25402 25403 25404 25405 25406 25407 25408 25409 25410 25411 25412 25413 25414 25415 25416 25417 25418 25419 25420 25421 25422 25423 25424 25425 25426 25427 25428 25429 25430 25431 25432 25433 25434 25435 25436 25437 25438 25439 25440 25441 25442 25443 25444 25445 25446 25447 25448 25449 25450 25451 25452 25453 25454 25455 25456 25457 25458 25459 25460 25461 25462 25463 25464 25465 25466 25467 25468 25469 25470 25471 25472 25473 25474 25475 25476 25477 25478 25479 25480 25481 25482 25483 25484 25485 25486 25487 25488 25489 25490 25491 25492 25493 25494 25495 25496 25497 25498 25499 25500 25501 25502 25503 25504 25505 25506 25507 25508 25509 25510 25511 25512 25513 25514 25515 25516 25517 25518 25519 25520 25521 25522 25523 25524 25525 25526 25527 25528 25529 25530 25531 25532 25533 25534 25535 25536 25537 25538 25539 25540 25541 25542 25543 25544 25545 25546 25547 25548 25549 25550 25551 25552 25553 25554 25555 25556 25557 25558 25559 25560 25561 25562 25563 25564 25565 25566 25567 25568 25569 25570 25571 25572 25573 25574 25575 25576 25577 25578 25579 25580 25581 25582 25583 25584 25585 25586 25587 25588 25589 25590 25591 25592 25593 25594 25595 25596 25597 25598 25599 25600 25601 25602 25603 25604 25605 25606 25607 25608 25609 25610 25611 25612 25613 25614 25615 25616 25617 25618 25619 25620 25621 25622 25623 25624 25625 25626 25627 25628 25629 25630 25631 25632 25633 25634 25635 25636 25637 25638 25639 25640 25641 25642 25643 25644 25645 25646 25647 25648 25649 25650 25651 25652 25653 25654 25655 25656 25657 25658 25659 25660 25661 25662 25663 25664 25665 25666 25667 25668 25669 25670 25671 25672 25673 25674 25675 25676 25677 25678 25679 25680 25681 25682 25683 25684 25685 25686 25687 25688 25689 25690 25691 25692 25693 25694 25695 25696 25697 25698 25699 25700 25701 25702 25703 25704 25705 25706 25707 25708 25709 25710 25711 25712 25713 25714 25715 25716 25717 25718 25719 25720 25721 25722 25723 25724 25725 25726 25727 25728 25729 25730 25731 25732 25733 25734 25735 25736 25737 25738 25739 25740 25741 25742 25743 25744 25745 25746 25747 25748 25749 25750 25751 25752 25753 25754 25755 25756 25757 25758 25759 25760 25761 25762 25763 25764 25765 25766 25767 25768 25769 25770 25771 25772 25773 25774 25775 25776 25777 25778 25779 25780 25781 25782 25783 25784 25785 25786 25787 25788 25789 25790 25791 25792 25793 25794 25795 25796 25797 25798 25799 25800 25801 25802 25803 25804 25805 25806 25807 25808 25809 25810 25811 25812 25813 25814 25815 25816 25817 25818 25819 25820 25821 25822 25823 25824 25825 25826 25827 25828 25829 25830 25831 25832 25833 25834 25835 25836 25837 25838 25839 25840 25841 25842 25843 25844 25845 25846 25847 25848 25849 25850 25851 25852 25853 25854 25855 25856 25857 25858 25859 25860 25861 25862 25863 25864 25865 25866 25867 25868 25869 25870 25871 25872 25873 25874 25875 25876 25877 25878 25879 25880 25881 25882 25883 25884 25885 25886 25887 25888 25889 25890 25891 25892 25893 25894 25895 25896 25897 25898 25899 25900 25901 25902 25903 25904 25905 25906 25907 25908 25909 25910 25911 25912 25913 25914 25915 25916 25917 25918 25919 25920 25921 25922 25923 25924 25925 25926 25927 25928 25929 25930 25931 25932 25933 25934 25935 25936 25937 25938 25939 25940 25941 25942 25943 25944 25945 25946 25947 25948 25949 25950 25951 25952 25953 25954 25955 25956 25957 25958 25959 25960 25961 25962 25963 25964 25965 25966 25967 25968 25969 25970 25971 25972 25973 25974 25975 25976 25977 25978 25979 25980 25981 25982 25983 25984 25985 25986 25987 25988 25989 25990 25991 25992 25993 25994 25995 25996 25997 25998 25999 26000 26001 26002 26003 26004 26005 26006 26007 26008 26009 26010 26011 26012 26013 26014 26015 26016 26017 26018 26019 26020 26021 26022 26023 26024 26025 26026 26027 26028 26029 26030 26031 26032 26033 26034 26035 26036 26037 26038 26039 26040 26041 26042 26043 26044 26045 26046 26047 26048 26049 26050 26051 26052 26053 26054 26055 26056 26057 26058 26059 26060 26061 26062 26063 26064 26065 26066 26067 26068 26069 26070 26071 26072 26073 26074 26075 26076 26077 26078 26079 26080 26081 26082 26083 26084 26085 26086 26087 26088 26089 26090 26091 26092 26093 26094 26095 26096 26097 26098 26099 26100 26101 26102 26103 26104 26105 26106 26107 26108 26109 26110 26111 26112 26113 26114 26115 26116 26117 26118 26119 26120 26121 26122 26123 26124 26125 26126 26127 26128 26129 26130 26131 26132 26133 26134 26135 26136 26137 26138 26139 26140 26141 26142 26143 26144 26145 26146 26147 26148 26149 26150 26151 26152 26153 26154 26155 26156 26157 26158 26159 26160 26161 26162 26163 26164 26165 26166 26167 26168 26169 26170 26171 26172 26173 26174 26175 26176 26177 26178 26179 26180 26181 26182 26183 26184 26185 26186 26187 26188 26189 26190 26191 26192 26193 26194 26195 26196 26197 26198 26199 26200 26201 26202 26203 26204 26205 26206 26207 26208 26209 26210 26211 26212 26213 26214 26215 26216 26217 26218 26219 26220 26221 26222 26223 26224 26225 26226 26227 26228 26229 26230 26231 26232 26233 26234 26235 26236 26237 26238 26239 26240 26241 26242 26243 26244 26245 26246 26247 26248 26249 26250 26251 26252 26253 26254 26255 26256 26257 26258 26259 26260 26261 26262 26263 26264 26265 26266 26267 26268 26269 26270 26271 26272 26273 26274 26275 26276 26277 26278 26279 26280 26281 26282 26283 26284 26285 26286 26287 26288 26289 26290 26291 26292 26293 26294 26295 26296 26297 26298 26299 26300 26301 26302 26303 26304 26305 26306 26307 26308 26309 26310 26311 26312 26313 26314 26315 26316 26317 26318 26319 26320 26321 26322 26323 26324 26325 26326 26327 26328 26329 26330 26331 26332 26333 26334 26335 26336 26337 26338 26339 26340 26341 26342 26343 26344 26345 26346 26347 26348 26349 26350 26351 26352 26353 26354 26355 26356 26357 26358 26359 26360 26361 26362 26363 26364 26365 26366 26367 26368 26369 26370 26371 26372 26373 26374 26375 26376 26377 26378 26379 26380 26381 26382 26383 26384 26385 26386 26387 26388 26389 26390 26391 26392 26393 26394 26395 26396 26397 26398 26399 26400 26401 26402 26403 26404 26405 26406 26407 26408 26409 26410 26411 26412 26413 26414 26415 26416 26417 26418 26419 26420 26421 26422 26423 26424 26425 26426 26427 26428 26429 26430 26431 26432 26433 26434 26435 26436 26437 26438 26439 26440 26441 26442 26443 26444 26445 26446 26447 26448 26449 26450 26451 26452 26453 26454 26455 26456 26457 26458 26459 26460 26461 26462 26463 26464 26465 26466 26467 26468 26469 26470 26471 26472 26473 26474 26475 26476 26477 26478 26479 26480 26481 26482 26483 26484 26485 26486 26487 26488 26489 26490 26491 26492 26493 26494 26495 26496 26497 26498 26499 26500 26501 26502 26503 26504 26505 26506 26507 26508 26509 26510 26511 26512 26513 26514 26515 26516 26517 26518 26519 26520 26521 26522 26523 26524 26525 26526 26527 26528 26529 26530 26531 26532 26533 26534 26535 26536 26537 26538 26539 26540 26541 26542 26543 26544 26545 26546 26547 26548 26549 26550 26551 26552 26553 26554 26555 26556 26557 26558 26559 26560 26561 26562 26563 26564 26565 26566 26567 26568 26569 26570 26571 26572 26573 26574 26575 26576 26577 26578 26579 26580 26581 26582 26583 26584 26585 26586 26587 26588 26589 26590 26591 26592 26593 26594 26595 26596 26597 26598 26599 26600 26601 26602 26603 26604 26605 26606 26607 26608 26609 26610 26611 26612 26613 26614 26615 26616 26617 26618 26619 26620 26621 26622 26623 26624 26625 26626 26627 26628 26629 26630 26631 26632 26633 26634 26635 26636 26637 26638 26639 26640 26641 26642 26643 26644 26645 26646 26647 26648 26649 26650 26651 26652 26653 26654 26655 26656 26657 26658 26659 26660 26661 26662 26663 26664 26665 26666 26667 26668 26669 26670 26671 26672 26673 26674 26675 26676 26677 26678 26679 26680 26681 26682 26683 26684 26685 26686 26687 26688 26689 26690 26691 26692 26693 26694 26695 26696 26697 26698 26699 26700 26701 26702 26703 26704 26705 26706 26707 26708 26709 26710 26711 26712 26713 26714 26715 26716 26717 26718 26719 26720 26721 26722 26723 26724 26725 26726 26727 26728 26729 26730 26731 26732 26733 26734 26735 26736 26737 26738 26739 26740 26741 26742 26743 26744 26745 26746 26747 26748 26749 26750 26751 26752 26753 26754 26755 26756 26757 26758 26759 26760 26761 26762 26763 26764 26765 26766 26767 26768 26769 26770 26771 26772 26773 26774 26775 26776 26777 26778 26779 26780 26781 26782 26783 26784 26785 26786 26787 26788 26789 26790 26791 26792 26793 26794 26795 26796 26797 26798 26799 26800 26801 26802 26803 26804 26805 26806 26807 26808 26809 26810 26811 26812 26813 26814 26815 26816 26817 26818 26819 26820 26821 26822 26823 26824 26825 26826 26827 26828 26829 26830 26831 26832 26833 26834 26835 26836 26837 26838 26839 26840 26841 26842 26843 26844 26845 26846 26847 26848 26849 26850 26851 26852 26853 26854 26855 26856 26857 26858 26859 26860 26861 26862 26863 26864 26865 26866 26867 26868 26869 26870 26871 26872 26873 26874 26875 26876 26877 26878 26879 26880 26881 26882 26883 26884 26885 26886 26887 26888 26889 26890 26891 26892 26893 26894 26895 26896 26897 26898 26899 26900 26901 26902 26903 26904 26905 26906 26907 26908 26909 26910 26911 26912 26913 26914 26915 26916 26917 26918 26919 26920 26921 26922 26923 26924 26925 26926 26927 26928 26929 26930 26931 26932 26933 26934 26935 26936 26937 26938 26939 26940 26941 26942 26943 26944 26945 26946 26947 26948 26949 26950 26951 26952 26953 26954 26955 26956 26957 26958 26959 26960 26961 26962 26963 26964 26965 26966 26967 26968 26969 26970 26971 26972 26973 26974 26975 26976 26977 26978 26979 26980 26981 26982 26983 26984 26985 26986 26987 26988 26989 26990 26991 26992 26993 26994 26995 26996 26997 26998 26999 27000 27001 27002 27003 27004 27005 27006 27007 27008 27009 27010 27011 27012 27013 27014 27015 27016 27017 27018 27019 27020 27021 27022 27023 27024 27025 27026 27027 27028 27029 27030 27031 27032 27033 27034 27035 27036 27037 27038 27039 27040 27041 27042 27043 27044 27045 27046 27047 27048 27049 27050 27051 27052 27053 27054 27055 27056 27057 27058 27059 27060 27061 27062 27063 27064 27065 27066 27067 27068 27069 27070 27071 27072 27073 27074 27075 27076 27077 27078 27079 27080 27081 27082 27083 27084 27085 27086 27087 27088 27089 27090 27091 27092 27093 27094 27095 27096 27097 27098 27099 27100 27101 27102 27103 27104 27105 27106 27107 27108 27109 27110 27111 27112 27113 27114 27115 27116 27117 27118 27119 27120 27121 27122 27123 27124 27125 27126 27127 27128 27129 27130 27131 27132 27133 27134 27135 27136 27137 27138 27139 27140 27141 27142 27143 27144 27145 27146 27147 27148 27149 27150 27151 27152 27153 27154 27155 27156 27157 27158 27159 27160 27161 27162 27163 27164 27165 27166 27167 27168 27169 27170 27171 27172 27173 27174 27175 27176 27177 27178 27179 27180 27181 27182 27183 27184 27185 27186 27187 27188 27189 27190 27191 27192 27193 27194 27195 27196 27197 27198 27199 27200 27201 27202 27203 27204 27205 27206 27207 27208 27209 27210 27211 27212 27213 27214 27215 27216 27217 27218 27219 27220 27221 27222 27223 27224 27225 27226 27227 27228 27229 27230 27231 27232 27233 27234 27235 27236 27237 27238 27239 27240 27241 27242 27243 27244 27245 27246 27247 27248 27249 27250 27251 27252 27253 27254 27255 27256 27257 27258 27259 27260 27261 27262 27263 27264 27265 27266 27267 27268 27269 27270 27271 27272 27273 27274 27275 27276 27277 27278 27279 27280 27281 27282 27283 27284 27285 27286 27287 27288 27289 27290 27291 27292 27293 27294 27295 27296 27297 27298 27299 27300 27301 27302 27303 27304 27305 27306 27307 27308 27309 27310 27311 27312 27313 27314 27315 27316 27317 27318 27319 27320 27321 27322 27323 27324 27325 27326 27327 27328 27329 27330 27331 27332 27333 27334 27335 27336 27337 27338 27339 27340 27341 27342 27343 27344 27345 27346 27347 27348 27349 27350 27351 27352 27353 27354 27355 27356 27357 27358 27359 27360 27361 27362 27363 27364 27365 27366 27367 27368 27369 27370 27371 27372 27373 27374 27375 27376 27377 27378 27379 27380 27381 27382 27383 27384 27385 27386 27387 27388 27389 27390 27391 27392 27393 27394 27395 27396 27397 27398 27399 27400 27401 27402 27403 27404 27405 27406 27407 27408 27409 27410 27411 27412 27413 27414 27415 27416 27417 27418 27419 27420 27421 27422 27423 27424 27425 27426 27427 27428 27429 27430 27431 27432 27433 27434 27435 27436 27437 27438 27439 27440 27441 27442 27443 27444 27445 27446 27447 27448 27449 27450 27451 27452 27453 27454 27455 27456 27457 27458 27459 27460 27461 27462 27463 27464 27465 27466 27467 27468 27469 27470 27471 27472 27473 27474 27475 27476 27477 27478 27479 27480 27481 27482 27483 27484 27485 27486 27487 27488 27489 27490 27491 27492 27493 27494 27495 27496 27497 27498 27499 27500 27501 27502 27503 27504 27505 27506 27507 27508 27509 27510 27511 27512 27513 27514 27515 27516 27517 27518 27519 27520 27521 27522 27523 27524 27525 27526 27527 27528 27529 27530 27531 27532 27533 27534 27535 27536 27537 27538 27539 27540 27541 27542 27543 27544 27545 27546 27547 27548 27549 27550 27551 27552 27553 27554 27555 27556 27557 27558 27559 27560 27561 27562 27563 27564 27565 27566 27567 27568 27569 27570 27571 27572 27573 27574 27575 27576 27577 27578 27579 27580 27581 27582 27583 27584 27585 27586 27587 27588 27589 27590 27591 27592 27593 27594 27595 27596 27597 27598 27599 27600 27601 27602 27603 27604 27605 27606 27607 27608 27609 27610 27611 27612 27613 27614 27615 27616 27617 27618 27619 27620 27621 27622 27623 27624 27625 27626 27627 27628 27629 27630 27631 27632 27633 27634 27635 27636 27637 27638 27639 27640 27641 27642 27643 27644 27645 27646 27647 27648 27649 27650 27651 27652 27653 27654 27655 27656 27657 27658 27659 27660 27661 27662 27663 27664 27665 27666 27667 27668 27669 27670 27671 27672 27673 27674 27675 27676 27677 27678 27679 27680 27681 27682 27683 27684 27685 27686 27687 27688 27689 27690 27691 27692 27693 27694 27695 27696 27697 27698 27699 27700 27701 27702 27703 27704 27705 27706 27707 27708 27709 27710 27711 27712 27713 27714 27715 27716 27717 27718 27719 27720 27721 27722 27723 27724 27725 27726 27727 27728 27729 27730 27731 27732 27733 27734 27735 27736 27737 27738 27739 27740 27741 27742 27743 27744 27745 27746 27747 27748 27749 27750 27751 27752 27753 27754 27755 27756 27757 27758 27759 27760 27761 27762 27763 27764 27765 27766 27767 27768 27769 27770 27771 27772 27773 27774 27775 27776 27777 27778 27779 27780 27781 27782 27783 27784 27785 27786 27787 27788 27789 27790 27791 27792 27793 27794 27795 27796 27797 27798 27799 27800 27801 27802 27803 27804 27805 27806 27807 27808 27809 27810 27811 27812 27813 27814 27815 27816 27817 27818 27819 27820 27821 27822 27823 27824 27825 27826 27827 27828 27829 27830 27831 27832 27833 27834 27835 27836 27837 27838 27839 27840 27841 27842 27843 27844 27845 27846 27847 27848 27849 27850 27851 27852 27853 27854 27855 27856 27857 27858 27859 27860 27861 27862 27863 27864 27865 27866 27867 27868 27869 27870 27871 27872 27873 27874 27875 27876 27877 27878 27879 27880 27881 27882 27883 27884 27885 27886 27887 27888 27889 27890 27891 27892 27893 27894 27895 27896 27897 27898 27899 27900 27901 27902 27903 27904 27905 27906 27907 27908 27909 27910 27911 27912 27913 27914 27915 27916 27917 27918 27919 27920 27921 27922 27923 27924 27925 27926 27927 27928 27929 27930 27931 27932 27933 27934 27935 27936 27937 27938 27939 27940 27941 27942 27943 27944 27945 27946 27947 27948 27949 27950 27951 27952 27953 27954 27955 27956 27957 27958 27959 27960 27961 27962 27963 27964 27965 27966 27967 27968 27969 27970 27971 27972 27973 27974 27975 27976 27977 27978 27979 27980 27981 27982 27983 27984 27985 27986 27987 27988 27989 27990 27991 27992 27993 27994 27995 27996 27997 27998 27999 28000 28001 28002 28003 28004 28005 28006 28007 28008 28009 28010 28011 28012 28013 28014 28015 28016 28017 28018 28019 28020 28021 28022 28023 28024 28025 28026 28027 28028 28029 28030 28031 28032 28033 28034 28035 28036 28037 28038 28039 28040 28041 28042 28043 28044 28045 28046 28047 28048 28049 28050 28051 28052 28053 28054 28055 28056 28057 28058 28059 28060 28061 28062 28063 28064 28065 28066 28067 28068 28069 28070 28071 28072 28073 28074 28075 28076 28077 28078 28079 28080 28081 28082 28083 28084 28085 28086 28087 28088 28089 28090 28091 28092 28093 28094 28095 28096 28097 28098 28099 28100 28101 28102 28103 28104 28105 28106 28107 28108 28109 28110 28111 28112 28113 28114 28115 28116 28117 28118 28119 28120 28121 28122 28123 28124 28125 28126 28127 28128 28129 28130 28131 28132 28133 28134 28135 28136 28137 28138 28139 28140 28141 28142 28143 28144 28145 28146 28147 28148 28149 28150 28151 28152 28153 28154 28155 28156 28157 28158 28159 28160 28161 28162 28163 28164 28165 28166 28167 28168 28169 28170 28171 28172 28173 28174 28175 28176 28177 28178 28179 28180 28181 28182 28183 28184 28185 28186 28187 28188 28189 28190 28191 28192 28193 28194 28195 28196 28197 28198 28199 28200 28201 28202 28203 28204 28205 28206 28207 28208 28209 28210 28211 28212 28213 28214 28215 28216 28217 28218 28219 28220 28221 28222 28223 28224 28225 28226 28227 28228 28229 28230 28231 28232 28233 28234 28235 28236 28237 28238 28239 28240 28241 28242 28243 28244 28245 28246 28247 28248 28249 28250 28251 28252 28253 28254 28255 28256 28257 28258 28259 28260 28261 28262 28263 28264 28265 28266 28267 28268 28269 28270 28271 28272 28273 28274 28275 28276 28277 28278 28279 28280 28281 28282 28283 28284 28285 28286 28287 28288 28289 28290 28291 28292 28293 28294 28295 28296 28297 28298 28299 28300 28301 28302 28303 28304 28305 28306 28307 28308 28309 28310 28311 28312 28313 28314 28315 28316 28317 28318 28319 28320 28321 28322 28323 28324 28325 28326 28327 28328 28329 28330 28331 28332 28333 28334 28335 28336 28337 28338 28339 28340 28341 28342 28343 28344 28345 28346 28347 28348 28349 28350 28351 28352 28353 28354 28355 28356 28357 28358 28359 28360 28361 28362 28363 28364 28365 28366 28367 28368 28369 28370 28371 28372 28373 28374 28375 28376 28377 28378 28379 28380 28381 28382 28383 28384 28385 28386 28387 28388 28389 28390 28391 28392 28393 28394 28395 28396 28397 28398 28399 28400 28401 28402 28403 28404 28405 28406 28407 28408 28409 28410 28411 28412 28413 28414 28415 28416 28417 28418 28419 28420 28421 28422 28423 28424 28425 28426 28427 28428 28429 28430 28431 28432 28433 28434 28435 28436 28437 28438 28439 28440 28441 28442 28443 28444 28445 28446 28447 28448 28449 28450 28451 28452 28453 28454 28455 28456 28457 28458 28459 28460 28461 28462 28463 28464 28465 28466 28467 28468 28469 28470 28471 28472 28473 28474 28475 28476 28477 28478 28479 28480 28481 28482 28483 28484 28485 28486 28487 28488 28489 28490 28491 28492 28493 28494 28495 28496 28497 28498 28499 28500 28501 28502 28503 28504 28505 28506 28507 28508 28509 28510 28511 28512 28513 28514 28515 28516 28517 28518 28519 28520 28521 28522 28523 28524 28525 28526 28527 28528 28529 28530 28531 28532 28533 28534 28535 28536 28537 28538 28539 28540 28541 28542 28543 28544 28545 28546 28547 28548 28549 28550 28551 28552 28553 28554 28555 28556 28557 28558 28559 28560 28561 28562 28563 28564 28565 28566 28567 28568 28569 28570 28571 28572 28573 28574 28575 28576 28577 28578 28579 28580 28581 28582 28583 28584 28585 28586 28587 28588 28589 28590 28591 28592 28593 28594 28595 28596 28597 28598 28599 28600 28601 28602 28603 28604 28605 28606 28607 28608 28609 28610 28611 28612 28613 28614 28615 28616 28617 28618 28619 28620 28621 28622 28623 28624 28625 28626 28627 28628 28629 28630 28631 28632 28633 28634 28635 28636 28637 28638 28639 28640 28641 28642 28643 28644 28645 28646 28647 28648 28649 28650 28651 28652 28653 28654 28655 28656 28657 28658 28659 28660 28661 28662 28663 28664 28665 28666 28667 28668 28669 28670 28671 28672 28673 28674 28675 28676 28677 28678 28679 28680 28681 28682 28683 28684 28685 28686 28687 28688 28689 28690 28691 28692 28693 28694 28695 28696 28697 28698 28699 28700 28701 28702 28703 28704 28705 28706 28707 28708 28709 28710 28711 28712 28713 28714 28715 28716 28717 28718 28719 28720 28721 28722 28723 28724 28725 28726 28727 28728 28729 28730 28731 28732 28733 28734 28735 28736 28737 28738 28739 28740 28741 28742 28743 28744 28745 28746 28747 28748 28749 28750 28751 28752 28753 28754 28755 28756 28757 28758 28759 28760 28761 28762 28763 28764 28765 28766 28767 28768 28769 28770 28771 28772 28773 28774 28775 28776 28777 28778 28779 28780 28781 28782 28783 28784 28785 28786 28787 28788 28789 28790 28791 28792 28793 28794 28795 28796 28797 28798 28799 28800 28801 28802 28803 28804 28805 28806 28807 28808 28809 28810 28811 28812 28813 28814 28815 28816 28817 28818 28819 28820 28821 28822 28823 28824 28825 28826 28827 28828 28829 28830 28831 28832 28833 28834 28835 28836 28837 28838 28839 28840 28841 28842 28843 28844 28845 28846 28847 28848 28849 28850 28851 28852 28853 28854 28855 28856 28857 28858 28859 28860 28861 28862 28863 28864 28865 28866 28867 28868 28869 28870 28871 28872 28873 28874 28875 28876 28877 28878 28879 28880 28881 28882 28883 28884 28885 28886 28887 28888 28889 28890 28891 28892 28893 28894 28895 28896 28897 28898 28899 28900 28901 28902 28903 28904 28905 28906 28907 28908 28909 28910 28911 28912 28913 28914 28915 28916 28917 28918 28919 28920 28921 28922 28923 28924 28925 28926 28927 28928 28929 28930 28931 28932 28933 28934 28935 28936 28937 28938 28939 28940 28941 28942 28943 28944 28945 28946 28947 28948 28949 28950 28951 28952 28953 28954 28955 28956 28957 28958 28959 28960 28961 28962 28963 28964 28965 28966 28967 28968 28969 28970 28971 28972 28973 28974 28975 28976 28977 28978 28979 28980 28981 28982 28983 28984 28985 28986 28987 28988 28989 28990 28991 28992 28993 28994 28995 28996 28997 28998 28999 29000 29001 29002 29003 29004 29005 29006 29007 29008 29009 29010 29011 29012 29013 29014 29015 29016 29017 29018 29019 29020 29021 29022 29023 29024 29025 29026 29027 29028 29029 29030 29031 29032 29033 29034 29035 29036 29037 29038 29039 29040 29041 29042 29043 29044 29045 29046 29047 29048 29049 29050 29051 29052 29053 29054 29055 29056 29057 29058 29059 29060 29061 29062 29063 29064 29065 29066 29067 29068 29069 29070 29071 29072 29073 29074 29075 29076 29077 29078 29079 29080 29081 29082 29083 29084 29085 29086 29087 29088 29089 29090 29091 29092 29093 29094 29095 29096 29097 29098 29099 29100 29101 29102 29103 29104 29105 29106 29107 29108 29109 29110 29111 29112 29113 29114 29115 29116 29117 29118 29119 29120 29121 29122 29123 29124 29125 29126 29127 29128 29129 29130 29131 29132 29133 29134 29135 29136 29137 29138 29139 29140 29141 29142 29143 29144 29145 29146 29147 29148 29149 29150 29151 29152 29153 29154 29155 29156 29157 29158 29159 29160 29161 29162 29163 29164 29165 29166 29167 29168 29169 29170 29171 29172 29173 29174 29175 29176 29177 29178 29179 29180 29181 29182 29183 29184 29185 29186 29187 29188 29189 29190 29191 29192 29193 29194 29195 29196 29197 29198 29199 29200 29201 29202 29203 29204 29205 29206 29207 29208 29209 29210 29211 29212 29213 29214 29215 29216 29217 29218 29219 29220 29221 29222 29223 29224 29225 29226 29227 29228 29229 29230 29231 29232 29233 29234 29235 29236 29237 29238 29239 29240 29241 29242 29243 29244 29245 29246 29247 29248 29249 29250 29251 29252 29253 29254 29255 29256 29257 29258 29259 29260 29261 29262 29263 29264 29265 29266 29267 29268 29269 29270 29271 29272 29273 29274 29275 29276 29277 29278 29279 29280 29281 29282 29283 29284 29285 29286 29287 29288 29289 29290 29291 29292 29293 29294 29295 29296 29297 29298 29299 29300 29301 29302 29303 29304 29305 29306 29307 29308 29309 29310 29311 29312 29313 29314 29315 29316 29317 29318 29319 29320 29321 29322 29323 29324 29325 29326 29327 29328 29329 29330 29331 29332 29333 29334 29335 29336 29337 29338 29339 29340 29341 29342 29343 29344 29345 29346 29347 29348 29349 29350 29351 29352 29353 29354 29355 29356 29357 29358 29359 29360 29361 29362 29363 29364 29365 29366 29367 29368 29369 29370 29371 29372 29373 29374 29375 29376 29377 29378 29379 29380 29381 29382 29383 29384 29385 29386 29387 29388 29389 29390 29391 29392 29393 29394 29395 29396 29397 29398 29399 29400 29401 29402 29403 29404 29405 29406 29407 29408 29409 29410 29411 29412 29413 29414 29415 29416 29417 29418 29419 29420 29421 29422 29423 29424 29425 29426 29427 29428 29429 29430 29431 29432 29433 29434 29435 29436 29437 29438 29439 29440 29441 29442 29443 29444 29445 29446 29447 29448 29449 29450 29451 29452 29453 29454 29455 29456 29457 29458 29459 29460 29461 29462 29463 29464 29465 29466 29467 29468 29469 29470 29471 29472 29473 29474 29475 29476 29477 29478 29479 29480 29481 29482 29483 29484 29485 29486 29487 29488 29489 29490 29491 29492 29493 29494 29495 29496 29497 29498 29499 29500 29501 29502 29503 29504 29505 29506 29507 29508 29509 29510 29511 29512 29513 29514 29515 29516 29517 29518 29519 29520 29521 29522 29523 29524 29525 29526 29527 29528 29529 29530 29531 29532 29533 29534 29535 29536 29537 29538 29539 29540 29541 29542 29543 29544 29545 29546 29547 29548 29549 29550 29551 29552 29553 29554 29555 29556 29557 29558 29559 29560 29561 29562 29563 29564 29565 29566 29567 29568 29569 29570 29571 29572 29573 29574 29575 29576 29577 29578 29579 29580 29581 29582 29583 29584 29585 29586 29587 29588 29589 29590 29591 29592 29593 29594 29595 29596 29597 29598 29599 29600 29601 29602 29603 29604 29605 29606 29607 29608 29609 29610 29611 29612 29613 29614 29615 29616 29617 29618 29619 29620 29621 29622 29623 29624 29625 29626 29627 29628 29629 29630 29631 29632 29633 29634 29635 29636 29637 29638 29639 29640 29641 29642 29643 29644 29645 29646 29647 29648 29649 29650 29651 29652 29653 29654 29655 29656 29657 29658 29659 29660 29661 29662 29663 29664 29665 29666 29667 29668 29669 29670 29671 29672 29673 29674 29675 29676 29677 29678 29679 29680 29681 29682 29683 29684 29685 29686 29687 29688 29689 29690 29691 29692 29693 29694 29695 29696 29697 29698 29699 29700 29701 29702 29703 29704 29705 29706 29707 29708 29709 29710 29711 29712 29713 29714 29715 29716 29717 29718 29719 29720 29721 29722 29723 29724 29725 29726 29727 29728 29729 29730 29731 29732 29733 29734 29735 29736 29737 29738 29739 29740 29741 29742 29743 29744 29745 29746 29747 29748 29749 29750 29751 29752 29753 29754 29755 29756 29757 29758 29759 29760 29761 29762 29763 29764 29765 29766 29767 29768 29769 29770 29771 29772 29773 29774 29775 29776 29777 29778 29779 29780 29781 29782 29783 29784 29785 29786 29787 29788 29789 29790 29791 29792 29793 29794 29795 29796 29797 29798 29799 29800 29801 29802 29803 29804 29805 29806 29807 29808 29809 29810 29811 29812 29813 29814 29815 29816 29817 29818 29819 29820 29821 29822 29823 29824 29825 29826 29827 29828 29829 29830 29831 29832 29833 29834 29835 29836 29837 29838 29839 29840 29841 29842 29843 29844 29845 29846 29847 29848 29849 29850 29851 29852 29853 29854 29855 29856 29857 29858 29859 29860 29861 29862 29863 29864 29865 29866 29867 29868 29869 29870 29871 29872 29873 29874 29875 29876 29877 29878 29879 29880 29881 29882 29883 29884 29885 29886 29887 29888 29889 29890 29891 29892 29893 29894 29895 29896 29897 29898 29899 29900 29901 29902 29903 29904 29905 29906 29907 29908 29909 29910 29911 29912 29913 29914 29915 29916 29917 29918 29919 29920 29921 29922 29923 29924 29925 29926 29927 29928 29929 29930 29931 29932 29933 29934 29935 29936 29937 29938 29939 29940 29941 29942 29943 29944 29945 29946 29947 29948 29949 29950 29951 29952 29953 29954 29955 29956 29957 29958 29959 29960 29961 29962 29963 29964 29965 29966 29967 29968 29969 29970 29971 29972 29973 29974 29975 29976 29977 29978 29979 29980 29981 29982 29983 29984 29985 29986 29987 29988 29989 29990 29991 29992 29993 29994 29995 29996 29997 29998 29999 30000 30001 30002 30003 30004 30005 30006 30007 30008 30009 30010 30011 30012 30013 30014 30015 30016 30017 30018 30019 30020 30021 30022 30023 30024 30025 30026 30027 30028 30029 30030 30031 30032 30033 30034 30035 30036 30037 30038 30039 30040 30041 30042 30043 30044 30045 30046 30047 30048 30049 30050 30051 30052 30053 30054 30055 30056 30057 30058 30059 30060 30061 30062 30063 30064 30065 30066 30067 30068 30069 30070 30071 30072 30073 30074 30075 30076 30077 30078 30079 30080 30081 30082 30083 30084 30085 30086 30087 30088 30089 30090 30091 30092 30093 30094 30095 30096 30097 30098 30099 30100 30101 30102 30103 30104 30105 30106 30107 30108 30109 30110 30111 30112 30113 30114 30115 30116 30117 30118 30119 30120 30121 30122 30123 30124 30125 30126 30127 30128 30129 30130 30131 30132 30133 30134 30135 30136 30137 30138 30139 30140 30141 30142 30143 30144 30145 30146 30147 30148 30149 30150 30151 30152 30153 30154 30155 30156 30157 30158 30159 30160 30161 30162 30163 30164 30165 30166 30167 30168 30169 30170 30171 30172 30173 30174 30175 30176 30177 30178 30179 30180 30181 30182 30183 30184 30185 30186 30187 30188 30189 30190 30191 30192 30193 30194 30195 30196 30197 30198 30199 30200 30201 30202 30203 30204 30205 30206 30207 30208 30209 30210 30211 30212 30213 30214 30215 30216 30217 30218 30219 30220 30221 30222 30223 30224 30225 30226 30227 30228 30229 30230 30231 30232 30233 30234 30235 30236 30237 30238 30239 30240 30241 30242 30243 30244 30245 30246 30247 30248 30249 30250 30251 30252 30253 30254 30255 30256 30257 30258 30259 30260 30261 30262 30263 30264 30265 30266 30267 30268 30269 30270 30271 30272 30273 30274 30275 30276 30277 30278 30279 30280 30281 30282 30283 30284 30285 30286 30287 30288 30289 30290 30291 30292 30293 30294 30295 30296 30297 30298 30299 30300 30301 30302 30303 30304 30305 30306 30307 30308 30309 30310 30311 30312 30313 30314 30315 30316 30317 30318 30319 30320 30321 30322 30323 30324 30325 30326 30327 30328 30329 30330 30331 30332 30333 30334 30335 30336 30337 30338 30339 30340 30341 30342 30343 30344 30345 30346 30347 30348 30349 30350 30351 30352 30353 30354 30355 30356 30357 30358 30359 30360 30361 30362 30363 30364 30365 30366 30367 30368 30369 30370 30371 30372 30373 30374 30375 30376 30377 30378 30379 30380 30381 30382 30383 30384 30385 30386 30387 30388 30389 30390 30391 30392 30393 30394 30395 30396 30397 30398 30399 30400 30401 30402 30403 30404 30405 30406 30407 30408 30409 30410 30411 30412 30413 30414 30415 30416 30417 30418 30419 30420 30421 30422 30423 30424 30425 30426 30427 30428 30429 30430 30431 30432 30433 30434 30435 30436 30437 30438 30439 30440 30441 30442 30443 30444 30445 30446 30447 30448 30449 30450 30451 30452 30453 30454 30455 30456 30457 30458 30459 30460 30461 30462 30463 30464 30465 30466 30467 30468 30469 30470 30471 30472 30473 30474 30475 30476 30477 30478 30479 30480 30481 30482 30483 30484 30485 30486 30487 30488 30489 30490 30491 30492 30493 30494 30495 30496 30497 30498 30499 30500 30501 30502 30503 30504 30505 30506 30507 30508 30509 30510 30511 30512 30513 30514 30515 30516 30517 30518 30519 30520 30521 30522 30523 30524 30525 30526 30527 30528 30529 30530 30531 30532 30533 30534 30535 30536 30537 30538 30539 30540 30541 30542 30543 30544 30545 30546 30547 30548 30549 30550 30551 30552 30553 30554 30555 30556 30557 30558 30559 30560 30561 30562 30563 30564 30565 30566 30567 30568 30569 30570 30571 30572 30573 30574 30575 30576 30577 30578 30579 30580 30581 30582 30583 30584 30585 30586 30587 30588 30589 30590 30591 30592 30593 30594 30595 30596 30597 30598 30599 30600 30601 30602 30603 30604 30605 30606 30607 30608 30609 30610 30611 30612 30613 30614 30615 30616 30617 30618 30619 30620 30621 30622 30623 30624 30625 30626 30627 30628 30629 30630 30631 30632 30633 30634 30635 30636 30637 30638 30639 30640 30641 30642 30643 30644 30645 30646 30647 30648 30649 30650 30651 30652 30653 30654 30655 30656 30657 30658 30659 30660 30661 30662 30663 30664 30665 30666 30667 30668 30669 30670 30671 30672 30673 30674 30675 30676 30677 30678 30679 30680 30681 30682 30683 30684 30685 30686 30687 30688 30689 30690 30691 30692 30693 30694 30695 30696 30697 30698 30699 30700 30701 30702 30703 30704 30705 30706 30707 30708 30709 30710 30711 30712 30713 30714 30715 30716 30717 30718 30719 30720 30721 30722 30723 30724 30725 30726 30727 30728 30729 30730 30731 30732 30733 30734 30735 30736 30737 30738 30739 30740 30741 30742 30743 30744 30745 30746 30747 30748 30749 30750 30751 30752 30753 30754 30755 30756 30757 30758 30759 30760 30761 30762 30763 30764 30765 30766 30767 30768 30769 30770 30771 30772 30773 30774 30775 30776 30777 30778 30779 30780 30781 30782 30783 30784 30785 30786 30787 30788 30789 30790 30791 30792 30793 30794 30795 30796 30797 30798 30799 30800 30801 30802 30803 30804 30805 30806 30807 30808 30809 30810 30811 30812 30813 30814 30815 30816 30817 30818 30819 30820 30821 30822 30823 30824 30825 30826 30827 30828 30829 30830 30831 30832 30833 30834 30835 30836 30837 30838 30839 30840 30841 30842 30843 30844 30845 30846 30847 30848 30849 30850 30851 30852 30853 30854 30855 30856 30857 30858 30859 30860 30861 30862 30863 30864 30865 30866 30867 30868 30869 30870 30871 30872 30873 30874 30875 30876 30877 30878 30879 30880 
</DataArray>
<DataArray type="UInt32" Name="offsets" format="ascii">
3 6 8 11 14 17 20 22 25 28 31 34 37 40 43 46 49 52 55 58 60 63 66 69 72 74 77 80 83 86 89 92 95 97 100 103 106 109 112 115 118 121 123 126 129 132 135 138 141 144 147 150 153 156 158 160 163 166 169 172 175 178 181 184 186 189 192 195 198 201 204 207 210 213 216 219 222 225 228 231 234 237 240 243 246 249 252 254 257 260 263 266 269 272 275 278 281 284 287 289 292 295 298 300 303 306 309 312 315 318 321 324 327 330 333 336 339 342 345 348 351 354 357 360 363 366 369 372 375 378 381 384 387 390 393 396 399 402 405 408 411 414 417 420 423 426 429 432 435 437 440 442 445 448 451 454 457 460 463 466 469 472 475 478 481 484 487 490 493 496 499 502 505 508 511 514 517 520 522 525 528 530 533 535 538 541 544 547 550 553 556 559 562 565 568 571 574 577 579 582 584 587 590 593 596 599 602 605 607 610 612 615 618 621 624 627 630 632 635 638 640 643 646 649 652 655 658 660 662 665 668 670 673 675 678 680 682 685 688 691 693 696 699 702 705 708 711 714 717 720 723 726 729 732 734 737 740 743 746 749 752 755 757 760 763 766 769 772 775 778 780 783 786 789 792 794 797 800 803 806 809 812 814 817 820 823 825 828 831 834 837 840 843 846 848 851 854 857 860 863 866 868 871 874 877 880 883 886 888 891 894 897 900 903 906 909 911 914 917 920 923 926 929 932 935 938 941 944 947 950 953 956 959 962 965 968 971 974 976 978 981 984 987 990 993 995 998 1001 1004 1007 1010 1013 1016 1018 1021 1023 1026 1029 1032 1034 1037 1040 1043 1045 1048 1050 1053 1056 1059 1062 1065 1068 1071 1073 1076 1079 1082 1085 1088 1091 1094 1096 1099 1102 1105 1107 1110 1113 1116 1119 1122 1125 1128 1131 1134 1137 1140 1143 1146 1149 1152 1155 1158 1161 1164 1167 1170 1173 1176 1179 1182 1185 1188 1191 1194 1197 1200 1203 1205 1208 1211 1214 1217 1220 1223 1226 1229 1232 1235 1238 1241 1244 1247 1250 1253 1256 1259 1262 1265 1268 1271 1274 1277 1280 1283 1286 1289 1292 1295 1298 1301 1303 1306 1309 1312 1315 1318 1321 1324 1327 1330 1333 1336 1339 1342 1345 1348 1351 1354 1357 1360 1363 1365 1368 1371 1374 1377 1380 1383 1386 1388 1391 1394 1397 1400 1403 1405 1408 1411 1413 1416 1418 1421 1424 1427 1430 1432 1435 1438 1440 1443 1446 1449 1452 1455 1458 1460 1463 1466 1469 1472 1475 1478 1481 1484 1487 1490 1493 1496 1499 1502 1505 1508 1511 1514 1517 1519 1522 1525 1528 1531 1534 1537 1540 1543 1546 1549 1552 1554 1556 1559 1562 1565 1568 1571 1574 1577 1580 1583 1586 1589 1592 1595 1598 1601 1604 1607 1610 1613 1616 1619 1621 1624 1626 1628 1631 1634 1636 1639 1642 1645 1648 1651 1654 1657 1660 1663 1666 1669 1672 1675 1677 1680 1683 1686 1689 1692 1695 1698 1700 1702 1705 1708 1711 1714 1717 1720 1723 1726 1728 1730 1733 1736 1739 1741 1744 1747 1750 1753 1756 1759 1762 1765 1768 1771 1774 1777 1780 1783 1786 1789 1792 1795 1798 1801 1804 1807 1810 1813 1816 1819 1822 1825 1828 1831 1834 1837 1840 1843 1846 1848 1851 1854 1856 1859 1862 1865 1868 1870 1873 1876 1879 1881 1884 1887 1890 1892 1895 1898 1900 1903 1906 1909 1912 1915 1918 1921 1924 1927 1930 1933 1936 1939 1942 1945 1948 1951 1954 1957 1960 1963 1965 1968 1971 1974 1976 1979 1982 1985 1988 1991 1993 1996 1999 2002 2005 2008 2011 2013 2016 2019 2022 2025 2028 2031 2034 2037 2040 2043 2046 2049 2052 2055 2058 2061 2064 2067 2069 2072 2075 2078 2081 2084 2087 2090 2093 2096 2099 2102 2105 2108 2111 2114 2117 2120 2123 2126 2129 2132 2134 2137 2140 2143 2146 2149 2152 2155 2158 2161 2164 2167 2170 2173 2176 2179 2181 2184 2187 2190 2193 2196 2199 2202 2205 2208 2211 2214 2217 2220 2223 2226 2229 2232 2235 2237 2240 2243 2246 2249 2252 2255 2258 2260 2263 2266 2269 2272 2275 2278 2281 2284 2287 2290 2293 2296 2299 2302 2305 2308 2311 2314 2317 2320 2323 2325 2328 2331 2334 2337 2340 2343 2346 2349 2352 2354 2357 2360 2363 2366 2369 2372 2375 2378 2380 2383 2386 2389 2392 2395 2398 2401 2404 2407 2410 2413 2416 2419 2422 2425 2428 2431 2434 2437 2439 2442 2445 2448 2451 2454 2456 2459 2462 2465 2467 2470 2473 2476 2479 2482 2485 2487 2490 2493 2496 2499 2502 2505 2508 2511 2514 2517 2519 2522 2525 2528 2531 2534 2537 2540 2543 2546 2549 2552 2555 2557 2560 2562 2565 2568 2571 2574 2577 2580 2583 2585 2588 2590 2593 2596 2599 2602 2605 2608 2611 2614 2617 2620 2623 2626 2629 2632 2635 2638 2641 2644 2647 2650 2653 2656 2659 2662 2665 2668 2671 2674 2677 2680 2683 2686 2689 2692 2695 2698 2701 2704 2707 2710 2713 2716 2719 2722 2725 2727 2729 2732 2735 2737 2740 2743 2746 2749 2752 2755 2758 2761 2764 2767 2770 2773 2776 2779 2782 2785 2787 2790 2793 2796 2799 2801 2804 2807 2809 2812 2815 2818 2821 2824 2827 2829 2832 2834 2837 2840 2842 2845 2848 2851 2854 2857 2860 2863 2866 2869 2872 2874 2877 2880 2883 2886 2889 2891 2893 2896 2899 2902 2905 2907 2910 2913 2915 2918 2920 2923 2926 2929 2932 2935 2937 2940 2943 2945 2948 2951 2954 2957 2960 2963 2966 2969 2972 2975 2978 2981 2983 2986 2989 2992 2995 2998 3001 3004 3007 3010 3013 3016 3019 3022 3025 3028 3030 3033 3035 3038 3040 3042 3045 3047 3050 3053 3055 3058 3061 3064 3067 3070 3073 3075 3078 3080 3083 3086 3088 3091 3094 3097 3099 3102 3105 3107 3110 3113 3116 3119 3122 3124 3127 3130 3132 3135 3138 3141 3144 3147 3149 3152 3154 3157 3160 3162 3165 3168 3170 3173 3176 3179 3182 3185 3188 3191 3194 3196 3199 3202 3205 3208 3211 3214 3217 3220 3223 3226 3228 3231 3234 3237 3240 3242 3245 3248 3250 3253 3256 3259 3262 3265 3267 3270 3273 3276 3279 3282 3284 3287 3289 3292 3295 3298 3301 3304 3307 3309 3312 3315 3318 3321 3324 3327 3330 3333 3335 3337 3339 3342 3345 3348 3351 3353 3356 3358 3361 3364 3367 3369 3371 3374 3377 3380 3382 3385 3388 3391 3393 3396 3398 3401 3403 3405 3408 3410 3413 3416 3419 3422 3424 3427 3430 3433 3435 3438 3440 3443 3445 3448 3451 3454 3457 3460 3463 3466 3468 3471 3474 3477 3480 3482 3485 3488 3491 3494 3497 3500 3503 3506 3508 3511 3513 3515 3518 3521 3524 3526 3529 3532 3535 3538 3540 3542 3545 3548 3550 3552 3555 3558 3561 3564 3567 3569 3572 3575 3578 3581 3584 3587 3590 3593 3595 3598 3600 3603 3606 3609 3612 3615 3618 3621 3624 3627 3630 3633 3636 3639 3642 3645 3648 3651 3653 3656 3659 3662 3665 3668 3671 3674 3677 3680 3683 3686 3689 3692 3695 3698 3701 3704 3707 3710 3713 3716 3719 3722 3725 3728 3730 3733 3735 3738 3741 3744 3747 3750 3752 3754 3757 3760 3763 3766 3768 3770 3773 3775 3778 3781 3783 3786 3789 3791 3794 3797 3800 3803 3805 3807 3810 3813 3816 3819 3822 3825 3828 3831 3833 3836 3839 3841 3844 3847 3850 3852 3855 3858 3860 3863 3866 3869 3872 3875 3878 3880 3883 3886 3889 3892 3895 3898 3900 3903 3906 3909 3912 3915 3917 3920 3923 3925 3927 3930 3933 3935 3938 3941 3943 3946 3949 3952 3955 3958 3961 3964 3967 3970 3973 3976 3979 3981 3984 3986 3989 3992 3994 3997 4000 4003 4006 4009 4012 4014 4017 4020 4023 4025 4027 4029 4032 4035 4038 4040 4042 4045 4047 4049 4052 4055 4057 4060 4063 4065 4068 4070 4073 4075 4078 4081 4084 4086 4088 4091 4094 4096 4098 4100 4102 4105 4108 4111 4113 4115 4118 4121 4123 4125 4127 4130 4132 4134 4137 4140 4142 4145 4147 4149 4152 4154 4157 4160 4162 4165 4167 4169 4172 4175 4178 4181 4183 4185 4188 4191 4193 4196 4199 4202 4204 4207 4210 4213 4216 4219 4222 4225 4228 4231 4234 4237 4240 4243 4246 4249 4252 4255 4258 4261 4264 4267 4270 4273 4276 4279 4282 4285 4288 4291 4294 4297 4300 4303 4306 4309 4312 4315 4318 4321 4324 4327 4330 4333 4336 4339 4342 4345 4348 4351 4354 4357 4360 4363 4366 4369 4372 4375 4378 4380 4383 4385 4388 4391 4394 4397 4400 4403 4406 4409 4412 4415 4418 4421 4424 4427 4429 4432 4435 4438 4441 4444 4447 4450 4453 4456 4459 4461 4464 4467 4470 4473 4476 4479 4482 4485 4488 4491 4494 4497 4500 4503 4506 4509 4512 4515 4518 4521 4524 4527 4530 4533 4536 4539 4542 4545 4548 4551 4554 4557 4560 4563 4566 4569 4572 4575 4578 4581 4584 4587 4590 4593 4596 4599 4601 4604 4607 4610 4612 4615 4617 4620 4623 4626 4629 4632 4634 4637 4639 4642 4645 4648 4651 4654 4657 4660 4663 4666 4669 4672 4675 4678 4681 4684 4687 4690 4693 4696 4699 4702 4705 4708 4711 4714 4716 4719 4722 4725 4728 4731 4734 4736 4739 4741 4744 4747 4750 4752 4755 4758 4760 4763 4766 4769 4772 4775 4778 4781 4784 4787 4790 4793 4796 4799 4802 4805 4808 4811 4814 4817 4820 4823 4826 4829 4832 4835 4838 4841 4844 4847 4850 4853 4856 4859 4862 4865 4868 4871 4873 4876 4878 4881 4884 4887 4890 4893 4896 4899 4902 4905 4908 4910 4913 4916 4919 4922 4925 4928 4931 4934 4937 4940 4943 4946 4949 4952 4955 4958 4961 4963 4966 4969 4972 4974 4976 4979 4981 4984 4987 4990 4993 4996 4999 5002 5005 5007 5010 5013 5016 5019 5021 5024 5027 5030 5033 5036 5039 5042 5044 5047 5050 5052 5055 5057 5060 5063 5065 5068 5071 5073 5075 5078 5081 5084 5087 5090 5093 5096 5099 5102 5105 5108 5111 5114 5117 5120 5122 5125 5127 5130 5133 5136 5138 5141 5143 5146 5149 5152 5155 5158 5161 5164 5167 5170 5173 5176 5179 5181 5184 5186 5189 5192 5195 5198 5201 5204 5207 5210 5212 5215 5218 5220 5223 5226 5229 5231 5233 5236 5239 5242 5245 5248 5251 5254 5257 5260 5263 5266 5269 5272 5275 5278 5281 5284 5287 5290 5293 5296 5298 5301 5304 5307 5310 5313 5315 5318 5320 5323 5326 5329 5332 5334 5337 5340 5342 5345 5348 5351 5354 5357 5359 5362 5365 5368 5371 5373 5376 5379 5382 5385 5388 5391 5394 5396 5399 5402 5405 5407 5410 5413 5416 5419 5422 5425 5428 5431 5434 5437 5440 5442 5445 5448 5451 5454 5457 5460 5463 5466 5468 5471 5474 5477 5480 5483 5486 5488 5491 5494 5497 5500 5503 5506 5508 5511 5514 5517 5520 5523 5526 5529 5532 5535 5538 5541 5543 5546 5549 5552 5554 5557 5560 5563 5565 5568 5570 5573 5576 5579 5582 5585 5588 5590 5593 5596 5599 5602 5605 5608 5611 5614 5617 5620 5623 5626 5629 5632 5635 5637 5640 5643 5646 5649 5652 5654 5657 5660 5663 5666 5669 5672 5675 5678 5680 5683 5686 5689 5692 5695 5698 5701 5704 5707 5710 5713 5716 5719 5722 5725 5728 5730 5733 5736 5739 5742 5744 5747 5750 5753 5756 5759 5762 5765 5768 5771 5774 5777 5780 5783 5786 5789 5792 5795 5798 5801 5804 5807 5810 5813 5816 5819 5822 5824 5827 5830 5833 5835 5838 5840 5843 5846 5849 5852 5854 5857 5859 5862 5865 5868 5871 5874 5876 5879 5882 5885 5888 5891 5894 5897 5900 5903 5905 5908 5911 5914 5917 5920 5923 5926 5929 5932 5935 5938 5941 5944 5947 5950 5953 5956 5959 5962 5965 5968 5971 5974 5977 5979 5981 5984 5987 5990 5993 5996 5998 6001 6004 6007 6009 6012 6015 6018 6020 6023 6026 6028 6031 6033 6036 6039 6042 6045 6047 6050 6053 6056 6059 6061 6063 6066 6069 6072 6075 6078 6081 6084 6087 6090 6093 6096 6099 6101 6104 6107 6110 6113 6115 6118 6121 6124 6127 6130 6132 6135 6138 6140 6143 6146 6149 6152 6155 6158 6161 6164 6167 6170 6173 6176 6179 6182 6185 6188 6190 6193 6196 6198 6201 6204 6207 6209 6212 6215 6218 6221 6224 6227 6230 6233 6236 6239 6242 6244 6247 6250 6253 6256 6259 6262 6265 6268 6271 6274 6277 6280 6283 6286 6289 6292 6294 6297 6300 6302 6305 6307 6310 6313 6315 6318 6320 6323 6325 6328 6331 6334 6337 6340 6343 6346 6349 6352 6355 6358 6361 6364 6366 6369 6371 6373 6376 6379 6381 6383 6386 6389 6391 6393 6396 6399 6402 6404 6407 6409 6412 6415 6417 6420 6423 6426 6429 6431 6433 6436 6438 6441 6444 6446 6448 6451 6454 6456 6459 6462 6465 6467 6470 6473 6476 6478 6480 6482 6485 6488 6490 6493 6495 6497 6500 6503 6506 6509 6512 6515 6518 6521 6524 6527 6530 6532 6534 6537 6539 6542 6544 6547 6549 6552 6555 6558 6560 6563 6566 6569 6572 6575 6577 6580 6583 6586 6589 6592 6595 6598 6601 6604 6607 6610 6613 6616 6619 6622 6625 6628 6631 6634 6637 6640 6643 6646 6649 6651 6654 6657 6660 6663 6666 6669 6672 6675 6678 6681 6684 6687 6690 6693 6696 6699 6702 6705 6707 6710 6713 6716 6719 6722 6725 6728 6731 6734 6737 6740 6742 6745 6748 6751 6754 6757 6759 6762 6765 6768 6771 6774 6777 6780 6783 6786 6789 6792 6795 6798 6801 6803 6806 6809 6812 6815 6818 6821 6824 6827 6830 6833 6836 6839 6842 6845 6847 6850 6852 6855 6858 6861 6864 6866 6869 6872 6875 6878 6881 6884 6887 6890 6893 6896 6899 6902 6904 6907 6909 6912 6915 6918 6921 6923 6926 6929 6932 6935 6938 6941 6944 6946 6949 6952 6955 6958 6961 6964 6967 6969 6972 6975 6978 6980 6983 6985 6988 6991 6994 6997 7000 7003 7006 7009 7012 7014 7017 7020 7023 7026 7029 7032 7035 7038 7041 7044 7047 7050 7053 7056 7059 7062 7065 7068 7071 7074 7077 7080 7083 7086 7089 7092 7095 7098 7101 7104 7107 7110 7113 7116 7119 7122 7125 7128 7131 7134 7137 7140 7143 7145 7148 7151 7153 7156 7159 7162 7165 7168 7171 7174 7177 7180 7183 7185 7188 7191 7194 7197 7200 7202 7205 7208 7210 7213 7216 7219 7222 7225 7228 7230 7233 7236 7239 7242 7244 7247 7250 7252 7255 7257 7260 7263 7266 7269 7272 7275 7278 7281 7284 7287 7290 7292 7295 7297 7300 7303 7306 7309 7311 7314 7317 7320 7323 7326 7329 7332 7335 7338 7341 7344 7347 7350 7353 7356 7359 7362 7365 7368 7371 7374 7376 7379 7382 7385 7388 7390 7393 7396 7399 7402 7405 7408 7411 7413 7416 7419 7422 7425 7428 7430 7433 7436 7439 7441 7444 7447 7450 7452 7455 7458 7460 7463 7466 7469 7471 7474 7477 7479 7482 7485 7488 7491 7494 7497 7500 7503 7506 7509 7512 7515 7518 7521 7524 7527 7530 7533 7536 7539 7542 7545 7548 7551 7554 7557 7560 7563 7566 7569 7572 7574 7577 7580 7583 7586 7589 7592 7595 7598 7601 7604 7607 7609 7612 7615 7618 7621 7624 7627 7630 7633 7636 7639 7642 7645 7648 7651 7654 7656 7658 7661 7664 7667 7669 7672 7675 7678 7681 7683 7686 7689 7691 7694 7697 7700 7703 7706 7709 7712 7715 7718 7721 7724 7727 7730 7732 7734 7737 7740 7743 7746 7749 7752 7755 7758 7761 7764 7767 7769 7772 7775 7777 7780 7783 7786 7789 7792 7795 7798 7801 7804 7807 7810 7813 7816 7819 7822 7825 7828 7831 7834 7836 7839 7842 7845 7847 7850 7853 7856 7859 7862 7864 7867 7870 7873 7876 7879 7882 7885 7888 7891 7894 7897 7900 7903 7906 7909 7912 7915 7918 7921 7924 7926 7929 7932 7934 7937 7940 7943 7946 7949 7952 7955 7958 7961 7964 7967 7970 7973 7976 7979 7982 7985 7988 7991 7993 7996 7999 8002 8005 8008 8011 8014 8017 8020 8023 8026 8029 8032 8035 8038 8041 8044 8047 8050 8053 8056 8059 8062 8065 8068 8071 8074 8077 8080 8083 8086 8089 8091 8094 8097 8100 8103 8106 8109 8111 8114 8117 8120 8123 8126 8128 8131 8134 8137 8140 8142 8145 8148 8151 8154 8157 8160 8163 8166 8169 8172 8175 8178 8181 8184 8187 8190 8193 8196 8199 8202 8205 8208 8210 8213 8216 8219 8222 8225 8228 8231 8233 8236 8239 8241 8244 8247 8249 8252 8255 8258 8261 8264 8267 8269 8272 8275 8278 8281 8284 8287 8290 8293 8296 8299 8301 8304 8306 8309 8312 8315 8318 8321 8324 8327 8330 8332 8335 8338 8340 8343 8346 8349 8351 8354 8357 8360 8362 8365 8368 8371 8373 8375 8378 8381 8383 8386 8389 8391 8394 8397 8399 8402 8405 8408 8411 8414 8417 8420 8423 8426 8428 8431 8434 8437 8439 8442 8445 8448 8450 8453 8456 8459 8461 8464 8466 8469 8472 8474 8477 8480 8483 8486 8489 8492 8495 8498 8500 8503 8506 8508 8511 8514 8517 8520 8523 8526 8529 8532 8535 8538 8541 8544 8547 8549 8552 8554 8557 8560 8563 8565 8567 8570 8572 8575 8578 8581 8584 8586 8589 8591 8594 8597 8600 8603 8606 8609 8612 8615 8618 8620 8623 8626 8629 8632 8635 8638 8641 8644 8647 8650 8653 8656 8659 8662 8665 8668 8671 8674 8677 8680 8683 8686 8689 8692 8695 8698 8701 8704 8706 8709 8712 8715 8718 8721 8724 8726 8729 8732 8735 8738 8741 8744 8746 8749 8752 8755 8758 8761 8764 8766 8769 8772 8775 8777 8780 8783 8786 8788 8791 8794 8796 8799 8802 8805 8808 8811 8814 8816 8819 8822 8825 8827 8829 8832 8835 8838 8841 8844 8847 8850 8853 8856 8859 8862 8865 8868 8871 8874 8877 8880 8882 8885 8888 8891 8894 8897 8900 8903 8905 8908 8911 8914 8917 8920 8922 8925 8928 8931 8934 8937 8939 8942 8945 8947 8950 8953 8956 8959 8961 8964 8967 8970 8973 8976 8979 8981 8984 8986 8989 8991 8993 8996 8998 9001 9004 9007 9009 9012 9015 9018 9021 9024 9026 9029 9032 9035 9037 9040 9043 9046 9049 9051 9053 9055 9058 9061 9064 9067 9069 9071 9074 9076 9079 9082 9085 9088 9091 9094 9096 9099 9101 9104 9107 9109 9112 9115 9118 9120 9123 9126 9128 9131 9134 9137 9140 9143 9146 9149 9152 9155 9158 9161 9164 9166 9169 9172 9175 9178 9180 9183 9186 9189 9192 9194 9197 9200 9203 9206 9209 9212 9215 9218 9221 9223 9225 9227 9230 9233 9236 9238 9240 9243 9246 9248 9251 9253 9256 9259 9262 9265 9268 9271 9274 9276 9279 9282 9285 9288 9291 9294 9297 9300 9303 9306 9309 9312 9315 9318 9321 9324 9326 9329 9332 9335 9338 9341 9344 9347 9350 9353 9355 9358 9361 9363 9366 9368 9371 9373 9376 9379 9381 9384 9387 9390 9392 9394 9397 9400 9402 9405 9408 9411 9413 9416 9419 9422 9425 9427 9430 9433 9436 9439 9442 9445 9448 9451 9454 9457 9460 9462 9464 9467 9470 9473 9476 9479 9482 9485 9488 9491 9494 9497 9500 9503 9506 9509 9512 9515 9518 9521 9524 9527 9530 9533 9536 9539 9542 9545 9548 9551 9554 9557 9560 9562 9565 9568 9571 9574 9577 9580 9583 9586 9589 9592 9595 9598 9601 9604 9607 9610 9613 9616 9619 9621 9624 9627 9630 9633 9636 9639 9641 9643 9646 9649 9651 9653 9656 9659 9662 9664 9667 9670 9673 9676 9679 9682 9685 9688 9691 9694 9697 9700 9703 9706 9709 9712 9715 9718 9721 9724 9727 9730 9733 9735 9738 9740 9743 9745 9748 9751 9754 9757 9760 9763 9765 9768 9770 9772 9775 9778 9780 9783 9786 9789 9792 9795 9798 9800 9802 9805 9808 9810 9812 9815 9818 9820 9822 9825 9828 9831 9834 9837 9840 9843 9846 9848 9851 9854 9857 9860 9863 9865 9868 9871 9873 9876 9879 9882 9884 9887 9890 9893 9896 9899 9902 9905 9908 9911 9914 9917 9920 9923 9926 9929 9932 9935 9938 9941 9944 9947 9950 9953 9956 9959 9962 9965 9968 9971 9974 9977 9980 9983 9986 9988 9991 9994 9996 9999 10001 10003 10006 10009 10012 10015 10018 10021 10024 10027 10030 10032 10035 10038 10041 10044 10047 10049 10052 10055 10058 10061 10064 10067 10070 10072 10075 10078 10081 10084 10087 10090 10093 10096 10098 10101 10104 10107 10110 10113 10115 10118 10121 10124 10127 10130 10133 10136 10139 10142 10145 10148 10151 10154 10157 10160 10163 10166 10169 10172 10175 10178 10181 10184 10187 10190 10193 10196 10199 10202 10205 10207 10209 10212 10215 10218 10221 10224 10227 10230 10232 10235 10238 10241 10243 10246 10248 10251 10254 10257 10260 10263 10266 10269 10272 10275 10278 10281 10284 10287 10290 10293 10296 10299 10302 10305 10308 10311 10313 10316 10319 10322 10325 10328 10331 10333 10336 10339 10342 10345 10348 10351 10354 10356 10359 10362 10364 10367 10370 10373 10376 10379 10382 10384 10387 10390 10393 10395 10398 10401 10403 10405 10408 10411 10414 10417 10420 10423 10426 10429 10432 10435 10438 10441 10444 10447 10450 10453 10456 10459 10462 10465 10468 10471 10474 10477 10480 10483 10486 10489 10491 10494 10497 10500 10503 10506 10509 10512 10515 10518 10521 10524 10527 10530 10533 10536 10539 10542 10545 10548 10550 10553 10556 10559 10561 10563 10566 10569 10572 10575 10578 10580 10583 10586 10589 10591 10594 10597 10600 10603 10606 10608 10611 10614 10617 10620 10623 10626 10629 10632 10635 10638 10641 10644 10647 10650 10653 10656 10659 10662 10665 10668 10671 10673 10676 10679 10682 10685 10688 10691 10693 10696 10699 10702 10705 10708 10711 10714 10717 10720 10723 10726 10729 10731 10734 10737 10740 10743 10745 10748 10750 10753 10756 10759 10762 10765 10768 10771 10774 10777 10780 10783 10786 10789 10791 10794 10797 10800 10803 10806 10808 10811 10814 10817 10820 10823 10826 10828 10831 10834 10837 10840 10843 10846 10849 10852 10855 10858 10861 10864 10866 10869 10872 10874 10877 10880 10882 10885 10888 10890 10893 10896 10899 10902 10905 10908 10911 10914 10917 10920 10922 10925 10928 10931 10934 10937 10940 10943 10946 10948 10951 10954 10957 10959 10962 10965 10968 10970 10973 10976 10978 10981 10984 10987 10989 10992 10995 10998 11001 11004 11006 11009 11011 11014 11017 11020 11023 11025 11027 11030 11033 11036 11038 11041 11044 11047 11050 11052 11055 11058 11061 11064 11067 11070 11073 11076 11079 11082 11085 11088 11091 11094 11097 11099 11102 11105 11107 11109 11112 11115 11118 11121 11123 11126 11129 11132 11135 11138 11141 11143 11146 11149 11152 11155 11158 11161 11163 11166 11169 11172 11175 11178 11181 11184 11187 11189 11192 11195 11198 11201 11204 11207 11210 11213 11216 11219 11221 11224 11227 11229 11232 11235 11237 11240 11243 11246 11249 11252 11254 11256 11259 11262 11264 11266 11269 11271 11274 11276 11279 11281 11283 11286 11289 11291 11294 11296 11299 11301 11304 11306 11309 11311 11314 11317 11319 11322 11324 11327 11329 11332 11335 11338 11341 11344 11347 11349 11352 11355 11358 11360 11363 11366 11369 11372 11375 11378 11381 11384 11387 11389 11392 11395 11397 11400 11402 11405 11407 11410 11413 11416 11418 11420 11423 11426 11429 11432 11435 11438 11441 11444 11447 11450 11453 11455 11458 11461 11464 11467 11470 11472 11475 11478 11481 11484 11487 11490 11493 11496 11499 11502 11505 11508 11511 11514 11517 11520 11523 11525 11528 11531 11534 11537 11540 11543 11545 11548 11551 11554 11556 11559 11562 11564 11567 11570 11573 11575 11578 11580 11582 11585 11588 11591 11594 11597 11600 11603 11606 11609 11611 11614 11617 11620 11623 11626 11629 11632 11634 11637 11639 11642 11644 11647 11650 11653 11656 11659 11662 11665 11668 11671 11674 11677 11680 11683 11686 11689 11692 11695 11698 11701 11704 11707 11710 11713 11716 11719 11722 11725 11728 11731 11734 11737 11740 11743 11746 11749 11752 11755 11757 11760 11763 11765 11767 11770 11773 11776 11779 11781 11784 11787 11790 11793 11796 11798 11801 11804 11806 11808 11811 11814 11817 11820 11823 11826 11828 11831 11833 11836 11839 11841 11843 11846 11848 11851 11854 11857 11859 11862 11865 11868 11871 11873 11876 11879 11882 11884 11887 11890 11892 11894 11897 11900 11903 11905 11908 11911 11914 11917 11919 11922 11925 11927 11930 11933 11936 11938 11941 11944 11946 11949 11952 11955 11957 11960 11962 11965 11968 11970 11973 11976 11978 11980 11983 11986 11988 11991 11993 11995 11998 12001 12004 12007 12009 12012 12015 12018 12021 12023 12026 12029 12032 12035 12038 12041 12044 12047 12050 12053 12056 12059 12061 12064 12067 12070 12073 12075 12078 12080 12083 12086 12089 12092 12095 12097 12099 12101 12104 12107 12110 12113 12116 12119 12122 12125 12127 12130 12133 12136 12139 12142 12145 12147 12150 12153 12156 12159 12161 12164 12167 12170 12173 12176 12179 12182 12185 12188 12191 12194 12197 12200 12203 12206 12209 12212 12215 12217 12220 12222 12225 12228 12230 12232 12235 12237 12240 12243 12245 12248 12250 12253 12255 12258 12260 12263 12266 12269 12272 12274 12277 12280 12283 12285 12288 12291 12294 12297 12300 12303 12306 12309 12312 12315 12318 12321 12324 12327 12330 12333 12336 12339 12342 12345 12348 12351 12354 12357 12360 12362 12365 12368 12371 12374 12377 12379 12382 12385 12388 12391 12394 12397 12400 12403 12406 12409 12412 12414 12417 12420 12423 12426 12429 12431 12434 12437 12439 12441 12444 12447 12450 12452 12455 12458 12460 12462 12465 12467 12470 12473 12476 12479 12482 12485 12488 12491 12494 12497 12500 12503 12506 12509 12512 12515 12517 12520 12523 12526 12529 12531 12534 12537 12540 12543 12546 12549 12552 12555 12557 12559 12562 12565 12567 12570 12573 12576 12579 12582 12585 12588 12591 12594 12596 12598 12601 12604 12606 12609 12612 12615 12617 12620 12623 12626 12629 12632 12635 12638 12641 12644 12647 12650 12653 12656 12659 12662 12665 12668 12671 12674 12677 12680 12683 12686 12689 12692 12695 12697 12700 12703 12706 12709 12712 12715 12718 12721 12724 12727 12730 12733 12736 12739 12742 12745 12748 12751 12754 12757 12759 12762 12765 12768 12770 12772 12775 12778 12781 12783 12786 12789 12791 12794 12797 12800 12803 12806 12808 12811 12813 12816 12819 12822 12825 12828 12831 12834 12837 12839 12842 12845 12848 12850 12853 12856 12858 12861 12863 12866 12869 12872 12874 12877 12880 12883 12885 12888 12891 12894 12897 12900 12903 12906 12909 12912 12915 12918 12921 12924 12927 12930 12933 12936 12938 12941 12944 12947 12950 12953 12956 12959 12962 12965 12967 12970 12973 12976 12979 12982 12985 12988 12991 12993 12996 12999 13002 13005 13008 13011 13014 13017 13020 13023 13026 13029 13032 13034 13037 13040 13043 13045 13048 13051 13054 13057 13060 13063 13066 13069 13072 13075 13078 13081 13084 13087 13090 13093 13096 13099 13102 13104 13107 13110 13113 13115 13118 13120 13123 13126 13129 13131 13134 13137 13140 13142 13144 13147 13150 13153 13156 13159 13162 13165 13168 13171 13174 13177 13180 13183 13186 13189 13192 13195 13198 13201 13204 13207 13210 13212 13215 13218 13221 13224 13226 13229 13232 13235 13238 13240 13243 13246 13249 13252 13255 13258 13261 13263 13266 13269 13272 13275 13277 13280 13283 13286 13289 13292 13295 13297 13300 13303 13306 13309 13312 13315 13317 13320 13323 13326 13328 13331 13334 13337 13340 13343 13346 13349 13352 13355 13357 13360 13363 13366 13369 13372 13375 13377 13380 13383 13386 13389 13392 13395 13398 13401 13404 13407 13410 13412 13415 13418 13420 13423 13426 13429 13432 13435 13437 13440 13443 13445 13448 13451 13454 13457 13460 13463 13466 13468 13470 13473 13476 13479 13482 13484 13487 13490 13493 13496 13499 13502 13504 13507 13510 13513 13516 13519 13522 13525 13528 13531 13534 13536 13539 13542 13545 13548 13551 13554 13557 13560 13563 13566 13569 13572 13574 13577 13579 13582 13585 13588 13590 13593 13596 13598 13601 13604 13607 13610 13612 13615 13618 13621 13624 13627 13629 13632 13635 13638 13641 13644 13647 13650 13653 13655 13658 13661 13664 13667 13669 13672 13675 13678 13681 13684 13687 13690 13692 13695 13698 13701 13704 13707 13710 13713 13716 13719 13722 13724 13727 13730 13733 13735 13738 13740 13743 13746 13749 13752 13755 13758 13760 13763 13765 13768 13770 13773 13776 13779 13782 13784 13787 13790 13793 13796 13799 13802 13805 13808 13811 13814 13817 13820 13823 13826 13828 13831 13833 13836 13839 13842 13845 13848 13851 13854 13856 13859 13862 13865 13868 13871 13874 13877 13880 13883 13886 13889 13892 13895 13897 13900 13903 13906 13909 13911 13914 13917 13920 13923 13926 13929 13932 13935 13938 13941 13944 13947 13950 13953 13956 13959 13962 13965 13968 13971 13974 13977 13980 13983 13985 13988 13991 13994 13997 13999 14002 14005 14008 14010 14013 14016 14018 14021 14024 14026 14029 14032 14035 14038 14041 14044 14047 14050 14053 14056 14059 14062 14065 14068 14071 14073 14076 14079 14081 14084 14087 14090 14093 14096 14099 14102 14104 14107 14110 14113 14116 14119 14121 14124 14127 14130 14132 14135 14138 14141 14143 14146 14149 14152 14155 14158 14161 14164 14166 14169 14172 14175 14177 14180 14182 14184 14187 14190 14193 14196 14199 14201 14204 14207 14210 14213 14216 14219 14222 14225 14228 14231 14233 14236 14239 14242 14245 14248 14251 14254 14257 14260 14263 14266 14269 14272 14275 14278 14281 14284 14287 14290 14293 14296 14299 14302 14305 14308 14311 14314 14317 14320 14323 14326 14329 14332 14335 14338 14341 14344 14346 14349 14352 14355 14358 14361 14364 14367 14370 14373 14376 14379 14382 14385 14388 14391 14394 14396 14399 14402 14405 14408 14411 14414 14417 14420 14423 14425 14428 14431 14434 14437 14440 14443 14446 14448 14451 14454 14457 14460 14463 14466 14469 14472 14475 14478 14481 14484 14487 14490 14493 14496 14499 14502 14505 14508 14511 14513 14516 14519 14522 14525 14528 14531 14534 14537 14540 14543 14546 14549 14552 14555 14558 14561 14564 14566 14569 14572 14575 14578 14581 14584 14587 14590 14593 14596 14599 14602 14605 14608 14611 14614 14617 14620 14623 14626 14629 14632 14635 14638 14641 14644 14647 14650 14653 14656 14659 14662 14665 14668 14671 14674 14677 14680 14683 14686 14689 14692 14695 14698 14701 14704 14706 14709 14712 14715 14718 14721 14724 14727 14730 14733 14736 14739 14742 14745 14747 14750 14752 14755 14758 14761 14764 14767 14769 14772 14775 14778 14781 14784 14786 14788 14791 14794 14797 14800 14803 14806 14809 14812 14815 14818 14821 14824 14827 14830 14833 14836 14839 14841 14843 14846 14849 14852 14855 14858 14861 14863 14866 14868 14871 14874 14877 14880 14883 14886 14889 14892 14895 14897 14900 14903 14906 14909 14912 14915 14918 14921 14924 14927 14930 14933 14936 14939 14942 14945 14948 14951 14954 14956 14959 14962 14965 14968 14971 14973 14976 14978 14981 14984 14987 14990 14993 14996 14999 15001 15004 15007 15010 15012 15015 15018 15021 15023 15026 15029 15031 15034 15037 15040 15042 15045 15048 15050 15053 15055 15058 15060 15063 15066 15068 15071 15074 15077 15080 15083 15086 15089 15092 15095 15098 15101 15104 15107 15110 15113 15116 15119 15122 15125 15128 15131 15133 15136 15138 15141 15144 15147 15150 15153 15156 15159 15161 15164 15167 15170 15173 15176 15179 15182 15185 15188 15191 15194 15197 15200 15203 15206 15209 15212 15215 15218 15220 15223 15226 15229 15231 15234 15237 15240 15243 15246 15249 15252 15255 15258 15261 15263 15266 15269 15272 15275 15277 15280 15283 15285 15288 15291 15294 15297 15300 15302 15305 15308 15311 15314 15316 15319 15321 15324 15327 15329 15332 15335 15338 15341 15344 15347 15350 15352 15355 15358 15360 15363 15365 15368 15371 15374 15377 15380 15383 15386 15389 15392 15395 15398 15401 15404 15407 15410 15413 15416 15419 15421 15424 15427 15430 15433 15436 15439 15442 15444 15447 15450 15453 15456 15458 15461 15464 15467 15470 15473 15476 15479 15482 15485 15487 15490 15493 15496 15499 15501 15504 15507 15510 15513 15516 15519 15522 15525 15528 15531 15534 15537 15539 15542 15545 15548 15551 15554 15557 15560 15563 15566 15568 15571 15574 15577 15580 15583 15586 15589 15592 15595 15598 15601 15604 15606 15609 15612 15614 15617 15620 15623 15626 15629 15632 15635 15638 15641 15643 15645 15647 15650 15653 15656 15658 15661 15664 15667 15670 15673 15676 15678 15681 15684 15687 15689 15691 15694 15697 15700 15703 15706 15709 15712 15715 15718 15721 15724 15727 15729 15732 15735 15738 15740 15742 15745 15748 15751 15754 15757 15759 15762 15765 15768 15771 15773 15776 15779 15782 15785 15787 15790 15793 15796 15799 15802 15804 15806 15808 15811 15814 15817 15819 15821 15824 15827 15830 15833 15836 15839 15842 15845 15848 15850 15852 15855 15858 15861 15863 15865 15868 15871 15874 15877 15880 15883 15886 15889 15892 15895 15898 15901 15904 15907 15910 15913 15916 15918 15921 15923 15926 15929 15932 15935 15937 15940 15943 15946 15949 15952 15955 15958 15960 15963 15966 15969 15972 15975 15978 15981 15983 15986 15989 15991 15994 15996 15998 16001 16004 16007 16009 16011 16014 16017 16020 16022 16024 16027 16030 16033 16036 16039 16042 16045 16048 16051 16054 16056 16059 16062 16065 16068 16071 16074 16077 16079 16082 16085 16088 16091 16093 16096 16099 16102 16105 16108 16111 16113 16116 16119 16122 16125 16127 16130 16132 16135 16138 16141 16144 16147 16150 16153 16156 16159 16162 16165 16168 16171 16174 16176 16179 16182 16185 16188 16191 16194 16197 16199 16202 16205 16208 16211 16213 16216 16219 16222 16224 16227 16230 16233 16236 16239 16242 16245 16248 16251 16254 16257 16260 16263 16266 16269 16272 16275 16278 16281 16284 16287 16290 16292 16295 16297 16300 16303 16305 16308 16311 16314 16316 16319 16322 16324 16327 16330 16333 16336 16339 16342 16345 16348 16351 16354 16357 16360 16363 16366 16369 16372 16375 16378 16381 16384 16386 16388 16390 16393 16396 16399 16402 16405 16408 16411 16414 16417 16420 16423 16426 16429 16431 16434 16437 16440 16442 16445 16448 16450 16453 16456 16459 16462 16464 16467 16470 16472 16474 16477 16480 16483 16486 16488 16491 16494 16496 16499 16501 16504 16507 16510 16513 16516 16519 16522 16525 16528 16531 16534 16537 16539 16542 16545 16548 16551 16554 16557 16560 16562 16565 16567 16570 16573 16576 16579 16581 16584 16587 16590 16593 16596 16599 16602 16605 16608 16611 16614 16617 16620 16623 16626 16629 16632 16635 16638 16641 16644 16647 16650 16652 16655 16658 16661 16663 16666 16668 16671 16674 16677 16679 16682 16685 16688 16691 16694 16696 16699 16702 16704 16707 16710 16713 16716 16719 16722 16725 16728 16730 16733 16736 16739 16742 16745 16747 16750 16753 16756 16759 16762 16765 16768 16771 16774 16777 16780 16783 16786 16789 16791 16794 16797 16800 16803 16805 16808 16811 16814 16817 16820 16823 16826 16829 16832 16835 16838 16841 16843 16846 16849 16852 16855 16857 16860 16863 16866 16869 16872 16875 16878 16881 16884 16887 16890 16893 16896 16898 16901 16904 16906 16909 16912 16915 16917 16920 16923 16926 16929 16932 16935 16938 16941 16944 16947 16950 16953 16956 16958 16960 16963 16965 16967 16970 16973 16976 16978 16980 16983 16985 16988 16990 16993 16995 16998 17001 17004 17006 17009 17011 17014 17017 17020 17023 17025 17028 17031 17034 17037 17040 17043 17045 17048 17051 17054 17057 17060 17062 17065 17068 17070 17073 17076 17078 17081 17084 17086 17089 17092 17095 17098 17101 17103 17106 17108 17111 17114 17117 17120 17123 17126 17129 17132 17135 17138 17141 17144 17147 17149 17152 17155 17157 17160 17163 17166 17169 17172 17175 17178 17181 17184 17186 17189 17192 17195 17198 17201 17204 17207 17210 17213 17215 17218 17221 17223 17226 17228 17231 17234 17237 17240 17243 17246 17249 17251 17254 17257 17260 17263 17266 17269 17272 17274 17277 17279 17282 17285 17287 17290 17293 17296 17298 17301 17304 17307 17310 17312 17315 17318 17321 17324 17327 17329 17332 17335 17338 17341 17344 17347 17350 17353 17356 17359 17362 17365 17368 17371 17374 17377 17380 17383 17386 17389 17392 17394 17397 17400 17402 17405 17408 17411 17413 17416 17419 17422 17425 17427 17430 17433 17436 17439 17442 17445 17448 17451 17454 17457 17460 17463 17466 17469 17472 17475 17478 17481 17484 17487 17490 17493 17496 17498 17501 17504 17507 17510 17513 17516 17518 17521 17524 17527 17530 17533 17536 17539 17542 17545 17548 17551 17554 17557 17559 17562 17564 17567 17570 17572 17575 17578 17581 17584 17586 17588 17591 17593 17596 17598 17601 17604 17607 17610 17613 17615 17618 17621 17623 17625 17628 17631 17634 17637 17640 17642 17645 17648 17650 17653 17656 17659 17662 17665 17668 17671 17674 17676 17678 17681 17684 17687 17689 17692 17694 17697 17700 17703 17706 17709 17711 17714 17716 17719 17722 17725 17728 17731 17733 17735 17738 17741 17744 17747 17749 17752 17755 17758 17761 17763 17766 17769 17772 17775 17778 17781 17784 17787 17790 17793 17796 17799 17802 17805 17808 17811 17814 17816 17819 17822 17824 17827 17830 17833 17835 17838 17841 17844 17847 17850 17853 17856 17859 17862 17865 17868 17871 17874 17877 17880 17883 17886 17889 17892 17894 17897 17900 17903 17906 17909 17912 17915 17918 17921 17924 17927 17930 17933 17936 17938 17940 17943 17946 17949 17951 17954 17957 17960 17963 17966 17968 17971 17974 17977 17980 17983 17986 17989 17992 17995 17998 18001 18003 18006 18009 18011 18014 18017 18020 18023 18026 18029 18032 18035 18038 18041 18043 18046 18049 18052 18054 18057 18059 18062 18064 18067 18070 18073 18075 18077 18080 18082 18085 18088 18090 18093 18096 18098 18100 18103 18106 18109 18111 18114 18117 18119 18122 18124 18127 18130 18133 18135 18138 18141 18143 18145 18148 18150 18153 18156 18158 18161 18163 18166 18169 18172 18175 18178 18181 18184 18187 18190 18192 18195 18198 18201 18204 18207 18209 18212 18215 18218 18221 18224 18227 18230 18233 18236 18239 18241 18244 18247 18250 18253 18255 18257 18260 18263 18265 18268 18270 18273 18276 18279 18282 18285 18287 18290 18293 18295 18298 18300 18303 18306 18309 18312 18315 18318 18321 18323 18326 18329 18332 18335 18338 18341 18344 18347 18350 18352 18355 18357 18360 18362 18365 18367 18370 18373 18376 18379 18381 18384 18387 18390 18393 18396 18398 18400 18403 18406 18409 18412 18415 18418 18420 18423 18426 18429 18432 18435 18437 18440 18443 18446 18449 18451 18454 18457 18459 18462 18464 18467 18470 18473 18475 18478 18480 18483 18486 18488 18490 18492 18495 18498 18501 18504 18507 18510 18512 18514 18516 18519 18522 18525 18528 18530 18533 18535 18538 18540 18543 18546 18549 18552 18555 18558 18560 18563 18566 18569 18572 18575 18578 18581 18584 18587 18590 18593 18596 18599 18602 18605 18608 18611 18614 18617 18620 18623 18626 18629 18632 18635 18638 18641 18644 18647 18650 18653 18656 18659 18662 18665 18668 18671 18674 18677 18680 18683 18686 18689 18692 18695 18698 18701 18704 18707 18709 18712 18715 18718 18720 18722 18725 18728 18731 18734 18737 18740 18743 18746 18749 18752 18755 18758 18761 18764 18767 18770 18773 18776 18779 18781 18784 18787 18790 18793 18796 18799 18802 18804 18807 18810 18812 18815 18818 18820 18823 18826 18828 18831 18833 18836 18839 18841 18844 18847 18850 18852 18855 18857 18860 18862 18864 18867 18870 18873 18875 18877 18880 18883 18885 18888 18891 18893 18896 18899 18902 18905 18908 18911 18914 18917 18920 18923 18926 18929 18931 18934 18937 18940 18943 18945 18948 18951 18954 18957 18959 18962 18965 18968 18971 18974 18977 18980 18983 18986 18988 18991 18993 18996 18999 19002 19005 19007 19010 19013 19016 19018 19021 19024 19027 19030 19033 19036 19038 19041 19044 19046 19049 19052 19055 19057 19060 19063 19066 19069 19072 19075 19078 19080 19083 19086 19089 19092 19095 19097 19100 19103 19106 19109 19112 19115 19118 19121 19124 19127 19130 19133 19136 19139 19142 19144 19147 19150 19153 19156 19159 19161 19164 19167 19169 19172 19174 19177 19180 19183 19186 19188 19190 19193 19196 19198 19201 19204 19207 19210 19213 19216 19219 19222 19225 19228 19231 19233 19236 19238 19241 19244 19247 19250 19253 19255 19258 19261 19264 19266 19269 19272 19275 19277 19280 19283 19286 19289 19292 19295 19298 19301 19304 19307 19310 19313 19316 19318 19321 19324 19327 19330 19333 19336 19339 19341 19344 19346 19349 19352 19355 19358 19361 19364 19367 19369 19371 19374 19377 19380 19383 19386 19389 19392 19395 19398 19400 19403 19406 19409 19412 19415 19418 19420 19422 19424 19427 19429 19432 19435 19438 19441 19444 19447 19449 19452 19454 19457 19459 19462 19464 19467 19470 19473 19476 19479 19482 19484 19487 19490 19492 19495 19498 19501 19504 19506 19509 19512 19515 19518 19521 19524 19527 19530 19533 19536 19539 19542 19545 19548 19551 19554 19557 19560 19563 19566 19569 19571 19574 19576 19579 19582 19585 19588 19591 19594 19597 19600 19603 19606 19609 19612 19615 19618 19621 19624 19627 19630 19633 19636 19639 19642 19645 19648 19651 19654 19657 19660 19663 19666 19669 19672 19675 19678 19681 19684 19687 19690 19693 19696 19699 19702 19705 19708 19711 19714 19717 19720 19723 19726 19729 19732 19735 19738 19741 19744 19747 19750 19752 19755 19758 19761 19764 19767 19770 19773 19776 19779 19782 19785 19788 19791 19794 19797 19800 19803 19806 19809 19812 19815 19818 19821 19823 19826 19829 19832 19834 19837 19839 19842 19845 19848 19851 19854 19857 19860 19863 19866 19869 19872 19875 19878 19881 19884 19887 19890 19893 19896 19899 19902 19905 19908 19911 19914 19917 19920 19923 19926 19929 19932 19935 19938 19941 19944 19947 19950 19953 19956 19958 19961 19963 19966 19969 19972 19975 19978 19981 19984 19987 19990 19993 19996 19999 20002 20005 20008 20011 20014 20017 20020 20023 20026 20029 20032 20035 20038 20040 20043 20046 20049 20052 20055 20058 20061 20064 20067 20070 20073 20076 20079 20082 20085 20088 20091 20094 20097 20100 20103 20106 20109 20112 20115 20118 20121 20124 20127 20130 20133 20136 20139 20142 20145 20148 20151 20154 20157 20160 20163 20166 20169 20172 20175 20178 20181 20184 20187 20190 20193 20196 20199 20202 20205 20208 20211 20214 20217 20220 20223 20226 20229 20232 20235 20238 20241 20244 20247 20249 20252 20255 20258 20261 20264 20267 20270 20272 20275 20278 20280 20283 20286 20289 20292 20295 20298 20301 20304 20307 20310 20313 20316 20319 20322 20325 20328 20331 20334 20337 20340 20342 20345 20348 20351 20354 20357 20360 20363 20366 20369 20372 20375 20378 20381 20384 20387 20390 20393 20396 20399 20402 20405 20408 20411 20414 20417 20420 20423 20426 20429 20432 20435 20438 20440 20443 20446 20449 20452 20454 20457 20459 20462 20465 20468 20471 20474 20477 20479 20482 20485 20487 20490 20493 20495 20497 20500 20502 20505 20508 20511 20513 20516 20519 20522 20525 20528 20531 20534 20537 20540 20543 20546 20549 20552 20555 20558 20560 20563 20566 20569 20572 20575 20578 20581 20584 20586 20589 20592 20595 20598 20601 20604 20607 20610 20613 20616 20619 20622 20625 20628 20631 20634 20637 20640 20643 20646 20649 20652 20655 20658 20661 20664 20667 20670 20673 20676 20679 20682 20685 20688 20691 20694 20696 20699 20702 20705 20708 20711 20714 20717 20719 20722 20725 20727 20730 20732 20735 20738 20741 20744 20747 20750 20753 20756 20759 20762 20765 20767 20769 20772 20775 20777 20780 20783 20785 20787 20790 20793 20796 20799 20801 20804 20806 20809 20812 20814 20817 20819 20821 20824 20826 20829 20831 20834 20837 20840 20843 20846 20849 20852 20854 20857 20859 20862 20865 20868 20871 20874 20876 20879 20882 20885 20887 20890 20893 20895 20898 20900 20903 20905 20907 20910 20913 20915 20918 20921 20924 20927 20930 20933 20935 20938 20941 20944 20947 20950 20953 20956 20959 20961 20963 20966 20969 20972 20974 20977 20980 20983 20986 20988 20990 20993 20995 20998 21001 21004 21006 21009 21012 21015 21018 21021 21024 21027 21030 21033 21036 21039 21042 21045 21048 21051 21054 21056 21059 21062 21065 21068 21071 21074 21076 21079 21081 21084 21087 21090 21092 21094 21097 21100 21102 21105 21107 21110 21113 21116 21119 21122 21125 21128 21131 21134 21137 21140 21143 21145 21147 21150 21153 21156 21159 21162 21164 21167 21170 21173 21176 21179 21182 21185 21187 21190 21193 21196 21198 21201 21203 21206 21209 21211 21214 21217 21220 21223 21226 21229 21232 21235 21238 21240 21243 21246 21248 21251 21254 21257 21260 21263 21266 21269 21272 21275 21278 21281 21283 21286 21289 21292 21295 21298 21301 21304 21307 21310 21313 21316 21319 21322 21325 21328 21331 21334 21337 21340 21343 21346 21349 21351 21354 21357 21360 21363 21366 21369 21372 21375 21378 21381 21384 21386 21389 21392 21395 21398 21400 21403 21406 21409 21412 21415 21418 21421 21424 21427 21430 21433 21435 21438 21441 21444 21447 21450 21452 21455 21457 21460 21463 21466 21469 21472 21475 21478 21481 21484 21486 21489 21492 21494 21497 21500 21502 21505 21508 21511 21514 21516 21519 21522 21525 21528 21531 21534 21537 21540 21543 21546 21549 21552 21555 21558 21561 21564 21567 21570 21573 21576 21579 21581 21584 21587 21589 21592 21594 21597 21600 21603 21606 21609 21612 21615 21618 21621 21623 21626 21629 21631 21633 21635 21638 21641 21644 21646 21649 21652 21655 21658 21661 21664 21666 21668 21671 21673 21676 21679 21681 21684 21687 21689 21692 21695 21698 21701 21703 21706 21709 21712 21715 21717 21720 21723 21726 21729 21732 21735 21738 21741 21744 21747 21750 21752 21755 21758 21760 21763 21765 21767 21770 21773 21775 21777 21779 21782 21785 21788 21791 21794 21797 21800 21803 21806 21809 21811 21814 21817 21820 21823 21826 21829 21832 21835 21838 21840 21843 21846 21849 21852 21855 21857 21860 21863 21866 21869 21872 21875 21878 21881 21884 21887 21889 21892 21895 21898 21901 21904 21907 21910 21913 21916 21919 21922 21925 21928 21931 21934 21937 21940 21943 21946 21949 21952 21955 21958 21961 21963 21965 21968 21971 21974 21977 21980 21983 21986 21989 21991 21994 21997 22000 22003 22006 22009 22012 22015 22018 22021 22024 22027 22030 22033 22036 22039 22041 22044 22047 22050 22053 22055 22058 22061 22064 22066 22068 22071 22074 22077 22080 22083 22086 22088 22091 22093 22096 22099 22102 22104 22107 22110 22113 22116 22119 22122 22125 22128 22130 22133 22135 22137 22140 22143 22146 22149 22152 22155 22158 22161 22164 22167 22170 22173 22175 22178 22181 22183 22186 22188 22191 22194 22197 22200 22203 22206 22209 22212 22215 22218 22221 22224 22227 22230 22233 22236 22239 22242 22245 22248 22251 22254 22257 22259 22262 22265 22268 22271 22274 22276 22279 22282 22285 22288 22291 22294 22297 22300 22303 22306 22308 22311 22314 22317 22319 22322 22325 22328 22331 22334 22337 22340 22343 22346 22349 22352 22354 22356 22359 22362 22365 22368 22371 22373 22376 22379 22382 22384 22387 22390 22393 22396 22399 22402 22405 22408 22411 22414 22416 22419 22422 22425 22428 22431 22434 22437 22439 22441 22444 22446 22449 22452 22455 22458 22460 22463 22466 22469 22472 22475 22477 22480 22483 22486 22489 22492 22495 22498 22501 22504 22507 22509 22512 22515 22518 22521 22524 22527 22530 22533 22536 22539 22541 22544 22547 22550 22553 22556 22559 22562 22564 22567 22570 22573 22576 22579 22582 22585 22588 22591 22594 22597 22600 22603 22606 22609 22612 22615 22618 22621 22624 22626 22629 22632 22635 22637 22640 22643 22646 22649 22652 22655 22658 22661 22664 22667 22670 22673 22676 22678 22681 22683 22685 22688 22690 22692 22695 22698 22701 22704 22707 22709 22712 22715 22718 22721 22724 22727 22730 22732 22735 22738 22740 22743 22746 22748 22751 22754 22756 22759 22762 22764 22766 22768 22770 22773 22776 22778 22780 22783 22786 22788 22791 22794 22796 22799 22802 22805 22808 22810 22812 22814 22816 22819 22822 22825 22827 22830 22832 22835 22837 22840 22842 22844 22847 22850 22853 22856 22859 22862 22865 22867 22870 22873 22875 22878 22880 22883 22886 22888 22890 22893 22896 22899 22902 22905 22908 22911 22914 22917 22920 22923 22926 22929 22932 22935 22938 22941 22943 22946 22949 22952 22955 22958 22961 22964 22967 22970 22973 22976 22979 22982 22985 22988 22991 22994 22996 22999 23002 23005 23008 23011 23014 23017 23020 23023 23026 23029 23032 23035 23038 23040 23042 23045 23048 23051 23054 23056 23059 23061 23064 23067 23070 23072 23074 23077 23079 23082 23085 23088 23091 23094 23097 23100 23103 23106 23109 23112 23115 23118 23121 23124 23127 23130 23133 23136 23138 23141 23143 23146 23149 23152 23155 23157 23160 23163 23166 23169 23172 23175 23178 23181 23184 23187 23190 23193 23196 23199 23202 23205 23208 23211 23214 23217 23219 23222 23225 23228 23231 23234 23237 23240 23243 23246 23249 23252 23255 23258 23261 23263 23266 23269 23272 23275 23278 23281 23284 23287 23290 23293 23296 23299 23302 23305 23308 23311 23314 23317 23320 23323 23326 23329 23332 23335 23338 23341 23344 23347 23350 23353 23356 23359 23362 23365 23368 23371 23374 23377 23380 23383 23386 23389 23392 23395 23398 23401 23404 23407 23410 23413 23416 23419 23422 23425 23428 23431 23434 23437 23440 23443 23446 23449 23451 23454 23457 23460 23462 23465 23468 23470 23473 23476 23479 23482 23485 23488 23491 23494 23497 23500 23503 23505 23508 23511 23514 23517 23519 23522 23525 23528 23531 23534 23537 23540 23543 23546 23549 23552 23555 23558 23561 23564 23567 23570 23573 23576 23579 23582 23585 23588 23591 23594 23597 23600 23603 23606 23608 23611 23614 23617 23620 23622 23625 23628 23631 23634 23637 23640 23643 23646 23649 23652 23654 23657 23660 23662 23665 23668 23671 23674 23677 23680 23683 23686 23689 23692 23695 23698 23700 23703 23706 23709 23712 23715 23718 23721 23724 23726 23729 23732 23735 23738 23741 23744 23747 23750 23753 23756 23758 23761 23763 23766 23769 23772 23774 23777 23780 23783 23785 23788 23790 23793 23795 23797 23800 23803 23806 23809 23812 23814 23817 23820 23823 23826 23829 23832 23835 23838 23841 23844 23847 23850 23853 23856 23859 23862 23865 23868 23871 23874 23877 23880 23883 23885 23888 23891 23893 23896 23899 23902 23904 23907 23909 23912 23915 23918 23921 23924 23927 23930 23933 23936 23939 23942 23945 23947 23950 23953 23956 23959 23962 23965 23968 23971 23974 23977 23980 23983 23986 23989 23992 23995 23998 24001 24004 24006 24009 24012 24015 24018 24021 24024 24027 24030 24033 24036 24039 24042 24045 24048 24051 24054 24057 24060 24063 24066 24069 24072 24075 24078 24081 24084 24087 24089 24092 24095 24098 24101 24104 24107 24110 24113 24116 24119 24122 24125 24128 24131 24134 24137 24140 24143 24145 24148 24151 24154 24156 24159 24162 24165 24167 24169 24172 24175 24178 24181 24184 24186 24189 24192 24195 24198 24201 24204 24207 24209 24211 24214 24217 24220 24222 24225 24227 24230 24233 24236 24239 24242 24245 24247 24249 24252 24255 24257 24259 24262 24265 24268 24271 24274 24277 24280 24283 24286 24289 24291 24294 24297 24300 24303 24306 24309 24311 24314 24317 24320 24323 24326 24329 24332 24335 24338 24341 24344 24347 24350 24353 24356 24359 24362 24364 24367 24370 24373 24376 24378 24381 24384 24386 24389 24392 24395 24398 24401 24404 24407 24410 24413 24416 24419 24421 24424 24426 24429 24431 24434 24437 24440 24443 24446 24449 24452 24455 24458 24461 24464 24467 24470 24473 24476 24479 24482 24485 24488 24490 24493 24496 24498 24501 24504 24507 24509 24512 24515 24517 24520 24523 24526 24529 24531 24534 24537 24540 24543 24546 24549 24552 24554 24557 24560 24563 24566 24569 24572 24575 24578 24581 24584 24587 24590 24593 24596 24599 24602 24605 24608 24611 24614 24617 24620 24623 24626 24629 24632 24635 24638 24641 24643 24646 24649 24652 24655 24658 24661 24664 24667 24670 24673 24676 24679 24682 24685 24688 24691 24694 24697 24700 24703 24706 24709 24712 24715 24718 24721 24724 24727 24730 24733 24736 24739 24742 24745 24748 24751 24754 24756 24758 24760 24763 24766 24768 24771 24774 24777 24779 24782 24784 24787 24790 24793 24796 24799 24801 24804 24807 24810 24813 24816 24819 24822 24824 24827 24830 24833 24836 24839 24842 24845 24848 24851 24854 24857 24860 24863 24866 24868 24871 24874 24877 24879 24882 24884 24887 24890 24893 24896 24899 24902 24905 24908 24910 24913 24916 24919 24922 24925 24928 24931 24933 24936 24938 24941 24943 24946 24949 24952 24955 24958 24961 24964 24967 24969 24972 24975 24977 24979 24981 24984 24986 24989 24991 24994 24997 25000 25003 25006 25009 25012 25015 25018 25021 25024 25027 25030 25033 25036 25039 25042 25045 25048 25051 25054 25056 25059 25062 25064 25066 25069 25072 25075 25077 25080 25083 25086 25089 25092 25095 25098 25100 25103 25105 25108 25111 25114 25117 25119 25122 25125 25127 25130 25133 25136 25139 25142 25145 25148 25150 25153 25156 25158 25161 25164 25167 25169 25172 25175 25178 25181 25184 25187 25190 25193 25196 25198 25201 25204 25207 25210 25213 25216 25218 25221 25224 25226 25229 25232 25235 25238 25240 25243 25246 25249 25252 25255 25258 25260 25262 25264 25267 25270 25273 25275 25278 25280 25283 25285 25288 25291 25294 25297 25300 25303 25305 25308 25311 25314 25316 25319 25322 25325 25327 25330 25333 25336 25339 25342 25345 25348 25351 25354 25357 25360 25363 25365 25368 25371 25374 25376 25379 25382 25385 25388 25391 25393 25395 25398 25401 25403 25406 25408 25410 25412 25415 25418 25421 25423 25426 25429 25432 25435 25438 25440 25443 25446 25449 25452 25455 25458 25461 25464 25467 25470 25473 25476 25478 25481 25484 25487 25490 25493 25496 25498 25501 25504 25506 25509 25512 25514 25517 25520 25523 25526 25529 25531 25534 25537 25539 25542 25544 25547 25549 25552 25555 25558 25561 25564 25567 25569 25572 25575 25578 25581 25583 25586 25589 25592 25595 25598 25601 25604 25607 25610 25613 25615 25618 25621 25624 25627 25630 25632 25635 25638 25641 25644 25647 25650 25653 25656 25659 25662 25665 25668 25671 25674 25677 25679 25682 25685 25688 25691 25694 25696 25699 25701 25704 25707 25710 25713 25716 25718 25721 25724 25727 25730 25733 25735 25738 25741 25744 25747 25750 25752 25755 25758 25761 25764 25767 25770 25773 25776 25779 25782 25784 25787 25789 25792 25794 25797 25800 25802 25805 25808 25811 25814 25817 25820 25823 25826 25828 25831 25833 25836 25839 25842 25845 25848 25851 25854 25857 25860 25863 25865 25868 25871 25874 25877 25880 25883 25886 25889 25892 25895 25897 25900 25903 25906 25908 25911 25913 25915 25918 25921 25924 25926 25929 25932 25935 25937 25939 25942 25945 25948 25951 25954 25957 25960 25963 25966 25969 25971 25973 25976 25979 25982 25985 25988 25990 25993 25996 25999 26002 26005 26008 26011 26014 26017 26020 26022 26025 26027 26029 26031 26034 26037 26040 26043 26046 26049 26052 26055 26057 26060 26063 26066 26069 26072 26075 26078 26081 26084 26087 26090 26093 26096 26099 26102 26105 26108 26111 26114 26117 26120 26123 26126 26129 26132 26135 26138 26141 26144 26146 26149 26152 26155 26158 26160 26163 26166 26169 26172 26175 26178 26181 26184 26186 26189 26192 26195 26198 26201 26204 26207 26210 26212 26215 26218 26221 26224 26227 26230 26233 26236 26239 26242 26245 26248 26251 26254 26257 26260 26263 26266 26269 26272 26275 26278 26281 26284 26287 26290 26292 26295 26298 26301 26304 26307 26310 26312 26315 26317 26320 26323 26325 26328 26331 26334 26336 26339 26341 26344 26347 26350 26352 26355 26358 26361 26363 26366 26369 26372 26375 26378 26381 26383 26386 26389 26392 26395 26398 26401 26404 26407 26410 26413 26416 26419 26422 26425 26428 26431 26434 26437 26440 26443 26446 26449 26452 26455 26458 26461 26464 26466 26469 26471 26474 26477 26480 26483 26485 26488 26491 26494 26497 26500 26503 26506 26509 26512 26515 26518 26521 26524 26526 26529 26532 26534 26537 26540 26542 26545 26548 26551 26554 26557 26559 26562 26565 26568 26571 26574 26577 26580 26583 26585 26588 26590 26593 26596 26599 26602 26605 26607 26609 26612 26615 26617 26620 26623 26626 26628 26631 26634 26637 26640 26643 26646 26649 26651 26654 26657 26660 26663 26666 26669 26672 26675 26678 26681 26684 26687 26690 26693 26696 26699 26701 26704 26707 26710 26713 26716 26718 26721 26723 26726 26729 26732 26735 26738 26741 26744 26747 26750 26753 26756 26759 26761 26764 26766 26769 26772 26775 26778 26781 26784 26786 26788 26791 26794 26797 26800 26803 26806 26809 26812 26815 26818 26821 26824 26827 26830 26833 26836 26839 26842 26845 26848 26851 26853 26856 26859 26861 26864 26867 26870 26873 26876 26878 26881 26884 26887 26890 26893 26896 26898 26901 26904 26907 26910 26913 26916 26919 26922 26925 26928 26931 26934 26937 26940 26943 26946 26948 26951 26954 26956 26959 26962 26965 26968 26970 26973 26976 26979 26982 26985 26988 26991 26994 26997 27000 27003 27005 27008 27011 27014 27017 27020 27023 27026 27029 27032 27035 27038 27041 27044 27047 27050 27053 27056 27059 27062 27064 27067 27070 27073 27076 27079 27082 27085 27088 27091 27094 27097 27100 27102 27105 27108 27111 27114 27117 27120 27123 27126 27129 27132 27135 27138 27141 27143 27145 27148 27151 27154 27157 27160 27163 27165 27168 27171 27174 27177 27180 27183 27186 27189 27192 27195 27198 27201 27204 27207 27210 27213 27216 27219 27222 27225 27228 27231 27234 27237 27240 27243 27246 27249 27252 27255 27258 27261 27264 27267 27270 27272 27275 27278 27281 27284 27287 27290 27293 27296 27298 27301 27304 27307 27310 27313 27316 27319 27322 27325 27328 27331 27334 27336 27339 27342 27345 27348 27350 27353 27355 27358 27361 27364 27367 27370 27373 27376 27379 27381 27384 27387 27390 27393 27396 27399 27402 27405 27408 27411 27413 27416 27419 27422 27424 27427 27430 27432 27435 27438 27441 27444 27446 27449 27452 27454 27457 27460 27463 27466 27469 27472 27475 27478 27480 27483 27486 27489 27491 27494 27497 27500 27503 27506 27509 27512 27514 27517 27519 27522 27524 27527 27529 27531 27534 27537 27540 27542 27544 27546 27549 27552 27554 27557 27560 27563 27565 27568 27571 27574 27577 27579 27582 27585 27588 27591 27594 27597 27600 27603 27606 27609 27612 27615 27618 27621 27624 27627 27630 27633 27636 27639 27642 27645 27648 27651 27654 27657 27660 27663 27666 27669 27672 27675 27678 27681 27684 27687 27690 27693 27695 27698 27701 27704 27707 27710 27713 27716 27719 27721 27724 27727 27730 27733 27735 27738 27741 27743 27746 27749 27751 27754 27757 27760 27763 27765 27768 27771 27774 27777 27780 27782 27785 27788 27791 27794 27797 27800 27803 27806 27809 27812 27815 27818 27821 27823 27825 27828 27831 27834 27836 27839 27842 27845 27848 27851 27854 27857 27860 27863 27866 27869 27872 27875 27878 27880 27883 27886 27889 27892 27895 27898 27900 27903 27906 27908 27911 27914 27917 27920 27923 27926 27929 27932 27935 27938 27940 27943 27946 27949 27952 27955 27957 27960 27963 27966 27969 27972 27975 27978 27981 27984 27987 27989 27992 27995 27998 28001 28004 28007 28010 28013 28016 28019 28022 28025 28028 28031 28034 28036 28039 28042 28045 28048 28051 28054 28057 28060 28063 28066 28069 28072 28075 28078 28081 28084 28087 28090 28093 28096 28099 28102 28105 28107 28110 28112 28115 28118 28121 28123 28126 28129 28132 28135 28138 28141 28144 28147 28150 28152 28155 28158 28161 28163 28166 28169 28172 28175 28178 28181 28184 28187 28190 28193 28196 28199 28202 28205 28208 28211 28213 28216 28219 28222 28225 28228 28230 28233 28236 28239 28241 28244 28246 28249 28252 28255 28258 28261 28264 28266 28269 28272 28275 28278 28281 28284 28287 28290 28293 28296 28299 28302 28305 28308 28311 28314 28317 28320 28323 28326 28329 28332 28335 28338 28341 28344 28347 28349 28352 28355 28357 28360 28363 28366 28369 28372 28375 28378 28380 28383 28386 28389 28392 28394 28397 28400 28402 28405 28408 28411 28414 28417 28420 28422 28425 28428 28431 28433 28436 28439 28442 28444 28447 28450 28453 28456 28459 28461 28464 28467 28470 28473 28476 28478 28481 28484 28487 28490 28493 28496 28499 28502 28504 28507 28510 28512 28515 28518 28521 28524 28526 28529 28532 28535 28538 28540 28543 28546 28549 28552 28554 28557 28560 28563 28565 28568 28570 28573 28576 28579 28582 28585 28588 28591 28594 28597 28600 28602 28605 28608 28611 28614 28617 28620 28623 28625 28627 28630 28633 28636 28639 28642 28644 28647 28650 28653 28656 28659 28661 28664 28667 28670 28672 28675 28678 28680 28683 28686 28688 28691 28694 28697 28699 28702 28705 28708 28711 28714 28717 28719 28722 28725 28728 28731 28734 28736 28739 28742 28745 28748 28751 28753 28756 28759 28762 28765 28768 28771 28773 28776 28779 28782 28785 28787 28790 28793 28796 28799 28802 28804 28807 28810 28813 28816 28819 28822 28825 28828 28831 28834 28836 28839 28842 28845 28848 28851 28854 28857 28859 28862 28865 28868 28871 28873 28875 28878 28881 28883 28886 28889 28892 28895 28898 28901 28904 28906 28909 28912 28915 28918 28921 28924 28927 28929 28932 28934 28937 28940 28942 28945 28948 28951 28954 28956 28959 28961 28964 28967 28970 28973 28976 28979 28982 28985 28988 28991 28993 28996 28999 29002 29005 29008 29010 29013 29016 29019 29021 29024 29027 29030 29033 29035 29038 29041 29043 29046 29049 29052 29055 29058 29060 29063 29065 29068 29070 29072 29075 29078 29081 29084 29086 29088 29091 29094 29097 29100 29103 29106 29109 29112 29115 29118 29121 29124 29127 29129 29132 29135 29138 29141 29144 29147 29149 29151 29154 29157 29160 29163 29166 29169 29172 29175 29178 29181 29184 29187 29190 29192 29195 29198 29201 29204 29207 29210 29213 29216 29219 29222 29225 29228 29231 29234 29237 29240 29243 29246 29249 29252 29255 29258 29261 29264 29267 29270 29273 29276 29279 29282 29285 29288 29291 29293 29296 29299 29301 29304 29307 29310 29313 29316 29319 29322 29324 29327 29330 29333 29335 29338 29341 29343 29346 29349 29352 29354 29356 29359 29362 29365 29368 29370 29372 29375 29378 29381 29384 29387 29390 29393 29396 29399 29402 29405 29408 29411 29414 29416 29419 29422 29424 29427 29430 29433 29435 29438 29441 29444 29447 29449 29452 29455 29457 29460 29463 29466 29469 29472 29475 29478 29481 29484 29487 29490 29492 29495 29498 29501 29504 29507 29510 29513 29515 29518 29521 29524 29527 29530 29533 29536 29539 29542 29545 29548 29551 29554 29557 29560 29563 29566 29569 29571 29574 29577 29580 29583 29586 29589 29591 29594 29596 29599 29602 29605 29608 29611 29613 29616 29619 29621 29624 29627 29630 29632 29635 29638 29641 29643 29646 29649 29652 29655 29658 29661 29664 29667 29670 29673 29676 29679 29682 29685 29687 29690 29693 29696 29699 29701 29703 29706 29709 29712 29715 29718 29721 29724 29727 29730 29733 29736 29739 29742 29745 29748 29751 29754 29757 29760 29762 29765 29768 29771 29774 29777 29780 29783 29786 29788 29791 29793 29796 29799 29802 29805 29808 29811 29814 29816 29819 29821 29824 29827 29830 29833 29836 29838 29841 29844 29847 29850 29853 29856 29858 29861 29864 29867 29870 29873 29875 29877 29880 29883 29886 29888 29890 29892 29895 29898 29901 29904 29907 29909 29912 29915 29918 29921 29924 29926 29929 29932 29935 29938 29940 29943 29945 29947 29950 29952 29954 29957 29960 29963 29965 29968 29971 29974 29976 29979 29982 29985 29987 29990 29993 29996 29998 30001 30004 30007 30010 30013 30016 30019 30022 30024 30027 30030 30033 30035 30038 30041 30044 30047 30050 30053 30055 30058 30061 30064 30067 30070 30073 30075 30078 30081 30084 30087 30090 30093 30096 30099 30102 30105 30108 30111 30114 30117 30119 30122 30124 30127 30130 30133 30135 30138 30141 30143 30146 30148 30151 30153 30156 30159 30161 30164 30167 30170 30173 30176 30179 30181 30184 30187 30190 30193 30195 30198 30201 30204 30207 30210 30213 30215 30218 30221 30224 30227 30230 30233 30236 30239 30242 30245 30247 30250 30253 30256 30259 30262 30265 30268 30271 30274 30277 30280 30283 30286 30289 30292 30295 30298 30301 30304 30306 30308 30311 30314 30317 30319 30322 30325 30327 30330 30333 30335 30338 30341 30343 30346 30349 30351 30353 30356 30359 30362 30365 30367 30370 30373 30376 30379 30382 30385 30388 30391 30394 30397 30400 30402 30404 30407 30410 30413 30415 30418 30420 30423 30425 30428 30431 30434 30437 30440 30442 30445 30448 30450 30453 30455 30458 30461 30463 30465 30467 30470 30473 30476 30479 30481 30484 30487 30489 30492 30494 30497 30500 30502 30505 30508 30511 30514 30517 30520 30523 30526 30528 30531 30533 30535 30538 30541 30544 30547 30550 30552 30554 30557 30560 30563 30565 30567 30570 30573 30576 30579 30582 30585 30588 30591 30593 30596 30598 30601 30604 30607 30610 30613 30616 30619 30622 30625 30628 30631 30634 30637 30640 30643 30646 30649 30652 30655 30658 30661 30664 30667 30670 30673 30676 30679 30682 30685 30687 30690 30693 30696 30699 30702 30705 30708 30711 30714 30717 30720 30723 30726 30729 30732 30734 30737 30740 30742 30745 30748 30751 30754 30757 30759 30762 30765 30768 30771 30774 30777 30780 30783 30786 30789 30792 30795 30798 30800 30803 30806 30809 30812 30815 30818 30821 30824 30827 30829 30832 30835 30837 30840 30843 30846 30849 30851 30853 30855 30858 30861 30864 30867 30870 30872 30875 30878 30881 
</DataArray>
<DataArray type="UInt32" Name="types" format="ascii">
5 5 3 5 5 5 5 3 5 5 5 5 5 5 5 5 5 5 5 5 3 5 5 5 5 3 5 5 5 5 5 5 5 3 5 5 5 5 5 5 5 5 3 5 5 5 5 5 5 5 5 5 5 5 3 3 5 5 5 5 5 5 5 5 3 5 5 5 5 5 5 5 5 5 5 5 5 5 5 5 5 5 5 5 5 5 5 3 5 5 5 5 5 5 5 5 5 5 5 3 5 5 5 3 5 5 5 5 5 5 5 5 5 5 5 5 5 5 5 5 5 5 5 5 5 5 5 5 5 5 5 5 5 5 5 5 5 5 5 5 5 5 5 5 5 5 5 5 5 3 5 3 5 5 5 5 5 5 5 5 5 5 5 5 5 5 5 5 5 5 5 5 5 5 5 5 5 5 3 5 5 3 5 3 5 5 5 5 5 5 5 5 5 5 5 5 5 5 3 5 3 5 5 5 5 5 5 5 3 5 3 5 5 5 5 5 5 3 5 5 3 5 5 5 5 5 5 3 3 5 5 3 5 3 5 3 3 5 5 5 3 5 5 5 5 5 5 5 5 5 5 5 5 5 3 5 5 5 5 5 5 5 3 5 5 5 5 5 5 5 3 5 5 5 5 3 5 5 5 5 5 5 3 5 5 5 3 5 5 5 5 5 5 5 3 5 5 5 5 5 5 3 5 5 5 5 5 5 3 5 5 5 5 5 5 5 3 5 5 5 5 5 5 5 5 5 5 5 5 5 5 5 5 5 5 5 5 5 3 3 5 5 5 5 5 3 5 5 5 5 5 5 5 3 5 3 5 5 5 3 5 5 5 3 5 3 5 5 5 5 5 5 5 3 5 5 5 5 5 5 5 3 5 5 5 3 5 5 5 5 5 5 5 5 5 5 5 5 5 5 5 5 5 5 5 5 5 5 5 5 5 5 5 5 5 5 5 5 3 5 5 5 5 5 5 5 5 5 5 5 5 5 5 5 5 5 5 5 5 5 5 5 5 5 5 5 5 5 5 5 5 3 5 5 5 5 5 5 5 5 5 5 5 5 5 5 5 5 5 5 5 5 3 5 5 5 5 5 5 5 3 5 5 5 5 5 3 5 5 3 5 3 5 5 5 5 3 5 5 3 5 5 5 5 5 5 3 5 5 5 5 5 5 5 5 5 5 5 5 5 5 5 5 5 5 5 3 5 5 5 5 5 5 5 5 5 5 5 3 3 5 5 5 5 5 5 5 5 5 5 5 5 5 5 5 5 5 5 5 5 5 3 5 3 3 5 5 3 5 5 5 5 5 5 5 5 5 5 5 5 5 3 5 5 5 5 5 5 5 3 3 5 5 5 5 5 5 5 5 3 3 5 5 5 3 5 5 5 5 5 5 5 5 5 5 5 5 5 5 5 5 5 5 5 5 5 5 5 5 5 5 5 5 5 5 5 5 5 5 5 3 5 5 3 5 5 5 5 3 5 5 5 3 5 5 5 3 5 5 3 5 5 5 5 5 5 5 5 5 5 5 5 5 5 5 5 5 5 5 5 5 3 5 5 5 3 5 5 5 5 5 3 5 5 5 5 5 5 3 5 5 5 5 5 5 5 5 5 5 5 5 5 5 5 5 5 5 3 5 5 5 5 5 5 5 5 5 5 5 5 5 5 5 5 5 5 5 5 5 3 5 5 5 5 5 5 5 5 5 5 5 5 5 5 5 3 5 5 5 5 5 5 5 5 5 5 5 5 5 5 5 5 5 5 3 5 5 5 5 5 5 5 3 5 5 5 5 5 5 5 5 5 5 5 5 5 5 5 5 5 5 5 5 5 3 5 5 5 5 5 5 5 5 5 3 5 5 5 5 5 5 5 5 3 5 5 5 5 5 5 5 5 5 5 5 5 5 5 5 5 5 5 5 3 5 5 5 5 5 3 5 5 5 3 5 5 5 5 5 5 3 5 5 5 5 5 5 5 5 5 5 3 5 5 5 5 5 5 5 5 5 5 5 5 3 5 3 5 5 5 5 5 5 5 3 5 3 5 5 5 5 5 5 5 5 5 5 5 5 5 5 5 5 5 5 5 5 5 5 5 5 5 5 5 5 5 5 5 5 5 5 5 5 5 5 5 5 5 5 5 5 5 3 3 5 5 3 5 5 5 5 5 5 5 5 5 5 5 5 5 5 5 5 3 5 5 5 5 3 5 5 3 5 5 5 5 5 5 3 5 3 5 5 3 5 5 5 5 5 5 5 5 5 5 3 5 5 5 5 5 3 3 5 5 5 5 3 5 5 3 5 3 5 5 5 5 5 3 5 5 3 5 5 5 5 5 5 5 5 5 5 5 5 3 5 5 5 5 5 5 5 5 5 5 5 5 5 5 5 3 5 3 5 3 3 5 3 5 5 3 5 5 5 5 5 5 3 5 3 5 5 3 5 5 5 3 5 5 3 5 5 5 5 5 3 5 5 3 5 5 5 5 5 3 5 3 5 5 3 5 5 3 5 5 5 5 5 5 5 5 3 5 5 5 5 5 5 5 5 5 5 3 5 5 5 5 3 5 5 3 5 5 5 5 5 3 5 5 5 5 5 3 5 3 5 5 5 5 5 5 3 5 5 5 5 5 5 5 5 3 3 3 5 5 5 5 3 5 3 5 5 5 3 3 5 5 5 3 5 5 5 3 5 3 5 3 3 5 3 5 5 5 5 3 5 5 5 3 5 3 5 3 5 5 5 5 5 5 5 3 5 5 5 5 3 5 5 5 5 5 5 5 5 3 5 3 3 5 5 5 3 5 5 5 5 3 3 5 5 3 3 5 5 5 5 5 3 5 5 5 5 5 5 5 5 3 5 3 5 5 5 5 5 5 5 5 5 5 5 5 5 5 5 5 5 3 5 5 5 5 5 5 5 5 5 5 5 5 5 5 5 5 5 5 5 5 5 5 5 5 5 3 5 3 5 5 5 5 5 3 3 5 5 5 5 3 3 5 3 5 5 3 5 5 3 5 5 5 5 3 3 5 5 5 5 5 5 5 5 3 5 5 3 5 5 5 3 5 5 3 5 5 5 5 5 5 3 5 5 5 5 5 5 3 5 5 5 5 5 3 5 5 3 3 5 5 3 5 5 3 5 5 5 5 5 5 5 5 5 5 5 5 3 5 3 5 5 3 5 5 5 5 5 5 3 5 5 5 3 3 3 5 5 5 3 3 5 3 3 5 5 3 5 5 3 5 3 5 3 5 5 5 3 3 5 5 3 3 3 3 5 5 5 3 3 5 5 3 3 3 5 3 3 5 5 3 5 3 3 5 3 5 5 3 5 3 3 5 5 5 5 3 3 5 5 3 5 5 5 3 5 5 5 5 5 5 5 5 5 5 5 5 5 5 5 5 5 5 5 5 5 5 5 5 5 5 5 5 5 5 5 5 5 5 5 5 5 5 5 5 5 5 5 5 5 5 5 5 5 5 5 5 5 5 5 5 5 5 3 5 3 5 5 5 5 5 5 5 5 5 5 5 5 5 5 3 5 5 5 5 5 5 5 5 5 5 3 5 5 5 5 5 5 5 5 5 5 5 5 5 5 5 5 5 5 5 5 5 5 5 5 5 5 5 5 5 5 5 5 5 5 5 5 5 5 5 5 5 5 5 5 5 5 3 5 5 5 3 5 3 5 5 5 5 5 3 5 3 5 5 5 5 5 5 5 5 5 5 5 5 5 5 5 5 5 5 5 5 5 5 5 5 5 3 5 5 5 5 5 5 3 5 3 5 5 5 3 5 5 3 5 5 5 5 5 5 5 5 5 5 5 5 5 5 5 5 5 5 5 5 5 5 5 5 5 5 5 5 5 5 5 5 5 5 5 5 5 3 5 3 5 5 5 5 5 5 5 5 5 5 3 5 5 5 5 5 5 5 5 5 5 5 5 5 5 5 5 5 3 5 5 5 3 3 5 3 5 5 5 5 5 5 5 5 3 5 5 5 5 3 5 5 5 5 5 5 5 3 5 5 3 5 3 5 5 3 5 5 3 3 5 5 5 5 5 5 5 5 5 5 5 5 5 5 5 3 5 3 5 5 5 3 5 3 5 5 5 5 5 5 5 5 5 5 5 5 3 5 3 5 5 5 5 5 5 5 5 3 5 5 3 5 5 5 3 3 5 5 5 5 5 5 5 5 5 5 5 5 5 5 5 5 5 5 5 5 5 3 5 5 5 5 5 3 5 3 5 5 5 5 3 5 5 3 5 5 5 5 5 3 5 5 5 5 3 5 5 5 5 5 5 5 3 5 5 5 3 5 5 5 5 5 5 5 5 5 5 5 3 5 5 5 5 5 5 5 5 3 5 5 5 5 5 5 3 5 5 5 5 5 5 3 5 5 5 5 5 5 5 5 5 5 5 3 5 5 5 3 5 5 5 3 5 3 5 5 5 5 5 5 3 5 5 5 5 5 5 5 5 5 5 5 5 5 5 5 3 5 5 5 5 5 3 5 5 5 5 5 5 5 5 3 5 5 5 5 5 5 5 5 5 5 5 5 5 5 5 5 3 5 5 5 5 3 5 5 5 5 5 5 5 5 5 5 5 5 5 5 5 5 5 5 5 5 5 5 5 5 5 5 3 5 5 5 3 5 3 5 5 5 5 3 5 3 5 5 5 5 5 3 5 5 5 5 5 5 5 5 5 3 5 5 5 5 5 5 5 5 5 5 5 5 5 5 5 5 5 5 5 5 5 5 5 5 3 3 5 5 5 5 5 3 5 5 5 3 5 5 5 3 5 5 3 5 3 5 5 5 5 3 5 5 5 5 3 3 5 5 5 5 5 5 5 5 5 5 5 5 3 5 5 5 5 3 5 5 5 5 5 3 5 5 3 5 5 5 5 5 5 5 5 5 5 5 5 5 5 5 5 3 5 5 3 5 5 5 3 5 5 5 5 5 5 5 5 5 5 5 3 5 5 5 5 5 5 5 5 5 5 5 5 5 5 5 5 3 5 5 3 5 3 5 5 3 5 3 5 3 5 5 5 5 5 5 5 5 5 5 5 5 5 3 5 3 3 5 5 3 3 5 5 3 3 5 5 5 3 5 3 5 5 3 5 5 5 5 3 3 5 3 5 5 3 3 5 5 3 5 5 5 3 5 5 5 3 3 3 5 5 3 5 3 3 5 5 5 5 5 5 5 5 5 5 5 3 3 5 3 5 3 5 3 5 5 5 3 5 5 5 5 5 3 5 5 5 5 5 5 5 5 5 5 5 5 5 5 5 5 5 5 5 5 5 5 5 5 3 5 5 5 5 5 5 5 5 5 5 5 5 5 5 5 5 5 5 3 5 5 5 5 5 5 5 5 5 5 5 3 5 5 5 5 5 3 5 5 5 5 5 5 5 5 5 5 5 5 5 5 3 5 5 5 5 5 5 5 5 5 5 5 5 5 5 3 5 3 5 5 5 5 3 5 5 5 5 5 5 5 5 5 5 5 5 3 5 3 5 5 5 5 3 5 5 5 5 5 5 5 3 5 5 5 5 5 5 5 3 5 5 5 3 5 3 5 5 5 5 5 5 5 5 5 3 5 5 5 5 5 5 5 5 5 5 5 5 5 5 5 5 5 5 5 5 5 5 5 5 5 5 5 5 5 5 5 5 5 5 5 5 5 5 5 5 5 5 5 3 5 5 3 5 5 5 5 5 5 5 5 5 5 3 5 5 5 5 5 3 5 5 3 5 5 5 5 5 5 3 5 5 5 5 3 5 5 3 5 3 5 5 5 5 5 5 5 5 5 5 5 3 5 3 5 5 5 5 3 5 5 5 5 5 5 5 5 5 5 5 5 5 5 5 5 5 5 5 5 5 3 5 5 5 5 3 5 5 5 5 5 5 5 3 5 5 5 5 5 3 5 5 5 3 5 5 5 3 5 5 3 5 5 5 3 5 5 3 5 5 5 5 5 5 5 5 5 5 5 5 5 5 5 5 5 5 5 5 5 5 5 5 5 5 5 5 5 5 5 3 5 5 5 5 5 5 5 5 5 5 5 3 5 5 5 5 5 5 5 5 5 5 5 5 5 5 5 3 3 5 5 5 3 5 5 5 5 3 5 5 3 5 5 5 5 5 5 5 5 5 5 5 5 5 3 3 5 5 5 5 5 5 5 5 5 5 5 3 5 5 3 5 5 5 5 5 5 5 5 5 5 5 5 5 5 5 5 5 5 5 3 5 5 5 3 5 5 5 5 5 3 5 5 5 5 5 5 5 5 5 5 5 5 5 5 5 5 5 5 5 5 3 5 5 3 5 5 5 5 5 5 5 5 5 5 5 5 5 5 5 5 5 5 5 3 5 5 5 5 5 5 5 5 5 5 5 5 5 5 5 5 5 5 5 5 5 5 5 5 5 5 5 5 5 5 5 5 3 5 5 5 5 5 5 3 5 5 5 5 5 3 5 5 5 5 3 5 5 5 5 5 5 5 5 5 5 5 5 5 5 5 5 5 5 5 5 5 5 3 5 5 5 5 5 5 5 3 5 5 3 5 5 3 5 5 5 5 5 5 3 5 5 5 5 5 5 5 5 5 5 3 5 3 5 5 5 5 5 5 5 5 3 5 5 3 5 5 5 3 5 5 5 3 5 5 5 3 3 5 5 3 5 5 3 5 5 3 5 5 5 5 5 5 5 5 5 3 5 5 5 3 5 5 5 3 5 5 5 3 5 3 5 5 3 5 5 5 5 5 5 5 5 3 5 5 3 5 5 5 5 5 5 5 5 5 5 5 5 5 3 5 3 5 5 5 3 3 5 3 5 5 5 5 3 5 3 5 5 5 5 5 5 5 5 5 3 5 5 5 5 5 5 5 5 5 5 5 5 5 5 5 5 5 5 5 5 5 5 5 5 5 5 5 5 3 5 5 5 5 5 5 3 5 5 5 5 5 5 3 5 5 5 5 5 5 3 5 5 5 3 5 5 5 3 5 5 3 5 5 5 5 5 5 3 5 5 5 3 3 5 5 5 5 5 5 5 5 5 5 5 5 5 5 5 5 5 3 5 5 5 5 5 5 5 3 5 5 5 5 5 3 5 5 5 5 5 3 5 5 3 5 5 5 5 3 5 5 5 5 5 5 3 5 3 5 3 3 5 3 5 5 5 3 5 5 5 5 5 3 5 5 5 3 5 5 5 5 3 3 3 5 5 5 5 3 3 5 3 5 5 5 5 5 5 3 5 3 5 5 3 5 5 5 3 5 5 3 5 5 5 5 5 5 5 5 5 5 5 5 3 5 5 5 5 3 5 5 5 5 3 5 5 5 5 5 5 5 5 5 3 3 3 5 5 5 3 3 5 5 3 5 3 5 5 5 5 5 5 5 3 5 5 5 5 5 5 5 5 5 5 5 5 5 5 5 5 3 5 5 5 5 5 5 5 5 5 3 5 5 3 5 3 5 3 5 5 3 5 5 5 3 3 5 5 3 5 5 5 3 5 5 5 5 3 5 5 5 5 5 5 5 5 5 5 5 3 3 5 5 5 5 5 5 5 5 5 5 5 5 5 5 5 5 5 5 5 5 5 5 5 5 5 5 5 5 5 5 5 5 3 5 5 5 5 5 5 5 5 5 5 5 5 5 5 5 5 5 5 5 3 5 5 5 5 5 5 3 3 5 5 3 3 5 5 5 3 5 5 5 5 5 5 5 5 5 5 5 5 5 5 5 5 5 5 5 5 5 5 5 3 5 3 5 3 5 5 5 5 5 5 3 5 3 3 5 5 3 5 5 5 5 5 5 3 3 5 5 3 3 5 5 3 3 5 5 5 5 5 5 5 5 3 5 5 5 5 5 3 5 5 3 5 5 5 3 5 5 5 5 5 5 5 5 5 5 5 5 5 5 5 5 5 5 5 5 5 5 5 5 5 5 5 5 5 5 5 5 5 5 3 5 5 3 5 3 3 5 5 5 5 5 5 5 5 5 3 5 5 5 5 5 3 5 5 5 5 5 5 5 3 5 5 5 5 5 5 5 5 3 5 5 5 5 5 3 5 5 5 5 5 5 5 5 5 5 5 5 5 5 5 5 5 5 5 5 5 5 5 5 5 5 5 5 5 5 3 3 5 5 5 5 5 5 5 3 5 5 5 3 5 3 5 5 5 5 5 5 5 5 5 5 5 5 5 5 5 5 5 5 5 5 5 3 5 5 5 5 5 5 3 5 5 5 5 5 5 5 3 5 5 3 5 5 5 5 5 5 3 5 5 5 3 5 5 3 3 5 5 5 5 5 5 5 5 5 5 5 5 5 5 5 5 5 5 5 5 5 5 5 5 5 5 5 5 3 5 5 5 5 5 5 5 5 5 5 5 5 5 5 5 5 5 5 5 3 5 5 5 3 3 5 5 5 5 5 3 5 5 5 3 5 5 5 5 5 3 5 5 5 5 5 5 5 5 5 5 5 5 5 5 5 5 5 5 5 5 5 3 5 5 5 5 5 5 3 5 5 5 5 5 5 5 5 5 5 5 5 3 5 5 5 5 3 5 3 5 5 5 5 5 5 5 5 5 5 5 5 5 3 5 5 5 5 5 3 5 5 5 5 5 5 3 5 5 5 5 5 5 5 5 5 5 5 5 3 5 5 3 5 5 3 5 5 3 5 5 5 5 5 5 5 5 5 5 3 5 5 5 5 5 5 5 5 3 5 5 5 3 5 5 5 3 5 5 3 5 5 5 3 5 5 5 5 5 3 5 3 5 5 5 5 3 3 5 5 5 3 5 5 5 5 3 5 5 5 5 5 5 5 5 5 5 5 5 5 5 5 3 5 5 3 3 5 5 5 5 3 5 5 5 5 5 5 3 5 5 5 5 5 5 3 5 5 5 5 5 5 5 5 3 5 5 5 5 5 5 5 5 5 5 3 5 5 3 5 5 3 5 5 5 5 5 3 3 5 5 3 3 5 3 5 3 5 3 3 5 5 3 5 3 5 3 5 3 5 3 5 5 3 5 3 5 3 5 5 5 5 5 5 3 5 5 5 3 5 5 5 5 5 5 5 5 5 3 5 5 3 5 3 5 3 5 5 5 3 3 5 5 5 5 5 5 5 5 5 5 5 3 5 5 5 5 5 3 5 5 5 5 5 5 5 5 5 5 5 5 5 5 5 5 5 3 5 5 5 5 5 5 3 5 5 5 3 5 5 3 5 5 5 3 5 3 3 5 5 5 5 5 5 5 5 5 3 5 5 5 5 5 5 5 3 5 3 5 3 5 5 5 5 5 5 5 5 5 5 5 5 5 5 5 5 5 5 5 5 5 5 5 5 5 5 5 5 5 5 5 5 5 5 5 5 5 3 5 5 3 3 5 5 5 5 3 5 5 5 5 5 3 5 5 3 3 5 5 5 5 5 5 3 5 3 5 5 3 3 5 3 5 5 5 3 5 5 5 5 3 5 5 5 3 5 5 3 3 5 5 5 3 5 5 5 5 3 5 5 3 5 5 5 3 5 5 3 5 5 5 3 5 3 5 5 3 5 5 3 3 5 5 3 5 3 3 5 5 5 5 3 5 5 5 5 3 5 5 5 5 5 5 5 5 5 5 5 5 3 5 5 5 5 3 5 3 5 5 5 5 5 3 3 3 5 5 5 5 5 5 5 5 3 5 5 5 5 5 5 3 5 5 5 5 3 5 5 5 5 5 5 5 5 5 5 5 5 5 5 5 5 5 5 3 5 3 5 5 3 3 5 3 5 5 3 5 3 5 3 5 3 5 5 5 5 3 5 5 5 3 5 5 5 5 5 5 5 5 5 5 5 5 5 5 5 5 5 5 5 5 5 5 5 5 5 3 5 5 5 5 5 3 5 5 5 5 5 5 5 5 5 5 5 3 5 5 5 5 5 3 5 5 3 3 5 5 5 3 5 5 3 3 5 3 5 5 5 5 5 5 5 5 5 5 5 5 5 5 5 5 3 5 5 5 5 3 5 5 5 5 5 5 5 5 3 3 5 5 3 5 5 5 5 5 5 5 5 5 3 3 5 5 3 5 5 5 3 5 5 5 5 5 5 5 5 5 5 5 5 5 5 5 5 5 5 5 5 5 5 5 5 5 5 3 5 5 5 5 5 5 5 5 5 5 5 5 5 5 5 5 5 5 5 5 3 5 5 5 3 3 5 5 5 3 5 5 3 5 5 5 5 5 3 5 3 5 5 5 5 5 5 5 5 3 5 5 5 3 5 5 3 5 3 5 5 5 3 5 5 5 3 5 5 5 5 5 5 5 5 5 5 5 5 5 5 5 5 5 3 5 5 5 5 5 5 5 5 5 3 5 5 5 5 5 5 5 5 3 5 5 5 5 5 5 5 5 5 5 5 5 5 3 5 5 5 3 5 5 5 5 5 5 5 5 5 5 5 5 5 5 5 5 5 5 5 3 5 5 5 3 5 3 5 5 5 3 5 5 5 3 3 5 5 5 5 5 5 5 5 5 5 5 5 5 5 5 5 5 5 5 5 5 5 3 5 5 5 5 3 5 5 5 5 3 5 5 5 5 5 5 5 3 5 5 5 5 3 5 5 5 5 5 5 3 5 5 5 5 5 5 3 5 5 5 3 5 5 5 5 5 5 5 5 5 3 5 5 5 5 5 5 3 5 5 5 5 5 5 5 5 5 5 5 3 5 5 3 5 5 5 5 5 3 5 5 3 5 5 5 5 5 5 5 3 3 5 5 5 5 3 5 5 5 5 5 5 3 5 5 5 5 5 5 5 5 5 5 3 5 5 5 5 5 5 5 5 5 5 5 5 3 5 3 5 5 5 3 5 5 3 5 5 5 5 3 5 5 5 5 5 3 5 5 5 5 5 5 5 5 3 5 5 5 5 3 5 5 5 5 5 5 5 3 5 5 5 5 5 5 5 5 5 5 3 5 5 5 3 5 3 5 5 5 5 5 5 3 5 3 5 3 5 5 5 5 3 5 5 5 5 5 5 5 5 5 5 5 5 5 5 3 5 3 5 5 5 5 5 5 5 3 5 5 5 5 5 5 5 5 5 5 5 5 5 3 5 5 5 5 3 5 5 5 5 5 5 5 5 5 5 5 5 5 5 5 5 5 5 5 5 5 5 5 5 3 5 5 5 5 3 5 5 5 3 5 5 3 5 5 3 5 5 5 5 5 5 5 5 5 5 5 5 5 5 5 3 5 5 3 5 5 5 5 5 5 5 3 5 5 5 5 5 3 5 5 5 3 5 5 5 3 5 5 5 5 5 5 5 3 5 5 5 3 5 3 3 5 5 5 5 5 3 5 5 5 5 5 5 5 5 5 5 3 5 5 5 5 5 5 5 5 5 5 5 5 5 5 5 5 5 5 5 5 5 5 5 5 5 5 5 5 5 5 5 5 5 5 5 5 5 3 5 5 5 5 5 5 5 5 5 5 5 5 5 5 5 5 3 5 5 5 5 5 5 5 5 5 3 5 5 5 5 5 5 5 3 5 5 5 5 5 5 5 5 5 5 5 5 5 5 5 5 5 5 5 5 5 3 5 5 5 5 5 5 5 5 5 5 5 5 5 5 5 5 5 3 5 5 5 5 5 5 5 5 5 5 5 5 5 5 5 5 5 5 5 5 5 5 5 5 5 5 5 5 5 5 5 5 5 5 5 5 5 5 5 5 5 5 5 5 5 5 3 5 5 5 5 5 5 5 5 5 5 5 5 5 3 5 3 5 5 5 5 5 3 5 5 5 5 5 3 3 5 5 5 5 5 5 5 5 5 5 5 5 5 5 5 5 5 3 3 5 5 5 5 5 5 3 5 3 5 5 5 5 5 5 5 5 5 3 5 5 5 5 5 5 5 5 5 5 5 5 5 5 5 5 5 5 5 3 5 5 5 5 5 3 5 3 5 5 5 5 5 5 5 3 5 5 5 3 5 5 5 3 5 5 3 5 5 5 3 5 5 3 5 3 5 3 5 5 3 5 5 5 5 5 5 5 5 5 5 5 5 5 5 5 5 5 5 5 5 5 3 5 3 5 5 5 5 5 5 5 3 5 5 5 5 5 5 5 5 5 5 5 5 5 5 5 5 5 5 5 3 5 5 5 3 5 5 5 5 5 5 5 5 5 5 3 5 5 5 5 3 5 5 3 5 5 5 5 5 3 5 5 5 5 3 5 3 5 5 3 5 5 5 5 5 5 5 3 5 5 3 5 3 5 5 5 5 5 5 5 5 5 5 5 5 5 5 5 5 5 5 3 5 5 5 5 5 5 5 3 5 5 5 5 3 5 5 5 5 5 5 5 5 5 3 5 5 5 5 3 5 5 5 5 5 5 5 5 5 5 5 5 3 5 5 5 5 5 5 5 5 5 3 5 5 5 5 5 5 5 5 5 5 5 5 3 5 5 3 5 5 5 5 5 5 5 5 5 3 3 3 5 5 5 3 5 5 5 5 5 5 3 5 5 5 3 3 5 5 5 5 5 5 5 5 5 5 5 5 3 5 5 5 3 3 5 5 5 5 5 3 5 5 5 5 3 5 5 5 5 3 5 5 5 5 5 3 3 3 5 5 5 3 3 5 5 5 5 5 5 5 5 5 3 3 5 5 5 3 3 5 5 5 5 5 5 5 5 5 5 5 5 5 5 5 5 5 3 5 3 5 5 5 5 3 5 5 5 5 5 5 5 3 5 5 5 5 5 5 5 3 5 5 3 5 3 3 5 5 5 3 3 5 5 5 3 3 5 5 5 5 5 5 5 5 5 5 3 5 5 5 5 5 5 5 3 5 5 5 5 3 5 5 5 5 5 5 3 5 5 5 5 3 5 3 5 5 5 5 5 5 5 5 5 5 5 5 5 5 3 5 5 5 5 5 5 5 3 5 5 5 5 3 5 5 5 3 5 5 5 5 5 5 5 5 5 5 5 5 5 5 5 5 5 5 5 5 5 5 3 5 3 5 5 3 5 5 5 3 5 5 3 5 5 5 5 5 5 5 5 5 5 5 5 5 5 5 5 5 5 5 5 3 3 3 5 5 5 5 5 5 5 5 5 5 5 5 5 3 5 5 5 3 5 5 3 5 5 5 5 3 5 5 3 3 5 5 5 5 3 5 5 3 5 3 5 5 5 5 5 5 5 5 5 5 5 5 3 5 5 5 5 5 5 5 3 5 3 5 5 5 5 3 5 5 5 5 5 5 5 5 5 5 5 5 5 5 5 5 5 5 5 5 5 5 5 3 5 5 5 3 5 3 5 5 5 3 5 5 5 5 5 3 5 5 3 5 5 5 5 5 5 5 5 3 5 5 5 5 5 3 5 5 5 5 5 5 5 5 5 5 5 5 5 5 3 5 5 5 5 3 5 5 5 5 5 5 5 5 5 5 5 5 3 5 5 5 5 3 5 5 5 5 5 5 5 5 5 5 5 5 5 3 5 5 3 5 5 5 3 5 5 5 5 5 5 5 5 5 5 5 5 5 3 3 5 3 3 5 5 5 3 3 5 3 5 3 5 3 5 5 5 3 5 3 5 5 5 5 3 5 5 5 5 5 5 3 5 5 5 5 5 3 5 5 3 5 5 3 5 5 3 5 5 5 5 5 3 5 3 5 5 5 5 5 5 5 5 5 5 5 5 5 3 5 5 3 5 5 5 5 5 5 5 5 5 3 5 5 5 5 5 5 5 5 5 3 5 5 3 5 3 5 5 5 5 5 5 5 3 5 5 5 5 5 5 5 3 5 3 5 5 3 5 5 5 3 5 5 5 5 3 5 5 5 5 5 3 5 5 5 5 5 5 5 5 5 5 5 5 5 5 5 5 5 5 5 5 5 3 5 5 3 5 5 5 3 5 5 5 5 3 5 5 5 5 5 5 5 5 5 5 5 5 5 5 5 5 5 5 5 5 5 5 5 3 5 5 5 5 5 5 3 5 5 5 5 5 5 5 5 5 5 5 5 5 3 5 3 5 5 3 5 5 5 5 3 3 5 3 5 3 5 5 5 5 5 3 5 5 3 3 5 5 5 5 5 3 5 5 3 5 5 5 5 5 5 5 5 3 3 5 5 5 3 5 3 5 5 5 5 5 3 5 3 5 5 5 5 5 3 3 5 5 5 5 3 5 5 5 5 3 5 5 5 5 5 5 5 5 5 5 5 5 5 5 5 5 5 3 5 5 3 5 5 5 3 5 5 5 5 5 5 5 5 5 5 5 5 5 5 5 5 5 5 5 3 5 5 5 5 5 5 5 5 5 5 5 5 5 5 3 3 5 5 5 3 5 5 5 5 5 3 5 5 5 5 5 5 5 5 5 5 5 3 5 5 3 5 5 5 5 5 5 5 5 5 5 3 5 5 5 3 5 3 5 3 5 5 5 3 3 5 3 5 5 3 5 5 3 3 5 5 5 3 5 5 3 5 3 5 5 5 3 5 5 3 3 5 3 5 5 3 5 3 5 5 5 5 5 5 5 5 5 3 5 5 5 5 5 3 5 5 5 5 5 5 5 5 5 5 3 5 5 5 5 3 3 5 5 3 5 3 5 5 5 5 5 3 5 5 3 5 3 5 5 5 5 5 5 5 3 5 5 5 5 5 5 5 5 5 3 5 3 5 3 5 3 5 5 5 5 3 5 5 5 5 5 3 3 5 5 5 5 5 5 3 5 5 5 5 5 3 5 5 5 5 3 5 5 3 5 3 5 5 5 3 5 3 5 5 3 3 3 5 5 5 5 5 5 3 3 3 5 5 5 5 3 5 3 5 3 5 5 5 5 5 5 3 5 5 5 5 5 5 5 5 5 5 5 5 5 5 5 5 5 5 5 5 5 5 5 5 5 5 5 5 5 5 5 5 5 5 5 5 5 5 5 5 5 5 5 5 5 5 5 5 5 3 5 5 5 3 3 5 5 5 5 5 5 5 5 5 5 5 5 5 5 5 5 5 5 5 3 5 5 5 5 5 5 5 3 5 5 3 5 5 3 5 5 3 5 3 5 5 3 5 5 5 3 5 3 5 3 3 5 5 5 3 3 5 5 3 5 5 3 5 5 5 5 5 5 5 5 5 5 5 5 3 5 5 5 5 3 5 5 5 5 3 5 5 5 5 5 5 5 5 5 3 5 3 5 5 5 5 3 5 5 5 3 5 5 5 5 5 5 3 5 5 3 5 5 5 3 5 5 5 5 5 5 5 3 5 5 5 5 5 3 5 5 5 5 5 5 5 5 5 5 5 5 5 5 5 3 5 5 5 5 5 3 5 5 3 5 3 5 5 5 5 3 3 5 5 3 5 5 5 5 5 5 5 5 5 5 5 3 5 3 5 5 5 5 5 3 5 5 5 3 5 5 5 3 5 5 5 5 5 5 5 5 5 5 5 5 5 3 5 5 5 5 5 5 5 3 5 3 5 5 5 5 5 5 5 3 3 5 5 5 5 5 5 5 5 5 3 5 5 5 5 5 5 3 3 3 5 3 5 5 5 5 5 5 3 5 3 5 3 5 3 5 5 5 5 5 5 3 5 5 3 5 5 5 5 3 5 5 5 5 5 5 5 5 5 5 5 5 5 5 5 5 5 5 5 5 5 3 5 3 5 5 5 5 5 5 5 5 5 5 5 5 5 5 5 5 5 5 5 5 5 5 5 5 5 5 5 5 5 5 5 5 5 5 5 5 5 5 5 5 5 5 5 5 5 5 5 5 5 5 5 5 5 5 5 5 5 5 3 5 5 5 5 5 5 5 5 5 5 5 5 5 5 5 5 5 5 5 5 5 5 5 3 5 5 5 3 5 3 5 5 5 5 5 5 5 5 5 5 5 5 5 5 5 5 5 5 5 5 5 5 5 5 5 5 5 5 5 5 5 5 5 5 5 5 5 5 5 3 5 3 5 5 5 5 5 5 5 5 5 5 5 5 5 5 5 5 5 5 5 5 5 5 5 5 5 3 5 5 5 5 5 5 5 5 5 5 5 5 5 5 5 5 5 5 5 5 5 5 5 5 5 5 5 5 5 5 5 5 5 5 5 5 5 5 5 5 5 5 5 5 5 5 5 5 5 5 5 5 5 5 5 5 5 5 5 5 5 5 5 5 5 5 5 5 5 3 5 5 5 5 5 5 5 3 5 5 3 5 5 5 5 5 5 5 5 5 5 5 5 5 5 5 5 5 5 5 5 3 5 5 5 5 5 5 5 5 5 5 5 5 5 5 5 5 5 5 5 5 5 5 5 5 5 5 5 5 5 5 5 5 3 5 5 5 5 3 5 3 5 5 5 5 5 5 3 5 5 3 5 5 3 3 5 3 5 5 5 3 5 5 5 5 5 5 5 5 5 5 5 5 5 5 5 3 5 5 5 5 5 5 5 5 3 5 5 5 5 5 5 5 5 5 5 5 5 5 5 5 5 5 5 5 5 5 5 5 5 5 5 5 5 5 5 5 5 5 5 5 5 3 5 5 5 5 5 5 5 3 5 5 3 5 3 5 5 5 5 5 5 5 5 5 5 5 3 3 5 5 3 5 5 3 3 5 5 5 5 3 5 3 5 5 3 5 3 3 5 3 5 3 5 5 5 5 5 5 5 3 5 3 5 5 5 5 5 3 5 5 5 3 5 5 3 5 3 5 3 3 5 5 3 5 5 5 5 5 5 3 5 5 5 5 5 5 5 5 3 3 5 5 5 3 5 5 5 5 3 3 5 3 5 5 5 3 5 5 5 5 5 5 5 5 5 5 5 5 5 5 5 5 3 5 5 5 5 5 5 3 5 3 5 5 5 3 3 5 5 3 5 3 5 5 5 5 5 5 5 5 5 5 5 5 3 3 5 5 5 5 5 3 5 5 5 5 5 5 5 3 5 5 5 3 5 3 5 5 3 5 5 5 5 5 5 5 5 5 3 5 5 3 5 5 5 5 5 5 5 5 5 5 5 3 5 5 5 5 5 5 5 5 5 5 5 5 5 5 5 5 5 5 5 5 5 5 3 5 5 5 5 5 5 5 5 5 5 5 3 5 5 5 5 3 5 5 5 5 5 5 5 5 5 5 5 3 5 5 5 5 5 3 5 3 5 5 5 5 5 5 5 5 5 3 5 5 3 5 5 3 5 5 5 5 3 5 5 5 5 5 5 5 5 5 5 5 5 5 5 5 5 5 5 5 5 5 3 5 5 3 5 3 5 5 5 5 5 5 5 5 5 3 5 5 3 3 3 5 5 5 3 5 5 5 5 5 5 3 3 5 3 5 5 3 5 5 3 5 5 5 5 3 5 5 5 5 3 5 5 5 5 5 5 5 5 5 5 5 3 5 5 3 5 3 3 5 5 3 3 3 5 5 5 5 5 5 5 5 5 5 3 5 5 5 5 5 5 5 5 5 3 5 5 5 5 5 3 5 5 5 5 5 5 5 5 5 5 3 5 5 5 5 5 5 5 5 5 5 5 5 5 5 5 5 5 5 5 5 5 5 5 5 3 3 5 5 5 5 5 5 5 5 3 5 5 5 5 5 5 5 5 5 5 5 5 5 5 5 5 3 5 5 5 5 3 5 5 5 3 3 5 5 5 5 5 5 3 5 3 5 5 5 3 5 5 5 5 5 5 5 5 3 5 3 3 5 5 5 5 5 5 5 5 5 5 5 5 3 5 5 3 5 3 5 5 5 5 5 5 5 5 5 5 5 5 5 5 5 5 5 5 5 5 5 5 5 3 5 5 5 5 5 3 5 5 5 5 5 5 5 5 5 5 3 5 5 5 3 5 5 5 5 5 5 5 5 5 5 5 3 3 5 5 5 5 5 3 5 5 5 3 5 5 5 5 5 5 5 5 5 5 3 5 5 5 5 5 5 5 3 3 5 3 5 5 5 5 3 5 5 5 5 5 3 5 5 5 5 5 5 5 5 5 5 3 5 5 5 5 5 5 5 5 5 5 3 5 5 5 5 5 5 5 3 5 5 5 5 5 5 5 5 5 5 5 5 5 5 5 5 5 5 5 5 3 5 5 5 3 5 5 5 5 5 5 5 5 5 5 5 5 5 3 5 3 3 5 3 3 5 5 5 5 5 3 5 5 5 5 5 5 5 3 5 5 3 5 5 3 5 5 3 5 5 3 3 3 3 5 5 3 3 5 5 3 5 5 3 5 5 5 5 3 3 3 3 5 5 5 3 5 3 5 3 5 3 3 5 5 5 5 5 5 5 3 5 5 3 5 3 5 5 3 3 5 5 5 5 5 5 5 5 5 5 5 5 5 5 5 5 5 3 5 5 5 5 5 5 5 5 5 5 5 5 5 5 5 5 5 3 5 5 5 5 5 5 5 5 5 5 5 5 5 5 3 3 5 5 5 5 3 5 3 5 5 5 3 3 5 3 5 5 5 5 5 5 5 5 5 5 5 5 5 5 5 5 5 5 5 3 5 3 5 5 5 5 3 5 5 5 5 5 5 5 5 5 5 5 5 5 5 5 5 5 5 5 5 3 5 5 5 5 5 5 5 5 5 5 5 5 5 5 3 5 5 5 5 5 5 5 5 5 5 5 5 5 5 5 5 5 5 5 5 5 5 5 5 5 5 5 5 5 5 5 5 5 5 5 5 5 5 5 5 5 5 5 5 5 5 5 5 5 5 5 5 5 5 5 5 5 5 5 5 5 5 3 5 5 5 3 5 5 3 5 5 5 5 5 5 5 5 5 5 5 3 5 5 5 5 3 5 5 5 5 5 5 5 5 5 5 5 5 5 5 5 5 5 5 5 5 5 5 5 5 5 5 5 5 5 3 5 5 5 5 3 5 5 5 5 5 5 5 5 5 5 3 5 5 3 5 5 5 5 5 5 5 5 5 5 5 5 3 5 5 5 5 5 5 5 5 3 5 5 5 5 5 5 5 5 5 5 3 5 3 5 5 5 3 5 5 5 3 5 3 5 3 3 5 5 5 5 5 3 5 5 5 5 5 5 5 5 5 5 5 5 5 5 5 5 5 5 5 5 5 5 5 3 5 5 3 5 5 5 3 5 3 5 5 5 5 5 5 5 5 5 5 5 5 3 5 5 5 5 5 5 5 5 5 5 5 5 5 5 5 5 5 5 5 3 5 5 5 5 5 5 5 5 5 5 5 5 5 5 5 5 5 5 5 5 5 5 5 5 5 5 5 3 5 5 5 5 5 5 5 5 5 5 5 5 5 5 5 5 5 5 3 5 5 5 3 5 5 5 3 3 5 5 5 5 5 3 5 5 5 5 5 5 5 3 3 5 5 5 3 5 3 5 5 5 5 5 5 3 3 5 5 3 3 5 5 5 5 5 5 5 5 5 5 3 5 5 5 5 5 5 3 5 5 5 5 5 5 5 5 5 5 5 5 5 5 5 5 5 3 5 5 5 5 3 5 5 3 5 5 5 5 5 5 5 5 5 5 5 3 5 3 5 3 5 5 5 5 5 5 5 5 5 5 5 5 5 5 5 5 5 5 5 3 5 5 3 5 5 5 3 5 5 3 5 5 5 5 3 5 5 5 5 5 5 5 3 5 5 5 5 5 5 5 5 5 5 5 5 5 5 5 5 5 5 5 5 5 5 5 5 5 5 5 5 5 3 5 5 5 5 5 5 5 5 5 5 5 5 5 5 5 5 5 5 5 5 5 5 5 5 5 5 5 5 5 5 5 5 5 5 5 5 5 3 3 3 5 5 3 5 5 5 3 5 3 5 5 5 5 5 3 5 5 5 5 5 5 5 3 5 5 5 5 5 5 5 5 5 5 5 5 5 5 3 5 5 5 3 5 3 5 5 5 5 5 5 5 5 3 5 5 5 5 5 5 5 3 5 3 5 3 5 5 5 5 5 5 5 5 3 5 5 3 3 3 5 3 5 3 5 5 5 5 5 5 5 5 5 5 5 5 5 5 5 5 5 5 5 5 5 3 5 5 3 3 5 5 5 3 5 5 5 5 5 5 5 3 5 3 5 5 5 5 3 5 5 3 5 5 5 5 5 5 5 3 5 5 3 5 5 5 3 5 5 5 5 5 5 5 5 5 3 5 5 5 5 5 5 3 5 5 3 5 5 5 5 3 5 5 5 5 5 5 3 3 3 5 5 5 3 5 3 5 3 5 5 5 5 5 5 3 5 5 5 3 5 5 5 3 5 5 5 5 5 5 5 5 5 5 5 5 3 5 5 5 3 5 5 5 5 5 3 3 5 5 3 5 3 3 3 5 5 5 3 5 5 5 5 5 3 5 5 5 5 5 5 5 5 5 5 5 5 3 5 5 5 5 5 5 3 5 5 3 5 5 3 5 5 5 5 5 3 5 5 3 5 3 5 3 5 5 5 5 5 5 3 5 5 5 5 3 5 5 5 5 5 5 5 5 5 5 3 5 5 5 5 5 3 5 5 5 5 5 5 5 5 5 5 5 5 5 5 5 3 5 5 5 5 5 3 5 3 5 5 5 5 5 3 5 5 5 5 5 3 5 5 5 5 5 3 5 5 5 5 5 5 5 5 5 5 3 5 3 5 3 5 5 3 5 5 5 5 5 5 5 5 3 5 3 5 5 5 5 5 5 5 5 5 5 3 5 5 5 5 5 5 5 5 5 5 3 5 5 5 3 5 3 3 5 5 5 3 5 5 5 3 3 5 5 5 5 5 5 5 5 5 5 3 3 5 5 5 5 5 3 5 5 5 5 5 5 5 5 5 5 3 5 3 3 3 5 5 5 5 5 5 5 5 3 5 5 5 5 5 5 5 5 5 5 5 5 5 5 5 5 5 5 5 5 5 5 5 5 5 5 5 5 5 3 5 5 5 5 3 5 5 5 5 5 5 5 5 3 5 5 5 5 5 5 5 5 3 5 5 5 5 5 5 5 5 5 5 5 5 5 5 5 5 5 5 5 5 5 5 5 5 5 5 3 5 5 5 5 5 5 3 5 3 5 5 3 5 5 5 3 5 3 5 5 5 3 5 5 5 3 5 5 5 5 5 5 3 5 5 5 5 5 5 5 5 5 5 5 5 5 5 5 5 5 5 5 5 5 5 5 5 5 5 5 3 5 3 5 5 5 5 3 5 5 5 5 5 5 5 5 5 5 5 5 5 3 5 5 3 5 5 3 5 5 5 5 5 3 5 5 5 5 5 5 5 5 3 5 3 5 5 5 5 5 3 3 5 5 3 5 5 5 3 5 5 5 5 5 5 5 3 5 5 5 5 5 5 5 5 5 5 5 5 5 5 5 5 3 5 5 5 5 5 3 5 3 5 5 5 5 5 5 5 5 5 5 5 5 3 5 3 5 5 5 5 5 5 3 3 5 5 5 5 5 5 5 5 5 5 5 5 5 5 5 5 5 5 5 5 5 3 5 5 3 5 5 5 5 5 3 5 5 5 5 5 5 3 5 5 5 5 5 5 5 5 5 5 5 5 5 5 5 5 3 5 5 3 5 5 5 5 3 5 5 5 5 5 5 5 5 5 5 5 3 5 5 5 5 5 5 5 5 5 5 5 5 5 5 5 5 5 5 5 3 5 5 5 5 5 5 5 5 5 5 5 5 3 5 5 5 5 5 5 5 5 5 5 5 5 5 3 3 5 5 5 5 5 5 3 5 5 5 5 5 5 5 5 5 5 5 5 5 5 5 5 5 5 5 5 5 5 5 5 5 5 5 5 5 5 5 5 5 5 5 3 5 5 5 5 5 5 5 5 3 5 5 5 5 5 5 5 5 5 5 5 5 3 5 5 5 5 3 5 3 5 5 5 5 5 5 5 5 3 5 5 5 5 5 5 5 5 5 5 3 5 5 5 3 5 5 3 5 5 5 5 3 5 5 3 5 5 5 5 5 5 5 5 3 5 5 5 3 5 5 5 5 5 5 5 3 5 3 5 3 5 3 3 5 5 5 3 3 3 5 5 3 5 5 5 3 5 5 5 5 3 5 5 5 5 5 5 5 5 5 5 5 5 5 5 5 5 5 5 5 5 5 5 5 5 5 5 5 5 5 5 5 5 5 5 5 5 5 5 3 5 5 5 5 5 5 5 5 3 5 5 5 5 3 5 5 3 5 5 3 5 5 5 5 3 5 5 5 5 5 3 5 5 5 5 5 5 5 5 5 5 5 5 5 3 3 5 5 5 3 5 5 5 5 5 5 5 5 5 5 5 5 5 5 3 5 5 5 5 5 5 3 5 5 3 5 5 5 5 5 5 5 5 5 5 3 5 5 5 5 5 3 5 5 5 5 5 5 5 5 5 5 3 5 5 5 5 5 5 5 5 5 5 5 5 5 5 5 3 5 5 5 5 5 5 5 5 5 5 5 5 5 5 5 5 5 5 5 5 5 5 5 3 5 3 5 5 5 3 5 5 5 5 5 5 5 5 5 3 5 5 5 3 5 5 5 5 5 5 5 5 5 5 5 5 5 5 5 5 3 5 5 5 5 5 3 5 5 5 3 5 3 5 5 5 5 5 5 3 5 5 5 5 5 5 5 5 5 5 5 5 5 5 5 5 5 5 5 5 5 5 5 5 5 5 5 3 5 5 3 5 5 5 5 5 5 5 3 5 5 5 5 3 5 5 3 5 5 5 5 5 5 3 5 5 5 3 5 5 5 3 5 5 5 5 5 3 5 5 5 5 5 3 5 5 5 5 5 5 5 5 3 5 5 3 5 5 5 5 3 5 5 5 5 3 5 5 5 5 3 5 5 5 3 5 3 5 5 5 5 5 5 5 5 5 5 3 5 5 5 5 5 5 5 3 3 5 5 5 5 5 3 5 5 5 5 5 3 5 5 5 3 5 5 3 5 5 3 5 5 5 3 5 5 5 5 5 5 3 5 5 5 5 5 3 5 5 5 5 5 3 5 5 5 5 5 5 3 5 5 5 5 3 5 5 5 5 5 3 5 5 5 5 5 5 5 5 5 5 3 5 5 5 5 5 5 5 3 5 5 5 5 3 3 5 5 3 5 5 5 5 5 5 5 3 5 5 5 5 5 5 5 3 5 3 5 5 3 5 5 5 5 3 5 3 5 5 5 5 5 5 5 5 5 5 3 5 5 5 5 5 3 5 5 5 3 5 5 5 5 3 5 5 3 5 5 5 5 5 3 5 3 5 3 3 5 5 5 5 3 3 5 5 5 5 5 5 5 5 5 5 5 5 5 3 5 5 5 5 5 5 3 3 5 5 5 5 5 5 5 5 5 5 5 5 5 3 5 5 5 5 5 5 5 5 5 5 5 5 5 5 5 5 5 5 5 5 5 5 5 5 5 5 5 5 5 5 5 5 5 3 5 5 3 5 5 5 5 5 5 5 3 5 5 5 3 5 5 3 5 5 5 3 3 5 5 5 5 3 3 5 5 5 5 5 5 5 5 5 5 5 5 5 5 3 5 5 3 5 5 5 3 5 5 5 5 3 5 5 3 5 5 5 5 5 5 5 5 5 5 5 3 5 5 5 5 5 5 5 3 5 5 5 5 5 5 5 5 5 5 5 5 5 5 5 5 5 5 3 5 5 5 5 5 5 3 5 3 5 5 5 5 5 3 5 5 3 5 5 5 3 5 5 5 3 5 5 5 5 5 5 5 5 5 5 5 5 5 5 3 5 5 5 5 3 3 5 5 5 5 5 5 5 5 5 5 5 5 5 5 5 5 5 5 5 3 5 5 5 5 5 5 5 5 3 5 3 5 5 5 5 5 5 5 3 5 3 5 5 5 5 5 3 5 5 5 5 5 5 3 5 5 5 5 5 3 3 5 5 5 3 3 3 5 5 5 5 5 3 5 5 5 5 5 3 5 5 5 5 3 5 3 3 5 3 3 5 5 5 3 5 5 5 3 5 5 5 3 5 5 5 3 5 5 5 5 5 5 5 5 3 5 5 5 3 5 5 5 5 5 5 3 5 5 5 5 5 5 3 5 5 5 5 5 5 5 5 5 5 5 5 5 5 3 5 3 5 5 5 3 5 5 3 5 3 5 3 5 5 3 5 5 5 5 5 5 3 5 5 5 5 3 5 5 5 5 5 5 3 5 5 5 5 5 5 5 5 5 5 3 5 5 5 5 5 5 5 5 5 5 5 5 5 5 5 5 5 5 5 3 3 5 5 5 3 5 5 3 5 5 3 5 5 3 5 5 3 3 5 5 5 5 3 5 5 5 5 5 5 5 5 5 5 5 3 3 5 5 5 3 5 3 5 3 5 5 5 5 5 3 5 5 3 5 3 5 5 3 3 3 5 5 5 5 3 5 5 3 5 3 5 5 3 5 5 5 5 5 5 5 5 3 5 3 3 5 5 5 5 5 3 3 5 5 5 3 3 5 5 5 5 5 5 5 5 3 5 3 5 5 5 5 5 5 5 5 5 5 5 5 5 5 5 5 5 5 5 5 5 5 5 5 5 5 5 5 5 3 5 5 5 5 5 5 5 5 5 5 5 5 5 5 5 3 5 5 3 5 5 5 5 5 3 5 5 5 5 5 5 5 5 5 5 5 5 5 3 5 5 5 5 5 5 5 5 5 3 5 5 3 5 5 5 5 3 3 3 5 5 5 5 5 3 5 5 5 
</DataArray>
</Cells>
<PointData Scalars="" Vectors="displacement," Tensors="">
<DataArray type="Float64" Name="displacement" NumberOfComponents="3" format="ascii">
0.10223263964170866 0.10499825983096155 0 0.10499447356671145 0.10499957916087822 0 0.10582923587879216 0.10153309877962777 0 0.10499447356671145 0.10499957916087822 0 0.10582923587879216 0.10153309877962777 0 0.10500157449753833 0.097145565670608905 0 0.10222747697428568 0.10499276336578146 0 0.10355060465928576 0.10099063638851995 0 0.10221467229060006 0.10499552511730817 0 0.10006012116283913 0.1016026902376745 0 0.10057456464018624 0.10020884857815722 0 0.10221467229060006 0.10499552511730817 0 0.10006012116283913 0.1016026902376745 0 0.097859955524360109 0.10499641327105394 0 0.10006012116283913 0.1016026902376745 0 0.10128141614764462 0.098301915882792565 0 0.099668666377621687 0.098185156293585679 0 0.10006012116283913 0.1016026902376745 0 0.10057456464018624 0.10020884857815722 0 0.10128141614764462 0.098301915882792565 0 0.10355060465928576 0.10099063638851995 0 0.10499536068026093 0.097149949723340651 0 0.10057456464018624 0.10020884857815722 0 0.10498567427158545 0.097140330587181759 0 0.10128141614764462 0.098301915882792565 0 0.10498567427158545 0.097140330587181759 0 0.10128141614764462 0.098301915882792565 0 0.10235314862900061 0.095732850837748587 0 0.10128141614764462 0.098301915882792565 0 0.10235314862900061 0.095732850837748587 0 0.099668666377621687 0.098185156293585679 0 0.10061177789990769 0.095560232934278927 0 0.10235314862900061 0.095732850837748587 0 0.099668666377621687 0.098185156293585679 0 0.10061177789990769 0.095560232934278927 0 0.10235314862900061 0.095732850837748587 0 0.10240268584652834 0.093072315363868272 0 0.10235314862900061 0.095732850837748587 0 0.10499783502525566 0.090883211235421188 0 0.10240268584652834 0.093072315363868272 0 0.10498567427158545 0.097140330587181759 0 0.10235314862900061 0.095732850837748587 0 0.10499783502525566 0.090883211235421188 0 0.098780422598020834 0.096616903012452085 0 0.095208257479080557 0.098088735103151553 0 0.097266694951699928 0.095963382677252157 0 0.10061177789990769 0.095560232934278927 0 0.098780422598020834 0.096616903012452085 0 0.099668666377621687 0.098185156293585679 0 0.10061177789990769 0.095560232934278927 0 0.098780422598020834 0.096616903012452085 0 0.099391470518836247 0.094407544559370948 0 0.098780422598020834 0.096616903012452085 0 0.099668666377621687 0.098185156293585679 0 0.099120647832471903 0.099239498305235554 0 0.098780422598020834 0.096616903012452085 0 0.099120647832471903 0.099239498305235554 0 0.095208257479080557 0.098088735103151553 0 0.094285015865467087 0.10238938209108989 0 0.094533871048165408 0.10143284174276468 0 0.099668666377621687 0.098185156293585679 0 0.099120647832471903 0.099239498305235554 0 0.09794776759904647 0.10219240442026276 0 0.10006012116283913 0.1016026902376745 0 0.099668666377621687 0.098185156293585679 0 0.09794776759904647 0.10219240442026276 0 0.10006012116283913 0.1016026902376745 0 0.09794776759904647 0.10219240442026276 0 0.097859955524360109 0.10499641327105394 0 0.09794776759904647 0.10219240442026276 0 0.097859955524360109 0.10499641327105394 0 0.093508404556855954 0.10499651686372051 0 0.094285015865467087 0.10238938209108989 0 0.093496271334620906 0.10499597184072758 0 0.090546410584869216 0.10553806294398335 0 0.093488700581652248 0.10499928878212426 0 0.090294810538130529 0.10572134637344048 0 0.099120647832471903 0.099239498305235554 0 0.09794776759904647 0.10219240442026276 0 0.093508404556855954 0.10499651686372051 0 0.093488700581652248 0.10499928878212426 0 0.090294810538130529 0.10572134637344048 0 0.087347339082011893 0.10499793460715558 0 0.090294810538130529 0.10572134637344048 0 0.087347339082011893 0.10499793460715558 0 0.089896152348180949 0.10571552952021113 0 0.087347339082011893 0.10499793460715558 0 0.089896152348180949 0.10571552952021113 0 0.085996546567930834 0.10571679324696234 0 0.090546410584869216 0.10553806294398335 0 0.090294810538130529 0.10572134637344048 0 0.089896152348180949 0.10571552952021113 0 0.08119500848607307 0.10499840590419336 0 0.085117566306101664 0.10698410896583931 0 0.078847937982298583 0.10588228382634651 0 0.084571422942747596 0.10491072156112594 0 0.082895002229714715 0.10444803220913995 0 0.08119500848607307 0.10499840590419336 0 0.085996546567930834 0.10571679324696234 0 0.085117566306101664 0.10698410896583931 0 0.087347339082011893 0.10499793460715558 0 0.08119500848607307 0.10499840590419336 0 0.085996546567930834 0.10571679324696234 0 0.089896152348180949 0.10571552952021113 0 0.085996546567930834 0.10571679324696234 0 0.085117566306101664 0.10698410896583931 0 0.089896152348180949 0.10571552952021113 0 0.085117566306101664 0.10698410896583931 0 0.091306715046035616 0.10451111803472758 0 0.082192290493325632 0.10923890280055022 0 0.079250151904565039 0.10828078012202655 0 0.080506008808467783 0.11001641711676409 0 0.082192290493325632 0.10923890280055022 0 0.078847937982298583 0.10588228382634651 0 0.079250151904565039 0.10828078012202655 0 0.082192355367441738 0.11098492891047813 0 0.080506008808467783 0.11001641711676409 0 0.081125112392097187 0.11096566285152937 0 0.082192290493325632 0.10923890280055022 0 0.082192355367441738 0.11098492891047813 0 0.080506008808467783 0.11001641711676409 0 0.084571422942747596 0.10491072156112594 0 0.087498846834554903 0.10442710986913499 0 0.082192290493325632 0.10923890280055022 0 0.082192355367441738 0.11098492891047813 0 0.082565711895011953 0.11101147978383177 0 0.082445124227302866 0.11106196603095148 0 0.081729599477689305 0.11127493818297478 0 0.082408951682488796 0.1102878648630799 0 0.082192355367441738 0.11098492891047813 0 0.082445124227302866 0.11106196603095148 0 0.083038289012221614 0.1108482369558656 0 0.082192355367441738 0.11098492891047813 0 0.082445124227302866 0.11106196603095148 0 0.082565711895011953 0.11101147978383177 0 0.082192355367441738 0.11098492891047813 0 0.083386009666943164 0.11115852064475661 0 0.083038289012221614 0.1108482369558656 0 0.082192355367441738 0.11098492891047813 0 0.083386009666943164 0.11115852064475661 0 0.081125112392097187 0.11096566285152937 0 0.090546410584869216 0.10553806294398335 0 0.092986839950132197 0.10267021557551194 0 0.095208257479080557 0.098088735103151553 0 0.090546410584869216 0.10553806294398335 0 0.089896152348180949 0.10571552952021113 0 0.092986839950132197 0.10267021557551194 0 0.092986839950132197 0.10267021557551194 0 0.091306715046035616 0.10451111803472758 0 0.09384246402578611 0.10138934627746081 0 0.089896152348180949 0.10571552952021113 0 0.092986839950132197 0.10267021557551194 0 0.091306715046035616 0.10451111803472758 0 0.082445124227302866 0.11106196603095148 0 0.082565711895011953 0.11101147978383177 0 0.081729599477689305 0.11127493818297478 0 0.087498846834554903 0.10442710986913499 0 0.089500550425736305 0.10379837452973695 0 0.089500550425736305 0.10379837452973695 0 0.089600985710560216 0.10326978038653974 0 0.092986839950132197 0.10267021557551194 0 0.095444729000355805 0.098081110543869393 0 0.095208257479080557 0.098088735103151553 0 0.092986839950132197 0.10267021557551194 0 0.09384246402578611 0.10138934627746081 0 0.095444729000355805 0.098081110543869393 0 0.095444729000355805 0.098081110543869393 0 0.095208257479080557 0.098088735103151553 0 0.095759478004732806 0.096538485574747188 0 0.095759478004732806 0.096538485574747188 0 0.095821568230040108 0.096041689854004131 0 0.0962265724994356 0.095039922246315203 0 0.095444729000355805 0.098081110543869393 0 0.095759478004732806 0.096538485574747188 0 0.095821568230040108 0.096041689854004131 0 0.081729599477689305 0.11127493818297478 0 0.080498798617216274 0.10874640009027883 0 0.082408951682488796 0.1102878648630799 0 0.096793364521211067 0.099291893208815249 0 0.095444729000355805 0.098081110543869393 0 0.095821568230040108 0.096041689854004131 0 0.096793364521211067 0.099291893208815249 0 0.095821568230040108 0.096041689854004131 0 0.096517555671129851 0.094784977620915506 0 0.089500550425736305 0.10379837452973695 0 0.088665849034249386 0.10158174926816636 0 0.095821568230040108 0.096041689854004131 0 0.096517555671129851 0.094784977620915506 0 0.095727314854672632 0.094741490562878533 0 0.096517555671129851 0.094784977620915506 0 0.095727314854672632 0.094741490562878533 0 0.095112263709483599 0.093798915110686984 0 0.095727314854672632 0.094741490562878533 0 0.095112263709483599 0.093798915110686984 0 0.0962265724994356 0.095039922246315203 0 0.095821568230040108 0.096041689854004131 0 0.095727314854672632 0.094741490562878533 0 0.0962265724994356 0.095039922246315203 0 0.083386009666943164 0.11115852064475661 0 0.083959292161017676 0.11012442771157688 0 0.085586660608057474 0.10970034399934578 0 0.083386009666943164 0.11115852064475661 0 0.083959292161017676 0.11012442771157688 0 0.083038289012221614 0.1108482369558656 0 0.083959292161017676 0.11012442771157688 0 0.083038289012221614 0.1108482369558656 0 0.082408951682488796 0.1102878648630799 0 0.082445124227302866 0.11106196603095148 0 0.083038289012221614 0.1108482369558656 0 0.082408951682488796 0.1102878648630799 0 0.080498798617216274 0.10874640009027883 0 0.084498496985474847 0.10747918651946888 0 0.084180775349479237 0.10303820307315033 0 0.083959292161017676 0.11012442771157688 0 0.082408951682488796 0.1102878648630799 0 0.084498496985474847 0.10747918651946888 0 0.080498798617216274 0.10874640009027883 0 0.082408951682488796 0.1102878648630799 0 0.084498496985474847 0.10747918651946888 0 0.083959292161017676 0.11012442771157688 0 0.084498496985474847 0.10747918651946888 0 0.085586660608057474 0.10970034399934578 0 0.084498496985474847 0.10747918651946888 0 0.085586660608057474 0.10970034399934578 0 0.087244031970089633 0.1067572374752266 0 0.087459655270886089 0.10324100222531148 0 0.087244031970089633 0.1067572374752266 0 0.090276267658258996 0.10437857645533317 0 0.084498496985474847 0.10747918651946888 0 0.087459655270886089 0.10324100222531148 0 0.087244031970089633 0.1067572374752266 0 0.084498496985474847 0.10747918651946888 0 0.087459655270886089 0.10324100222531148 0 0.084180775349479237 0.10303820307315033 0 0.084180775349479237 0.10303820307315033 0 0.081107652161421628 0.10038956638912815 0 0.085700749910338811 0.096492595951461271 0 0.084180775349479237 0.10303820307315033 0 0.088844918550166851 0.096472488148619057 0 0.085700749910338811 0.096492595951461271 0 0.087459655270886089 0.10324100222531148 0 0.084180775349479237 0.10303820307315033 0 0.088844918550166851 0.096472488148619057 0 0.087459655270886089 0.10324100222531148 0 0.088844918550166851 0.096472488148619057 0 0.091202639273302286 0.10017255423758582 0 0.096517555671129851 0.094784977620915506 0 0.095112263709483599 0.093798915110686984 0 0.093822076156608272 0.093139369782835393 0 0.080498798617216274 0.10874640009027883 0 0.084180775349479237 0.10303820307315033 0 0.081107652161421628 0.10038956638912815 0 0.088665849034249386 0.10158174926816636 0 0.088124177746468496 0.098781688674626375 0 0.093822076156608272 0.093139369782835393 0 0.093938674033900341 0.093471513152008079 0 0.091360698655891429 0.093369345275441246 0 0.093938674033900341 0.093471513152008079 0 0.095707744208901865 0.093934996108429508 0 0.093647092035711615 0.093881406092366296 0 0.095112263709483599 0.093798915110686984 0 0.093938674033900341 0.093471513152008079 0 0.095707744208901865 0.093934996108429508 0 0.095112263709483599 0.093798915110686984 0 0.093822076156608272 0.093139369782835393 0 0.093938674033900341 0.093471513152008079 0 0.095707744208901865 0.093934996108429508 0 0.097004554446108171 0.09391335516127744 0 0.098201466805671767 0.09410427548510493 0 0.095112263709483599 0.093798915110686984 0 0.095707744208901865 0.093934996108429508 0 0.097004554446108171 0.09391335516127744 0 0.097004554446108171 0.09391335516127744 0 0.098201466805671767 0.09410427548510493 0 0.099547680562257629 0.093234951714104702 0 0.095707744208901865 0.093934996108429508 0 0.098201466805671767 0.09410427548510493 0 0.097503283823163159 0.09495956122121893 0 0.098201466805671767 0.09410427548510493 0 0.099965371258296479 0.094956636783770337 0 0.097503283823163159 0.09495956122121893 0 0.099965371258296479 0.094956636783770337 0 0.10260773796682011 0.094152868705733056 0 0.10026250988511494 0.093780987399886356 0 0.098201466805671767 0.09410427548510493 0 0.099965371258296479 0.094956636783770337 0 0.10026250988511494 0.093780987399886356 0 0.10394519798993646 0.085264538818710808 0 0.10342548671008561 0.080149202634195602 0 0.106604213276972 0.082204478896689234 0 0.10499664277832159 0.084618685469753596 0 0.10500193448218015 0.078344154105226743 0 0.106604213276972 0.082204478896689234 0 0.1061844112008892 0.077822833706004041 0 0.10500193448218015 0.078344154105226743 0 0.099965371258296479 0.094956636783770337 0 0.10260773796682011 0.094152868705733056 0 0.10194989094706564 0.096038959517389944 0 0.10394519798993646 0.085264538818710808 0 0.10408147471417566 0.086292742640575501 0 0.10260773796682011 0.094152868705733056 0 0.10026250988511494 0.093780987399886356 0 0.10143972042945777 0.092261443531294646 0 0.106604213276972 0.082204478896689234 0 0.10499664277832159 0.084618685469753596 0 0.10463389991834414 0.088919360004260414 0 0.10260773796682011 0.094152868705733056 0 0.10143972042945777 0.092261443531294646 0 0.10463389991834414 0.088919360004260414 0 0.098201466805671767 0.09410427548510493 0 0.10026250988511494 0.093780987399886356 0 0.099547680562257629 0.093234951714104702 0 0.10026250988511494 0.093780987399886356 0 0.10143972042945777 0.092261443531294646 0 0.099547680562257629 0.093234951714104702 0 0.099547680562257629 0.093234951714104702 0 0.1010820672923716 0.092077047682704041 0 0.098752837091001355 0.09353312705555894 0 0.10143972042945777 0.092261443531294646 0 0.1010820672923716 0.092077047682704041 0 0.10463389991834414 0.088919360004260414 0 0.10143972042945777 0.092261443531294646 0 0.099547680562257629 0.093234951714104702 0 0.1010820672923716 0.092077047682704041 0 0.1010820672923716 0.092077047682704041 0 0.10463389991834414 0.088919360004260414 0 0.1034515603375963 0.09116423463336594 0 0.10499664277832159 0.084618685469753596 0 0.10463389991834414 0.088919360004260414 0 0.10499783502525566 0.090883211235421188 0 0.10463389991834414 0.088919360004260414 0 0.1034515603375963 0.09116423463336594 0 0.10499783502525566 0.090883211235421188 0 0.1034515603375963 0.09116423463336594 0 0.10499783502525566 0.090883211235421188 0 0.10240268584652834 0.093072315363868272 0 0.10061177789990769 0.095560232934278927 0 0.10240268584652834 0.093072315363868272 0 0.099391470518836247 0.094407544559370948 0 0.1010820672923716 0.092077047682704041 0 0.10240268584652834 0.093072315363868272 0 0.099391470518836247 0.094407544559370948 0 0.1010820672923716 0.092077047682704041 0 0.1034515603375963 0.09116423463336594 0 0.10240268584652834 0.093072315363868272 0 0.098780422598020834 0.096616903012452085 0 0.099391470518836247 0.094407544559370948 0 0.097266694951699928 0.095963382677252157 0 0.099391470518836247 0.094407544559370948 0 0.097580927844161836 0.094534992383219094 0 0.098752837091001355 0.09353312705555894 0 0.099391470518836247 0.094407544559370948 0 0.097266694951699928 0.095963382677252157 0 0.097580927844161836 0.094534992383219094 0 0.095208257479080557 0.098088735103151553 0 0.095759478004732806 0.096538485574747188 0 0.097266694951699928 0.095963382677252157 0 0.095759478004732806 0.096538485574747188 0 0.097266694951699928 0.095963382677252157 0 0.0962265724994356 0.095039922246315203 0 0.097266694951699928 0.095963382677252157 0 0.097580927844161836 0.094534992383219094 0 0.0962265724994356 0.095039922246315203 0 0.095112263709483599 0.093798915110686984 0 0.097004554446108171 0.09391335516127744 0 0.0962265724994356 0.095039922246315203 0 0.097004554446108171 0.09391335516127744 0 0.097580927844161836 0.094534992383219094 0 0.0962265724994356 0.095039922246315203 0 0.097004554446108171 0.09391335516127744 0 0.097580927844161836 0.094534992383219094 0 0.098752837091001355 0.09353312705555894 0 0.097004554446108171 0.09391335516127744 0 0.099547680562257629 0.093234951714104702 0 0.098752837091001355 0.09353312705555894 0 0.1010820672923716 0.092077047682704041 0 0.099391470518836247 0.094407544559370948 0 0.098752837091001355 0.09353312705555894 0 0.053623997892209722 0.11566609950947992 0 0.05475414047655968 0.12027179006035406 0 0.051445231430352303 0.11889019524686129 0 0.053623997892209722 0.11566609950947992 0 0.057703844658583775 0.1184850670118799 0 0.05475414047655968 0.12027179006035406 0 0.053623997892209722 0.11566609950947992 0 0.051445231430352303 0.11889019524686129 0 0.051386861450010098 0.11544042389951442 0 0.053623997892209722 0.11566609950947992 0 0.057703844658583775 0.1184850670118799 0 0.057078923502545488 0.11290571170526065 0 0.057703844658583775 0.1184850670118799 0 0.057078923502545488 0.11290571170526065 0 0.0619581089093496 0.11611460753338536 0 0.057078923502545488 0.11290571170526065 0 0.053367322209887769 0.1087750407331072 0 0.051666831700025832 0.11282001976347099 0 0.053623997892209722 0.11566609950947992 0 0.057078923502545488 0.11290571170526065 0 0.051666831700025832 0.11282001976347099 0 0.053623997892209722 0.11566609950947992 0 0.051666831700025832 0.11282001976347099 0 0.051386861450010098 0.11544042389951442 0 0.053367322209887769 0.1087750407331072 0 0.056584565808059185 0.10499999815587818 0 0.050430387207532408 0.10499876722406142 0 0.053367322209887769 0.1087750407331072 0 0.056584565808059185 0.10499999815587818 0 0.059054349985139469 0.10843514390142632 0 0.057078923502545488 0.11290571170526065 0 0.053367322209887769 0.1087750407331072 0 0.059054349985139469 0.10843514390142632 0 0.057078923502545488 0.11290571170526065 0 0.059054349985139469 0.10843514390142632 0 0.063116634536862018 0.11101902377712393 0 0.059054349985139469 0.10843514390142632 0 0.062736411959042546 0.10499938523294121 0 0.063116634536862018 0.11101902377712393 0 0.056584565808059185 0.10499999815587818 0 0.059054349985139469 0.10843514390142632 0 0.062736411959042546 0.10499938523294121 0 0.062736411959042546 0.10499938523294121 0 0.063116634536862018 0.11101902377712393 0 0.068819834482420295 0.10910680103137986 0 0.063116634536862018 0.11101902377712393 0 0.0619581089093496 0.11611460753338536 0 0.069244154045540116 0.11528367643689187 0 0.057078923502545488 0.11290571170526065 0 0.063116634536862018 0.11101902377712393 0 0.0619581089093496 0.11611460753338536 0 0.057703844658583775 0.1184850670118799 0 0.0619581089093496 0.11611460753338536 0 0.061347811663170798 0.11971686569197272 0 0.0619581089093496 0.11611460753338536 0 0.069244154045540116 0.11528367643689187 0 0.064917491525188817 0.11997680598849113 0 0.065072772003891374 0.11416918243619764 0 0.064377130026743556 0.1133271334856118 0 0.069244154045540116 0.11528367643689187 0 0.075499816168145037 0.11144362305943317 0 0.074005064640764756 0.11944722970451077 0 0.080968529055973515 0.11249777750672064 0 0.082476724998579706 0.11293711812715254 0 0.069244154045540116 0.11528367643689187 0 0.075499816168145037 0.11144362305943317 0 0.068819834482420295 0.10910680103137986 0 0.063116634536862018 0.11101902377712393 0 0.069244154045540116 0.11528367643689187 0 0.068819834482420295 0.10910680103137986 0 0.062736411959042546 0.10499938523294121 0 0.068819834482420295 0.10910680103137986 0 0.06889002219500942 0.10499905543490207 0 0.068819834482420295 0.10910680103137986 0 0.06889002219500942 0.10499905543490207 0 0.073509213028201362 0.10736096679178145 0 0.06889002219500942 0.10499905543490207 0 0.075041767343281163 0.10499975063154902 0 0.073509213028201362 0.10736096679178145 0 0.075499816168145037 0.11144362305943317 0 0.068819834482420295 0.10910680103137986 0 0.073509213028201362 0.10736096679178145 0 0.075499816168145037 0.11144362305943317 0 0.077391263495957666 0.10893723434924366 0 0.073509213028201362 0.10736096679178145 0 0.077391263495957666 0.10893723434924366 0 0.073509213028201362 0.10736096679178145 0 0.076880513933203359 0.10708774213848553 0 0.075041767343281163 0.10499975063154902 0 0.073509213028201362 0.10736096679178145 0 0.076880513933203359 0.10708774213848553 0 0.075041767343281163 0.10499975063154902 0 0.078847937982298583 0.10588228382634651 0 0.076880513933203359 0.10708774213848553 0 0.08119500848607307 0.10499840590419336 0 0.075041767343281163 0.10499975063154902 0 0.078847937982298583 0.10588228382634651 0 0.078847937982298583 0.10588228382634651 0 0.076880513933203359 0.10708774213848553 0 0.079250151904565039 0.10828078012202655 0 0.077391263495957666 0.10893723434924366 0 0.079250151904565039 0.10828078012202655 0 0.080506008808467783 0.11001641711676409 0 0.077391263495957666 0.10893723434924366 0 0.076880513933203359 0.10708774213848553 0 0.079250151904565039 0.10828078012202655 0 0.080506008808467783 0.11001641711676409 0 0.078903571055353713 0.11074451395762075 0 0.081125112392097187 0.11096566285152937 0 0.077391263495957666 0.10893723434924366 0 0.080506008808467783 0.11001641711676409 0 0.078903571055353713 0.11074451395762075 0 0.075499816168145037 0.11144362305943317 0 0.077391263495957666 0.10893723434924366 0 0.078903571055353713 0.11074451395762075 0 0.075499816168145037 0.11144362305943317 0 0.078903571055353713 0.11074451395762075 0 0.080732082938752753 0.11121829319575025 0 0.075499816168145037 0.11144362305943317 0 0.080732082938752753 0.11121829319575025 0 0.079508125769373078 0.11138128872464743 0 0.083386009666943164 0.11115852064475661 0 0.080732082938752753 0.11121829319575025 0 0.081125112392097187 0.11096566285152937 0 0.078903571055353713 0.11074451395762075 0 0.080732082938752753 0.11121829319575025 0 0.081125112392097187 0.11096566285152937 0 0.083386009666943164 0.11115852064475661 0 0.085586660608057474 0.10970034399934578 0 0.084709742436887017 0.11136613238367594 0 0.083386009666943164 0.11115852064475661 0 0.080732082938752753 0.11121829319575025 0 0.084709742436887017 0.11136613238367594 0 0.080732082938752753 0.11121829319575025 0 0.084709742436887017 0.11136613238367594 0 0.081257292031529302 0.11235388993419272 0 0.080732082938752753 0.11121829319575025 0 0.081257292031529302 0.11235388993419272 0 0.079508125769373078 0.11138128872464743 0 0.084709742436887017 0.11136613238367594 0 0.081257292031529302 0.11235388993419272 0 0.083128454859055401 0.11474098068650827 0 0.090928151253494752 0.10443330836453987 0 0.088763249594469462 0.10380138223242964 0 0.081257292031529302 0.11235388993419272 0 0.083128454859055401 0.11474098068650827 0 0.079360139453277551 0.11396049335982757 0 0.084709742436887017 0.11136613238367594 0 0.089889889670290421 0.10827015964521584 0 0.089239613508229176 0.10808369663465549 0 0.090928151253494752 0.10443330836453987 0 0.090882030045778953 0.10452017148506494 0 0.085586660608057474 0.10970034399934578 0 0.084709742436887017 0.11136613238367594 0 0.089239613508229176 0.10808369663465549 0 0.089936633729661791 0.10642005035052446 0 0.090928151253494752 0.10443330836453987 0 0.085586660608057474 0.10970034399934578 0 0.087244031970089633 0.1067572374752266 0 0.089239613508229176 0.10808369663465549 0 0.087244031970089633 0.1067572374752266 0 0.089239613508229176 0.10808369663465549 0 0.090276267658258996 0.10437857645533317 0 0.094223745076485718 0.10863649544125024 0 0.091981540179790058 0.10572319990343683 0 0.094510818510951611 0.10225543143823206 0 0.089239613508229176 0.10808369663465549 0 0.091981540179790058 0.10572319990343683 0 0.090276267658258996 0.10437857645533317 0 0.094223745076485718 0.10863649544125024 0 0.089239613508229176 0.10808369663465549 0 0.091981540179790058 0.10572319990343683 0 0.094510818510951611 0.10225543143823206 0 0.090276267658258996 0.10437857645533317 0 0.091202639273302286 0.10017255423758582 0 0.091981540179790058 0.10572319990343683 0 0.094510818510951611 0.10225543143823206 0 0.090276267658258996 0.10437857645533317 0 0.087459655270886089 0.10324100222531148 0 0.090276267658258996 0.10437857645533317 0 0.091202639273302286 0.10017255423758582 0 0.094510818510951611 0.10225543143823206 0 0.091202639273302286 0.10017255423758582 0 0.093964933901442255 0.09624857606971006 0 0.088844918550166851 0.096472488148619057 0 0.091202639273302286 0.10017255423758582 0 0.093964933901442255 0.09624857606971006 0 0.094510818510951611 0.10225543143823206 0 0.093964933901442255 0.09624857606971006 0 0.10109979423276524 0.098084739558148032 0 0.094223745076485718 0.10863649544125024 0 0.094510818510951611 0.10225543143823206 0 0.10109979423276524 0.098084739558148032 0 0.098997894032105724 0.10008508626323091 0 0.10230296353016397 0.090511316735636158 0 0.10431451436597997 0.09592376698514736 0 0.098997894032105724 0.10008508626323091 0 0.10431451436597997 0.09592376698514736 0 0.10741901598450943 0.10077605670507946 0 0.090928151253494752 0.10443330836453987 0 0.098816455012553386 0.093163540288076427 0 0.10431451436597997 0.09592376698514736 0 0.10853501269339534 0.092327707540535098 0 0.10741901598450943 0.10077605670507946 0 0.099209987134871377 0.088552212379868225 0 0.088763249594469462 0.10380138223242964 0 0.10230296353016397 0.090511316735636158 0 0.10431451436597997 0.09592376698514736 0 0.10853501269339534 0.092327707540535098 0 0.10230296353016397 0.090511316735636158 0 0.10853501269339534 0.092327707540535098 0 0.10653498608186922 0.086954805774799956 0 0.10810394820103177 0.080701444566071964 0 0.11011989842703451 0.079134638756499551 0 0.11083017885976662 0.081947453062311645 0 0.11011989842703451 0.079134638756499551 0 0.11083017885976662 0.081947453062311645 0 0.11220325973799185 0.07921024423616059 0 0.10810394820103177 0.080701444566071964 0 0.11083017885976662 0.081947453062311645 0 0.1075552757168293 0.084615600071697022 0 0.11083017885976662 0.081947453062311645 0 0.1075552757168293 0.084615600071697022 0 0.11139049727832735 0.084888647695344335 0 0.07296504803512463 0.12632341668396754 0 0.069665431318782806 0.12194447162224333 0 0.066784410743348011 0.12573979676355151 0 0.088763249594469462 0.10380138223242964 0 0.085074337144446899 0.10291274701850732 0 0.081257292031529302 0.11235388993419272 0 0.079360139453277551 0.11396049335982757 0 0.079508125769373078 0.11138128872464743 0 0.088763249594469462 0.10380138223242964 0 0.082476724998579706 0.11293711812715254 0 0.07296504803512463 0.12632341668396754 0 0.074005064640764756 0.11944722970451077 0 0.069665431318782806 0.12194447162224333 0 0.069665431318782806 0.12194447162224333 0 0.065052626092928278 0.12034473510861857 0 0.066784410743348011 0.12573979676355151 0 0.069244154045540116 0.11528367643689187 0 0.074005064640764756 0.11944722970451077 0 0.069665431318782806 0.12194447162224333 0 0.069244154045540116 0.11528367643689187 0 0.069665431318782806 0.12194447162224333 0 0.065052626092928278 0.12034473510861857 0 0.0619581089093496 0.11611460753338536 0 0.064917491525188817 0.11997680598849113 0 0.061347811663170798 0.11971686569197272 0 0.064917491525188817 0.11997680598849113 0 0.061347811663170798 0.11971686569197272 0 0.060863005385957063 0.12424789524365663 0 0.064377130026743556 0.1133271334856118 0 0.07103706304788665 0.10018552713276407 0 0.057703844658583775 0.1184850670118799 0 0.061347811663170798 0.11971686569197272 0 0.060863005385957063 0.12424789524365663 0 0.065052626092928278 0.12034473510861857 0 0.060736282606792542 0.12514400043223675 0 0.066784410743348011 0.12573979676355151 0 0.07103706304788665 0.10018552713276407 0 0.085074337144446899 0.10291274701850732 0 0.11513481524389327 0.085176017856961814 0 0.11139049727832735 0.084888647695344335 0 0.1141749900304595 0.081831605993636272 0 0.11083017885976662 0.081947453062311645 0 0.11139049727832735 0.084888647695344335 0 0.1141749900304595 0.081831605993636272 0 0.11083017885976662 0.081947453062311645 0 0.11220325973799185 0.07921024423616059 0 0.1141749900304595 0.081831605993636272 0 0.1141749900304595 0.081831605993636272 0 0.11803927034058148 0.081911773823707443 0 0.11626466770734584 0.07821122730600083 0 0.11220325973799185 0.07921024423616059 0 0.1141749900304595 0.081831605993636272 0 0.11626466770734584 0.07821122730600083 0 0.11513481524389327 0.085176017856961814 0 0.1141749900304595 0.081831605993636272 0 0.11803927034058148 0.081911773823707443 0 0.07103706304788665 0.10018552713276407 0 0.054665793985830657 0.088901439715011757 0 0.054665793985830657 0.088901439715011757 0 0.061984530371758426 0.081518785583129985 0 0.022852771515197462 0.087120000006440018 0 0.027579867346631558 0.081858041513883137 0 0.019219277978795777 0.080215329096593568 0 0.02427100186369378 0.085942723610278576 0 0.027579867346631558 0.081858041513883137 0 0.029066221432474545 0.08745292539117569 0 0.054665793985830657 0.088901439715011757 0 0.045556330911672327 0.091860127393520258 0 0.02427100186369378 0.085942723610278576 0 0.029066221432474545 0.08745292539117569 0 0.02792992917770061 0.093331707673124112 0 0.054665793985830657 0.088901439715011757 0 0.051115795775754383 0.098272387773092065 0 0.029066221432474545 0.08745292539117569 0 0.02792992917770061 0.093331707673124112 0 0.032747431317392148 0.093859224065997574 0 0.051115795775754383 0.098272387773092065 0 0.047423984728212298 0.097816169716457096 0 0.07103706304788665 0.10018552713276407 0 0.051115795775754383 0.098272387773092065 0 0.060863005385957063 0.12424789524365663 0 0.05395145927151563 0.12361829443713072 0 0.05475414047655968 0.12027179006035406 0 0.059399396980035338 0.098493495954392635 0 0.057619056007116837 0.10042201845205799 0 0.056461919562025009 0.098252280871169953 0 0.057703844658583775 0.1184850670118799 0 0.060863005385957063 0.12424789524365663 0 0.05475414047655968 0.12027179006035406 0 0.051115795775754383 0.098272387773092065 0 0.047976513577546398 0.1043125350395019 0 0.05395145927151563 0.12361829443713072 0 0.05475414047655968 0.12027179006035406 0 0.051445231430352303 0.11889019524686129 0 0.029817235489900996 0.093621625014797663 0 0.033610775414432428 0.098972815770870692 0 0.032747431317392148 0.093859224065997574 0 0.025472706655089827 0.065217050576995741 0 0.026757377566627605 0.070208470033639142 0 0.029116934614727495 0.065930334950432989 0 0.025472706655089827 0.065217050576995741 0 0.021493697774052398 0.063432935834312906 0 0.024870202945958281 0.061087849645554852 0 0.025472706655089827 0.065217050576995741 0 0.021493697774052398 0.063432935834312906 0 0.021881418512131445 0.069001364160024101 0 0.021493697774052398 0.063432935834312906 0 0.021881418512131445 0.069001364160024101 0 0.017834590627449333 0.065968891071542635 0 0.021881418512131445 0.069001364160024101 0 0.026757377566627605 0.070208470033639142 0 0.023962538356145369 0.075178796993859723 0 0.025472706655089827 0.065217050576995741 0 0.021881418512131445 0.069001364160024101 0 0.026757377566627605 0.070208470033639142 0 0.026757377566627605 0.070208470033639142 0 0.023962538356145369 0.075178796993859723 0 0.029311036772002939 0.075462886240599783 0 0.027579867346631558 0.081858041513883137 0 0.023962538356145369 0.075178796993859723 0 0.029311036772002939 0.075462886240599783 0 0.027579867346631558 0.081858041513883137 0 0.023962538356145369 0.075178796993859723 0 0.019219277978795777 0.080215329096593568 0 0.023962538356145369 0.075178796993859723 0 0.016012524065161696 0.073380987368880476 0 0.019219277978795777 0.080215329096593568 0 0.021881418512131445 0.069001364160024101 0 0.023962538356145369 0.075178796993859723 0 0.016012524065161696 0.073380987368880476 0 0.065290889517653342 0.073962727103356024 0 0.061984530371758426 0.081518785583129985 0 0.11220325973799185 0.07921024423616059 0 0.11626466770734584 0.07821122730600083 0 0.11320940062659533 0.076865716995105179 0 0.1145684898618123 0.074436988402036844 0 0.11626466770734584 0.07821122730600083 0 0.11320940062659533 0.076865716995105179 0 0.11220325973799185 0.07921024423616059 0 0.11320940062659533 0.076865716995105179 0 0.11102804565518028 0.077309063015191359 0 0.11320940062659533 0.076865716995105179 0 0.11141051240889815 0.075112643710415303 0 0.11102804565518028 0.077309063015191359 0 0.1145684898618123 0.074436988402036844 0 0.11162761719188356 0.072840087834230724 0 0.11141051240889815 0.075112643710415303 0 0.1145684898618123 0.074436988402036844 0 0.11320940062659533 0.076865716995105179 0 0.11141051240889815 0.075112643710415303 0 0.1145684898618123 0.074436988402036844 0 0.1130254666539738 0.070540954133786402 0 0.11162761719188356 0.072840087834230724 0 0.065290889517653342 0.073962727103356024 0 0.06850772590465623 0.066316848948061516 0 0.1130254666539738 0.070540954133786402 0 0.11111967987582502 0.071161902450066872 0 0.11162761719188356 0.072840087834230724 0 0.021881418512131445 0.069001364160024101 0 0.016012524065161696 0.073380987368880476 0 0.017834590627449333 0.065968891071542635 0 0.016012524065161696 0.073380987368880476 0 0.017834590627449333 0.065968891071542635 0 0.013380350757571871 0.066963279350901669 0 0.017834590627449333 0.065968891071542635 0 0.015023560975572694 0.063488116976696166 0 0.0178811873743773 0.061327475309478734 0 0.021493697774052398 0.063432935834312906 0 0.017834590627449333 0.065968891071542635 0 0.0178811873743773 0.061327475309478734 0 0.013380350757571871 0.066963279350901669 0 0.011108732940475544 0.061550238697339006 0 0.015023560975572694 0.063488116976696166 0 0.017834590627449333 0.065968891071542635 0 0.013380350757571871 0.066963279350901669 0 0.015023560975572694 0.063488116976696166 0 0.06850772590465623 0.066316848948061516 0 0.075051149781371285 0.058024573582504797 0 0.11039675915590061 0.068557427798793286 0 0.10892833526777243 0.072395056285445805 0 0.11065295232171439 0.075973146374512385 0 0.1130254666539738 0.070540954133786402 0 0.11039675915590061 0.068557427798793286 0 0.11151490318103693 0.065734097118041207 0 0.11039675915590061 0.068557427798793286 0 0.10938839778504278 0.072732051680933482 0 0.11111967987582502 0.071161902450066872 0 0.1130254666539738 0.070540954133786402 0 0.11039675915590061 0.068557427798793286 0 0.11111967987582502 0.071161902450066872 0 0.10783857796267197 0.072765562592532709 0 0.10697902161660158 0.075412908692928549 0 0.11039675915590061 0.068557427798793286 0 0.10744732077199154 0.068648658140344043 0 0.10892833526777243 0.072395056285445805 0 0.10892833526777243 0.072395056285445805 0 0.10307514226303092 0.073050887706253412 0 0.10477498353539225 0.069825642946121452 0 0.10744732077199154 0.068648658140344043 0 0.10892833526777243 0.072395056285445805 0 0.10477498353539225 0.069825642946121452 0 0.10744732077199154 0.068648658140344043 0 0.10477498353539225 0.069825642946121452 0 0.10485582119934718 0.0675016268682644 0 0.10892833526777243 0.072395056285445805 0 0.11065295232171439 0.075973146374512385 0 0.10570620021776704 0.081092443220996291 0 0.10892833526777243 0.072395056285445805 0 0.10735802937449777 0.084341746205961091 0 0.1047751075345648 0.076856683676640211 0 0.1060735757427549 0.078425881732210628 0 0.1039100401089363 0.083567317930292331 0 0.10892833526777243 0.072395056285445805 0 0.1047751075345648 0.076856683676640211 0 0.10307514226303092 0.073050887706253412 0 0.10938839778504278 0.072732051680933482 0 0.11111967987582502 0.071161902450066872 0 0.11162761719188356 0.072840087834230724 0 0.10938839778504278 0.072732051680933482 0 0.11162761719188356 0.072840087834230724 0 0.11141051240889815 0.075112643710415303 0 0.10697902161660158 0.075412908692928549 0 0.10438926318830813 0.080827021781963881 0 0.10938839778504278 0.072732051680933482 0 0.11141051240889815 0.075112643710415303 0 0.10869719485267136 0.076754363963852185 0 0.10810394820103177 0.080701444566071964 0 0.11011989842703451 0.079134638756499551 0 0.10869719485267136 0.076754363963852185 0 0.11141051240889815 0.075112643710415303 0 0.11102804565518028 0.077309063015191359 0 0.10869719485267136 0.076754363963852185 0 0.11011989842703451 0.079134638756499551 0 0.11102804565518028 0.077309063015191359 0 0.10869719485267136 0.076754363963852185 0 0.11011989842703451 0.079134638756499551 0 0.11220325973799185 0.07921024423616059 0 0.11102804565518028 0.077309063015191359 0 0.10853501269339534 0.092327707540535098 0 0.10653498608186922 0.086954805774799956 0 0.10962058600085872 0.083947177502696299 0 0.10653498608186922 0.086954805774799956 0 0.10962058600085872 0.083947177502696299 0 0.10570620021776704 0.081092443220996291 0 0.099209987134871377 0.088552212379868225 0 0.10438926318830813 0.080827021781963881 0 0.10230296353016397 0.090511316735636158 0 0.10653498608186922 0.086954805774799956 0 0.10570620021776704 0.081092443220996291 0 0.11065295232171439 0.075973146374512385 0 0.10962058600085872 0.083947177502696299 0 0.10570620021776704 0.081092443220996291 0 0.10735802937449777 0.084341746205961091 0 0.098500369651405698 0.089918909706936112 0 0.099632841048785892 0.078278853760542264 0 0.10735802937449777 0.084341746205961091 0 0.099632841048785892 0.078278853760542264 0 0.1047751075345648 0.076856683676640211 0 0.093964933901442255 0.09624857606971006 0 0.10109979423276524 0.098084739558148032 0 0.098500369651405698 0.089918909706936112 0 0.10109979423276524 0.098084739558148032 0 0.10735802937449777 0.084341746205961091 0 0.098500369651405698 0.089918909706936112 0 0.098816455012553386 0.093163540288076427 0 0.1039100401089363 0.083567317930292331 0 0.088844918550166851 0.096472488148619057 0 0.093964933901442255 0.09624857606971006 0 0.091534796332436247 0.090483205021845356 0 0.093964933901442255 0.09624857606971006 0 0.098500369651405698 0.089918909706936112 0 0.091534796332436247 0.090483205021845356 0 0.098500369651405698 0.089918909706936112 0 0.091534796332436247 0.090483205021845356 0 0.099632841048785892 0.078278853760542264 0 0.091534796332436247 0.090483205021845356 0 0.099632841048785892 0.078278853760542264 0 0.088728541921947138 0.086196249386665119 0 0.099632841048785892 0.078278853760542264 0 0.10307514226303092 0.073050887706253412 0 0.099773412009548368 0.071740847528403484 0 0.099632841048785892 0.078278853760542264 0 0.099773412009548368 0.071740847528403484 0 0.10144713582047246 0.070359873739251289 0 0.10151659455709987 0.077895152726323857 0 0.10052306479130092 0.077788567506511266 0 0.099632841048785892 0.078278853760542264 0 0.1047751075345648 0.076856683676640211 0 0.10307514226303092 0.073050887706253412 0 0.10307514226303092 0.073050887706253412 0 0.10219397651624848 0.070058045504718475 0 0.099773412009548368 0.071740847528403484 0 0.10307514226303092 0.073050887706253412 0 0.10477498353539225 0.069825642946121452 0 0.10219397651624848 0.070058045504718475 0 0.10477498353539225 0.069825642946121452 0 0.10219397651624848 0.070058045504718475 0 0.10304570846555301 0.067856567906334403 0 0.10219397651624848 0.070058045504718475 0 0.099773412009548368 0.071740847528403484 0 0.10129295388576688 0.067754490226619946 0 0.099773412009548368 0.071740847528403484 0 0.0995500188488114 0.064823665766068156 0 0.10129295388576688 0.067754490226619946 0 0.099773412009548368 0.071740847528403484 0 0.099730510547810153 0.075520747900639493 0 0.101487782915044 0.073386820827430782 0 0.10238456244262766 0.069468036802991573 0 0.10368305047635196 0.066778273050624781 0 0.0995500188488114 0.064823665766068156 0 0.10126473673447142 0.065369624976597943 0 0.10129295388576688 0.067754490226619946 0 0.099730510547810153 0.075520747900639493 0 0.10108393708900767 0.075709334760152763 0 0.101487782915044 0.073386820827430782 0 0.10219397651624848 0.070058045504718475 0 0.10129295388576688 0.067754490226619946 0 0.10304570846555301 0.067856567906334403 0 0.10129295388576688 0.067754490226619946 0 0.10304570846555301 0.067856567906334403 0 0.10237195173015197 0.066223592106290446 0 0.10477498353539225 0.069825642946121452 0 0.10304570846555301 0.067856567906334403 0 0.10485582119934718 0.0675016268682644 0 0.10304570846555301 0.067856567906334403 0 0.10485582119934718 0.0675016268682644 0 0.1041728761852366 0.065485752386000809 0 0.10485582119934718 0.0675016268682644 0 0.1041728761852366 0.065485752386000809 0 0.10619876671386699 0.066162903065263456 0 0.10304570846555301 0.067856567906334403 0 0.1041728761852366 0.065485752386000809 0 0.10237195173015197 0.066223592106290446 0 0.10126473673447142 0.065369624976597943 0 0.10129295388576688 0.067754490226619946 0 0.10237195173015197 0.066223592106290446 0 0.1041728761852366 0.065485752386000809 0 0.10237195173015197 0.066223592106290446 0 0.10285903066051731 0.064652498584906376 0 0.10126473673447142 0.065369624976597943 0 0.10237195173015197 0.066223592106290446 0 0.10285903066051731 0.064652498584906376 0 0.10126473673447142 0.065369624976597943 0 0.10285903066051731 0.064652498584906376 0 0.10196670688092303 0.062837555738892367 0 0.10196670688092303 0.062837555738892367 0 0.1034465239362347 0.060850599440768441 0 0.10105205222183691 0.058004746069442677 0 0.10285903066051731 0.064652498584906376 0 0.10196670688092303 0.062837555738892367 0 0.10376881513152844 0.063345193544465828 0 0.10376881513152844 0.063345193544465828 0 0.1053187946324388 0.061528255400491227 0 0.10591726780821382 0.064074469480156757 0 0.1041728761852366 0.065485752386000809 0 0.10285903066051731 0.064652498584906376 0 0.10376881513152844 0.063345193544465828 0 0.1041728761852366 0.065485752386000809 0 0.10376881513152844 0.063345193544465828 0 0.10591726780821382 0.064074469480156757 0 0.10376881513152844 0.063345193544465828 0 0.1034465239362347 0.060850599440768441 0 0.1053187946324388 0.061528255400491227 0 0.1034465239362347 0.060850599440768441 0 0.10457360031196146 0.059304708418438774 0 0.1053187946324388 0.061528255400491227 0 0.10196670688092303 0.062837555738892367 0 0.10376881513152844 0.063345193544465828 0 0.1034465239362347 0.060850599440768441 0 0.099823649094308756 0.076185202992004736 0 0.099034521001358414 0.078664767358712931 0 0.10183005634882542 0.077250414191662814 0 0.10368305047635196 0.066778273050624781 0 0.10977397270457274 0.051606723991084284 0 0.10842221090715735 0.063179922839707248 0 0.10954442437639948 0.06125843721675988 0 0.099823649094308756 0.076185202992004736 0 0.10108393708900767 0.075709334760152763 0 0.1026191463108645 0.078287285918222621 0 0.0995500188488114 0.064823665766068156 0 0.10196670688092303 0.062837555738892367 0 0.10105205222183691 0.058004746069442677 0 0.099730510547810153 0.075520747900639493 0 0.099823649094308756 0.076185202992004736 0 0.099034521001358414 0.078664767358712931 0 0.0995500188488114 0.064823665766068156 0 0.10126473673447142 0.065369624976597943 0 0.10196670688092303 0.062837555738892367 0 0.099730510547810153 0.075520747900639493 0 0.099823649094308756 0.076185202992004736 0 0.10108393708900767 0.075709334760152763 0 0.10977397270457274 0.051606723991084284 0 0.10954442437639948 0.06125843721675988 0 0.12052412477850716 0.047516283758800203 0 0.11875925368602702 0.048355166669701626 0 0.11895213774995891 0.046633811484493477 0 0.12052412477850716 0.047516283758800203 0 0.12006474879697827 0.046358277071433564 0 0.11895213774995891 0.046633811484493477 0 0.12052412477850716 0.047516283758800203 0 0.12006474879697827 0.046358277071433564 0 0.12105224146837534 0.045632832518881734 0 0.12006474879697827 0.046358277071433564 0 0.11976836430426822 0.045626465276823007 0 0.12105224146837534 0.045632832518881734 0 0.12006474879697827 0.046358277071433564 0 0.11895213774995891 0.046633811484493477 0 0.11976836430426822 0.045626465276823007 0 0.12208501697405902 0.023578347033479118 0 0.11973161944750253 0.025815036706373168 0 0.12145823387691153 0.026696491376983173 0 0.12208501697405902 0.023578347033479118 0 0.11925556951159155 0.024933923703041826 0 0.11973161944750253 0.025815036706373168 0 0.10977397270457274 0.051606723991084284 0 0.11645475026497638 0.039437286325088187 0 0.10105205222183691 0.058004746069442677 0 0.10457360031196146 0.059304708418438774 0 0.1061553586344153 0.055589893828106508 0 0.10977397270457274 0.051606723991084284 0 0.10724802237858325 0.041352964862865889 0 0.1034465239362347 0.060850599440768441 0 0.10105205222183691 0.058004746069442677 0 0.10457360031196146 0.059304708418438774 0 0.10457360031196146 0.059304708418438774 0 0.10637985027185627 0.059703276177862655 0 0.1053187946324388 0.061528255400491227 0 0.10457360031196146 0.059304708418438774 0 0.10637985027185627 0.059703276177862655 0 0.1061553586344153 0.055589893828106508 0 0.091445156099642252 0.050602444483082293 0 0.10724802237858325 0.041352964862865889 0 0.11227142438998235 0.029874241056423344 0 0.11156155518563027 0.028415063249366757 0 0.11241671788004037 0.028845636108965268 0 0.10637985027185627 0.059703276177862655 0 0.1084367985883905 0.060211442280580077 0 0.1061553586344153 0.055589893828106508 0 0.11156155518563027 0.028415063249366757 0 0.11271352489210819 0.028364854374557113 0 0.11241671788004037 0.028845636108965268 0 0.10724802237858325 0.041352964862865889 0 0.11329883365666935 0.035098529233907397 0 0.11915342844628793 0.024676152705123154 0 0.1182767005749259 0.02610174702839347 0 0.11634878135589682 0.025901449520129429 0 0.10724802237858325 0.041352964862865889 0 0.10727834661216482 0.040511071815763848 0 0.1182767005749259 0.02610174702839347 0 0.11973161944750253 0.025815036706373168 0 0.11888620173301863 0.027064765020149074 0 0.11915342844628793 0.024676152705123154 0 0.1182767005749259 0.02610174702839347 0 0.11973161944750253 0.025815036706373168 0 0.11280350738099708 0.027932659440339961 0 0.11318714427250806 0.028260063310216871 0 0.1132591365117448 0.027770268699416279 0 0.11156155518563027 0.028415063249366757 0 0.11280350738099708 0.027932659440339961 0 0.11271352489210819 0.028364854374557113 0 0.11271352489210819 0.028364854374557113 0 0.11318714427250806 0.028260063310216871 0 0.11241671788004037 0.028845636108965268 0 0.11280350738099708 0.027932659440339961 0 0.11271352489210819 0.028364854374557113 0 0.11318714427250806 0.028260063310216871 0 0.0082099827124941741 0.055969072295522754 0 0.011322997481588501 0.049673144726617012 0 0.011149228819412179 0.053787265533683938 0 0.091445156099642252 0.050602444483082293 0 0.074728892096652927 0.045193871580383148 0 0.011322997481588501 0.049673144726617012 0 0.011149228819412179 0.053787265533683938 0 0.012679180571024806 0.051790490600882345 0 0.11227142438998235 0.029874241056423344 0 0.11318714427250806 0.028260063310216871 0 0.11241671788004037 0.028845636108965268 0 0.0082099827124941741 0.055969072295522754 0 0.011149228819412179 0.053787265533683938 0 0.010358863837893497 0.055780569490455845 0 0.011149228819412179 0.053787265533683938 0 0.012096246843381522 0.055930436596197633 0 0.010358863837893497 0.055780569490455845 0 0.012096246843381522 0.055930436596197633 0 0.011011371612474782 0.057592873168982012 0 0.012980815192015719 0.058732482101198226 0 0.0082099827124941741 0.055969072295522754 0 0.011011371612474782 0.057592873168982012 0 0.011108732940475544 0.061550238697339006 0 0.10841899518231424 0.05925013168287005 0 0.10824302203465304 0.063435273747623727 0 0.11151490318103693 0.065734097118041207 0 0.091445156099642252 0.050602444483082293 0 0.075051149781371285 0.058024573582504797 0 0.012096246843381522 0.055930436596197633 0 0.010358863837893497 0.055780569490455845 0 0.011011371612474782 0.057592873168982012 0 0.011011371612474782 0.057592873168982012 0 0.011108732940475544 0.061550238697339006 0 0.012980815192015719 0.058732482101198226 0 0.0082099827124941741 0.055969072295522754 0 0.010358863837893497 0.055780569490455845 0 0.011011371612474782 0.057592873168982012 0 0.091445156099642252 0.050602444483082293 0 0.091955664445282373 0.05082910856393822 0 0.10637985027185627 0.059703276177862655 0 0.1084367985883905 0.060211442280580077 0 0.10733682742467043 0.06167674257817933 0 0.10841899518231424 0.05925013168287005 0 0.10733682742467043 0.06167674257817933 0 0.10824302203465304 0.063435273747623727 0 0.10637985027185627 0.059703276177862655 0 0.10733682742467043 0.06167674257817933 0 0.1053187946324388 0.061528255400491227 0 0.10733682742467043 0.06167674257817933 0 0.1053187946324388 0.061528255400491227 0 0.10591726780821382 0.064074469480156757 0 0.10733682742467043 0.06167674257817933 0 0.10591726780821382 0.064074469480156757 0 0.10824302203465304 0.063435273747623727 0 0.10591726780821382 0.064074469480156757 0 0.10824302203465304 0.063435273747623727 0 0.10821244425602917 0.066173613090678318 0 0.1041728761852366 0.065485752386000809 0 0.10591726780821382 0.064074469480156757 0 0.10619876671386699 0.066162903065263456 0 0.10591726780821382 0.064074469480156757 0 0.10821244425602917 0.066173613090678318 0 0.10619876671386699 0.066162903065263456 0 0.10744732077199154 0.068648658140344043 0 0.10485582119934718 0.0675016268682644 0 0.10619876671386699 0.066162903065263456 0 0.11039675915590061 0.068557427798793286 0 0.10744732077199154 0.068648658140344043 0 0.10821244425602917 0.066173613090678318 0 0.10744732077199154 0.068648658140344043 0 0.10821244425602917 0.066173613090678318 0 0.10619876671386699 0.066162903065263456 0 0.11039675915590061 0.068557427798793286 0 0.10821244425602917 0.066173613090678318 0 0.11151490318103693 0.065734097118041207 0 0.10824302203465304 0.063435273747623727 0 0.10821244425602917 0.066173613090678318 0 0.11151490318103693 0.065734097118041207 0 0.011108732940475544 0.061550238697339006 0 0.014710259059547776 0.060509893913163693 0 0.015023560975572694 0.063488116976696166 0 0.011108732940475544 0.061550238697339006 0 0.014710259059547776 0.060509893913163693 0 0.012980815192015719 0.058732482101198226 0 0.014710259059547776 0.060509893913163693 0 0.0178811873743773 0.061327475309478734 0 0.016314303809236631 0.057188747209100319 0 0.014710259059547776 0.060509893913163693 0 0.015023560975572694 0.063488116976696166 0 0.0178811873743773 0.061327475309478734 0 0.016314303809236631 0.057188747209100319 0 0.019328346036828519 0.054671432911756072 0 0.021242057788870804 0.058206312031477976 0 0.0178811873743773 0.061327475309478734 0 0.016314303809236631 0.057188747209100319 0 0.021242057788870804 0.058206312031477976 0 0.016314303809236631 0.057188747209100319 0 0.01419142237269877 0.055821169277351 0 0.016401829527190766 0.053123594463524118 0 0.016314303809236631 0.057188747209100319 0 0.01419142237269877 0.055821169277351 0 0.012980815192015719 0.058732482101198226 0 0.014710259059547776 0.060509893913163693 0 0.016314303809236631 0.057188747209100319 0 0.012980815192015719 0.058732482101198226 0 0.012096246843381522 0.055930436596197633 0 0.01419142237269877 0.055821169277351 0 0.012980815192015719 0.058732482101198226 0 0.011149228819412179 0.053787265533683938 0 0.012096246843381522 0.055930436596197633 0 0.01313571912163794 0.053810676529965427 0 0.012096246843381522 0.055930436596197633 0 0.01419142237269877 0.055821169277351 0 0.01313571912163794 0.053810676529965427 0 0.01419142237269877 0.055821169277351 0 0.01313571912163794 0.053810676529965427 0 0.016401829527190766 0.053123594463524118 0 0.014308354887007397 0.05171546670724788 0 0.015837464073757211 0.050076969495776905 0 0.016401829527190766 0.053123594463524118 0 0.01313571912163794 0.053810676529965427 0 0.014308354887007397 0.05171546670724788 0 0.016401829527190766 0.053123594463524118 0 0.011149228819412179 0.053787265533683938 0 0.01313571912163794 0.053810676529965427 0 0.012679180571024806 0.051790490600882345 0 0.01313571912163794 0.053810676529965427 0 0.014308354887007397 0.05171546670724788 0 0.012679180571024806 0.051790490600882345 0 0.014308354887007397 0.05171546670724788 0 0.012679180571024806 0.051790490600882345 0 0.013831555984017554 0.050261156241502375 0 0.011322997481588501 0.049673144726617012 0 0.014918696395585997 0.04803743433961432 0 0.015029752843320142 0.044052870799058279 0 0.074728892096652927 0.045193871580383148 0 0.067135237303692169 0.039312632510646574 0 0.011322997481588501 0.049673144726617012 0 0.013831555984017554 0.050261156241502375 0 0.014918696395585997 0.04803743433961432 0 0.011322997481588501 0.049673144726617012 0 0.012679180571024806 0.051790490600882345 0 0.013831555984017554 0.050261156241502375 0 0.013831555984017554 0.050261156241502375 0 0.015837464073757211 0.050076969495776905 0 0.014918696395585997 0.04803743433961432 0 0.015837464073757211 0.050076969495776905 0 0.014918696395585997 0.04803743433961432 0 0.01722098646490931 0.048425740527432377 0 0.014308354887007397 0.05171546670724788 0 0.013831555984017554 0.050261156241502375 0 0.015837464073757211 0.050076969495776905 0 0.019551807665994108 0.048112322104421242 0 0.01722098646490931 0.048425740527432377 0 0.017746537222095855 0.045926826351407303 0 0.014918696395585997 0.04803743433961432 0 0.01722098646490931 0.048425740527432377 0 0.017746537222095855 0.045926826351407303 0 0.015837464073757211 0.050076969495776905 0 0.01722098646490931 0.048425740527432377 0 0.017972699272333421 0.050184741560229701 0 0.019551807665994108 0.048112322104421242 0 0.017972699272333421 0.050184741560229701 0 0.020069154819463596 0.051472175357031198 0 0.019551807665994108 0.048112322104421242 0 0.01722098646490931 0.048425740527432377 0 0.017972699272333421 0.050184741560229701 0 0.017972699272333421 0.050184741560229701 0 0.016401829527190766 0.053123594463524118 0 0.020069154819463596 0.051472175357031198 0 0.015837464073757211 0.050076969495776905 0 0.017972699272333421 0.050184741560229701 0 0.016401829527190766 0.053123594463524118 0 0.016314303809236631 0.057188747209100319 0 0.016401829527190766 0.053123594463524118 0 0.019328346036828519 0.054671432911756072 0 0.016401829527190766 0.053123594463524118 0 0.019328346036828519 0.054671432911756072 0 0.020069154819463596 0.051472175357031198 0 0.023130898706087488 0.053381699563098552 0 0.020069154819463596 0.051472175357031198 0 0.022477835440701976 0.048772187354943326 0 0.019328346036828519 0.054671432911756072 0 0.023130898706087488 0.053381699563098552 0 0.020069154819463596 0.051472175357031198 0 0.019551807665994108 0.048112322104421242 0 0.020069154819463596 0.051472175357031198 0 0.022477835440701976 0.048772187354943326 0 0.019551807665994108 0.048112322104421242 0 0.022477835440701976 0.048772187354943326 0 0.021485758497833189 0.045078795595453629 0 0.025949575319723365 0.049473472666567965 0 0.02671136747757448 0.044905796723603141 0 0.029629908534336055 0.047962187504629175 0 0.022477835440701976 0.048772187354943326 0 0.025949575319723365 0.049473472666567965 0 0.02671136747757448 0.044905796723603141 0 0.023130898706087488 0.053381699563098552 0 0.025949575319723365 0.049473472666567965 0 0.027637879744242595 0.05253394556632341 0 0.023130898706087488 0.053381699563098552 0 0.022477835440701976 0.048772187354943326 0 0.025949575319723365 0.049473472666567965 0 0.023130898706087488 0.053381699563098552 0 0.025730849294651595 0.056823502264485855 0 0.027637879744242595 0.05253394556632341 0 0.019328346036828519 0.054671432911756072 0 0.023130898706087488 0.053381699563098552 0 0.021242057788870804 0.058206312031477976 0 0.023130898706087488 0.053381699563098552 0 0.025730849294651595 0.056823502264485855 0 0.021242057788870804 0.058206312031477976 0 0.021493697774052398 0.063432935834312906 0 0.021242057788870804 0.058206312031477976 0 0.024870202945958281 0.061087849645554852 0 0.021493697774052398 0.063432935834312906 0 0.0178811873743773 0.061327475309478734 0 0.021242057788870804 0.058206312031477976 0 0.025730849294651595 0.056823502264485855 0 0.021242057788870804 0.058206312031477976 0 0.024870202945958281 0.061087849645554852 0 0.025730849294651595 0.056823502264485855 0 0.024870202945958281 0.061087849645554852 0 0.028570135165699513 0.061476903991064764 0 0.025472706655089827 0.065217050576995741 0 0.024870202945958281 0.061087849645554852 0 0.028570135165699513 0.061476903991064764 0 0.1109636855871232 0.069926418671538135 0 0.11148503792170612 0.068772197450112219 0 0.11061928008319166 0.068235151844939501 0 0.1109636855871232 0.069926418671538135 0 0.11061928008319166 0.068235151844939501 0 0.10891460112662678 0.069129254804558851 0 0.10842224508679787 0.072849808168118854 0 0.10522493955199835 0.075380439654517545 0 0.1109636855871232 0.069926418671538135 0 0.11204101099815671 0.068690653528705181 0 0.11148503792170612 0.068772197450112219 0 0.1109636855871232 0.069926418671538135 0 0.11204101099815671 0.068690653528705181 0 0.11239095399536005 0.068284603804660449 0 0.11204101099815671 0.068690653528705181 0 0.11148503792170612 0.068772197450112219 0 0.11188618521272729 0.068247967276040183 0 0.11204101099815671 0.068690653528705181 0 0.11188618521272729 0.068247967276040183 0 0.11241080916137373 0.068645618388787813 0 0.11188618521272729 0.068247967276040183 0 0.11230379594330862 0.06777974322278503 0 0.11241080916137373 0.068645618388787813 0 0.11188618521272729 0.068247967276040183 0 0.11230379594330862 0.06777974322278503 0 0.11138333978514693 0.066671295932557287 0 0.11061928008319166 0.068235151844939501 0 0.10979058788319329 0.066428586088976213 0 0.11138333978514693 0.066671295932557287 0 0.11061928008319166 0.068235151844939501 0 0.10979058788319329 0.066428586088976213 0 0.10859266730366679 0.067656396347387585 0 0.11188618521272729 0.068247967276040183 0 0.11061928008319166 0.068235151844939501 0 0.11138333978514693 0.066671295932557287 0 0.11148503792170612 0.068772197450112219 0 0.11188618521272729 0.068247967276040183 0 0.11061928008319166 0.068235151844939501 0 0.10979058788319329 0.066428586088976213 0 0.10859266730366679 0.067656396347387585 0 0.10772857678149504 0.064502659125836109 0 0.10859266730366679 0.067656396347387585 0 0.10693030965909268 0.067730341976832448 0 0.10772857678149504 0.064502659125836109 0 0.11061928008319166 0.068235151844939501 0 0.10859266730366679 0.067656396347387585 0 0.10891460112662678 0.069129254804558851 0 0.10859266730366679 0.067656396347387585 0 0.10693030965909268 0.067730341976832448 0 0.10742659112637197 0.069133990046243682 0 0.10499966302739608 0.067212644116822498 0 0.10693030965909268 0.067730341976832448 0 0.10772857678149504 0.064502659125836109 0 0.10499966302739608 0.067212644116822498 0 0.10693030965909268 0.067730341976832448 0 0.10577947897400507 0.070320669703254179 0 0.10499966302739608 0.067212644116822498 0 0.10577947897400507 0.070320669703254179 0 0.10499996509552681 0.072779774825121726 0 0.10577947897400507 0.070320669703254179 0 0.10660049126705849 0.0708972455181857 0 0.10615634562423107 0.071813361675893264 0 0.10693030965909268 0.067730341976832448 0 0.10577947897400507 0.070320669703254179 0 0.10742659112637197 0.069133990046243682 0 0.10577947897400507 0.070320669703254179 0 0.10742659112637197 0.069133990046243682 0 0.10660049126705849 0.0708972455181857 0 0.10842224508679787 0.072849808168118854 0 0.10766232310441212 0.072246900424897106 0 0.1109636855871232 0.069926418671538135 0 0.10660049126705849 0.0708972455181857 0 0.10891460112662678 0.069129254804558851 0 0.10742659112637197 0.069133990046243682 0 0.10660049126705849 0.0708972455181857 0 0.10891460112662678 0.069129254804558851 0 0.10859266730366679 0.067656396347387585 0 0.10742659112637197 0.069133990046243682 0 0.10891460112662678 0.069129254804558851 0 0.10660049126705849 0.0708972455181857 0 0.1077785029401291 0.071572543460837537 0 0.10700620207695388 0.07178041008828126 0 0.10849437877726369 0.071116239801277292 0 0.10660049126705849 0.0708972455181857 0 0.1077785029401291 0.071572543460837537 0 0.10700620207695388 0.07178041008828126 0 0.10677796161807976 0.072227164976535793 0 0.10769179175459441 0.072299444425785453 0 0.1077785029401291 0.071572543460837537 0 0.10700620207695388 0.07178041008828126 0 0.10769179175459441 0.072299444425785453 0 0.10414375168792202 0.073935714067393993 0 0.10398788336438995 0.075542713623728747 0 0.10577947897400507 0.070320669703254179 0 0.10499996509552681 0.072779774825121726 0 0.10602461723898174 0.07416150906889768 0 0.10499996509552681 0.072779774825121726 0 0.10602461723898174 0.07416150906889768 0 0.10500003001290627 0.078347883262067389 0 0.10660049126705849 0.0708972455181857 0 0.10700620207695388 0.07178041008828126 0 0.10615634562423107 0.071813361675893264 0 0.10700620207695388 0.07178041008828126 0 0.10615634562423107 0.071813361675893264 0 0.10677796161807976 0.072227164976535793 0 0.10615634562423107 0.071813361675893264 0 0.10677796161807976 0.072227164976535793 0 0.10623947425456076 0.073001075658076897 0 0.10398788336438995 0.075542713623728747 0 0.10342548671008561 0.080149202634195602 0 0.10677796161807976 0.072227164976535793 0 0.10623947425456076 0.073001075658076897 0 0.10769179175459441 0.072299444425785453 0 0.10602461723898174 0.07416150906889768 0 0.10620224334431735 0.077820579322833927 0 0.10500003001290627 0.078347883262067389 0 0.10342548671008561 0.080149202634195602 0 0.10499560983888433 0.078358214907647147 0 0.099965371258296479 0.094956636783770337 0 0.10194989094706564 0.096038959517389944 0 0.099187697233882793 0.096496147183749548 0 0.10342548671008561 0.080149202634195602 0 0.1027479008784257 0.080966235851963789 0 0.099965371258296479 0.094956636783770337 0 0.099187697233882793 0.096496147183749548 0 0.097503283823163159 0.09495956122121893 0 0.097503283823163159 0.09495956122121893 0 0.097130017635326832 0.095729858771332124 0 0.095499820615741984 0.095021650601455607 0 0.099187697233882793 0.096496147183749548 0 0.097503283823163159 0.09495956122121893 0 0.097130017635326832 0.095729858771332124 0 0.099187697233882793 0.096496147183749548 0 0.097130017635326832 0.095729858771332124 0 0.096258388316468699 0.096574128807944332 0 0.1027479008784257 0.080966235851963789 0 0.10265209397705179 0.079777598885586914 0 0.1077785029401291 0.071572543460837537 0 0.10769179175459441 0.072299444425785453 0 0.10896583288928212 0.071669529819107167 0 0.10849437877726369 0.071116239801277292 0 0.1077785029401291 0.071572543460837537 0 0.10896583288928212 0.071669529819107167 0 0.10265209397705179 0.079777598885586914 0 0.10522493955199835 0.075380439654517545 0 0.096258388316468699 0.096574128807944332 0 0.095499820615741984 0.095021650601455607 0 0.092683777513033486 0.096522817773161101 0 0.10849437877726369 0.071116239801277292 0 0.10896583288928212 0.071669529819107167 0 0.11011679803732044 0.071168535393270754 0 0.095707744208901865 0.093934996108429508 0 0.095499820615741984 0.095021650601455607 0 0.093647092035711615 0.093881406092366296 0 0.095707744208901865 0.093934996108429508 0 0.097503283823163159 0.09495956122121893 0 0.095499820615741984 0.095021650601455607 0 0.097130017635326832 0.095729858771332124 0 0.096258388316468699 0.096574128807944332 0 0.095499820615741984 0.095021650601455607 0 0.093938674033900341 0.093471513152008079 0 0.093647092035711615 0.093881406092366296 0 0.091360698655891429 0.093369345275441246 0 0.088124177746468496 0.098781688674626375 0 0.087970992682802784 0.097312190535413345 0 0.093822076156608272 0.093139369782835393 0 0.091360698655891429 0.093369345275441246 0 0.087560247445729975 0.09292170296096075 0 0.08993860196243908 0.094362354972162901 0 0.087688759117364456 0.093666167906892014 0 0.092683777513033486 0.096522817773161101 0 0.091360698655891429 0.093369345275441246 0 0.087560247445729975 0.09292170296096075 0 0.08993860196243908 0.094362354972162901 0 0.087560247445729975 0.09292170296096075 0 0.08993860196243908 0.094362354972162901 0 0.087688759117364456 0.093666167906892014 0 0.095499820615741984 0.095021650601455607 0 0.093647092035711615 0.093881406092366296 0 0.092683777513033486 0.096522817773161101 0 0.093647092035711615 0.093881406092366296 0 0.091360698655891429 0.093369345275441246 0 0.092683777513033486 0.096522817773161101 0 0.091360698655891429 0.093369345275441246 0 0.08993860196243908 0.094362354972162901 0 0.092683777513033486 0.096522817773161101 0 0.088844918550166851 0.096472488148619057 0 0.085700749910338811 0.096492595951461271 0 0.087631665575242865 0.091936746351602455 0 0.088844918550166851 0.096472488148619057 0 0.091534796332436247 0.090483205021845356 0 0.087631665575242865 0.091936746351602455 0 0.081107652161421628 0.10038956638912815 0 0.087560247445729975 0.09292170296096075 0 0.085700749910338811 0.096492595951461271 0 0.087560247445729975 0.09292170296096075 0 0.085700749910338811 0.096492595951461271 0 0.087631665575242865 0.091936746351602455 0 0.087560247445729975 0.09292170296096075 0 0.087508749986342477 0.091383243902351335 0 0.087631665575242865 0.091936746351602455 0 0.087508749986342477 0.091383243902351335 0 0.088728541921947138 0.086196249386665119 0 0.087688759117364456 0.093666167906892014 0 0.087560247445729975 0.09292170296096075 0 0.087508749986342477 0.091383243902351335 0 0.087688759117364456 0.093666167906892014 0 0.091534796332436247 0.090483205021845356 0 0.087631665575242865 0.091936746351602455 0 0.088728541921947138 0.086196249386665119 0 0.087508749986342477 0.091383243902351335 0 0.087631665575242865 0.091936746351602455 0 0.088728541921947138 0.086196249386665119 0 0.099773412009548368 0.071740847528403484 0 0.10144713582047246 0.070359873739251289 0 0.10257180322586586 0.071156721631510711 0 0.10144713582047246 0.070359873739251289 0 0.10493749841277357 0.069754467768384509 0 0.10257180322586586 0.071156721631510711 0 0.10144713582047246 0.070359873739251289 0 0.10493749841277357 0.069754467768384509 0 0.10812841116851221 0.066649491399378785 0 0.10052306479130092 0.077788567506511266 0 0.10131142181056201 0.077279402358829463 0 0.10493749841277357 0.069754467768384509 0 0.1073437067643865 0.069863796701203976 0 0.10918147579409355 0.068469615592140209 0 0.10493749841277357 0.069754467768384509 0 0.10812841116851221 0.066649491399378785 0 0.10918147579409355 0.068469615592140209 0 0.1073437067643865 0.069863796701203976 0 0.10522353995940106 0.071439964324660085 0 0.10853951797817597 0.070413334699292313 0 0.10522353995940106 0.071439964324660085 0 0.10853951797817597 0.070413334699292313 0 0.10779735205878956 0.072158558469296238 0 0.10493749841277357 0.069754467768384509 0 0.1073437067643865 0.069863796701203976 0 0.10522353995940106 0.071439964324660085 0 0.10493749841277357 0.069754467768384509 0 0.10522353995940106 0.071439964324660085 0 0.10257180322586586 0.071156721631510711 0 0.10522353995940106 0.071439964324660085 0 0.10257180322586586 0.071156721631510711 0 0.101487782915044 0.073386820827430782 0 0.099773412009548368 0.071740847528403484 0 0.10257180322586586 0.071156721631510711 0 0.101487782915044 0.073386820827430782 0 0.11239095399536005 0.068284603804660449 0 0.11209678661733515 0.069109235705324026 0 0.11241080916137373 0.068645618388787813 0 0.11204101099815671 0.068690653528705181 0 0.11239095399536005 0.068284603804660449 0 0.11241080916137373 0.068645618388787813 0 0.11239095399536005 0.068284603804660449 0 0.11051777866212617 0.069172932454853966 0 0.11209678661733515 0.069109235705324026 0 0.10522493955199835 0.075380439654517545 0 0.10841186166075931 0.073103904916704418 0 0.10131142181056201 0.077279402358829463 0 0.10522493955199835 0.075380439654517545 0 0.11239095399536005 0.068284603804660449 0 0.10918147579409355 0.068469615592140209 0 0.11051777866212617 0.069172932454853966 0 0.10812841116851221 0.066649491399378785 0 0.11335666819846446 0.066660332964189245 0 0.10918147579409355 0.068469615592140209 0 0.1073437067643865 0.069863796701203976 0 0.10918147579409355 0.068469615592140209 0 0.11051777866212617 0.069172932454853966 0 0.11051777866212617 0.069172932454853966 0 0.1108713308054424 0.070030457797162521 0 0.11209678661733515 0.069109235705324026 0 0.1073437067643865 0.069863796701203976 0 0.11051777866212617 0.069172932454853966 0 0.10853951797817597 0.070413334699292313 0 0.11051777866212617 0.069172932454853966 0 0.10853951797817597 0.070413334699292313 0 0.1108713308054424 0.070030457797162521 0 0.10853951797817597 0.070413334699292313 0 0.1108713308054424 0.070030457797162521 0 0.10779735205878956 0.072158558469296238 0 0.1108713308054424 0.070030457797162521 0 0.11209678661733515 0.069109235705324026 0 0.11271409137843388 0.069543892637925514 0 0.11209678661733515 0.069109235705324026 0 0.11296416584750367 0.068503626379905591 0 0.11271409137843388 0.069543892637925514 0 0.11209678661733515 0.069109235705324026 0 0.11241080916137373 0.068645618388787813 0 0.11296416584750367 0.068503626379905591 0 0.11230379594330862 0.06777974322278503 0 0.11241080916137373 0.068645618388787813 0 0.11296416584750367 0.068503626379905591 0 0.11296416584750367 0.068503626379905591 0 0.11347486133406612 0.066334007205454543 0 0.11240242162121675 0.06629678667754485 0 0.11296416584750367 0.068503626379905591 0 0.11347486133406612 0.066334007205454543 0 0.11412181703633885 0.069112318233553724 0 0.11347486133406612 0.066334007205454543 0 0.11412181703633885 0.069112318233553724 0 0.1156478670897773 0.064163886928426728 0 0.11296416584750367 0.068503626379905591 0 0.11412181703633885 0.069112318233553724 0 0.11271409137843388 0.069543892637925514 0 0.1108713308054424 0.070030457797162521 0 0.11271409137843388 0.069543892637925514 0 0.11146290510621218 0.071127274087624176 0 0.11412181703633885 0.069112318233553724 0 0.11271409137843388 0.069543892637925514 0 0.11146290510621218 0.071127274087624176 0 0.1108713308054424 0.070030457797162521 0 0.11146290510621218 0.071127274087624176 0 0.10779735205878956 0.072158558469296238 0 0.11146290510621218 0.071127274087624176 0 0.10779735205878956 0.072158558469296238 0 0.10851410761224216 0.07389783437521466 0 0.11146290510621218 0.071127274087624176 0 0.11138054531570772 0.074360777052735069 0 0.10851410761224216 0.07389783437521466 0 0.11412181703633885 0.069112318233553724 0 0.11828330249691288 0.067199679196306858 0 0.1156478670897773 0.064163886928426728 0 0.11056026134355482 0.064158731107830186 0 0.11043477258076867 0.063974856572068375 0 0.11412181703633885 0.069112318233553724 0 0.11146290510621218 0.071127274087624176 0 0.11159983156388353 0.072086952079394043 0 0.11044435684535178 0.064498808895506327 0 0.11043477258076867 0.063974856572068375 0 0.11043477258076867 0.063974856572068375 0 0.10909495748218644 0.063700856054116448 0 0.11154589778467701 0.060683907193909065 0 0.11155008028512789 0.060589878083512259 0 0.11162612451884535 0.0606358056391769 0 0.11828330249691288 0.067199679196306858 0 0.11873512454704058 0.061780056443209601 0 0.1156478670897773 0.064163886928426728 0 0.11043477258076867 0.063974856572068375 0 0.11195304884647665 0.060348503454024857 0 0.11873512454704058 0.061780056443209601 0 0.1156478670897773 0.064163886928426728 0 0.1157169016150687 0.059893120739357153 0 0.1156478670897773 0.064163886928426728 0 0.1157169016150687 0.059893120739357153 0 0.11288483749149276 0.062558042247483667 0 0.11347486133406612 0.066334007205454543 0 0.1156478670897773 0.064163886928426728 0 0.11288483749149276 0.062558042247483667 0 0.10522353995940106 0.071439964324660085 0 0.101487782915044 0.073386820827430782 0 0.10440224445168927 0.073917216352658965 0 0.10108393708900767 0.075709334760152763 0 0.10244280024663532 0.075500403007178862 0 0.101487782915044 0.073386820827430782 0 0.10244280024663532 0.075500403007178862 0 0.10440224445168927 0.073917216352658965 0 0.1040509106463805 0.076106016146841426 0 0.10244280024663532 0.075500403007178862 0 0.101487782915044 0.073386820827430782 0 0.10440224445168927 0.073917216352658965 0 0.10628363768096213 0.074517912264861458 0 0.10440224445168927 0.073917216352658965 0 0.10779735205878956 0.072158558469296238 0 0.10628363768096213 0.074517912264861458 0 0.10440224445168927 0.073917216352658965 0 0.1040509106463805 0.076106016146841426 0 0.10522353995940106 0.071439964324660085 0 0.10440224445168927 0.073917216352658965 0 0.10779735205878956 0.072158558469296238 0 0.10628363768096213 0.074517912264861458 0 0.10851410761224216 0.07389783437521466 0 0.10625210773157434 0.076940420369462054 0 0.10628363768096213 0.074517912264861458 0 0.10779735205878956 0.072158558469296238 0 0.10851410761224216 0.07389783437521466 0 0.11138054531570772 0.074360777052735069 0 0.10851410761224216 0.07389783437521466 0 0.10625210773157434 0.076940420369462054 0 0.10909495748218644 0.063700856054116448 0 0.10954442437639948 0.06125843721675988 0 0.11162612451884535 0.0606358056391769 0 0.11170035037744602 0.060593056698460511 0 0.1116295619667149 0.060548179175656497 0 0.11155008028512789 0.060589878083512259 0 0.11162612451884535 0.0606358056391769 0 0.1116295619667149 0.060548179175656497 0 0.10628363768096213 0.074517912264861458 0 0.10625210773157434 0.076940420369462054 0 0.1040509106463805 0.076106016146841426 0 0.10625210773157434 0.076940420369462054 0 0.1040509106463805 0.076106016146841426 0 0.1026191463108645 0.078287285918222621 0 0.10244280024663532 0.075500403007178862 0 0.1040509106463805 0.076106016146841426 0 0.1026191463108645 0.078287285918222621 0 0.10108393708900767 0.075709334760152763 0 0.10244280024663532 0.075500403007178862 0 0.1026191463108645 0.078287285918222621 0 0.11875925368602702 0.048355166669701626 0 0.11763876953173569 0.047681965878130471 0 0.11895213774995891 0.046633811484493477 0 0.10954442437639948 0.06125843721675988 0 0.11175825853385978 0.058185229597767327 0 0.11175825853385978 0.058185229597767327 0 0.11278342594442504 0.055898201742653378 0 0.11763876953173569 0.047681965878130471 0 0.11746694258301908 0.046669104413305587 0 0.11660241024670343 0.047038351816553053 0 0.11746694258301908 0.046669104413305587 0 0.11895213774995891 0.046633811484493477 0 0.11781124461562907 0.045810559771550227 0 0.11763876953173569 0.047681965878130471 0 0.11746694258301908 0.046669104413305587 0 0.11895213774995891 0.046633811484493477 0 0.11746694258301908 0.046669104413305587 0 0.11671706095555659 0.045723386820862438 0 0.11781124461562907 0.045810559771550227 0 0.1157169016150687 0.059893120739357153 0 0.11464711565992203 0.054643462242148923 0 0.11370379905922343 0.058554236894056325 0 0.1157169016150687 0.059893120739357153 0 0.11370379905922343 0.058554236894056325 0 0.11288483749149276 0.062558042247483667 0 0.11873512454704058 0.061780056443209601 0 0.1157169016150687 0.059893120739357153 0 0.11894067136567429 0.057940714988828586 0 0.11155008028512789 0.060589878083512259 0 0.1116295619667149 0.060548179175656497 0 0.11155427232359226 0.060496931858704167 0 0.11195304884647665 0.060348503454024857 0 0.11278342594442504 0.055898201742653378 0 0.11278342594442504 0.055898201742653378 0 0.11407960073272289 0.050109032165137901 0 0.11685619159734742 0.051945726732601442 0 0.11330068907852452 0.05001093760968562 0 0.11692634825508409 0.049021136315193441 0 0.11746694258301908 0.046669104413305587 0 0.11660241024670343 0.047038351816553053 0 0.11671706095555659 0.045723386820862438 0 0.1157169016150687 0.059893120739357153 0 0.11894067136567429 0.057940714988828586 0 0.11464711565992203 0.054643462242148923 0 0.11278342594442504 0.055898201742653378 0 0.11250936335913637 0.053721400598966906 0 0.11464711565992203 0.054643462242148923 0 0.11014304117537813 0.055006735495988383 0 0.11150537254510863 0.05848347507264505 0 0.11464711565992203 0.054643462242148923 0 0.11150537254510863 0.05848347507264505 0 0.11370379905922343 0.058554236894056325 0 0.11464711565992203 0.054643462242148923 0 0.11014304117537813 0.055006735495988383 0 0.11038250953304281 0.049956772681446979 0 0.11150537254510863 0.05848347507264505 0 0.11060750382203102 0.061804952285888934 0 0.10919387488537108 0.058743176142720357 0 0.11014304117537813 0.055006735495988383 0 0.11150537254510863 0.05848347507264505 0 0.10919387488537108 0.058743176142720357 0 0.11150537254510863 0.05848347507264505 0 0.11370379905922343 0.058554236894056325 0 0.11288483749149276 0.062558042247483667 0 0.11288483749149276 0.062558042247483667 0 0.1113929639788116 0.064315717894366548 0 0.11060750382203102 0.061804952285888934 0 0.11288483749149276 0.062558042247483667 0 0.1113929639788116 0.064315717894366548 0 0.11240242162121675 0.06629678667754485 0 0.11150537254510863 0.05848347507264505 0 0.11288483749149276 0.062558042247483667 0 0.11060750382203102 0.061804952285888934 0 0.11347486133406612 0.066334007205454543 0 0.11288483749149276 0.062558042247483667 0 0.11240242162121675 0.06629678667754485 0 0.11060750382203102 0.061804952285888934 0 0.10886448630941647 0.061728072668234789 0 0.10919387488537108 0.058743176142720357 0 0.11060750382203102 0.061804952285888934 0 0.11002708645040256 0.064322139493335914 0 0.10886448630941647 0.061728072668234789 0 0.1113929639788116 0.064315717894366548 0 0.11060750382203102 0.061804952285888934 0 0.11002708645040256 0.064322139493335914 0 0.1113929639788116 0.064315717894366548 0 0.11002708645040256 0.064322139493335914 0 0.11138333978514693 0.066671295932557287 0 0.10979058788319329 0.066428586088976213 0 0.11002708645040256 0.064322139493335914 0 0.11138333978514693 0.066671295932557287 0 0.11230379594330862 0.06777974322278503 0 0.11138333978514693 0.066671295932557287 0 0.11240242162121675 0.06629678667754485 0 0.11230379594330862 0.06777974322278503 0 0.11296416584750367 0.068503626379905591 0 0.11240242162121675 0.06629678667754485 0 0.1113929639788116 0.064315717894366548 0 0.11138333978514693 0.066671295932557287 0 0.11240242162121675 0.06629678667754485 0 0.10499966302739608 0.067212644116822498 0 0.10772857678149504 0.064502659125836109 0 0.10499907402432365 0.061646738913353399 0 0.11002708645040256 0.064322139493335914 0 0.10772857678149504 0.064502659125836109 0 0.10886448630941647 0.061728072668234789 0 0.10979058788319329 0.066428586088976213 0 0.11002708645040256 0.064322139493335914 0 0.10772857678149504 0.064502659125836109 0 0.10772857678149504 0.064502659125836109 0 0.10886448630941647 0.061728072668234789 0 0.10677833338957834 0.059100341430120919 0 0.10772857678149504 0.064502659125836109 0 0.10499907402432365 0.061646738913353399 0 0.10677833338957834 0.059100341430120919 0 0.10499898961275167 0.056079344765850733 0 0.10677833338957834 0.059100341430120919 0 0.10747890045683206 0.055808909212716883 0 0.10499907402432365 0.061646738913353399 0 0.10499898961275167 0.056079344765850733 0 0.10677833338957834 0.059100341430120919 0 0.10677833338957834 0.059100341430120919 0 0.10919387488537108 0.058743176142720357 0 0.10747890045683206 0.055808909212716883 0 0.10886448630941647 0.061728072668234789 0 0.10677833338957834 0.059100341430120919 0 0.10919387488537108 0.058743176142720357 0 0.11014304117537813 0.055006735495988383 0 0.10919387488537108 0.058743176142720357 0 0.10747890045683206 0.055808909212716883 0 0.11014304117537813 0.055006735495988383 0 0.10747890045683206 0.055808909212716883 0 0.10812052314999109 0.052237297621948453 0 0.10499898961275167 0.056079344765850733 0 0.10747890045683206 0.055808909212716883 0 0.10499896908505828 0.050511216130958575 0 0.10747890045683206 0.055808909212716883 0 0.10499896908505828 0.050511216130958575 0 0.10812052314999109 0.052237297621948453 0 0.10499896908505828 0.050511216130958575 0 0.10812052314999109 0.052237297621948453 0 0.10836555804157054 0.047059876559065794 0 0.10812052314999109 0.052237297621948453 0 0.10836555804157054 0.047059876559065794 0 0.11220257406968945 0.047127025251607495 0 0.10499896908505828 0.050511216130958575 0 0.10836555804157054 0.047059876559065794 0 0.10499946787979836 0.044945353169032906 0 0.11330068907852452 0.05001093760968562 0 0.11248876019088053 0.048111588660808315 0 0.11038250953304281 0.049956772681446979 0 0.11250936335913637 0.053721400598966906 0 0.11101697722218937 0.05229159262454032 0 0.11014304117537813 0.055006735495988383 0 0.10812052314999109 0.052237297621948453 0 0.11038250953304281 0.049956772681446979 0 0.10812052314999109 0.052237297621948453 0 0.11038250953304281 0.049956772681446979 0 0.11040744332502468 0.046605940587305252 0 0.10956335295620714 0.04891663458191952 0 0.11128909054940073 0.046548021363358852 0 0.10836555804157054 0.047059876559065794 0 0.11220257406968945 0.047127025251607495 0 0.11146547413227026 0.044277796757053296 0 0.11248876019088053 0.048111588660808315 0 0.11038250953304281 0.049956772681446979 0 0.11040744332502468 0.046605940587305252 0 0.11248876019088053 0.048111588660808315 0 0.11040744332502468 0.046605940587305252 0 0.11365287351120321 0.045892651048192033 0 0.11220257406968945 0.047127025251607495 0 0.11146547413227026 0.044277796757053296 0 0.11472947711696575 0.042502268081138744 0 0.11128909054940073 0.046548021363358852 0 0.11374111873775095 0.043072949866152899 0 0.11146547413227026 0.044277796757053296 0 0.11283073396002237 0.041961172837075976 0 0.11472947711696575 0.042502268081138744 0 0.11040744332502468 0.046605940587305252 0 0.11314340294779152 0.042077273194855602 0 0.11365287351120321 0.045892651048192033 0 0.11146547413227026 0.044277796757053296 0 0.11283073396002237 0.041961172837075976 0 0.10888503455863616 0.043664826301705414 0 0.11220455836540198 0.041862332534471039 0 0.10881203842837764 0.043311409411728903 0 0.1106470395112516 0.040185773087624485 0 0.11273619392416996 0.040783008506769733 0 0.10939674576971473 0.042663340990649563 0 0.1106470395112516 0.040185773087624485 0 0.11273619392416996 0.040783008506769733 0 0.11216311124330158 0.039152860300619402 0 0.11283073396002237 0.041961172837075976 0 0.11472947711696575 0.042502268081138744 0 0.11533160952000583 0.040138765782665078 0 0.11220455836540198 0.041862332534471039 0 0.11383133149887759 0.041178635087372163 0 0.11273619392416996 0.040783008506769733 0 0.11352642662349813 0.03959454373954148 0 0.11533160952000583 0.040138765782665078 0 0.11273619392416996 0.040783008506769733 0 0.11216311124330158 0.039152860300619402 0 0.11352642662349813 0.03959454373954148 0 0.10500356575199804 0.044942188951812193 0 0.10881203842837764 0.043311409411728903 0 0.10499992976471768 0.044942922062740191 0 0.10939674576971473 0.042663340990649563 0 0.10820140997238836 0.040153669134003901 0 0.10836555804157054 0.047059876559065794 0 0.10499946787979836 0.044945353169032906 0 0.10888503455863616 0.043664826301705414 0 0.10836555804157054 0.047059876559065794 0 0.11146547413227026 0.044277796757053296 0 0.10888503455863616 0.043664826301705414 0 0.1106470395112516 0.040185773087624485 0 0.10939674576971473 0.042663340990649563 0 0.10820140997238836 0.040153669134003901 0 0.1106470395112516 0.040185773087624485 0 0.10820140997238836 0.040153669134003901 0 0.11033690898927541 0.038219187182433299 0 0.10499992976471768 0.044942922062740191 0 0.10820140997238836 0.040153669134003901 0 0.10499969809238731 0.038681287258643081 0 0.10820140997238836 0.040153669134003901 0 0.10499969809238731 0.038681287258643081 0 0.10798293213037827 0.036657752563055382 0 0.10499969809238731 0.038681287258643081 0 0.10798293213037827 0.036657752563055382 0 0.104999901118513 0.032420078081999433 0 0.10913158217966505 0.034045400450708606 0 0.10798293213037827 0.036657752563055382 0 0.104999901118513 0.032420078081999433 0 0.10913158217966505 0.034045400450708606 0 0.10798293213037827 0.036657752563055382 0 0.11045655052115105 0.036319911950405945 0 0.10798293213037827 0.036657752563055382 0 0.11033690898927541 0.038219187182433299 0 0.11045655052115105 0.036319911950405945 0 0.10820140997238836 0.040153669134003901 0 0.10798293213037827 0.036657752563055382 0 0.11033690898927541 0.038219187182433299 0 0.1106470395112516 0.040185773087624485 0 0.11033690898927541 0.038219187182433299 0 0.11216311124330158 0.039152860300619402 0 0.11033690898927541 0.038219187182433299 0 0.11216311124330158 0.039152860300619402 0 0.11202912745293638 0.037275504436563564 0 0.11033690898927541 0.038219187182433299 0 0.11202912745293638 0.037275504436563564 0 0.11045655052115105 0.036319911950405945 0 0.11352642662349813 0.03959454373954148 0 0.11338242728364506 0.038396983207028293 0 0.11430611628415459 0.039060435147319585 0 0.11216311124330158 0.039152860300619402 0 0.11352642662349813 0.03959454373954148 0 0.11338242728364506 0.038396983207028293 0 0.11202912745293638 0.037275504436563564 0 0.11338242728364506 0.038396983207028293 0 0.11359202346742725 0.037196976209420939 0 0.11216311124330158 0.039152860300619402 0 0.11202912745293638 0.037275504436563564 0 0.11338242728364506 0.038396983207028293 0 0.11338242728364506 0.038396983207028293 0 0.11359202346742725 0.037196976209420939 0 0.11501253291062628 0.038131953245931112 0 0.11392928341419188 0.034625238584384731 0 0.11465273389343693 0.034193085188494912 0 0.11526892340139509 0.035629335103034628 0 0.11235845781372436 0.03463520108185731 0 0.11467980200312318 0.035386113870895096 0 0.11359202346742725 0.037196976209420939 0 0.11240355520263348 0.035537818505996424 0 0.1148685018638987 0.036607519815242996 0 0.11202912745293638 0.037275504436563564 0 0.11359202346742725 0.037196976209420939 0 0.11240355520263348 0.035537818505996424 0 0.10913158217966505 0.034045400450708606 0 0.11045655052115105 0.036319911950405945 0 0.11240355520263348 0.035537818505996424 0 0.10898095713461112 0.033607694081436927 0 0.11235845781372436 0.03463520108185731 0 0.11202912745293638 0.037275504436563564 0 0.11045655052115105 0.036319911950405945 0 0.11240355520263348 0.035537818505996424 0 0.10987329929883682 0.033798934897957413 0 0.11392928341419188 0.034625238584384731 0 0.11317934953556825 0.032635222685015647 0 0.11392928341419188 0.034625238584384731 0 0.11317934953556825 0.032635222685015647 0 0.11465273389343693 0.034193085188494912 0 0.11317934953556825 0.032635222685015647 0 0.11465273389343693 0.034193085188494912 0 0.11489232862164911 0.033746536454241881 0 0.11824567390968455 0.028449531132033221 0 0.11328520232287945 0.028208359505703422 0 0.11550370483699306 0.024798741916305902 0 0.11372415351512966 0.030463464046908195 0 0.11489453775998251 0.028988059240689156 0 0.11317934953556825 0.032635222685015647 0 0.11328520232287945 0.028208359505703422 0 0.10908626416145149 0.029433249869497264 0 0.11317934953556825 0.032635222685015647 0 0.11824567390968455 0.028449531132033221 0 0.11328520232287945 0.028208359505703422 0 0.10908626416145149 0.029433249869497264 0 0.11080885656210072 0.025803893401875916 0 0.10777928582898548 0.025531277608116947 0 0.11328520232287945 0.028208359505703422 0 0.10908626416145149 0.029433249869497264 0 0.11080885656210072 0.025803893401875916 0 0.10908626416145149 0.029433249869497264 0 0.1049998428807373 0.027535250316771575 0 0.10777928582898548 0.025531277608116947 0 0.10987329929883682 0.033798934897957413 0 0.10908626416145149 0.029433249869497264 0 0.10499989241392933 0.032419214522233078 0 0.10898095713461112 0.033607694081436927 0 0.10500432737495827 0.032420322578645633 0 0.10908626416145149 0.029433249869497264 0 0.1049998428807373 0.027535250316771575 0 0.10499989241392933 0.032419214522233078 0 0.10987329929883682 0.033798934897957413 0 0.11317934953556825 0.032635222685015647 0 0.10908626416145149 0.029433249869497264 0 0.1175375588425632 0.034837420016208542 0 0.11661361954532259 0.035544264118681695 0 0.11835632678432563 0.036744107647053374 0 0.11872864933195547 0.035097051142174311 0 0.1175375588425632 0.034837420016208542 0 0.11835632678432563 0.036744107647053374 0 0.11872864933195547 0.035097051142174311 0 0.11835632678432563 0.036744107647053374 0 0.11983655345264871 0.036109645396473357 0 0.11872864933195547 0.035097051142174311 0 0.11795057471773354 0.034078302198025261 0 0.1175375588425632 0.034837420016208542 0 0.11872864933195547 0.035097051142174311 0 0.11983421405451841 0.034844151675497724 0 0.11884023107811682 0.033971002481273903 0 0.11872864933195547 0.035097051142174311 0 0.11795057471773354 0.034078302198025261 0 0.11884023107811682 0.033971002481273903 0 0.11795057471773354 0.034078302198025261 0 0.1175375588425632 0.034837420016208542 0 0.11702008411294736 0.033976033933994038 0 0.1175375588425632 0.034837420016208542 0 0.11702008411294736 0.033976033933994038 0 0.11626474584143309 0.034341318308841205 0 0.1175375588425632 0.034837420016208542 0 0.11626474584143309 0.034341318308841205 0 0.11661361954532259 0.035544264118681695 0 0.11702008411294736 0.033976033933994038 0 0.11626474584143309 0.034341318308841205 0 0.11610017819186656 0.033323610106054918 0 0.11489232862164911 0.033746536454241881 0 0.11626474584143309 0.034341318308841205 0 0.11544881115473402 0.034598822639451722 0 0.11489232862164911 0.033746536454241881 0 0.11626474584143309 0.034341318308841205 0 0.11610017819186656 0.033323610106054918 0 0.11465273389343693 0.034193085188494912 0 0.11544881115473402 0.034598822639451722 0 0.11526892340139509 0.035629335103034628 0 0.11465273389343693 0.034193085188494912 0 0.11489232862164911 0.033746536454241881 0 0.11544881115473402 0.034598822639451722 0 0.11544881115473402 0.034598822639451722 0 0.11661361954532259 0.035544264118681695 0 0.11526892340139509 0.035629335103034628 0 0.11626474584143309 0.034341318308841205 0 0.11544881115473402 0.034598822639451722 0 0.11661361954532259 0.035544264118681695 0 0.11569731088955684 0.035702322571853719 0 0.11467980200312318 0.035386113870895096 0 0.11661361954532259 0.035544264118681695 0 0.11678796103661283 0.036982417164831034 0 0.11526892340139509 0.035629335103034628 0 0.11678796103661283 0.036982417164831034 0 0.1148685018638987 0.036607519815242996 0 0.11501253291062628 0.038131953245931112 0 0.11359202346742725 0.037196976209420939 0 0.1148685018638987 0.036607519815242996 0 0.11501253291062628 0.038131953245931112 0 0.11352642662349813 0.03959454373954148 0 0.11430611628415459 0.039060435147319585 0 0.11533160952000583 0.040138765782665078 0 0.11338242728364506 0.038396983207028293 0 0.11501253291062628 0.038131953245931112 0 0.11430611628415459 0.039060435147319585 0 0.11501253291062628 0.038131953245931112 0 0.11610122030734464 0.038824372595785014 0 0.11533160952000583 0.040138765782665078 0 0.11501253291062628 0.038131953245931112 0 0.11430611628415459 0.039060435147319585 0 0.11533160952000583 0.040138765782665078 0 0.11610122030734464 0.038824372595785014 0 0.11785424929099425 0.039201074021051309 0 0.1168405413335146 0.040371336276903452 0 0.11678796103661283 0.036982417164831034 0 0.11501253291062628 0.038131953245931112 0 0.11610122030734464 0.038824372595785014 0 0.11678796103661283 0.036982417164831034 0 0.11610122030734464 0.038824372595785014 0 0.11785424929099425 0.039201074021051309 0 0.11678796103661283 0.036982417164831034 0 0.11785424929099425 0.039201074021051309 0 0.11835632678432563 0.036744107647053374 0 0.11661361954532259 0.035544264118681695 0 0.11678796103661283 0.036982417164831034 0 0.11835632678432563 0.036744107647053374 0 0.11835632678432563 0.036744107647053374 0 0.11930966338231903 0.039404949185129906 0 0.11987746197986815 0.037832421142602754 0 0.11785424929099425 0.039201074021051309 0 0.11835632678432563 0.036744107647053374 0 0.11930966338231903 0.039404949185129906 0 0.11785424929099425 0.039201074021051309 0 0.11930966338231903 0.039404949185129906 0 0.11885873232774939 0.041365563275138545 0 0.11785424929099425 0.039201074021051309 0 0.11760384885128446 0.04172017402314137 0 0.1168405413335146 0.040371336276903452 0 0.11785424929099425 0.039201074021051309 0 0.11885873232774939 0.041365563275138545 0 0.11760384885128446 0.04172017402314137 0 0.11760384885128446 0.04172017402314137 0 0.11686800554775109 0.043158243835619968 0 0.11803625084908317 0.043539927497485774 0 0.11885873232774939 0.041365563275138545 0 0.11760384885128446 0.04172017402314137 0 0.11803625084908317 0.043539927497485774 0 0.11885873232774939 0.041365563275138545 0 0.11803625084908317 0.043539927497485774 0 0.11966810383396653 0.04295754267239367 0 0.11610122030734464 0.038824372595785014 0 0.11472947711696575 0.042502268081138744 0 0.11533160952000583 0.040138765782665078 0 0.11508086938629672 0.041215600291697491 0 0.11374111873775095 0.043072949866152899 0 0.11314340294779152 0.042077273194855602 0 0.11572802944275615 0.040644080610234827 0 0.11511688974935934 0.042010931421402317 0 0.11610122030734464 0.038824372595785014 0 0.11314340294779152 0.042077273194855602 0 0.11572802944275615 0.040644080610234827 0 0.11572802944275615 0.040644080610234827 0 0.11628823651501105 0.041852469504599046 0 0.11511688974935934 0.042010931421402317 0 0.11610122030734464 0.038824372595785014 0 0.11572802944275615 0.040644080610234827 0 0.1168405413335146 0.040371336276903452 0 0.11572802944275615 0.040644080610234827 0 0.1168405413335146 0.040371336276903452 0 0.11628823651501105 0.041852469504599046 0 0.11760384885128446 0.04172017402314137 0 0.1168405413335146 0.040371336276903452 0 0.11628823651501105 0.041852469504599046 0 0.11760384885128446 0.04172017402314137 0 0.11628823651501105 0.041852469504599046 0 0.11686800554775109 0.043158243835619968 0 0.11686800554775109 0.043158243835619968 0 0.11515324933097988 0.043464513481141366 0 0.11673327578538752 0.04510747419756269 0 0.11628823651501105 0.041852469504599046 0 0.11511688974935934 0.042010931421402317 0 0.11515324933097988 0.043464513481141366 0 0.11628823651501105 0.041852469504599046 0 0.11686800554775109 0.043158243835619968 0 0.11515324933097988 0.043464513481141366 0 0.11314340294779152 0.042077273194855602 0 0.11515324933097988 0.043464513481141366 0 0.11365287351120321 0.045892651048192033 0 0.11314340294779152 0.042077273194855602 0 0.11511688974935934 0.042010931421402317 0 0.11515324933097988 0.043464513481141366 0 0.11248876019088053 0.048111588660808315 0 0.11365287351120321 0.045892651048192033 0 0.11481083501463016 0.047497640442976351 0 0.11365287351120321 0.045892651048192033 0 0.11673327578538752 0.04510747419756269 0 0.11481083501463016 0.047497640442976351 0 0.11515324933097988 0.043464513481141366 0 0.11365287351120321 0.045892651048192033 0 0.11673327578538752 0.04510747419756269 0 0.11446596187773221 0.048338024824455018 0 0.11407960073272289 0.050109032165137901 0 0.11673327578538752 0.04510747419756269 0 0.11692634825508409 0.049021136315193441 0 0.11481083501463016 0.047497640442976351 0 0.11673327578538752 0.04510747419756269 0 0.11671706095555659 0.045723386820862438 0 0.11753373763582599 0.045054362910344682 0 0.11330068907852452 0.05001093760968562 0 0.11692634825508409 0.049021136315193441 0 0.11481083501463016 0.047497640442976351 0 0.11330068907852452 0.05001093760968562 0 0.11248876019088053 0.048111588660808315 0 0.11481083501463016 0.047497640442976351 0 0.11803625084908317 0.043539927497485774 0 0.11869450883233715 0.044908204069241321 0 0.11966810383396653 0.04295754267239367 0 0.11803625084908317 0.043539927497485774 0 0.11753373763582599 0.045054362910344682 0 0.11869450883233715 0.044908204069241321 0 0.11686800554775109 0.043158243835619968 0 0.11673327578538752 0.04510747419756269 0 0.11803625084908317 0.043539927497485774 0 0.11673327578538752 0.04510747419756269 0 0.11803625084908317 0.043539927497485774 0 0.11753373763582599 0.045054362910344682 0 0.11753373763582599 0.045054362910344682 0 0.11781124461562907 0.045810559771550227 0 0.11869450883233715 0.044908204069241321 0 0.11671706095555659 0.045723386820862438 0 0.11753373763582599 0.045054362910344682 0 0.11781124461562907 0.045810559771550227 0 0.11895213774995891 0.046633811484493477 0 0.11781124461562907 0.045810559771550227 0 0.11869450883233715 0.044908204069241321 0 0.11895213774995891 0.046633811484493477 0 0.11869450883233715 0.044908204069241321 0 0.11976836430426822 0.045626465276823007 0 0.11869450883233715 0.044908204069241321 0 0.11976836430426822 0.045626465276823007 0 0.12011622814355651 0.044504006758017453 0 0.11976836430426822 0.045626465276823007 0 0.12011622814355651 0.044504006758017453 0 0.12105224146837534 0.045632832518881734 0 0.12011622814355651 0.044504006758017453 0 0.11966810383396653 0.04295754267239367 0 0.12148556544235316 0.043374314641590084 0 0.11869450883233715 0.044908204069241321 0 0.12011622814355651 0.044504006758017453 0 0.11966810383396653 0.04295754267239367 0 0.12090222046731558 0.030272783461975157 0 0.12145823387691153 0.026696491376983173 0 0.11997828153206129 0.027653389652606764 0 0.12011622814355651 0.044504006758017453 0 0.12148556544235316 0.043374314641590084 0 0.12105224146837534 0.045632832518881734 0 0.11879984435067244 0.037492275422676344 0 0.11645475026497638 0.039437286325088187 0 0.11973161944750253 0.025815036706373168 0 0.12145823387691153 0.026696491376983173 0 0.11997828153206129 0.027653389652606764 0 0.11973161944750253 0.025815036706373168 0 0.11997828153206129 0.027653389652606764 0 0.11888620173301863 0.027064765020149074 0 0.1182767005749259 0.02610174702839347 0 0.11888620173301863 0.027064765020149074 0 0.11730648780840847 0.027531455449039257 0 0.11882754450728024 0.028796562490942389 0 0.11730648780840847 0.027531455449039257 0 0.11721457664033363 0.029292182015156196 0 0.11888620173301863 0.027064765020149074 0 0.11882754450728024 0.028796562490942389 0 0.11730648780840847 0.027531455449039257 0 0.11997828153206129 0.027653389652606764 0 0.11888620173301863 0.027064765020149074 0 0.11882754450728024 0.028796562490942389 0 0.11634878135589682 0.025901449520129429 0 0.11483207768176304 0.027641991029761455 0 0.1132591365117448 0.027770268699416279 0 0.11329883365666935 0.035098529233907397 0 0.11433402175159722 0.033611859789580568 0 0.11634878135589682 0.025901449520129429 0 0.11483207768176304 0.027641991029761455 0 0.11603443199602835 0.027417165769668315 0 0.11634878135589682 0.025901449520129429 0 0.11730648780840847 0.027531455449039257 0 0.11603443199602835 0.027417165769668315 0 0.1182767005749259 0.02610174702839347 0 0.11634878135589682 0.025901449520129429 0 0.11730648780840847 0.027531455449039257 0 0.11730648780840847 0.027531455449039257 0 0.11603443199602835 0.027417165769668315 0 0.11564979472083503 0.02847042086319301 0 0.11730648780840847 0.027531455449039257 0 0.11564979472083503 0.02847042086319301 0 0.11721457664033363 0.029292182015156196 0 0.11483207768176304 0.027641991029761455 0 0.11564979472083503 0.02847042086319301 0 0.11410791588119445 0.028216910138201115 0 0.11483207768176304 0.027641991029761455 0 0.11603443199602835 0.027417165769668315 0 0.11564979472083503 0.02847042086319301 0 0.11620772553578641 0.03068115585453501 0 0.11417428799362439 0.029707770178597534 0 0.11438341734529177 0.032498681407391934 0 0.11564979472083503 0.02847042086319301 0 0.11620772553578641 0.03068115585453501 0 0.11417428799362439 0.029707770178597534 0 0.11564979472083503 0.02847042086319301 0 0.11721457664033363 0.029292182015156196 0 0.11620772553578641 0.03068115585453501 0 0.11721457664033363 0.029292182015156196 0 0.11620772553578641 0.03068115585453501 0 0.1184037027937286 0.030987548098847573 0 0.12090222046731558 0.030272783461975157 0 0.11882754450728024 0.028796562490942389 0 0.1184037027937286 0.030987548098847573 0 0.12090222046731558 0.030272783461975157 0 0.11997828153206129 0.027653389652606764 0 0.11882754450728024 0.028796562490942389 0 0.11882754450728024 0.028796562490942389 0 0.11721457664033363 0.029292182015156196 0 0.1184037027937286 0.030987548098847573 0 0.1184037027937286 0.030987548098847573 0 0.11691037903765626 0.033023186879350089 0 0.12048037273440225 0.034087826083836384 0 0.12090222046731558 0.030272783461975157 0 0.1184037027937286 0.030987548098847573 0 0.12048037273440225 0.034087826083836384 0 0.11620772553578641 0.03068115585453501 0 0.11691037903765626 0.033023186879350089 0 0.11438341734529177 0.032498681407391934 0 0.11620772553578641 0.03068115585453501 0 0.1184037027937286 0.030987548098847573 0 0.11691037903765626 0.033023186879350089 0 0.11691037903765626 0.033023186879350089 0 0.11575938379100884 0.035206559599941241 0 0.11438341734529177 0.032498681407391934 0 0.11691037903765626 0.033023186879350089 0 0.11575938379100884 0.035206559599941241 0 0.11815066037686872 0.03527237577932206 0 0.11575938379100884 0.035206559599941241 0 0.11815066037686872 0.03527237577932206 0 0.11732359716595726 0.037257166677512714 0 0.11953517080020092 0.037838619544112675 0 0.1196148960073115 0.03834427759898798 0 0.11815066037686872 0.03527237577932206 0 0.12048037273440225 0.034087826083836384 0 0.12017807978514713 0.038648417341755302 0 0.11691037903765626 0.033023186879350089 0 0.11815066037686872 0.03527237577932206 0 0.12048037273440225 0.034087826083836384 0 0.12142701582721886 0.040833364538774661 0 0.12026027387554837 0.041238525970841579 0 0.12031668240051027 0.039575627806953881 0 0.12142701582721886 0.040833364538774661 0 0.12031668240051027 0.039575627806953881 0 0.12017807978514713 0.038648417341755302 0 0.11930966338231903 0.039404949185129906 0 0.11885873232774939 0.041365563275138545 0 0.12026027387554837 0.041238525970841579 0 0.11930966338231903 0.039404949185129906 0 0.12026027387554837 0.041238525970841579 0 0.12031668240051027 0.039575627806953881 0 0.11966810383396653 0.04295754267239367 0 0.12148556544235316 0.043374314641590084 0 0.12026027387554837 0.041238525970841579 0 0.11885873232774939 0.041365563275138545 0 0.11966810383396653 0.04295754267239367 0 0.12026027387554837 0.041238525970841579 0 0.12148556544235316 0.043374314641590084 0 0.12142701582721886 0.040833364538774661 0 0.12026027387554837 0.041238525970841579 0 0.11879984435067244 0.037492275422676344 0 0.11953517080020092 0.037838619544112675 0 0.02671136747757448 0.044905796723603141 0 0.023577314838276475 0.04196906755934858 0 0.027071489893779624 0.038775658712186689 0 0.023577314838276475 0.04196906755934858 0 0.022478137375360915 0.038740298297937736 0 0.027071489893779624 0.038775658712186689 0 0.02671136747757448 0.044905796723603141 0 0.021485758497833189 0.045078795595453629 0 0.023577314838276475 0.04196906755934858 0 0.022477835440701976 0.048772187354943326 0 0.02671136747757448 0.044905796723603141 0 0.021485758497833189 0.045078795595453629 0 0.021485758497833189 0.045078795595453629 0 0.023577314838276475 0.04196906755934858 0 0.019988048852713276 0.042418065829837377 0 0.018629556920159693 0.038965618371596775 0 0.019988048852713276 0.042418065829837377 0 0.022478137375360915 0.038740298297937736 0 0.023577314838276475 0.04196906755934858 0 0.019988048852713276 0.042418065829837377 0 0.022478137375360915 0.038740298297937736 0 0.018629556920159693 0.038965618371596775 0 0.019988048852713276 0.042418065829837377 0 0.015029752843320142 0.044052870799058279 0 0.060527144277140038 0.036155246187086945 0 0.067135237303692169 0.039312632510646574 0 0.11028109888233317 0.030932101777716256 0 0.11321134866711986 0.027692922323713013 0 0.11273169701463945 0.030943913230616127 0 0.021485758497833189 0.045078795595453629 0 0.019988048852713276 0.042418065829837377 0 0.017746537222095855 0.045926826351407303 0 0.019988048852713276 0.042418065829837377 0 0.017746537222095855 0.045926826351407303 0 0.015029752843320142 0.044052870799058279 0 0.019551807665994108 0.048112322104421242 0 0.021485758497833189 0.045078795595453629 0 0.017746537222095855 0.045926826351407303 0 0.11318714427250806 0.028260063310216871 0 0.11321134866711986 0.027692922323713013 0 0.1132591365117448 0.027770268699416279 0 0.014918696395585997 0.04803743433961432 0 0.017746537222095855 0.045926826351407303 0 0.015029752843320142 0.044052870799058279 0 0.11321134866711986 0.027692922323713013 0 0.11410791588119445 0.028216910138201115 0 0.11417428799362439 0.029707770178597534 0 0.11483207768176304 0.027641991029761455 0 0.1132591365117448 0.027770268699416279 0 0.11410791588119445 0.028216910138201115 0 0.11321134866711986 0.027692922323713013 0 0.1132591365117448 0.027770268699416279 0 0.11410791588119445 0.028216910138201115 0 0.11564979472083503 0.02847042086319301 0 0.11410791588119445 0.028216910138201115 0 0.11417428799362439 0.029707770178597534 0 0.11417428799362439 0.029707770178597534 0 0.11273169701463945 0.030943913230616127 0 0.11438341734529177 0.032498681407391934 0 0.11321134866711986 0.027692922323713013 0 0.11417428799362439 0.029707770178597534 0 0.11273169701463945 0.030943913230616127 0 0.11273169701463945 0.030943913230616127 0 0.11438341734529177 0.032498681407391934 0 0.11167919716046207 0.034092795694686873 0 0.11438341734529177 0.032498681407391934 0 0.11386005038965964 0.034413127638698145 0 0.11167919716046207 0.034092795694686873 0 0.11575938379100884 0.035206559599941241 0 0.11438341734529177 0.032498681407391934 0 0.11386005038965964 0.034413127638698145 0 0.11350457082814075 0.036262407915636119 0 0.11167919716046207 0.034092795694686873 0 0.11147529482558111 0.038030368182393262 0 0.11575938379100884 0.035206559599941241 0 0.11386005038965964 0.034413127638698145 0 0.11350457082814075 0.036262407915636119 0 0.11575938379100884 0.035206559599941241 0 0.11350457082814075 0.036262407915636119 0 0.11557301144109478 0.037960793192597111 0 0.11386005038965964 0.034413127638698145 0 0.11350457082814075 0.036262407915636119 0 0.11167919716046207 0.034092795694686873 0 0.047917976498554705 0.039398160512609214 0 0.073218010337126979 0.042533929621601352 0 0.11167919716046207 0.034092795694686873 0 0.10737161266162329 0.034385572580403985 0 0.11147529482558111 0.038030368182393262 0 0.11028109888233317 0.030932101777716256 0 0.11167919716046207 0.034092795694686873 0 0.10737161266162329 0.034385572580403985 0 0.11028109888233317 0.030932101777716256 0 0.11273169701463945 0.030943913230616127 0 0.11167919716046207 0.034092795694686873 0 0.022478137375360915 0.038740298297937736 0 0.022071638469402598 0.034055458828919791 0 0.027071489893779624 0.038775658712186689 0 0.018629556920159693 0.038965618371596775 0 0.022478137375360915 0.038740298297937736 0 0.022071638469402598 0.034055458828919791 0 0.060527144277140038 0.036155246187086945 0 0.047917976498554705 0.039398160512609214 0 0.031578052562619849 0.039878759721190621 0 0.02979790188644011 0.039750285354620989 0 0.035590854120548271 0.046429083914079322 0 0.031578052562619849 0.039878759721190621 0 0.032224052350037079 0.03898655214680341 0 0.035590854120548271 0.046429083914079322 0 0.031578052562619849 0.039878759721190621 0 0.0313233620944635 0.039399861599709582 0 0.02979790188644011 0.039750285354620989 0 0.047781785540367931 0.039504035856175679 0 0.047917976498554705 0.039398160512609214 0 0.0313233620944635 0.039399861599709582 0 0.02979790188644011 0.039750285354620989 0 0.030093623723350896 0.039975497420267264 0 0.02979790188644011 0.039750285354620989 0 0.030300732696532912 0.038993623293952763 0 0.029889120900465027 0.037935664127426681 0 0.02979790188644011 0.039750285354620989 0 0.030300732696532912 0.038993623293952763 0 0.030093623723350896 0.039975497420267264 0 0.030300732696532912 0.038993623293952763 0 0.030093623723350896 0.039975497420267264 0 0.03111040091500452 0.039720501844989951 0 0.0313233620944635 0.039399861599709582 0 0.030093623723350896 0.039975497420267264 0 0.029999049614785663 0.040917123101890669 0 0.030093623723350896 0.039975497420267264 0 0.029999049614785663 0.040917123101890669 0 0.03111040091500452 0.039720501844989951 0 0.047917976498554705 0.039398160512609214 0 0.035266598999089661 0.036866234548344541 0 0.029129048361976162 0.036054260189977934 0 0.029917116561731988 0.036552349392237442 0 0.0306126461423896 0.035080329607477256 0 0.029129048361976162 0.036054260189977934 0 0.028416755113322124 0.035537850488569271 0 0.0306126461423896 0.035080329607477256 0 0.029129048361976162 0.036054260189977934 0 0.029917116561731988 0.036552349392237442 0 0.029173389453844064 0.037018812502480888 0 0.029917116561731988 0.036552349392237442 0 0.029889120900465027 0.037935664127426681 0 0.03068556918375679 0.036937663042973405 0 0.030300732696532912 0.038993623293952763 0 0.029889120900465027 0.037935664127426681 0 0.03068556918375679 0.036937663042973405 0 0.02979790188644011 0.039750285354620989 0 0.029889120900465027 0.037935664127426681 0 0.029007031916814911 0.038104152818125084 0 0.029917116561731988 0.036552349392237442 0 0.029889120900465027 0.037935664127426681 0 0.029173389453844064 0.037018812502480888 0 0.029889120900465027 0.037935664127426681 0 0.029173389453844064 0.037018812502480888 0 0.029007031916814911 0.038104152818125084 0 0.02979790188644011 0.039750285354620989 0 0.029007031916814911 0.038104152818125084 0 0.027445572768253639 0.037409793317794204 0 0.029173389453844064 0.037018812502480888 0 0.028470766376801567 0.037256977457392391 0 0.028211799109028164 0.036567690194738663 0 0.038479561308981239 0.034642111383091478 0 0.043294177823425886 0.034657686974252852 0 0.029173389453844064 0.037018812502480888 0 0.028470766376801567 0.037256977457392391 0 0.029007031916814911 0.038104152818125084 0 0.028470766376801567 0.037256977457392391 0 0.029007031916814911 0.038104152818125084 0 0.027445572768253639 0.037409793317794204 0 0.028470766376801567 0.037256977457392391 0 0.028211799109028164 0.036567690194738663 0 0.027445572768253639 0.037409793317794204 0 0.028211799109028164 0.036567690194738663 0 0.027577779964193437 0.036591907362335925 0 0.027445572768253639 0.037409793317794204 0 0.028211799109028164 0.036567690194738663 0 0.027606096726366592 0.036072032565389787 0 0.027577779964193437 0.036591907362335925 0 0.029129048361976162 0.036054260189977934 0 0.029173389453844064 0.037018812502480888 0 0.028211799109028164 0.036567690194738663 0 0.029129048361976162 0.036054260189977934 0 0.028211799109028164 0.036567690194738663 0 0.028265308088486974 0.036026770586286588 0 0.029129048361976162 0.036054260189977934 0 0.028265308088486974 0.036026770586286588 0 0.028416755113322124 0.035537850488569271 0 0.028265308088486974 0.036026770586286588 0 0.027606096726366592 0.036072032565389787 0 0.028416755113322124 0.035537850488569271 0 0.028211799109028164 0.036567690194738663 0 0.028265308088486974 0.036026770586286588 0 0.027606096726366592 0.036072032565389787 0 0.027606096726366592 0.036072032565389787 0 0.027062619440277713 0.036327652217352603 0 0.025938450499000582 0.035801329251456467 0 0.027606096726366592 0.036072032565389787 0 0.025938450499000582 0.035801329251456467 0 0.028416755113322124 0.035537850488569271 0 0.064028367682882295 0.037348783857263292 0 0.037562047352863004 0.035539245696466396 0 0.027062619440277713 0.036327652217352603 0 0.027445572768253639 0.037409793317794204 0 0.025938450499000582 0.035801329251456467 0 0.043294177823425886 0.034657686974252852 0 0.064028367682882295 0.037348783857263292 0 0.027062619440277713 0.036327652217352603 0 0.027577779964193437 0.036591907362335925 0 0.027445572768253639 0.037409793317794204 0 0.027606096726366592 0.036072032565389787 0 0.027062619440277713 0.036327652217352603 0 0.027577779964193437 0.036591907362335925 0 0.035590854120548271 0.046429083914079322 0 0.040045694143483454 0.045524601832490519 0 0.043532200001328326 0.053534114092605029 0 0.032224052350037079 0.03898655214680341 0 0.035590854120548271 0.046429083914079322 0 0.040045694143483454 0.045524601832490519 0 0.11147529482558111 0.038030368182393262 0 0.1141179680838731 0.038446750904989849 0 0.11592894799888498 0.041518272982120595 0 0.11350457082814075 0.036262407915636119 0 0.11147529482558111 0.038030368182393262 0 0.1141179680838731 0.038446750904989849 0 0.11350457082814075 0.036262407915636119 0 0.1141179680838731 0.038446750904989849 0 0.11557301144109478 0.037960793192597111 0 0.073218010337126979 0.042533929621601352 0 0.092115579656369032 0.042127729587695242 0 0.040045694143483454 0.045524601832490519 0 0.043532200001328326 0.053534114092605029 0 0.048561874128151064 0.052965178634584102 0 0.064028367682882295 0.037348783857263292 0 0.092115579656369032 0.042127729587695242 0 0.052040319510890443 0.032756638428959609 0 0.053118740390684135 0.036034268738409467 0 0.060622176973317454 0.035553974601147169 0 0.051039156403511553 0.026921668524785825 0 0.052040319510890443 0.032756638428959609 0 0.060622176973317454 0.035553974601147169 0 0.051039156403511553 0.026921668524785825 0 0.052040319510890443 0.032756638428959609 0 0.047244179125988751 0.03093834472948237 0 0.048146306549940524 0.034348808303621921 0 0.052040319510890443 0.032756638428959609 0 0.047244179125988751 0.03093834472948237 0 0.048146306549940524 0.034348808303621921 0 0.052040319510890443 0.032756638428959609 0 0.053118740390684135 0.036034268738409467 0 0.053118740390684135 0.036034268738409467 0 0.04941058465886921 0.038868138619984477 0 0.055725434480662063 0.04081330346287726 0 0.04941058465886921 0.038868138619984477 0 0.055725434480662063 0.04081330346287726 0 0.049156030073120555 0.0442658111488093 0 0.048146306549940524 0.034348808303621921 0 0.053118740390684135 0.036034268738409467 0 0.04941058465886921 0.038868138619984477 0 0.048146306549940524 0.034348808303621921 0 0.04941058465886921 0.038868138619984477 0 0.044299624610060089 0.036159281155950164 0 0.04941058465886921 0.038868138619984477 0 0.044299624610060089 0.036159281155950164 0 0.044603871188265136 0.040948461423955106 0 0.04941058465886921 0.038868138619984477 0 0.044603871188265136 0.040948461423955106 0 0.049156030073120555 0.0442658111488093 0 0.044603871188265136 0.040948461423955106 0 0.039777766585179439 0.037636608976981033 0 0.040085880225613268 0.042854884400003276 0 0.044603871188265136 0.040948461423955106 0 0.040085880225613268 0.042854884400003276 0 0.043458460901915477 0.045908730258117612 0 0.044299624610060089 0.036159281155950164 0 0.044603871188265136 0.040948461423955106 0 0.039777766585179439 0.037636608976981033 0 0.051039156403511553 0.026921668524785825 0 0.042828631859649045 0.030809057115473343 0 0.036152406812122777 0.029165293867463814 0 0.044299624610060089 0.036159281155950164 0 0.040760631589940644 0.033461653198646003 0 0.039777766585179439 0.037636608976981033 0 0.051039156403511553 0.026921668524785825 0 0.047244179125988751 0.03093834472948237 0 0.042828631859649045 0.030809057115473343 0 0.040760631589940644 0.033461653198646003 0 0.044066691791848397 0.032987991431532901 0 0.042828631859649045 0.030809057115473343 0 0.044299624610060089 0.036159281155950164 0 0.040760631589940644 0.033461653198646003 0 0.044066691791848397 0.032987991431532901 0 0.048146306549940524 0.034348808303621921 0 0.044066691791848397 0.032987991431532901 0 0.047244179125988751 0.03093834472948237 0 0.048146306549940524 0.034348808303621921 0 0.044299624610060089 0.036159281155950164 0 0.044066691791848397 0.032987991431532901 0 0.044066691791848397 0.032987991431532901 0 0.047244179125988751 0.03093834472948237 0 0.042828631859649045 0.030809057115473343 0 0.040760631589940644 0.033461653198646003 0 0.042828631859649045 0.030809057115473343 0 0.037950735521976552 0.031120351308271878 0 0.042828631859649045 0.030809057115473343 0 0.037950735521976552 0.031120351308271878 0 0.036152406812122777 0.029165293867463814 0 0.037950735521976552 0.031120351308271878 0 0.036602374952713075 0.030476055107212598 0 0.03663016311867448 0.031922993751755675 0 0.037950735521976552 0.031120351308271878 0 0.036602374952713075 0.030476055107212598 0 0.036152406812122777 0.029165293867463814 0 0.03663016311867448 0.031922993751755675 0 0.035668035448517772 0.02990889382611564 0 0.034929703587825399 0.034339873044019087 0 0.036602374952713075 0.030476055107212598 0 0.036152406812122777 0.029165293867463814 0 0.035668035448517772 0.02990889382611564 0 0.036602374952713075 0.030476055107212598 0 0.03663016311867448 0.031922993751755675 0 0.035668035448517772 0.02990889382611564 0 0.03663016311867448 0.031922993751755675 0 0.034929703587825399 0.034339873044019087 0 0.037682532026665168 0.034159341204562259 0 0.034929703587825399 0.034339873044019087 0 0.037682532026665168 0.034159341204562259 0 0.036269873138324575 0.036913869637984681 0 0.040760631589940644 0.033461653198646003 0 0.037682532026665168 0.034159341204562259 0 0.039777766585179439 0.037636608976981033 0 0.037950735521976552 0.031120351308271878 0 0.03663016311867448 0.031922993751755675 0 0.037682532026665168 0.034159341204562259 0 0.040760631589940644 0.033461653198646003 0 0.037950735521976552 0.031120351308271878 0 0.037682532026665168 0.034159341204562259 0 0.039777766585179439 0.037636608976981033 0 0.036004674148622559 0.040941476649550841 0 0.036269873138324575 0.036913869637984681 0 0.037682532026665168 0.034159341204562259 0 0.039777766585179439 0.037636608976981033 0 0.036269873138324575 0.036913869637984681 0 0.039777766585179439 0.037636608976981033 0 0.040085880225613268 0.042854884400003276 0 0.036004674148622559 0.040941476649550841 0 0.036004674148622559 0.040941476649550841 0 0.032991441951412688 0.038144473570407005 0 0.031097850219978945 0.041355648932310168 0 0.034929703587825399 0.034339873044019087 0 0.036269873138324575 0.036913869637984681 0 0.032991441951412688 0.038144473570407005 0 0.036004674148622559 0.040941476649550841 0 0.036269873138324575 0.036913869637984681 0 0.032991441951412688 0.038144473570407005 0 0.032991441951412688 0.038144473570407005 0 0.031097850219978945 0.041355648932310168 0 0.028731648082174203 0.037286910165419018 0 0.034929703587825399 0.034339873044019087 0 0.032991441951412688 0.038144473570407005 0 0.028731648082174203 0.037286910165419018 0 0.031097850219978945 0.041355648932310168 0 0.028731648082174203 0.037286910165419018 0 0.02227706748580436 0.043925904952543032 0 0.035668035448517772 0.02990889382611564 0 0.032461106895905679 0.032001586952716689 0 0.031032686412017969 0.030958603998378468 0 0.036152406812122777 0.029165293867463814 0 0.035668035448517772 0.02990889382611564 0 0.031032686412017969 0.030958603998378468 0 0.037562047352863004 0.035539245696466396 0 0.032873710248420146 0.034422537858638844 0 0.036862875580926012 0.032868970538387769 0 0.037827564016973084 0.032765215988367909 0 0.035668035448517772 0.02990889382611564 0 0.034929703587825399 0.034339873044019087 0 0.028731648082174203 0.037286910165419018 0 0.11987746197986815 0.037832421142602754 0 0.12089180645773619 0.036624263960407764 0 0.12049098204774739 0.036493954882023748 0 0.11768052154354752 0.038779051289630433 0 0.11446715865121103 0.039297083867105682 0 0.11987746197986815 0.037832421142602754 0 0.12039550474154204 0.038989837479611475 0 0.12035493720229747 0.039880292496513835 0 0.11987746197986815 0.037832421142602754 0 0.12049098204774739 0.036493954882023748 0 0.11983655345264871 0.036109645396473357 0 0.11835632678432563 0.036744107647053374 0 0.11987746197986815 0.037832421142602754 0 0.11983655345264871 0.036109645396473357 0 0.11930966338231903 0.039404949185129906 0 0.11987746197986815 0.037832421142602754 0 0.12031668240051027 0.039575627806953881 0 0.11987746197986815 0.037832421142602754 0 0.12031668240051027 0.039575627806953881 0 0.12039550474154204 0.038989837479611475 0 0.12031668240051027 0.039575627806953881 0 0.12039550474154204 0.038989837479611475 0 0.12017807978514713 0.038648417341755302 0 0.12039550474154204 0.038989837479611475 0 0.12017807978514713 0.038648417341755302 0 0.12035493720229747 0.039880292496513835 0 0.11815066037686872 0.03527237577932206 0 0.12017807978514713 0.038648417341755302 0 0.11732359716595726 0.037257166677512714 0 0.12017807978514713 0.038648417341755302 0 0.11732359716595726 0.037257166677512714 0 0.11800477980240744 0.039186522981296559 0 0.12017807978514713 0.038648417341755302 0 0.11800477980240744 0.039186522981296559 0 0.12035493720229747 0.039880292496513835 0 0.1141179680838731 0.038446750904989849 0 0.11557301144109478 0.037960793192597111 0 0.11592894799888498 0.041518272982120595 0 0.11575938379100884 0.035206559599941241 0 0.11557301144109478 0.037960793192597111 0 0.11732359716595726 0.037257166677512714 0 0.11557301144109478 0.037960793192597111 0 0.11732359716595726 0.037257166677512714 0 0.11800477980240744 0.039186522981296559 0 0.11557301144109478 0.037960793192597111 0 0.11800477980240744 0.039186522981296559 0 0.11592894799888498 0.041518272982120595 0 0.11800477980240744 0.039186522981296559 0 0.11592894799888498 0.041518272982120595 0 0.12035493720229747 0.039880292496513835 0 0.12154116398996234 0.036321527534943478 0 0.12089180645773619 0.036624263960407764 0 0.12109988039701107 0.035836610822411061 0 0.092115579656369032 0.042127729587695242 0 0.11446715865121103 0.039297083867105682 0 0.12089180645773619 0.036624263960407764 0 0.12085834791259019 0.036126829994143413 0 0.12109988039701107 0.035836610822411061 0 0.12109988039701107 0.035836610822411061 0 0.12066191746221544 0.036141036683852337 0 0.120966605672281 0.035846290150327434 0 0.12109988039701107 0.035836610822411061 0 0.12093599721559531 0.035803528640683271 0 0.120966605672281 0.035846290150327434 0 0.12085834791259019 0.036126829994143413 0 0.12109988039701107 0.035836610822411061 0 0.12093599721559531 0.035803528640683271 0 0.064028367682882295 0.037348783857263292 0 0.085256773178470191 0.037492290941047848 0 0.11975119962607909 0.034460751385164599 0 0.12109988039701107 0.035836610822411061 0 0.12066191746221544 0.036141036683852337 0 0.11835304788323532 0.03459701998936679 0 0.11975119962607909 0.034460751385164599 0 0.12066191746221544 0.036141036683852337 0 0.092115579656369032 0.042127729587695242 0 0.099421979046602924 0.044515258701073881 0 0.060622176973317454 0.035553974601147169 0 0.06156110509654223 0.042094116922161418 0 0.055725434480662063 0.04081330346287726 0 0.053118740390684135 0.036034268738409467 0 0.060622176973317454 0.035553974601147169 0 0.055725434480662063 0.04081330346287726 0 0.060622176973317454 0.035553974601147169 0 0.06156110509654223 0.042094116922161418 0 0.067243034645138547 0.041424949164779838 0 0.06156110509654223 0.042094116922161418 0 0.067243034645138547 0.041424949164779838 0 0.070491865576389215 0.044336116463658752 0 0.12093599721559531 0.035803528640683271 0 0.12104998284342741 0.035468341445808842 0 0.12069555284783141 0.035445170857906126 0 0.12093599721559531 0.035803528640683271 0 0.120966605672281 0.035846290150327434 0 0.12104998284342741 0.035468341445808842 0 0.085256773178470191 0.037492290941047848 0 0.09440124075573969 0.035524078431717364 0 0.12066191746221544 0.036141036683852337 0 0.120966605672281 0.035846290150327434 0 0.12104998284342741 0.035468341445808842 0 0.09440124075573969 0.035524078431717364 0 0.098407854676063389 0.033997461061940362 0 0.12104998284342741 0.035468341445808842 0 0.12069555284783141 0.035445170857906126 0 0.12084935827990963 0.035114729367656708 0 0.12069555284783141 0.035445170857906126 0 0.11983421405451841 0.034844151675497724 0 0.12084935827990963 0.035114729367656708 0 0.11037980829612246 0.031857082908628133 0 0.098407854676063389 0.033997461061940362 0 0.12069555284783141 0.035445170857906126 0 0.12057676053179744 0.035867061637597418 0 0.11983421405451841 0.034844151675497724 0 0.12093599721559531 0.035803528640683271 0 0.12069555284783141 0.035445170857906126 0 0.12057676053179744 0.035867061637597418 0 0.12085834791259019 0.036126829994143413 0 0.12093599721559531 0.035803528640683271 0 0.12057676053179744 0.035867061637597418 0 0.12057676053179744 0.035867061637597418 0 0.12049098204774739 0.036493954882023748 0 0.11983655345264871 0.036109645396473357 0 0.12089180645773619 0.036624263960407764 0 0.12085834791259019 0.036126829994143413 0 0.12049098204774739 0.036493954882023748 0 0.12085834791259019 0.036126829994143413 0 0.12057676053179744 0.035867061637597418 0 0.12049098204774739 0.036493954882023748 0 0.12057676053179744 0.035867061637597418 0 0.11983655345264871 0.036109645396473357 0 0.11983421405451841 0.034844151675497724 0 0.11872864933195547 0.035097051142174311 0 0.11983655345264871 0.036109645396473357 0 0.11983421405451841 0.034844151675497724 0 0.11983421405451841 0.034844151675497724 0 0.11981044545492868 0.033540346728529888 0 0.12145402756137845 0.033810032476394115 0 0.11983421405451841 0.034844151675497724 0 0.11981044545492868 0.033540346728529888 0 0.11884023107811682 0.033971002481273903 0 0.10582910247297467 0.025689722633827978 0 0.1096637239814468 0.022677307922300442 0 0.11981044545492868 0.033540346728529888 0 0.12018602225627481 0.032416865584940932 0 0.11883695685700718 0.032968126343766758 0 0.10653475695117602 0.023645200811994987 0 0.10767377474083012 0.023674545704608568 0 0.10731597924191329 0.02398266228804688 0 0.10653475695117602 0.023645200811994987 0 0.10709424434923476 0.024243001644920405 0 0.10731597924191329 0.02398266228804688 0 0.10191094550473322 0.024588278955861208 0 0.102550907109639 0.02722209988333919 0 0.10543376679682183 0.02839619290413764 0 0.10191094550473322 0.024588278955861208 0 0.102550907109639 0.02722209988333919 0 0.10004894308603496 0.026713835449757181 0 0.10582910247297467 0.025689722633827978 0 0.1062870226009647 0.0209367116205606 0 0.10582910247297467 0.025689722633827978 0 0.10011295262283321 0.025273745829373199 0 0.10210500231410241 0.024667901500441715 0 0.096791600610021886 0.024491371998669114 0 0.097187785796106818 0.019347538833248138 0 0.10191094550473322 0.024588278955861208 0 0.10004894308603496 0.026713835449757181 0 0.096744456282752508 0.024430610132681278 0 0.10004894308603496 0.026713835449757181 0 0.096744456282752508 0.024430610132681278 0 0.095388804401585189 0.02751392498935553 0 0.11981044545492868 0.033540346728529888 0 0.12018602225627481 0.032416865584940932 0 0.12145402756137845 0.033810032476394115 0 0.10582910247297467 0.025689722633827978 0 0.10054276840528541 0.032466780374527486 0 0.11983421405451841 0.034844151675497724 0 0.12145402756137845 0.033810032476394115 0 0.12175791127094583 0.034151236634330152 0 0.096791600610021886 0.024491371998669114 0 0.097187785796106818 0.019347538833248138 0 0.09597685324506515 0.018037037947980943 0 0.10054276840528541 0.032466780374527486 0 0.098407854676063389 0.033997461061940362 0 0.096791600610021886 0.024491371998669114 0 0.093433666919900335 0.020995888716217569 0 0.09597685324506515 0.018037037947980943 0 0.098407854676063389 0.033997461061940362 0 0.075906588780985176 0.031500286692054444 0 0.093433666919900335 0.020995888716217569 0 0.09597685324506515 0.018037037947980943 0 0.087127717162178639 0.020280562185037588 0 0.06156110509654223 0.042094116922161418 0 0.070491865576389215 0.044336116463658752 0 0.057102575709448621 0.047722857516012802 0 0.093433666919900335 0.020995888716217569 0 0.087127717162178639 0.020280562185037588 0 0.091475628440684201 0.024292264193022686 0 0.06156110509654223 0.042094116922161418 0 0.055725434480662063 0.04081330346287726 0 0.057102575709448621 0.047722857516012802 0 0.087127717162178639 0.020280562185037588 0 0.086933411074832448 0.025178873366962957 0 0.091475628440684201 0.024292264193022686 0 0.085815031812061848 0.020667535718139975 0 0.094485464034332903 0.019457759992904156 0 0.090037252486079647 0.0079345982956874773 0 0.094256854404194193 0.0091750731823415834 0 0.092319233782393581 0.010085299606565387 0 0.086933411074832448 0.025178873366962957 0 0.091475628440684201 0.024292264193022686 0 0.095388804401585189 0.02751392498935553 0 0.10011295262283321 0.025273745829373199 0 0.097802366338108043 0.02512736990850143 0 0.096744456282752508 0.024430610132681278 0 0.091475628440684201 0.024292264193022686 0 0.095388804401585189 0.02751392498935553 0 0.096791600610021886 0.024491371998669114 0 0.093433666919900335 0.020995888716217569 0 0.091475628440684201 0.024292264193022686 0 0.094256854404194193 0.0091750731823415834 0 0.092319233782393581 0.010085299606565387 0 0.093887341659190104 0.011091180031282295 0 0.092319233782393581 0.010085299606565387 0 0.093887341659190104 0.011091180031282295 0 0.092467246310476411 0.011618655778519378 0 0.094256854404194193 0.0091750731823415834 0 0.093887341659190104 0.011091180031282295 0 0.095605202315286325 0.011183425390828549 0 0.090037252486079647 0.0079345982956874773 0 0.090794080295658317 0.010416310633853539 0 0.089411341448318152 0.0093779352896051892 0 0.090037252486079647 0.0079345982956874773 0 0.092319233782393581 0.010085299606565387 0 0.090794080295658317 0.010416310633853539 0 0.090794080295658317 0.010416310633853539 0 0.091025054906822417 0.011731934842601991 0 0.092467246310476411 0.011618655778519378 0 0.092319233782393581 0.010085299606565387 0 0.090794080295658317 0.010416310633853539 0 0.092467246310476411 0.011618655778519378 0 0.090794080295658317 0.010416310633853539 0 0.091025054906822417 0.011731934842601991 0 0.089320669801539701 0.011494090524460232 0 0.090794080295658317 0.010416310633853539 0 0.089411341448318152 0.0093779352896051892 0 0.089320669801539701 0.011494090524460232 0 0.091705921759129796 0.013229893117708872 0 0.089320669801539701 0.011494090524460232 0 0.090964329015975856 0.015125371213638151 0 0.088425416436604426 0.010543538951211694 0 0.087301201376085338 0.008314470477925379 0 0.091025054906822417 0.011731934842601991 0 0.091705921759129796 0.013229893117708872 0 0.089320669801539701 0.011494090524460232 0 0.091025054906822417 0.011731934842601991 0 0.091705921759129796 0.013229893117708872 0 0.092467246310476411 0.011618655778519378 0 0.091705921759129796 0.013229893117708872 0 0.094205309299467549 0.012725225872120273 0 0.094136242609970083 0.01506010393076004 0 0.091705921759129796 0.013229893117708872 0 0.092467246310476411 0.011618655778519378 0 0.094205309299467549 0.012725225872120273 0 0.093887341659190104 0.011091180031282295 0 0.092467246310476411 0.011618655778519378 0 0.094205309299467549 0.012725225872120273 0 0.093887341659190104 0.011091180031282295 0 0.094205309299467549 0.012725225872120273 0 0.095605202315286325 0.011183425390828549 0 0.094205309299467549 0.012725225872120273 0 0.096628006651695408 0.013267070504406848 0 0.094136242609970083 0.01506010393076004 0 0.094205309299467549 0.012725225872120273 0 0.096628006651695408 0.013267070504406848 0 0.095605202315286325 0.011183425390828549 0 0.096628006651695408 0.013267070504406848 0 0.097168969158840657 0.011763226599876499 0 0.095605202315286325 0.011183425390828549 0 0.096628006651695408 0.013267070504406848 0 0.098193143235203326 0.012183415019035542 0 0.098564017464919926 0.014480291136919874 0 0.098193143235203326 0.012183415019035542 0 0.098564017464919926 0.014480291136919874 0 0.10027209099992694 0.011014017724646722 0 0.096628006651695408 0.013267070504406848 0 0.098193143235203326 0.012183415019035542 0 0.097168969158840657 0.011763226599876499 0 0.098193143235203326 0.012183415019035542 0 0.097168969158840657 0.011763226599876499 0 0.098247149188089633 0.010421066428292398 0 0.10610369419452691 0.018312721602822591 0 0.10616228431139665 0.018294368823162745 0 0.10620575536906704 0.018335859175072008 0 0.098193143235203326 0.012183415019035542 0 0.098247149188089633 0.010421066428292398 0 0.10027209099992694 0.011014017724646722 0 0.10310367369682853 0.019034124897648275 0 0.10647581991530918 0.018529682259029765 0 0.102550907109639 0.02722209988333919 0 0.10363565998780733 0.029802439392644275 0 0.10543211313544598 0.028392013943539542 0 0.10617721276955334 0.02119527631449817 0 0.1062870226009647 0.0209367116205606 0 0.10363565998780733 0.029802439392644275 0 0.10543211313544598 0.028392013943539542 0 0.10605631108258566 0.029067253569156851 0 0.10310367369682853 0.019034124897648275 0 0.10605243471661259 0.020224179622097729 0 0.1062870226009647 0.0209367116205606 0 0.10605243471661259 0.020224179622097729 0 0.102550907109639 0.02722209988333919 0 0.10004894308603496 0.026713835449757181 0 0.10363565998780733 0.029802439392644275 0 0.094485464034332903 0.019457759992904156 0 0.10310367369682853 0.019034124897648275 0 0.097168969158840657 0.011763226599876499 0 0.098247149188089633 0.010421066428292398 0 0.095605202315286325 0.011183425390828549 0 0.094256854404194193 0.0091750731823415834 0 0.098349252389957911 0.010395710264144325 0 0.095605202315286325 0.011183425390828549 0 0.10310367369682853 0.019034124897648275 0 0.10124918462637847 0.018347530583075356 0 0.10004894308603496 0.026713835449757181 0 0.095388804401585189 0.02751392498935553 0 0.10363565998780733 0.029802439392644275 0 0.068424699887441542 0.005616874121137436 0 0.068794282340258764 0.0068095439658223591 0 0.066923124369580894 0.005968511765390757 0 0.068424699887441542 0.005616874121137436 0 0.068079298647903866 0.0045617088569139272 0 0.066923124369580894 0.005968511765390757 0 0.031097850219978945 0.041355648932310168 0 0.029363711355582654 0.045982876559820647 0 0.036460775200561651 0.047957584334660047 0 0.031097850219978945 0.041355648932310168 0 0.029363711355582654 0.045982876559820647 0 0.02227706748580436 0.043925904952543032 0 0.068424699887441542 0.005616874121137436 0 0.068079298647903866 0.0045617088569139272 0 0.069487320588761337 0.0049573034171932033 0 0.052774247198255214 0.02365325901969615 0 0.061463058399291934 0.022120610119740834 0 0.040085880225613268 0.042854884400003276 0 0.036004674148622559 0.040941476649550841 0 0.036867975943735781 0.048991354563965389 0 0.057210911691289397 0.025135181940112529 0 0.061463058399291934 0.022120610119740834 0 0.036004674148622559 0.040941476649550841 0 0.031097850219978945 0.041355648932310168 0 0.036867975943735781 0.048991354563965389 0 0.040085880225613268 0.042854884400003276 0 0.036867975943735781 0.048991354563965389 0 0.043458460901915477 0.045908730258117612 0 0.061463058399291934 0.022120610119740834 0 0.07102425933480648 0.023344027230987528 0 0.069487320588761337 0.0049573034171932033 0 0.070807745672747668 0.0065481704355287475 0 0.068794282340258764 0.0068095439658223591 0 0.068424699887441542 0.005616874121137436 0 0.069487320588761337 0.0049573034171932033 0 0.068794282340258764 0.0068095439658223591 0 0.082807415983420812 0.006026009182136265 0 0.08442126030873201 0.0070184132858304047 0 0.085537339313542182 0.0092318450846151489 0 0.061463058399291934 0.022120610119740834 0 0.071622168369832068 0.014043869990139927 0 0.085454475910989383 0.0067191505699009599 0 0.087456564030163997 0.0076345454742025327 0 0.085537339313542182 0.0092318450846151489 0 0.082807415983420812 0.006026009182136265 0 0.085434489515753206 0.0067349357625011933 0 0.08442126030873201 0.0070184132858304047 0 0.07102425933480648 0.023344027230987528 0 0.071982844110266425 0.022882062863502115 0 0.085454475910989383 0.0067191505699009599 0 0.08442126030873201 0.0070184132858304047 0 0.085537339313542182 0.0092318450846151489 0 0.036867975943735781 0.048991354563965389 0 0.044126028038437133 0.051190308902715642 0 0.043458460901915477 0.045908730258117612 0 0.044603871188265136 0.040948461423955106 0 0.043458460901915477 0.045908730258117612 0 0.049156030073120555 0.0442658111488093 0 0.044126028038437133 0.051190308902715642 0 0.043458460901915477 0.045908730258117612 0 0.049156030073120555 0.0442658111488093 0 0.057102575709448621 0.047722857516012802 0 0.044126028038437133 0.051190308902715642 0 0.049156030073120555 0.0442658111488093 0 0.075906588780985176 0.031500286692054444 0 0.07102425933480648 0.023344027230987528 0 0.055725434480662063 0.04081330346287726 0 0.057102575709448621 0.047722857516012802 0 0.049156030073120555 0.0442658111488093 0 0.087127717162178639 0.020280562185037588 0 0.086933411074832448 0.025178873366962957 0 0.078361855189769389 0.022716789536584202 0 0.085815031812061848 0.020667535718139975 0 0.07102425933480648 0.023344027230987528 0 0.090037252486079647 0.0079345982956874773 0 0.085454475910989383 0.0067191505699009599 0 0.087456564030163997 0.0076345454742025327 0 0.090037252486079647 0.0079345982956874773 0 0.087456564030163997 0.0076345454742025327 0 0.089411341448318152 0.0093779352896051892 0 0.088909614364268807 0.01154835463064819 0 0.088035433856472611 0.01227451830181746 0 0.085537339313542182 0.0092318450846151489 0 0.087456564030163997 0.0076345454742025327 0 0.088909614364268807 0.01154835463064819 0 0.085537339313542182 0.0092318450846151489 0 0.087456564030163997 0.0076345454742025327 0 0.089411341448318152 0.0093779352896051892 0 0.089320669801539701 0.011494090524460232 0 0.088059540384606033 0.0094971168044352388 0 0.088425416436604426 0.010543538951211694 0 0.088909614364268807 0.01154835463064819 0 0.088035433856472611 0.01227451830181746 0 0.090314780427738106 0.015128086510638402 0 0.079487861671319909 0.010840628104505791 0 0.087301201376085338 0.008314470477925379 0 0.072113934675378438 0.0081188585909510447 0 0.070518505392634337 0.0083382610930497932 0 0.071922995853950455 0.0095502904506830927 0 0.072113934675378438 0.0081188585909510447 0 0.070518505392634337 0.0083382610930497932 0 0.070807745672747668 0.0065481704355287475 0 0.079487861671319909 0.010840628104505791 0 0.071622168369832068 0.014043869990139927 0 0.070518505392634337 0.0083382610930497932 0 0.070807745672747668 0.0065481704355287475 0 0.068794282340258764 0.0068095439658223591 0 0.070518505392634337 0.0083382610930497932 0 0.068761197368293045 0.0089892698967714117 0 0.068794282340258764 0.0068095439658223591 0 0.078071753586928527 -0.0051154015214135845 0 0.073876208975693622 -0.0015603944245164631 0 0.068761197368293045 0.0089892698967714117 0 0.068794282340258764 0.0068095439658223591 0 0.066835749853230444 0.0079699732831804062 0 0.091685320421205696 -0.027500939549905821 0 0.091100209819554925 -0.026908953586611519 0 0.091259254930941267 -0.028189476783070298 0 0.092676434316030384 -0.027451620370636916 0 0.092210635304025956 -0.027491835507865187 0 0.092363190084420677 -0.027887398896382792 0 0.092210635304025956 -0.027491835507865187 0 0.091981088166726455 -0.027833513928630451 0 0.092363190084420677 -0.027887398896382792 0 0.092210635304025956 -0.027491835507865187 0 0.092591922439299063 -0.027113837254370488 0 0.091838151989232897 -0.027012627385001237 0 0.092676434316030384 -0.027451620370636916 0 0.092210635304025956 -0.027491835507865187 0 0.092591922439299063 -0.027113837254370488 0 0.092103002165217704 -0.026287735197465602 0 0.092591922439299063 -0.027113837254370488 0 0.093325700845828863 -0.026729487828654832 0 0.092103002165217704 -0.026287735197465602 0 0.092591922439299063 -0.027113837254370488 0 0.091838151989232897 -0.027012627385001237 0 0.078071753586928527 -0.0051154015214135845 0 0.080176059997158572 -0.0069983074202722914 0 0.070518505392634337 0.0083382610930497932 0 0.068761197368293045 0.0089892698967714117 0 0.07067041266533651 0.009977287083553903 0 0.092103002165217704 -0.026287735197465602 0 0.091838151989232897 -0.027012627385001237 0 0.091100209819554925 -0.026908953586611519 0 0.091838151989232897 -0.027012627385001237 0 0.091685320421205696 -0.027500939549905821 0 0.091100209819554925 -0.026908953586611519 0 0.092210635304025956 -0.027491835507865187 0 0.091838151989232897 -0.027012627385001237 0 0.091685320421205696 -0.027500939549905821 0 0.092210635304025956 -0.027491835507865187 0 0.091685320421205696 -0.027500939549905821 0 0.091981088166726455 -0.027833513928630451 0 0.091100209819554925 -0.026908953586611519 0 0.090253445533578253 -0.027381316614720735 0 0.091259254930941267 -0.028189476783070298 0 0.070518505392634337 0.0083382610930497932 0 0.07067041266533651 0.009977287083553903 0 0.071922995853950455 0.0095502904506830927 0 0.072113934675378438 0.0081188585909510447 0 0.071922995853950455 0.0095502904506830927 0 0.073388489148566452 0.0096509449060292844 0 0.071922995853950455 0.0095502904506830927 0 0.072544384423730998 0.010927568383589284 0 0.073388489148566452 0.0096509449060292844 0 0.07067041266533651 0.009977287083553903 0 0.071922995853950455 0.0095502904506830927 0 0.072544384423730998 0.010927568383589284 0 0.080176059997158572 -0.0069983074202722914 0 0.082145115330156962 -0.0078635532001130274 0 0.090253445533578253 -0.027381316614720735 0 0.090220223296769819 -0.028247259468569409 0 0.091259254930941267 -0.028189476783070298 0 0.086704131436202703 -0.033068479993432279 0 0.085905560843202763 -0.03425683398189646 0 0.087425698411392805 -0.034303724796560277 0 0.086704131436202703 -0.033068479993432279 0 0.088800554071777074 -0.032615768770589727 0 0.087425698411392805 -0.034303724796560277 0 0.088800554071777074 -0.032615768770589727 0 0.089006115598979363 -0.033964715261374706 0 0.087425698411392805 -0.034303724796560277 0 0.088370804055863991 -0.0264636031240611 0 0.08989783967877947 -0.028811153898937014 0 0.091685320421205696 -0.027500939549905821 0 0.091259254930941267 -0.028189476783070298 0 0.091981088166726455 -0.027833513928630451 0 0.091259254930941267 -0.028189476783070298 0 0.092298279054837562 -0.028100436004353132 0 0.091981088166726455 -0.027833513928630451 0 0.08989783967877947 -0.028811153898937014 0 0.091456744245148172 -0.030079187319729923 0 0.088800554071777074 -0.032615768770589727 0 0.089863983197421088 -0.033350293785163902 0 0.091126773644678499 -0.032196390508836888 0 0.088800554071777074 -0.032615768770589727 0 0.089006115598979363 -0.033964715261374706 0 0.089863983197421088 -0.033350293785163902 0 0.089006115598979363 -0.033964715261374706 0 0.089863983197421088 -0.033350293785163902 0 0.090316429791028399 -0.034636311474607634 0 0.091871237098871794 -0.030119165330181382 0 0.091588330010831873 -0.028895273053027835 0 0.090306785506320014 -0.032990641569603005 0 0.089863983197421088 -0.033350293785163902 0 0.091126773644678499 -0.032196390508836888 0 0.090316429791028399 -0.034636311474607634 0 0.091456744245148172 -0.030079187319729923 0 0.090327792396661583 -0.033737932491494489 0 0.091871237098871794 -0.030119165330181382 0 0.092646730090806428 -0.030951243475032003 0 0.090306785506320014 -0.032990641569603005 0 0.091871237098871794 -0.030119165330181382 0 0.092621845773230169 -0.029400095971592939 0 0.092646730090806428 -0.030951243475032003 0 0.091871237098871794 -0.030119165330181382 0 0.091588330010831873 -0.028895273053027835 0 0.091840253171803679 -0.028857912117188585 0 0.091871237098871794 -0.030119165330181382 0 0.091840253171803679 -0.028857912117188585 0 0.092621845773230169 -0.029400095971592939 0 0.091840253171803679 -0.028857912117188585 0 0.092656955627922172 -0.028427974853172625 0 0.092621845773230169 -0.029400095971592939 0 0.091456744245148172 -0.030079187319729923 0 0.091458375678913018 -0.030077902854096252 0 0.092298279054837562 -0.028100436004353132 0 0.091981088166726455 -0.027833513928630451 0 0.092363190084420677 -0.027887398896382792 0 0.091456744245148172 -0.030079187319729923 0 0.091527862558917525 -0.029889532399785864 0 0.091624195383769771 -0.02888401345172633 0 0.091840253171803679 -0.028857912117188585 0 0.092363190084420677 -0.027887398896382792 0 0.091840253171803679 -0.028857912117188585 0 0.092363190084420677 -0.027887398896382792 0 0.092656955627922172 -0.028427974853172625 0 0.09533246026495848 0.017085339731640153 0 0.096939143974272279 0.017925392032038651 0 0.096282537284997 0.015521857424855809 0 0.09533246026495848 0.017085339731640153 0 0.093475821433475034 0.018123465880944524 0 0.095841598496386682 0.018800273152487695 0 0.09533246026495848 0.017085339731640153 0 0.096939143974272279 0.017925392032038651 0 0.095841598496386682 0.018800273152487695 0 0.096939143974272279 0.017925392032038651 0 0.098905662956457446 0.017244069565695633 0 0.097802228781865466 0.019892642260143163 0 0.10119920610556203 0.017770269538794861 0 0.10278648320936806 0.017041765671267351 0 0.096939143974272279 0.017925392032038651 0 0.098905662956457446 0.017244069565695633 0 0.098609700200887968 0.014733578080532233 0 0.098905662956457446 0.017244069565695633 0 0.098609700200887968 0.014733578080532233 0 0.1000778571185876 0.014717854371757684 0 0.096939143974272279 0.017925392032038651 0 0.098564017464919926 0.014480291136919874 0 0.096282537284997 0.015521857424855809 0 0.096628006651695408 0.013267070504406848 0 0.098564017464919926 0.014480291136919874 0 0.096282537284997 0.015521857424855809 0 0.096628006651695408 0.013267070504406848 0 0.096282537284997 0.015521857424855809 0 0.094136242609970083 0.01506010393076004 0 0.09533246026495848 0.017085339731640153 0 0.096282537284997 0.015521857424855809 0 0.094136242609970083 0.01506010393076004 0 0.091705921759129796 0.013229893117708872 0 0.094136242609970083 0.01506010393076004 0 0.090964329015975856 0.015125371213638151 0 0.094136242609970083 0.01506010393076004 0 0.090964329015975856 0.015125371213638151 0 0.093475821433475034 0.018123465880944524 0 0.087301201376085338 0.008314470477925379 0 0.086775733678442088 0.0018040302554749937 0 0.087301201376085338 0.008314470477925379 0 0.09216821490816951 0.0068333717946202502 0 0.082145115330156962 -0.0078635532001130274 0 0.086583133229208478 -0.0073562218437066822 0 0.090234183619284938 0.0034932023047435858 0 0.089816658586390555 0.0023386022357009873 0 0.089048245502272139 0.0018699991620802605 0 0.072544384423730998 0.010927568383589284 0 0.073388489148566452 0.0096509449060292844 0 0.073863713154398658 0.010758976872037033 0 0.072544384423730998 0.010927568383589284 0 0.073863713154398658 0.010758976872037033 0 0.074349546408932002 0.011840458318694215 0 0.09533246026495848 0.017085339731640153 0 0.094136242609970083 0.01506010393076004 0 0.093475821433475034 0.018123465880944524 0 0.086775733678442088 0.0018040302554749937 0 0.086583133229208478 -0.0073562218437066822 0 0.089816658586390555 0.0023386022357009873 0 0.089048245502272139 0.0018699991620802605 0 0.089386919426473116 0.0012051597619202792 0 0.086583133229208478 -0.0073562218437066822 0 0.094219354198455119 -0.00079909857334784526 0 0.089048245502272139 0.0018699991620802605 0 0.089386919426473116 0.0012051597619202792 0 0.087897147868405176 0.00030055284566092349 0 0.087642553273709345 -0.014371717225425863 0 0.088467692405593878 -0.01236881867760482 0 0.091946613767325117 -0.011987678850388168 0 0.089492785166451427 -0.027824050424314961 0 0.089626619784171385 -0.027906383417913821 0 0.089405501417782335 -0.028090949755874374 0 0.086583133229208478 -0.0073562218437066822 0 0.087970358423086009 -0.018252068476422367 0 0.087549913182449049 -0.019157995569150255 0 0.087970358423086009 -0.018252068476422367 0 0.090253445533578253 -0.027381316614720735 0 0.090220223296769819 -0.028247259468569409 0 0.089626619784171385 -0.027906383417913821 0 0.090253445533578253 -0.027381316614720735 0 0.089492785166451427 -0.027824050424314961 0 0.089626619784171385 -0.027906383417913821 0 0.090220223296769819 -0.028247259468569409 0 0.089626619784171385 -0.027906383417913821 0 0.089343402194537902 -0.028159407653918798 0 0.088370804055863991 -0.0264636031240611 0 0.08828593898808923 -0.021097682977086481 0 0.090220223296769819 -0.028247259468569409 0 0.08927268759188485 -0.028329793975746649 0 0.089343402194537902 -0.028159407653918798 0 0.086704131436202703 -0.033068479993432279 0 0.084869727370156217 -0.03340453381907664 0 0.085905560843202763 -0.03425683398189646 0 0.091076230033772174 -0.021848105771405689 0 0.090978404583695452 -0.021864413364885558 0 0.090916349661343668 -0.022288980254894494 0 0.08828593898808923 -0.021097682977086481 0 0.08961692690197301 -0.027376672381721884 0 0.08976467051188855 -0.011201248281635882 0 0.088467692405593878 -0.01236881867760482 0 0.091946613767325117 -0.011987678850388168 0 0.08828593898808923 -0.021097682977086481 0 0.089285572804757532 -0.019614380904984366 0 0.086430077174794756 -0.018909066501771696 0 0.086963472470236683 -0.018830115681434001 0 0.086169950835575035 -0.019549177446767086 0 0.089285572804757532 -0.019614380904984366 0 0.087970358423086009 -0.018252068476422367 0 0.08828593898808923 -0.021097682977086481 0 0.087970358423086009 -0.018252068476422367 0 0.084869727370156217 -0.03340453381907664 0 0.08513446761645474 -0.034362108194647537 0 0.085905560843202763 -0.03425683398189646 0 0.089285572804757532 -0.019614380904984366 0 0.090645384590268274 -0.018477353458774475 0 0.08976467051188855 -0.011201248281635882 0 0.093351961396472116 -0.010694017795306697 0 0.091946613767325117 -0.011987678850388168 0 0.089813334179314322 -0.011253552175680798 0 0.093351961396472116 -0.010694017795306697 0 0.094212838275004707 -0.0072165921648475653 0 0.093475821433475034 0.018123465880944524 0 0.095907684110703523 0.021222454664361911 0 0.095841598496386682 0.018800273152487695 0 0.095907684110703523 0.021222454664361911 0 0.095841598496386682 0.018800273152487695 0 0.097802228781865466 0.019892642260143163 0 0.09216821490816951 0.0068333717946202502 0 0.094219354198455119 -0.00079909857334784526 0 0.096939143974272279 0.017925392032038651 0 0.095841598496386682 0.018800273152487695 0 0.097802228781865466 0.019892642260143163 0 0.09940663014613163 0.016461625875881711 0 0.097802228781865466 0.019892642260143163 0 0.10036710639345994 0.018991450744931339 0 0.097802228781865466 0.019892642260143163 0 0.09924161385371745 0.023232620075376707 0 0.10036710639345994 0.018991450744931339 0 0.10258772094423907 0.017880316182831077 0 0.10157388378205144 0.018817657338335785 0 0.095907684110703523 0.021222454664361911 0 0.097802228781865466 0.019892642260143163 0 0.09924161385371745 0.023232620075376707 0 0.094219354198455119 -0.00079909857334784526 0 0.10026421031456546 -0.0055452445797289137 0 0.093351961396472116 -0.010694017795306697 0 0.091946613767325117 -0.011987678850388168 0 0.096022500797054003 -0.0097050275783901723 0 0.10026421031456546 -0.0055452445797289137 0 0.1080938429626396 0.0066106916600523445 0 0.12967461183544929 0.00025325461645758215 0 0.12590513523568767 0.0011368733984723988 0 0.12635408171670623 0.0049757479940794724 0 0.12590513523568767 0.0011368733984723988 0 0.12315482973312247 0.0001362901272008099 0 0.1241351867833934 0.0033239682748872142 0 0.12590513523568767 0.0011368733984723988 0 0.1241351867833934 0.0033239682748872142 0 0.12635408171670623 0.0049757479940794724 0 0.1241351867833934 0.0033239682748872142 0 0.12635408171670623 0.0049757479940794724 0 0.12353599484353787 0.0063105332419500018 0 0.09924161385371745 0.023232620075376707 0 0.10252645280102163 0.018960397875408052 0 0.10036710639345994 0.018991450744931339 0 0.10252645280102163 0.018960397875408052 0 0.10036710639345994 0.018991450744931339 0 0.101591943376365 0.01762561350260174 0 0.10036710639345994 0.018991450744931339 0 0.10069828451093256 0.015962820574971698 0 0.101591943376365 0.01762561350260174 0 0.10363942701404327 0.017211848538064574 0 0.10402940981210919 0.016704120694067175 0 0.09940663014613163 0.016461625875881711 0 0.10036710639345994 0.018991450744931339 0 0.1006676658647105 0.016034699618926215 0 0.10069828451093256 0.015962820574971698 0 0.10277634862204023 0.016583982669442113 0 0.10230114182949662 0.014715389104177362 0 0.10069828451093256 0.015962820574971698 0 0.10277634862204023 0.016583982669442113 0 0.101591943376365 0.01762561350260174 0 0.10252645280102163 0.018960397875408052 0 0.10277634862204023 0.016583982669442113 0 0.101591943376365 0.01762561350260174 0 0.1080938429626396 0.0066106916600523445 0 0.1123568577050947 0.012330020061168913 0 0.10277634862204023 0.016583982669442113 0 0.10402953309761838 0.014869807073630304 0 0.10588360347388279 0.014437056162468237 0 0.10252645280102163 0.018960397875408052 0 0.10277634862204023 0.016583982669442113 0 0.10588360347388279 0.014437056162468237 0 0.12635408171670623 0.0049757479940794724 0 0.12353599484353787 0.0063105332419500018 0 0.12305603833531503 0.0095467073822829845 0 0.10277634862204023 0.016583982669442113 0 0.10402953309761838 0.014869807073630304 0 0.10230114182949662 0.014715389104177362 0 0.10402953309761838 0.014869807073630304 0 0.10361772551370692 0.013511684918164235 0 0.10230114182949662 0.014715389104177362 0 0.10361772551370692 0.013511684918164235 0 0.10611023585092012 0.01406636360935027 0 0.10238787073792951 0.010038824606284465 0 0.10402953309761838 0.014869807073630304 0 0.10361772551370692 0.013511684918164235 0 0.10583997002640419 0.014440634057193296 0 0.10361772551370692 0.013511684918164235 0 0.10611023585092012 0.01406636360935027 0 0.10583997002640419 0.014440634057193296 0 0.11122788696444201 0.012620308807410306 0 0.1123568577050947 0.012330020061168913 0 0.09940663014613163 0.016461625875881711 0 0.1006676658647105 0.016034699618926215 0 0.10098434670111314 0.01312439897851291 0 0.10402940981210919 0.016704120694067175 0 0.10512660909811952 0.016621844716981079 0 0.10258772094423907 0.017880316182831077 0 0.10512660909811952 0.016621844716981079 0 0.10069828451093256 0.015962820574971698 0 0.10103150353377462 0.012948100185096036 0 0.10230114182949662 0.014715389104177362 0 0.10361772551370692 0.013511684918164235 0 0.10103150353377462 0.012948100185096036 0 0.10230114182949662 0.014715389104177362 0 0.11358884682629984 0.013497001367402528 0 0.11409206984075677 0.013379890010420403 0 0.11347528524543173 0.013124968240699439 0 0.11470158531391043 0.012901988756486554 0 0.113795207238787 0.013806527394705895 0 0.11925750199294988 0.011019669037899886 0 0.1180742226711123 0.0082477424966605328 0 0.11636042568984682 0.0096733277078171823 0 0.11358884682629984 0.013497001367402528 0 0.11331919713965374 0.013382496728298419 0 0.11347528524543173 0.013124968240699439 0 0.11358884682629984 0.013497001367402528 0 0.11331919713965374 0.013382496728298419 0 0.11305061647187803 0.013575341717797652 0 0.11925750199294988 0.011019669037899886 0 0.12313200668324563 0.010417636383351976 0 0.1206637432847029 0.0076963791836899085 0 0.11470158531391043 0.012901988756486554 0 0.1129606453255978 0.012571648634811005 0 0.1129606453255978 0.012571648634811005 0 0.11345920248160461 0.015865684990056594 0 0.11331919713965374 0.013382496728298419 0 0.11305061647187803 0.013575341717797652 0 0.11339673889769886 0.013102615497810628 0 0.12278135345154248 0.0099205894939487383 0 0.12305603833531503 0.0095467073822829845 0 0.12240270888295797 0.007851415344539937 0 0.1129606453255978 0.012571648634811005 0 0.1123568577050947 0.012330020061168913 0 0.1129606453255978 0.012571648634811005 0 0.11529710475120979 0.011277515148378938 0 0.12353599484353787 0.0063105332419500018 0 0.12305603833531503 0.0095467073822829845 0 0.12240270888295797 0.007851415344539937 0 0.12278135345154248 0.0099205894939487383 0 0.12240270888295797 0.007851415344539937 0 0.12044884536382594 0.0073200700089888059 0 0.12353599484353787 0.0063105332419500018 0 0.12240270888295797 0.007851415344539937 0 0.12141629271400126 0.0053287532812873488 0 0.12240270888295797 0.007851415344539937 0 0.12044884536382594 0.0073200700089888059 0 0.12141629271400126 0.0053287532812873488 0 0.11925750199294988 0.011019669037899886 0 0.1206637432847029 0.0076963791836899085 0 0.1180742226711123 0.0082477424966605328 0 0.11529710475120979 0.011277515148378938 0 0.11547320169992645 0.010450584452102337 0 0.1206637432847029 0.0076963791836899085 0 0.1180742226711123 0.0082477424966605328 0 0.11838433328779903 0.0051563508903695364 0 0.1180742226711123 0.0082477424966605328 0 0.11838433328779903 0.0051563508903695364 0 0.11604500191623908 0.0071238694978786781 0 0.11838433328779903 0.0051563508903695364 0 0.12141629271400126 0.0053287532812873488 0 0.119695343777473 0.0020252916708792829 0 0.11838433328779903 0.0051563508903695364 0 0.119695343777473 0.0020252916708792829 0 0.11589409871670896 0.0039881031213143984 0 0.12044884536382594 0.0073200700089888059 0 0.11838433328779903 0.0051563508903695364 0 0.12141629271400126 0.0053287532812873488 0 0.1241351867833934 0.0033239682748872142 0 0.12141629271400126 0.0053287532812873488 0 0.119695343777473 0.0020252916708792829 0 0.1241351867833934 0.0033239682748872142 0 0.12353599484353787 0.0063105332419500018 0 0.12141629271400126 0.0053287532812873488 0 0.12315482973312247 0.0001362901272008099 0 0.1241351867833934 0.0033239682748872142 0 0.11957920735697558 0.0015514288178006051 0 0.12136159589503263 0.0023460816162724127 0 0.11910854494304716 0.0015772467610315267 0 0.12315482973312247 0.0001362901272008099 0 0.11957920735697558 0.0015514288178006051 0 0.12153776786535016 -0.0018052525970041579 0 0.11910854494304716 0.0015772467610315267 0 0.11498650428929996 0.00016351378710806224 0 0.11957920735697558 0.0015514288178006051 0 0.11499665645737653 -5.8610094149336395e-05 0 0.11900025872980727 -0.0022779686099738071 0 0.119695343777473 0.0020252916708792829 0 0.11511181552876666 0.00044102620550109722 0 0.11589409871670896 0.0039881031213143984 0 0.11511181552876666 0.00044102620550109722 0 0.11276098694282398 0.0030339917055507122 0 0.11589409871670896 0.0039881031213143984 0 0.11511181552876666 0.00044102620550109722 0 0.11276098694282398 0.0030339917055507122 0 0.11035316825407983 -0.0013046482887458641 0 0.11276098694282398 0.0030339917055507122 0 0.11160191270088587 0.0058275124393353563 0 0.11392195053381536 0.0062161554485943397 0 0.11276098694282398 0.0030339917055507122 0 0.11392195053381536 0.0062161554485943397 0 0.11589409871670896 0.0039881031213143984 0 0.11392195053381536 0.0062161554485943397 0 0.11589409871670896 0.0039881031213143984 0 0.11604500191623908 0.0071238694978786781 0 0.11838433328779903 0.0051563508903695364 0 0.11589409871670896 0.0039881031213143984 0 0.11604500191623908 0.0071238694978786781 0 0.10500000465905937 0.0031957668345583578 0 0.10954530641544212 0.0029552897735419807 0 0.1072850625187151 -0.00046615409457961799 0 0.10954530641544212 0.0029552897735419807 0 0.11035316825407983 -0.0013046482887458641 0 0.1072850625187151 -0.00046615409457961799 0 0.11276098694282398 0.0030339917055507122 0 0.10954530641544212 0.0029552897735419807 0 0.11035316825407983 -0.0013046482887458641 0 0.11276098694282398 0.0030339917055507122 0 0.11160191270088587 0.0058275124393353563 0 0.10954530641544212 0.0029552897735419807 0 0.11160191270088587 0.0058275124393353563 0 0.10954530641544212 0.0029552897735419807 0 0.10963880083097532 0.0057216392194372519 0 0.10500000465905937 0.0031957668345583578 0 0.10963880083097532 0.0057216392194372519 0 0.10857259442537733 0.0078952280583290402 0 0.10500000465905937 0.0031957668345583578 0 0.10954530641544212 0.0029552897735419807 0 0.10963880083097532 0.0057216392194372519 0 0.10500000465905937 0.0031957668345583578 0 0.10499993190583148 0.0092340751690664236 0 0.10857259442537733 0.0078952280583290402 0 0.10499993190583148 0.0092340751690664236 0 0.10857259442537733 0.0078952280583290402 0 0.1088003556375018 0.010426206586725769 0 0.11049189295342426 0.010961997420559276 0 0.11128322131396039 0.0118068463132099 0 0.10857259442537733 0.0078952280583290402 0 0.11112484598932988 0.010181604387273604 0 0.1088003556375018 0.010426206586725769 0 0.10963880083097532 0.0057216392194372519 0 0.10857259442537733 0.0078952280583290402 0 0.11097128756044541 0.0078760204133958359 0 0.11160191270088587 0.0058275124393353563 0 0.10963880083097532 0.0057216392194372519 0 0.11097128756044541 0.0078760204133958359 0 0.11097128756044541 0.0078760204133958359 0 0.11092308208684508 0.0097484127416751359 0 0.11191989009375915 0.0090991861900499293 0 0.10857259442537733 0.0078952280583290402 0 0.11097128756044541 0.0078760204133958359 0 0.11092308208684508 0.0097484127416751359 0 0.11112484598932988 0.010181604387273604 0 0.11104440463925666 0.011550434200588607 0 0.1088003556375018 0.010426206586725769 0 0.11112484598932988 0.010181604387273604 0 0.11104440463925666 0.011550434200588607 0 0.11231761968609659 0.012031756613934502 0 0.11104440463925666 0.011550434200588607 0 0.10966874623135323 0.012402942705393374 0 0.11235323267270966 0.013514143067891832 0 0.10966874623135323 0.012402942705393374 0 0.1088003556375018 0.010426206586725769 0 0.10742130786176565 0.012344385582350284 0 0.11104440463925666 0.011550434200588607 0 0.10966874623135323 0.012402942705393374 0 0.1088003556375018 0.010426206586725769 0 0.10966874623135323 0.012402942705393374 0 0.10742130786176565 0.012344385582350284 0 0.10866324479141527 0.01439021885891793 0 0.10499993190583148 0.0092340751690664236 0 0.10742130786176565 0.012344385582350284 0 0.10500001370971247 0.015272878603975188 0 0.10499993190583148 0.0092340751690664236 0 0.1088003556375018 0.010426206586725769 0 0.10742130786176565 0.012344385582350284 0 0.11452126832309725 0.0090105626023811222 0 0.11604500191623908 0.0071238694978786781 0 0.11636042568984682 0.0096733277078171823 0 0.1180742226711123 0.0082477424966605328 0 0.11604500191623908 0.0071238694978786781 0 0.11636042568984682 0.0096733277078171823 0 0.11392195053381536 0.0062161554485943397 0 0.11452126832309725 0.0090105626023811222 0 0.11604500191623908 0.0071238694978786781 0 0.11392195053381536 0.0062161554485943397 0 0.11452126832309725 0.0090105626023811222 0 0.11269280374226109 0.0080699812470016591 0 0.11160191270088587 0.0058275124393353563 0 0.11392195053381536 0.0062161554485943397 0 0.11269280374226109 0.0080699812470016591 0 0.11160191270088587 0.0058275124393353563 0 0.11097128756044541 0.0078760204133958359 0 0.11269280374226109 0.0080699812470016591 0 0.11097128756044541 0.0078760204133958359 0 0.11269280374226109 0.0080699812470016591 0 0.11191989009375915 0.0090991861900499293 0 0.11269280374226109 0.0080699812470016591 0 0.11191989009375915 0.0090991861900499293 0 0.11319373862008647 0.0094445443323130304 0 0.11452126832309725 0.0090105626023811222 0 0.11269280374226109 0.0080699812470016591 0 0.11319373862008647 0.0094445443323130304 0 0.11452126832309725 0.0090105626023811222 0 0.11430732161642751 0.01007523061502617 0 0.11319373862008647 0.0094445443323130304 0 0.11430732161642751 0.01007523061502617 0 0.11319373862008647 0.0094445443323130304 0 0.11183704443618393 0.010356386216153077 0 0.11183704443618393 0.010356386216153077 0 0.11317836042272791 0.011728534742958468 0 0.11555077914062024 0.011886683641732263 0 0.11314239826373236 0.013110813924881346 0 0.113795207238787 0.013806527394705895 0 0.11430732161642751 0.01007523061502617 0 0.11183704443618393 0.010356386216153077 0 0.1156305880440185 0.011888433450119194 0 0.11128322131396039 0.0118068463132099 0 0.11293035463334511 0.013739841751533994 0 0.11092308208684508 0.0097484127416751359 0 0.11183704443618393 0.010356386216153077 0 0.11317836042272791 0.011728534742958468 0 0.11092308208684508 0.0097484127416751359 0 0.11191989009375915 0.0090991861900499293 0 0.11183704443618393 0.010356386216153077 0 0.11191989009375915 0.0090991861900499293 0 0.11319373862008647 0.0094445443323130304 0 0.11183704443618393 0.010356386216153077 0 0.11104440463925666 0.011550434200588607 0 0.11231761968609659 0.012031756613934502 0 0.11235323267270966 0.013514143067891832 0 0.11112484598932988 0.010181604387273604 0 0.11231761968609659 0.012031756613934502 0 0.11362302371635979 0.012416989788981946 0 0.11289969978845081 0.01370574204001471 0 0.11293035463334511 0.013739841751533994 0 0.11145207487664428 0.014483089239726344 0 0.11134872738823523 0.014609053199026474 0 0.11231761968609659 0.012031756613934502 0 0.11322415720028893 0.012422320228748444 0 0.11235323267270966 0.013514143067891832 0 0.11231761968609659 0.012031756613934502 0 0.11322415720028893 0.012422320228748444 0 0.11361163772048669 0.012410934806332898 0 0.11322415720028893 0.012422320228748444 0 0.11431870850789837 0.013035115539510221 0 0.1123542913925763 0.013501307588841716 0 0.11322415720028893 0.012422320228748444 0 0.11361163772048669 0.012410934806332898 0 0.11431870850789837 0.013035115539510221 0 0.11293035463334511 0.013739841751533994 0 0.11320874426881511 0.01417833300918765 0 0.11293035463334511 0.013739841751533994 0 0.11351488521988132 0.014081047211426409 0 0.11380911971156177 0.014046302319302734 0 0.11331152891288407 0.013606940328694528 0 0.11275075134812607 0.013740670048918498 0 0.11320874426881511 0.01417833300918765 0 0.11351488521988132 0.014081047211426409 0 0.11925750199294988 0.011019669037899886 0 0.1156305880440185 0.011888433450119194 0 0.11636042568984682 0.0096733277078171823 0 0.11317836042272791 0.011728534742958468 0 0.11454444795320148 0.012124965978960752 0 0.11555077914062024 0.011886683641732263 0 0.11351488521988132 0.014081047211426409 0 0.113795207238787 0.013806527394705895 0 0.11430732161642751 0.01007523061502617 0 0.1156305880440185 0.011888433450119194 0 0.11636042568984682 0.0096733277078171823 0 0.11452126832309725 0.0090105626023811222 0 0.11430732161642751 0.01007523061502617 0 0.11636042568984682 0.0096733277078171823 0 0.11351488521988132 0.014081047211426409 0 0.11374668127522368 0.015548252363229516 0 0.11445379486741725 0.015069138637827693 0 0.11503017883543483 0.014933023154626806 0 0.11699815721383559 0.017315929367267176 0 0.11394395489013701 0.014076449187703394 0 0.11695478147447451 0.016922790423519764 0 0.11324566403041647 0.016193746277973924 0 0.11503017883543483 0.014933023154626806 0 0.11699815721383559 0.017315929367267176 0 0.11925515659278725 0.016163697499217883 0 0.11353993258174651 0.014747626935225635 0 0.11359870538147954 0.014734489609145498 0 0.11385045360529242 0.014843012943179933 0 0.11320874426881511 0.01417833300918765 0 0.11609523771622805 0.016588851133468554 0 0.11320874426881511 0.01417833300918765 0 0.11134872738823523 0.014609053199026474 0 0.11394395489013701 0.014076449187703394 0 0.11219824947514485 0.014444726321968828 0 0.11324566403041647 0.016193746277973924 0 0.11363327208822535 0.018183770977466863 0 0.10875215712257294 0.018418112290750271 0 0.11306922015244843 0.020934444924500833 0 0.11324566403041647 0.016193746277973924 0 0.11363327208822535 0.018183770977466863 0 0.10875215712257294 0.018418112290750271 0 0.11363327208822535 0.018183770977466863 0 0.11553972669082505 0.019100708679429111 0 0.11306922015244843 0.020934444924500833 0 0.11695478147447451 0.016922790423519764 0 0.11363327208822535 0.018183770977466863 0 0.11553972669082505 0.019100708679429111 0 0.11695478147447451 0.016922790423519764 0 0.11324566403041647 0.016193746277973924 0 0.11363327208822535 0.018183770977466863 0 0.11553972669082505 0.019100708679429111 0 0.11681116998354391 0.020782009655949809 0 0.11722381048621762 0.019066731125218152 0 0.11695478147447451 0.016922790423519764 0 0.11553972669082505 0.019100708679429111 0 0.11722381048621762 0.019066731125218152 0 0.10500488760922139 0.015272651480408149 0 0.10838368679324818 0.014841695128620935 0 0.10742130786176565 0.012344385582350284 0 0.10500001370971247 0.015272878603975188 0 0.10866324479141527 0.01439021885891793 0 0.10500001164932839 0.015272871055776351 0 0.10864523232278632 0.014423389365595051 0 0.10864984128716011 0.018084498789476291 0 0.11134872738823523 0.014609053199026474 0 0.10838368679324818 0.014841695128620935 0 0.10966874623135323 0.012402942705393374 0 0.11235323267270966 0.013514143067891832 0 0.10866324479141527 0.01439021885891793 0 0.11219824947514485 0.014444726321968828 0 0.11324566403041647 0.016193746277973924 0 0.10875215712257294 0.018418112290750271 0 0.11227250224625669 0.013560437215393168 0 0.10864523232278632 0.014423389365595051 0 0.10864984128716011 0.018084498789476291 0 0.11134872738823523 0.014609053199026474 0 0.10843526901924717 0.018374517664319929 0 0.10500001164932839 0.015272871055776351 0 0.10864984128716011 0.018084498789476291 0 0.10499998233973756 0.018962197396762671 0 0.10864984128716011 0.018084498789476291 0 0.10499998233973756 0.018962197396762671 0 0.10500000533475917 0.022651606126582412 0 0.10843526901924717 0.018374517664319929 0 0.10500310872321779 0.022647776471227697 0 0.10875215712257294 0.018418112290750271 0 0.10500003504146678 0.022652166484392923 0 0.1091589794509744 0.022347677033024767 0 0.10875215712257294 0.018418112290750271 0 0.1091589794509744 0.022347677033024767 0 0.11306922015244843 0.020934444924500833 0 0.1091589794509744 0.022347677033024767 0 0.11080885656210072 0.025803893401875916 0 0.11306922015244843 0.020934444924500833 0 0.1091589794509744 0.022347677033024767 0 0.11080885656210072 0.025803893401875916 0 0.10777928582898548 0.025531277608116947 0 0.1049998428807373 0.027535250316771575 0 0.10500003504146678 0.022652166484392923 0 0.10777928582898548 0.025531277608116947 0 0.10500003504146678 0.022652166484392923 0 0.1091589794509744 0.022347677033024767 0 0.10777928582898548 0.025531277608116947 0 0.11677921059220041 0.020556457172243452 0 0.11561196125581104 0.020595382504525167 0 0.11816299595906343 0.021117289068104558 0 0.11306922015244843 0.020934444924500833 0 0.11550370483699306 0.024798741916305902 0 0.11553972669082505 0.019100708679429111 0 0.11681116998354391 0.020782009655949809 0 0.11306922015244843 0.020934444924500833 0 0.11080885656210072 0.025803893401875916 0 0.11306922015244843 0.020934444924500833 0 0.11550370483699306 0.024798741916305902 0 0.11328520232287945 0.028208359505703422 0 0.11080885656210072 0.025803893401875916 0 0.11550370483699306 0.024798741916305902 0 0.11824567390968455 0.028449531132033221 0 0.11550370483699306 0.024798741916305902 0 0.11967746927308408 0.024083949099090916 0 0.11816299595906343 0.021117289068104558 0 0.11550370483699306 0.024798741916305902 0 0.11967746927308408 0.024083949099090916 0 0.11489453775998251 0.028988059240689156 0 0.11585801555537484 0.025747640358874262 0 0.11824567390968455 0.028449531132033221 0 0.11967746927308408 0.024083949099090916 0 0.12281700316437166 0.024859794872694678 0 0.11967746927308408 0.024083949099090916 0 0.12270436025521328 0.022974974571767195 0 0.12281700316437166 0.024859794872694678 0 0.11681116998354391 0.020782009655949809 0 0.12017161408068155 0.020777981721302796 0 0.11954625556541966 0.019501556141563764 0 0.11681116998354391 0.020782009655949809 0 0.11722381048621762 0.019066731125218152 0 0.11954625556541966 0.019501556141563764 0 0.11816299595906343 0.021117289068104558 0 0.11967746927308408 0.024083949099090916 0 0.12136162128446581 0.021847074253020037 0 0.11677921059220041 0.020556457172243452 0 0.1167287445372573 0.020319093014948553 0 0.11816299595906343 0.021117289068104558 0 0.12136162128446581 0.021847074253020037 0 0.12304015112175332 0.02137324335427614 0 0.11967746927308408 0.024083949099090916 0 0.12136162128446581 0.021847074253020037 0 0.12270436025521328 0.022974974571767195 0 0.1167287445372573 0.020319093014948553 0 0.11267342952475998 0.021948147689330046 0 0.11585801555537484 0.025747640358874262 0 0.11267342952475998 0.021948147689330046 0 0.12017161408068155 0.020777981721302796 0 0.12305666538939465 0.019851238154548086 0 0.12123077759925094 0.019011694885331682 0 0.12297848282059476 0.021407339143760588 0 0.12270436025521328 0.022974974571767195 0 0.12724507515391156 0.021541450943886001 0 0.1167287445372573 0.020319093014948553 0 0.11159220589106907 0.019165610522387515 0 0.12270436025521328 0.022974974571767195 0 0.12281700316437166 0.024859794872694678 0 0.12724507515391156 0.021541450943886001 0 0.12136162128446581 0.021847074253020037 0 0.12297848282059476 0.021407339143760588 0 0.12270436025521328 0.022974974571767195 0 0.11715128825664854 0.02026349182112519 0 0.1167287445372573 0.020319093014948553 0 0.11702008411294736 0.033976033933994038 0 0.11610017819186656 0.033323610106054918 0 0.11739146374894775 0.033302655074237998 0 0.11610017819186656 0.033323610106054918 0 0.11739146374894775 0.033302655074237998 0 0.11749966258719396 0.03236144284821614 0 0.11795057471773354 0.034078302198025261 0 0.11702008411294736 0.033976033933994038 0 0.11739146374894775 0.033302655074237998 0 0.11795057471773354 0.034078302198025261 0 0.11739146374894775 0.033302655074237998 0 0.1181507270408876 0.033334161013536527 0 0.11739146374894775 0.033302655074237998 0 0.1181507270408876 0.033334161013536527 0 0.11774396759653662 0.032803115096754688 0 0.11795057471773354 0.034078302198025261 0 0.11884023107811682 0.033971002481273903 0 0.1181507270408876 0.033334161013536527 0 0.1181507270408876 0.033334161013536527 0 0.11883695685700718 0.032968126343766758 0 0.11820165609599825 0.032781379307316616 0 0.1181507270408876 0.033334161013536527 0 0.11820165609599825 0.032781379307316616 0 0.11774396759653662 0.032803115096754688 0 0.11884023107811682 0.033971002481273903 0 0.1181507270408876 0.033334161013536527 0 0.11883695685700718 0.032968126343766758 0 0.11981044545492868 0.033540346728529888 0 0.11884023107811682 0.033971002481273903 0 0.11883695685700718 0.032968126343766758 0 0.12018602225627481 0.032416865584940932 0 0.11883695685700718 0.032968126343766758 0 0.11838513605659515 0.032348755672533598 0 0.11883695685700718 0.032968126343766758 0 0.11838513605659515 0.032348755672533598 0 0.11820165609599825 0.032781379307316616 0 0.1096637239814468 0.022677307922300442 0 0.11052316677928729 0.022266196412175601 0 0.11838513605659515 0.032348755672533598 0 0.11820165609599825 0.032781379307316616 0 0.11796172314362498 0.032335271336748551 0 0.1096637239814468 0.022677307922300442 0 0.10866977708024639 0.020554594287746239 0 0.10875941921353541 0.022063172654012655 0 0.10848420592435037 0.022054477799496087 0 0.10866445277426355 0.021677743107296244 0 0.10875941921353541 0.022063172654012655 0 0.10880658894951351 0.021573187087615985 0 0.10866445277426355 0.021677743107296244 0 0.11052316677928729 0.022266196412175601 0 0.10941976436946191 0.020885219648561857 0 0.10767377474083012 0.023674545704608568 0 0.10731597924191329 0.02398266228804688 0 0.1076226379755774 0.024169648752354691 0 0.11504570400175358 0.01939558933138661 0 0.112036953657064 0.019295794334662855 0 0.11236386928748417 0.019556792437057505 0 0.11504570400175358 0.01939558933138661 0 0.11202278373766021 0.02029383135557173 0 0.11236386928748417 0.019556792437057505 0 0.11739146374894775 0.033302655074237998 0 0.11774396759653662 0.032803115096754688 0 0.11749966258719396 0.03236144284821614 0 0.11820165609599825 0.032781379307316616 0 0.11774396759653662 0.032803115096754688 0 0.11796172314362498 0.032335271336748551 0 0.11774396759653662 0.032803115096754688 0 0.11749966258719396 0.03236144284821614 0 0.11794668370102535 0.032368211528155222 0 0.11051584392849381 0.022772297390364883 0 0.11052316677928729 0.022266196412175601 0 0.112036953657064 0.019295794334662855 0 0.11202192110509922 0.02029141943650957 0 0.11236386928748417 0.019556792437057505 0 0.112036953657064 0.019295794334662855 0 0.11202192110509922 0.02029141943650957 0 0.11050171363746235 0.020403975614182501 0 0.10940363031272074 0.021833029663267726 0 0.10999743440611499 0.021851446344706711 0 0.11033406370481508 0.021150176237236629 0 0.11267342952475998 0.021948147689330046 0 0.10941976436946191 0.020885219648561857 0 0.11267342952475998 0.021948147689330046 0 0.11052316677928729 0.022266196412175601 0 0.11159220589106907 0.019165610522387515 0 0.11159570861400098 0.019182708611325247 0 0.12305666538939465 0.019851238154548086 0 0.12246996483466391 0.018569154451786977 0 0.12123077759925094 0.019011694885331682 0 0.12305666538939465 0.019851238154548086 0 0.12383150770498759 0.018142719138092567 0 0.12246996483466391 0.018569154451786977 0 0.10942894868621728 0.020397384223311232 0 0.10993941201995687 0.019280826080964621 0 0.11050828328185559 0.020073494175139837 0 0.11159220589106907 0.019165610522387515 0 0.10949961704595934 0.018695965674539409 0 0.11159220589106907 0.019165610522387515 0 0.10891882378559795 0.02039734934523748 0 0.11016185578833601 0.016182578875162352 0 0.10999729831819077 0.016539299716505473 0 0.11158195934350126 0.016986747457187326 0 0.10949961704595934 0.018695965674539409 0 0.10883482924208757 0.017932022670352654 0 0.10949961704595934 0.018695965674539409 0 0.11292983753669127 0.017647159881774115 0 0.12383150770498759 0.018142719138092567 0 0.12246996483466391 0.018569154451786977 0 0.12175666052204825 0.01726647605347819 0 0.12246996483466391 0.018569154451786977 0 0.12175666052204825 0.01726647605347819 0 0.12123077759925094 0.019011694885331682 0 0.1062870226009647 0.0209367116205606 0 0.10673088954881187 0.020307717891942231 0 0.10656230753397557 0.02148460912596711 0 0.10677594989931159 0.021420784931767071 0 0.1061321017711755 0.020718848642897941 0 0.10565352145993989 0.021050755327011693 0 0.10472188006594974 0.020664585784526932 0 0.10517567889362357 0.020529407548726761 0 0.10673088954881187 0.020307717891942231 0 0.10605243471661259 0.020224179622097729 0 0.10709424434923476 0.024243001644920405 0 0.10731597924191329 0.02398266228804688 0 0.10728806867577684 0.024320918983345808 0 0.10673088954881187 0.020307717891942231 0 0.10866977708024639 0.020554594287746239 0 0.10731597924191329 0.02398266228804688 0 0.10728806867577684 0.024320918983345808 0 0.1076226379755774 0.024169648752354691 0 0.10673088954881187 0.020307717891942231 0 0.1078919028902588 0.019539641515897238 0 0.10917587656296145 0.020921039506987416 0 0.10912602882157667 0.020904945998481202 0 0.10912249148322797 0.020946488764797142 0 0.10993941201995687 0.019280826080964621 0 0.11070754559446973 0.019661756014290932 0 0.11050828328185559 0.020073494175139837 0 0.11202192110509922 0.02029141943650957 0 0.11030714862322849 0.020800944801677036 0 0.11050171363746235 0.020403975614182501 0 0.1078919028902588 0.019539641515897238 0 0.10866977708024639 0.020554594287746239 0 0.1078919028902588 0.019539641515897238 0 0.10891882378559795 0.02039734934523748 0 0.10729835071694176 0.020130868828140219 0 0.1072791018122156 0.020328045163953649 0 0.10721415348653487 0.02030615132734211 0 0.11046859889561431 0.021158692281927818 0 0.11008904842703758 0.021031107935534366 0 0.10978647772188818 0.021654378149620897 0 0.10891882378559795 0.02039734934523748 0 0.10941976436946191 0.020885219648561857 0 0.10866977708024639 0.020554594287746239 0 0.10941976436946191 0.020885219648561857 0 0.10866977708024639 0.020554594287746239 0 0.10891882378559795 0.02039734934523748 0 0.10949961704595934 0.018695965674539409 0 0.1078919028902588 0.019539641515897238 0 0.10822089463220874 0.018405683183432078 0 0.10754812107152506 0.018074407901505801 0 0.10750394986002391 0.018517998666415115 0 0.10822089463220874 0.018405683183432078 0 0.10809105947414861 0.018687098752590548 0 0.10750394986002391 0.018517998666415115 0 0.10703413911552864 0.019256031842537186 0 0.10763748216091379 0.019431446209969134 0 0.10722069021060886 0.018850031711204026 0 0.10883482924208757 0.017932022670352654 0 0.10715217484849222 0.018203184057169232 0 0.1078919028902588 0.019539641515897238 0 0.10715217484849222 0.018203184057169232 0 0.10656230753397557 0.02148460912596711 0 0.10586313263355654 0.021271583896860784 0 0.1061321017711755 0.020718848642897941 0 0.10867756325227979 0.019368017013664113 0 0.10885131693107535 0.017626281864242914 0 0.1094428189269417 0.017796161060256235 0 0.1078919028902588 0.019539641515897238 0 0.10647581991530918 0.018529682259029765 0 0.10715217484849222 0.018203184057169232 0 0.10647581991530918 0.018529682259029765 0 0.10605243471661259 0.020224179622097729 0 0.10647581991530918 0.018529682259029765 0 0.10361772551370692 0.013511684918164235 0 0.10103150353377462 0.012948100185096036 0 0.10238787073792951 0.010038824606284465 0 0.10512660909811952 0.016621844716981079 0 0.10786968431803519 0.017171878598015163 0 0.10278648320936806 0.017041765671267351 0 0.10647581991530918 0.018529682259029765 0 0.098609700200887968 0.014733578080532233 0 0.10040254595221298 0.011752915563059345 0 0.10015746153154051 0.011682999492492864 0 0.10592481788691949 0.016799814596479768 0 0.10586707104690429 0.017435419133525584 0 0.10572663900433112 0.017241558519725586 0 0.10512660909811952 0.016621844716981079 0 0.10715217484849222 0.018203184057169232 0 0.098609700200887968 0.014733578080532233 0 0.1000778571185876 0.014717854371757684 0 0.10040254595221298 0.011752915563059345 0 0.10715217484849222 0.018203184057169232 0 0.10786968431803519 0.017171878598015163 0 0.10883482924208757 0.017932022670352654 0 0.10786968431803519 0.017171878598015163 0 0.11078638707936991 0.015720758458832508 0 0.11069046540369162 0.015928995641621219 0 0.11145457963231911 0.015910401609435038 0 0.1129606453255978 0.012571648634811005 0 0.10786968431803519 0.017171878598015163 0 0.11156647561751847 0.016865493549898559 0 0.11069046540369162 0.015928995641621219 0 0.11145457963231911 0.015910401609435038 0 0.11016185578833601 0.016182578875162352 0 0.11158195934350126 0.016986747457187326 0 0.1116743356866666 0.016794445347460635 0 0.10883482924208757 0.017932022670352654 0 0.11123023588147496 0.016869774200831592 0 0.11156647561751847 0.016865493549898559 0 0.11145457963231911 0.015910401609435038 0 0.11212164242682239 0.016101053643825396 0 0.11292983753669127 0.017647159881774115 0 0.11345920248160461 0.015865684990056594 0 0.11123023588147496 0.016869774200831592 0 0.11345920248160461 0.015865684990056594 0 0.11158195934350126 0.016986747457187326 0 0.1116743356866666 0.016794445347460635 0 0.11316258524420725 0.017417155736447285 0 0.11967259877931531 0.016333707132461857 0 0.11893624726361107 0.017338987170545755 0 0.11998052828881726 0.01748957665845155 0 0.12175666052204825 0.01726647605347819 0 0.11967259877931531 0.016333707132461857 0 0.11998052828881726 0.01748957665845155 0 0.11331919713965374 0.013382496728298419 0 0.11339673889769886 0.013102615497810628 0 0.11347528524543173 0.013124968240699439 0 0.113795207238787 0.013806527394705895 0 0.11374668127522368 0.015548252363229516 0 0.11345920248160461 0.015865684990056594 0 0.11374668127522368 0.015548252363229516 0 0.11699815721383559 0.017315929367267176 0 0.11925515659278725 0.016163697499217883 0 0.11893624726361107 0.017338987170545755 0 0.11968807239824977 0.016289344593473986 0 0.11925515659278725 0.016163697499217883 0 0.11893624726361107 0.017338987170545755 0 0.11345920248160461 0.015865684990056594 0 0.11374141292096662 0.015739395926937152 0 0.11893624726361107 0.017338987170545755 0 0.11920937709332975 0.018176112971718103 0 0.11998052828881726 0.01748957665845155 0 0.11699815721383559 0.017315929367267176 0 0.11920937709332975 0.018176112971718103 0 0.11954625556541966 0.019501556141563764 0 0.11695478147447451 0.016922790423519764 0 0.11722381048621762 0.019066731125218152 0 0.11954625556541966 0.019501556141563764 0 0.11609523771622805 0.016588851133468554 0 0.11740457265529509 0.017713824219166622 0 0.11699815721383559 0.017315929367267176 0 0.11893624726361107 0.017338987170545755 0 0.11920937709332975 0.018176112971718103 0 0.12017161408068155 0.020777981721302796 0 0.11954625556541966 0.019501556141563764 0 0.12123077759925094 0.019011694885331682 0 0.11920937709332975 0.018176112971718103 0 0.11954625556541966 0.019501556141563764 0 0.12034003896281871 0.018296881511575134 0 0.11954625556541966 0.019501556141563764 0 0.12123077759925094 0.019011694885331682 0 0.12034003896281871 0.018296881511575134 0 0.12175666052204825 0.01726647605347819 0 0.12123077759925094 0.019011694885331682 0 0.12034003896281871 0.018296881511575134 0 0.12175666052204825 0.01726647605347819 0 0.11998052828881726 0.01748957665845155 0 0.12034003896281871 0.018296881511575134 0 0.11920937709332975 0.018176112971718103 0 0.11998052828881726 0.01748957665845155 0 0.12034003896281871 0.018296881511575134 0 0.033979959280794239 0.015114671994119346 0 0.034111618084822659 0.014845016967310757 0 0.034099039359335392 0.015274572187970851 0 0.033979959280794239 0.015114671994119346 0 0.034099039359335392 0.015274572187970851 0 0.034082212634091551 0.015560155226070155 0 0.033979959280794239 0.015114671994119346 0 0.034082212634091551 0.015560155226070155 0 0.03411566925480003 0.015732553646982603 0 0.033979959280794239 0.015114671994119346 0 0.034118819190383599 0.015509294988918444 0 0.033973978177610005 0.014925250723133979 0 0.033979959280794239 0.015114671994119346 0 0.034118819190383599 0.015509294988918444 0 0.03411566925480003 0.015732553646982603 0 0.034118819190383599 0.015509294988918444 0 0.03411566925480003 0.015732553646982603 0 0.03427688327782169 0.015991943388103419 0 0.034118819190383599 0.015509294988918444 0 0.033973978177610005 0.014925250723133979 0 0.034192951259176027 0.015213883300787231 0 0.033979959280794239 0.015114671994119346 0 0.033973978177610005 0.014925250723133979 0 0.033832715592617017 0.014467510649714315 0 0.033832715592617017 0.014467510649714315 0 0.033887993844760593 0.014333707880644636 0 0.033664384116410255 0.013874305429257348 0 0.033973978177610005 0.014925250723133979 0 0.033832715592617017 0.014467510649714315 0 0.033887993844760593 0.014333707880644636 0 0.033832715592617017 0.014467510649714315 0 0.033903782862103223 0.014448548349126423 0 0.033664384116410255 0.013874305429257348 0 0.033979959280794239 0.015114671994119346 0 0.033903782862103223 0.014448548349126423 0 0.034111618084822659 0.014845016967310757 0 0.033979959280794239 0.015114671994119346 0 0.033832715592617017 0.014467510649714315 0 0.033903782862103223 0.014448548349126423 0 0.033903782862103223 0.014448548349126423 0 0.034111618084822659 0.014845016967310757 0 0.034152474603596404 0.014332684160460327 0 0.034111618084822659 0.014845016967310757 0 0.034349683365448108 0.014659073363409957 0 0.034152474603596404 0.014332684160460327 0 0.034111618084822659 0.014845016967310757 0 0.034349683365448108 0.014659073363409957 0 0.034315802261150774 0.015083915591991974 0 0.034349683365448108 0.014659073363409957 0 0.034535333925544122 0.014620421314407253 0 0.034461461453741619 0.014989976840474959 0 0.034315802261150774 0.015083915591991974 0 0.03444153621328816 0.015398917667525281 0 0.034461461453741619 0.014989976840474959 0 0.034349683365448108 0.014659073363409957 0 0.034315802261150774 0.015083915591991974 0 0.034461461453741619 0.014989976840474959 0 0.034315802261150774 0.015083915591991974 0 0.03444153621328816 0.015398917667525281 0 0.034224612350617696 0.015350805611062706 0 0.03444153621328816 0.015398917667525281 0 0.034224612350617696 0.015350805611062706 0 0.034326977271030519 0.015660669523219903 0 0.03444153621328816 0.015398917667525281 0 0.034326977271030519 0.015660669523219903 0 0.034530711684715235 0.015887044357183112 0 0.034099039359335392 0.015274572187970851 0 0.034224612350617696 0.015350805611062706 0 0.034149753121850798 0.015703146944296389 0 0.034111618084822659 0.014845016967310757 0 0.034099039359335392 0.015274572187970851 0 0.034224612350617696 0.015350805611062706 0 0.034111618084822659 0.014845016967310757 0 0.034315802261150774 0.015083915591991974 0 0.034224612350617696 0.015350805611062706 0 0.034099039359335392 0.015274572187970851 0 0.034149753121850798 0.015703146944296389 0 0.034082212634091551 0.015560155226070155 0 0.034224612350617696 0.015350805611062706 0 0.034149753121850798 0.015703146944296389 0 0.034326977271030519 0.015660669523219903 0 0.034149753121850798 0.015703146944296389 0 0.034326977271030519 0.015660669523219903 0 0.034297182639040469 0.015823096261361982 0 0.034326977271030519 0.015660669523219903 0 0.034297182639040469 0.015823096261361982 0 0.034530711684715235 0.015887044357183112 0 0.034297182639040469 0.015823096261361982 0 0.034171444874632945 0.015876874236766276 0 0.034260067962020843 0.015725709554539606 0 0.034149753121850798 0.015703146944296389 0 0.034171444874632945 0.015876874236766276 0 0.034160123713927279 0.016052826027540556 0 0.034149753121850798 0.015703146944296389 0 0.034297182639040469 0.015823096261361982 0 0.034171444874632945 0.015876874236766276 0 0.034160123713927279 0.016052826027540556 0 0.034131898060406646 0.015922751489606594 0 0.034259023246856257 0.016285555533848778 0 0.034149753121850798 0.015703146944296389 0 0.034160123713927279 0.016052826027540556 0 0.034131898060406646 0.015922751489606594 0 0.034149753121850798 0.015703146944296389 0 0.034131898060406646 0.015922751489606594 0 0.034082212634091551 0.015560155226070155 0 0.034131898060406646 0.015922751489606594 0 0.034082212634091551 0.015560155226070155 0 0.03411566925480003 0.015732553646982603 0 0.03411566925480003 0.015732553646982603 0 0.034223261137235159 0.016076456993170209 0 0.03427688327782169 0.015991943388103419 0 0.034131898060406646 0.015922751489606594 0 0.034223261137235159 0.016076456993170209 0 0.034259023246856257 0.016285555533848778 0 0.034131898060406646 0.015922751489606594 0 0.03411566925480003 0.015732553646982603 0 0.034223261137235159 0.016076456993170209 0 0.034223261137235159 0.016076456993170209 0 0.03427688327782169 0.015991943388103419 0 0.034424351967257572 0.016425353483884686 0 0.034223261137235159 0.016076456993170209 0 0.034259023246856257 0.016285555533848778 0 0.034424351967257572 0.016425353483884686 0 0.034160123713927279 0.016052826027540556 0 0.034259023246856257 0.016285555533848778 0 0.034260057880424064 0.016369025180497387 0 0.034259023246856257 0.016285555533848778 0 0.034488055077211477 0.016653849948350542 0 0.034260057880424064 0.016369025180497387 0 0.034488055077211477 0.016653849948350542 0 0.034703521839775861 0.017031264617082022 0 0.034260057880424064 0.016369025180497387 0 0.026138740984348721 0.0349097839985264 0 0.026104051403815894 0.033958663972588551 0 0.027608481800046977 0.036383145024440462 0 0.034488055077211477 0.016653849948350542 0 0.034667857118646721 0.016788290566899792 0 0.034424351967257572 0.016425353483884686 0 0.034259023246856257 0.016285555533848778 0 0.034488055077211477 0.016653849948350542 0 0.034424351967257572 0.016425353483884686 0 0.034488055077211477 0.016653849948350542 0 0.034667857118646721 0.016788290566899792 0 0.034689615506263323 0.016915598342469085 0 0.034488055077211477 0.016653849948350542 0 0.034689615506263323 0.016915598342469085 0 0.034703521839775861 0.017031264617082022 0 0.026138740984348721 0.0349097839985264 0 0.026104051403815894 0.033958663972588551 0 0.029241755598416436 0.03047530399038673 0 0.034973640916546651 0.017176982879045361 0 0.035293492137314954 0.017376725906904516 0 0.035870816708442603 0.018135477926282211 0 0.032761463895352838 0.024676914901505548 0 0.035015707414936682 0.022930147655339919 0 0.034703521839775861 0.017031264617082022 0 0.034973640916546651 0.017176982879045361 0 0.035870816708442603 0.018135477926282211 0 0.024349736079769795 0.033938062809539107 0 0.024319446751203282 0.033769942123168327 0 0.034689615506263323 0.016915598342469085 0 0.034703521839775861 0.017031264617082022 0 0.034973640916546651 0.017176982879045361 0 0.034667857118646721 0.016788290566899792 0 0.034689615506263323 0.016915598342469085 0 0.034973640916546651 0.017176982879045361 0 0.034667857118646721 0.016788290566899792 0 0.034973640916546651 0.017176982879045361 0 0.034978704721051607 0.016959738995839756 0 0.034667857118646721 0.016788290566899792 0 0.034978704721051607 0.016959738995839756 0 0.034613533120074771 0.016454425041922679 0 0.034978704721051607 0.016959738995839756 0 0.035293492137314954 0.017376725906904516 0 0.035494959452917071 0.017277635726591273 0 0.034973640916546651 0.017176982879045361 0 0.034978704721051607 0.016959738995839756 0 0.035293492137314954 0.017376725906904516 0 0.034988169823514777 0.016631062607085301 0 0.035494959452917071 0.017277635726591273 0 0.035314211392338764 0.016544172843479012 0 0.034978704721051607 0.016959738995839756 0 0.034988169823514777 0.016631062607085301 0 0.035494959452917071 0.017277635726591273 0 0.034978704721051607 0.016959738995839756 0 0.034988169823514777 0.016631062607085301 0 0.034613533120074771 0.016454425041922679 0 0.034988169823514777 0.016631062607085301 0 0.034613533120074771 0.016454425041922679 0 0.034731175831139181 0.015905182476892352 0 0.034613533120074771 0.016454425041922679 0 0.03427688327782169 0.015991943388103419 0 0.034424351967257572 0.016425353483884686 0 0.034613533120074771 0.016454425041922679 0 0.03427688327782169 0.015991943388103419 0 0.034378760580056761 0.015827375514931782 0 0.034667857118646721 0.016788290566899792 0 0.034613533120074771 0.016454425041922679 0 0.034424351967257572 0.016425353483884686 0 0.037129671913872543 0.028474882802783187 0 0.029897627620880145 0.026271040688605075 0 0.038148343106698887 0.020271977690561813 0 0.021797597007744543 0.033523377387221436 0 0.024319446751203282 0.033769942123168327 0 0.037129671913872543 0.028474882802783187 0 0.029897627620880145 0.026271040688605075 0 0.029241755598416436 0.03047530399038673 0 0.026104051403815894 0.033958663972588551 0 0.029897627620880145 0.026271040688605075 0 0.029241755598416436 0.03047530399038673 0 0.035293492137314954 0.017376725906904516 0 0.035870816708442603 0.018135477926282211 0 0.035494959452917071 0.017277635726591273 0 0.035494959452917071 0.017277635726591273 0 0.035950220959246285 0.016828879260903467 0 0.035314211392338764 0.016544172843479012 0 0.035494959452917071 0.017277635726591273 0 0.036370507092757708 0.017973934757108637 0 0.035950220959246285 0.016828879260903467 0 0.036370507092757708 0.017973934757108637 0 0.037055046015294149 0.017507408089870988 0 0.035950220959246285 0.016828879260903467 0 0.035870816708442603 0.018135477926282211 0 0.035494959452917071 0.017277635726591273 0 0.036370507092757708 0.017973934757108637 0 0.036370507092757708 0.017973934757108637 0 0.037055046015294149 0.017507408089870988 0 0.038148343106698887 0.020271977690561813 0 0.035870816708442603 0.018135477926282211 0 0.036370507092757708 0.017973934757108637 0 0.038148343106698887 0.020271977690561813 0 0.037055046015294149 0.017507408089870988 0 0.038148343106698887 0.020271977690561813 0 0.038635277216217151 0.016861465408692052 0 0.035015707414936682 0.022930147655339919 0 0.036851448788243271 0.021945630843248388 0 0.037055046015294149 0.017507408089870988 0 0.036954041522388771 0.015675607204926671 0 0.038635277216217151 0.016861465408692052 0 0.037055046015294149 0.017507408089870988 0 0.035950220959246285 0.016828879260903467 0 0.036954041522388771 0.015675607204926671 0 0.035950220959246285 0.016828879260903467 0 0.035844590253215791 0.015136680676332968 0 0.036954041522388771 0.015675607204926671 0 0.035950220959246285 0.016828879260903467 0 0.035844590253215791 0.015136680676332968 0 0.035191292077260121 0.015752247157182899 0 0.035950220959246285 0.016828879260903467 0 0.035314211392338764 0.016544172843479012 0 0.035191292077260121 0.015752247157182899 0 0.035844590253215791 0.015136680676332968 0 0.036954041522388771 0.015675607204926671 0 0.036896943566406257 0.013693725310388871 0 0.035844590253215791 0.015136680676332968 0 0.036896943566406257 0.013693725310388871 0 0.035422435709784927 0.013872083245064049 0 0.036954041522388771 0.015675607204926671 0 0.038635277216217151 0.016861465408692052 0 0.038754827383818434 0.014142326123478759 0 0.036954041522388771 0.015675607204926671 0 0.036896943566406257 0.013693725310388871 0 0.038754827383818434 0.014142326123478759 0 0.034192951259176027 0.015213883300787231 0 0.034731175831139181 0.015905182476892352 0 0.034478619212462223 0.015012160202133393 0 0.034192951259176027 0.015213883300787231 0 0.034378760580056761 0.015827375514931782 0 0.034731175831139181 0.015905182476892352 0 0.034118819190383599 0.015509294988918444 0 0.034192951259176027 0.015213883300787231 0 0.034378760580056761 0.015827375514931782 0 0.034118819190383599 0.015509294988918444 0 0.03427688327782169 0.015991943388103419 0 0.034378760580056761 0.015827375514931782 0 0.034613533120074771 0.016454425041922679 0 0.034378760580056761 0.015827375514931782 0 0.034731175831139181 0.015905182476892352 0 0.034988169823514777 0.016631062607085301 0 0.034731175831139181 0.015905182476892352 0 0.035314211392338764 0.016544172843479012 0 0.034731175831139181 0.015905182476892352 0 0.035314211392338764 0.016544172843479012 0 0.035191292077260121 0.015752247157182899 0 0.034731175831139181 0.015905182476892352 0 0.035191292077260121 0.015752247157182899 0 0.034478619212462223 0.015012160202133393 0 0.035191292077260121 0.015752247157182899 0 0.035018436951156307 0.014807636867771303 0 0.034478619212462223 0.015012160202133393 0 0.035844590253215791 0.015136680676332968 0 0.035191292077260121 0.015752247157182899 0 0.035018436951156307 0.014807636867771303 0 0.035844590253215791 0.015136680676332968 0 0.035018436951156307 0.014807636867771303 0 0.035422435709784927 0.013872083245064049 0 0.035018436951156307 0.014807636867771303 0 0.034469990800010897 0.014052152603868587 0 0.035422435709784927 0.013872083245064049 0 0.035018436951156307 0.014807636867771303 0 0.034478619212462223 0.015012160202133393 0 0.034469990800010897 0.014052152603868587 0 0.034478619212462223 0.015012160202133393 0 0.033887993844760593 0.014333707880644636 0 0.034469990800010897 0.014052152603868587 0 0.034192951259176027 0.015213883300787231 0 0.034478619212462223 0.015012160202133393 0 0.033887993844760593 0.014333707880644636 0 0.033973978177610005 0.014925250723133979 0 0.034192951259176027 0.015213883300787231 0 0.033887993844760593 0.014333707880644636 0 0.033887993844760593 0.014333707880644636 0 0.03384867911842538 0.013321059975749694 0 0.033618945617473681 0.013661879764995836 0 0.033887993844760593 0.014333707880644636 0 0.03384867911842538 0.013321059975749694 0 0.034469990800010897 0.014052152603868587 0 0.03384867911842538 0.013321059975749694 0 0.033258188109285748 0.013040415408363313 0 0.033618945617473681 0.013661879764995836 0 0.034469990800010897 0.014052152603868587 0 0.03460607707412075 0.012812622780564761 0 0.035422435709784927 0.013872083245064049 0 0.03384867911842538 0.013321059975749694 0 0.034469990800010897 0.014052152603868587 0 0.03460607707412075 0.012812622780564761 0 0.03460607707412075 0.012812622780564761 0 0.033338678495060954 0.012409933155171264 0 0.034734990540471189 0.010690139330841283 0 0.033338678495060954 0.012409933155171264 0 0.033030626176473281 0.010301357774353889 0 0.034734990540471189 0.010690139330841283 0 0.03460607707412075 0.012812622780564761 0 0.036514345113843827 0.011955227695262874 0 0.034734990540471189 0.010690139330841283 0 0.033338678495060954 0.012409933155171264 0 0.032449001127222626 0.012051225411844927 0 0.033030626176473281 0.010301357774353889 0 0.033338678495060954 0.012409933155171264 0 0.032449001127222626 0.012051225411844927 0 0.033258188109285748 0.013040415408363313 0 0.03384867911842538 0.013321059975749694 0 0.033338678495060954 0.012409933155171264 0 0.033258188109285748 0.013040415408363313 0 0.03384867911842538 0.013321059975749694 0 0.03460607707412075 0.012812622780564761 0 0.033338678495060954 0.012409933155171264 0 0.036896943566406257 0.013693725310388871 0 0.036514345113843827 0.011955227695262874 0 0.0386852488145739 0.011558709421494517 0 0.036896943566406257 0.013693725310388871 0 0.0386852488145739 0.011558709421494517 0 0.038754827383818434 0.014142326123478759 0 0.03460607707412075 0.012812622780564761 0 0.035422435709784927 0.013872083245064049 0 0.036514345113843827 0.011955227695262874 0 0.036896943566406257 0.013693725310388871 0 0.035422435709784927 0.013872083245064049 0 0.036514345113843827 0.011955227695262874 0 0.036514345113843827 0.011955227695262874 0 0.038045792884606258 0.0095938896186294718 0 0.034734990540471189 0.010690139330841283 0 0.036514345113843827 0.011955227695262874 0 0.0386852488145739 0.011558709421494517 0 0.038045792884606258 0.0095938896186294718 0 0.038045792884606258 0.0095938896186294718 0 0.036645959061237937 0.0079145429620711277 0 0.038640348254593171 0.0076004245861761438 0 0.038045792884606258 0.0095938896186294718 0 0.038640348254593171 0.0076004245861761438 0 0.040110048065654651 0.0080547758369966509 0 0.038045792884606258 0.0095938896186294718 0 0.036645959061237937 0.0079145429620711277 0 0.034734990540471189 0.010690139330841283 0 0.035666769492829681 0.0067712643203440351 0 0.034902867560904632 0.0081980602284553051 0 0.035860343275478539 0.0073553439306878335 0 0.037809681782048771 0.0036509080091407724 0 0.034279727419937976 0.0047835278413597849 0 0.035860343275478539 0.0073553439306878335 0 0.033390532451499269 0.0074198961684187187 0 0.034279727419937976 0.0047835278413597849 0 0.036645959061237937 0.0079145429620711277 0 0.038640348254593171 0.0076004245861761438 0 0.038465568529474851 0.0060880386536051488 0 0.035666769492829681 0.0067712643203440351 0 0.036966564335374402 0.0038148332624853318 0 0.033030626176473281 0.010301357774353889 0 0.033390532451499269 0.0074198961684187187 0 0.030916684250221919 0.008511041400324694 0 0.03093559203564393 0.010252014760277369 0 0.030802763062939244 0.0098592331607296278 0 0.032449001127222626 0.012051225411844927 0 0.033030626176473281 0.010301357774353889 0 0.030916684250221919 0.008511041400324694 0 0.033030626176473281 0.010301357774353889 0 0.034734990540471189 0.010690139330841283 0 0.033390532451499269 0.0074198961684187187 0 0.035860343275478539 0.0073553439306878335 0 0.034734990540471189 0.010690139330841283 0 0.033390532451499269 0.0074198961684187187 0 0.033390532451499269 0.0074198961684187187 0 0.032510707229193317 0.0040325747137220725 0 0.030419581938456963 0.0058678373178794024 0 0.033390532451499269 0.0074198961684187187 0 0.030916684250221919 0.008511041400324694 0 0.030419581938456963 0.0058678373178794024 0 0.030802763062939244 0.0098592331607296278 0 0.030455679054081662 0.0087244532434429031 0 0.033200850769832667 0.014166743057637234 0 0.033049007901428111 0.014829336228519887 0 0.032750624921111728 0.015090075168586282 0 0.032024358670212381 0.010989854755556187 0 0.030455679054081662 0.0087244532434429031 0 0.032546543905601369 0.013600129505871425 0 0.033807786118243394 0.013824335653240885 0 0.032573331230604838 0.0144220196457054 0 0.033200850769832667 0.014166743057637234 0 0.033814797762740642 0.014538948302310254 0 0.033049007901428111 0.014829336228519887 0 0.033807786118243394 0.013824335653240885 0 0.033955260239256858 0.013462286247074289 0 0.034401765637179844 0.013629729932668361 0 0.033807786118243394 0.013824335653240885 0 0.033955260239256858 0.013462286247074289 0 0.033451288918435546 0.013141958897542114 0 0.032546543905601369 0.013600129505871425 0 0.033807786118243394 0.013824335653240885 0 0.033451288918435546 0.013141958897542114 0 0.032449001127222626 0.012051225411844927 0 0.032546543905601369 0.013600129505871425 0 0.033451288918435546 0.013141958897542114 0 0.032449001127222626 0.012051225411844927 0 0.033451288918435546 0.013141958897542114 0 0.033592780629670291 0.013269943174087483 0 0.032449001127222626 0.012051225411844927 0 0.033258188109285748 0.013040415408363313 0 0.033592780629670291 0.013269943174087483 0 0.033955260239256858 0.013462286247074289 0 0.033451288918435546 0.013141958897542114 0 0.033592780629670291 0.013269943174087483 0 0.033955260239256858 0.013462286247074289 0 0.033592780629670291 0.013269943174087483 0 0.034073438554260371 0.013861958177918706 0 0.033592780629670291 0.013269943174087483 0 0.03383714382615402 0.013899842562543001 0 0.033664384116410255 0.013874305429257348 0 0.033592780629670291 0.013269943174087483 0 0.03383714382615402 0.013899842562543001 0 0.034073438554260371 0.013861958177918706 0 0.033903782862103223 0.014448548349126423 0 0.03383714382615402 0.013899842562543001 0 0.034152474603596404 0.014332684160460327 0 0.033903782862103223 0.014448548349126423 0 0.03383714382615402 0.013899842562543001 0 0.033664384116410255 0.013874305429257348 0 0.033258188109285748 0.013040415408363313 0 0.033592780629670291 0.013269943174087483 0 0.033664384116410255 0.013874305429257348 0 0.033887993844760593 0.014333707880644636 0 0.033664384116410255 0.013874305429257348 0 0.033618945617473681 0.013661879764995836 0 0.033258188109285748 0.013040415408363313 0 0.033664384116410255 0.013874305429257348 0 0.033618945617473681 0.013661879764995836 0 0.034349683365448108 0.014659073363409957 0 0.034458526401741643 0.014110524943273521 0 0.034152474603596404 0.014332684160460327 0 0.034349683365448108 0.014659073363409957 0 0.034458526401741643 0.014110524943273521 0 0.034535333925544122 0.014620421314407253 0 0.034458526401741643 0.014110524943273521 0 0.034152474603596404 0.014332684160460327 0 0.034073438554260371 0.013861958177918706 0 0.03383714382615402 0.013899842562543001 0 0.034152474603596404 0.014332684160460327 0 0.034073438554260371 0.013861958177918706 0 0.034458526401741643 0.014110524943273521 0 0.034073438554260371 0.013861958177918706 0 0.034401765637179844 0.013629729932668361 0 0.033955260239256858 0.013462286247074289 0 0.034073438554260371 0.013861958177918706 0 0.034401765637179844 0.013629729932668361 0 0.034458526401741643 0.014110524943273521 0 0.034401765637179844 0.013629729932668361 0 0.034914337605419336 0.013831769502766576 0 0.034401765637179844 0.013629729932668361 0 0.035309477278548121 0.013629926738247129 0 0.034914337605419336 0.013831769502766576 0 0.032024358670212381 0.010989854755556187 0 0.032697061705352713 0.011501429249135258 0 0.034401765637179844 0.013629729932668361 0 0.034881662594491818 0.014131855825095812 0 0.033814797762740642 0.014538948302310254 0 0.033200850769832667 0.014166743057637234 0 0.034401765637179844 0.013629729932668361 0 0.033814797762740642 0.014538948302310254 0 0.034401765637179844 0.013629729932668361 0 0.035309477278548121 0.013629926738247129 0 0.034881662594491818 0.014131855825095812 0 0.035309477278548121 0.013629926738247129 0 0.03515306231222242 0.01359779108334476 0 0.037008812870913899 0.01327121939885641 0 0.035309477278548121 0.013629926738247129 0 0.037008812870913899 0.01327121939885641 0 0.034881662594491818 0.014131855825095812 0 0.035309477278548121 0.013629926738247129 0 0.034914337605419336 0.013831769502766576 0 0.03515306231222242 0.01359779108334476 0 0.040031513700921277 0.0049276698130472103 0 0.04307988911055783 -0.00088805117519603579 0 0.034914337605419336 0.013831769502766576 0 0.03515306231222242 0.01359779108334476 0 0.034416565520471579 0.013945721064842834 0 0.040031513700921277 0.0049276698130472103 0 0.038680878251679547 0.0081980478596607748 0 0.040975390301356676 -0.0024185286202746902 0 0.045834073072562737 0.0085744386954306577 0 0.037008812870913899 0.01327121939885641 0 0.040975390301356676 -0.0024185286202746902 0 0.061536805223911833 0.006174223209634384 0 0.045834073072562737 0.0085744386954306577 0 0.040975390301356676 -0.0024185286202746902 0 0.061536805223911833 0.006174223209634384 0 0.063047406715017545 -0.014986973999221201 0 0.080713960859751493 -0.015689847978610921 0 0.08730995954319927 -0.01986663005911524 0 0.061536805223911833 0.006174223209634384 0 0.063047406715017545 -0.014986973999221201 0 0.078720041346969361 -0.0088983591209618098 0 0.040975390301356676 -0.0024185286202746902 0 0.063047406715017545 -0.014986973999221201 0 0.047279346602332795 -0.019145784274688882 0 0.04307988911055783 -0.00088805117519603579 0 0.046673102751720409 -0.0045042726690187919 0 0.063047406715017545 -0.014986973999221201 0 0.047279346602332795 -0.019145784274688882 0 0.053769771221831464 -0.035986210695544335 0 0.063047406715017545 -0.014986973999221201 0 0.070714285408870148 -0.029181027720190707 0 0.073749014026622789 -0.018637169739792389 0 0.063047406715017545 -0.014986973999221201 0 0.070714285408870148 -0.029181027720190707 0 0.053769771221831464 -0.035986210695544335 0 0.070714285408870148 -0.029181027720190707 0 0.053769771221831464 -0.035986210695544335 0 0.065737979544401165 -0.040672292719399927 0 0.034416565520471579 0.013945721064842834 0 0.033952502077587217 0.014569617958937381 0 0.034434873757931486 0.014681568302812437 0 0.034416565520471579 0.013945721064842834 0 0.034434873757931486 0.014681568302812437 0 0.034639896005442268 0.014251427558503957 0 0.034458526401741643 0.014110524943273521 0 0.034639896005442268 0.014251427558503957 0 0.034535333925544122 0.014620421314407253 0 0.034434873757931486 0.014681568302812437 0 0.034639896005442268 0.014251427558503957 0 0.034535333925544122 0.014620421314407253 0 0.034458526401741643 0.014110524943273521 0 0.034914337605419336 0.013831769502766576 0 0.034639896005442268 0.014251427558503957 0 0.034914337605419336 0.013831769502766576 0 0.034416565520471579 0.013945721064842834 0 0.034639896005442268 0.014251427558503957 0 0.092363190084420677 -0.027887398896382792 0 0.092656955627922172 -0.028427974853172625 0 0.093060079954390459 -0.027676984956931612 0 0.092656955627922172 -0.028427974853172625 0 0.093227181048502736 -0.028604818689276272 0 0.093060079954390459 -0.027676984956931612 0 0.093701468216091474 -0.027949322718805725 0 0.093227181048502736 -0.028604818689276272 0 0.094224816617317658 -0.029094075624751799 0 0.093701468216091474 -0.027949322718805725 0 0.093227181048502736 -0.028604818689276272 0 0.093060079954390459 -0.027676984956931612 0 0.093227181048502736 -0.028604818689276272 0 0.093466386751008101 -0.029692047447295204 0 0.094224816617317658 -0.029094075624751799 0 0.093227181048502736 -0.028604818689276272 0 0.093466386751008101 -0.029692047447295204 0 0.092621845773230169 -0.029400095971592939 0 0.092656955627922172 -0.028427974853172625 0 0.093227181048502736 -0.028604818689276272 0 0.092621845773230169 -0.029400095971592939 0 0.093466386751008101 -0.029692047447295204 0 0.092621845773230169 -0.029400095971592939 0 0.092646730090806428 -0.030951243475032003 0 0.092646730090806428 -0.030951243475032003 0 0.093974676418667136 -0.030878125668864428 0 0.093373706810267895 -0.032946301462046884 0 0.093466386751008101 -0.029692047447295204 0 0.093974676418667136 -0.030878125668864428 0 0.094224816617317658 -0.029094075624751799 0 0.093466386751008101 -0.029692047447295204 0 0.092646730090806428 -0.030951243475032003 0 0.093974676418667136 -0.030878125668864428 0 0.093974676418667136 -0.030878125668864428 0 0.096190103583996697 -0.031089911967370897 0 0.095006581959625247 -0.032625165339869262 0 0.093974676418667136 -0.030878125668864428 0 0.096190103583996697 -0.031089911967370897 0 0.094224816617317658 -0.029094075624751799 0 0.096190103583996697 -0.031089911967370897 0 0.094224816617317658 -0.029094075624751799 0 0.095596802465367559 -0.028481203480371441 0 0.093701468216091474 -0.027949322718805725 0 0.094224816617317658 -0.029094075624751799 0 0.094371566946768889 -0.027511337067949275 0 0.094224816617317658 -0.029094075624751799 0 0.095596802465367559 -0.028481203480371441 0 0.094371566946768889 -0.027511337067949275 0 0.096190103583996697 -0.031089911967370897 0 0.095596802465367559 -0.028481203480371441 0 0.099350072595333808 -0.028917034868295933 0 0.095596802465367559 -0.028481203480371441 0 0.099350072595333808 -0.028917034868295933 0 0.09444364346814943 -0.025711266895071912 0 0.096190103583996697 -0.031089911967370897 0 0.099350072595333808 -0.028917034868295933 0 0.099332189757350225 -0.032768502575450068 0 0.10268418407400579 -0.032033584633015963 0 0.099350072595333808 -0.028917034868295933 0 0.099332189757350225 -0.032768502575450068 0 0.063047406715017545 -0.014986973999221201 0 0.078720041346969361 -0.0088983591209618098 0 0.073749014026622789 -0.018637169739792389 0 0.078720041346969361 -0.0088983591209618098 0 0.073749014026622789 -0.018637169739792389 0 0.082009570916439054 -0.024433632367818852 0 0.070714285408870148 -0.029181027720190707 0 0.073749014026622789 -0.018637169739792389 0 0.082009570916439054 -0.024433632367818852 0 0.070714285408870148 -0.029181027720190707 0 0.081598409860612037 -0.036483135950325221 0 0.065737979544401165 -0.040672292719399927 0 0.070714285408870148 -0.029181027720190707 0 0.082009570916439054 -0.024433632367818852 0 0.081598409860612037 -0.036483135950325221 0 0.081598409860612037 -0.036483135950325221 0 0.091199869828750516 -0.028042194302752677 0 0.093071085045040788 -0.042417000808247007 0 0.082009570916439054 -0.024433632367818852 0 0.081598409860612037 -0.036483135950325221 0 0.091199869828750516 -0.028042194302752677 0 0.068220167624897174 -0.017904540395221623 0 0.06381698876259452 -0.0085626641843828729 0 0.091199869828750516 -0.028042194302752677 0 0.093380992023368706 -0.027496244140319967 0 0.093164394492351602 -0.028362994377096815 0 0.08730995954319927 -0.01986663005911524 0 0.090793556692348731 -0.022789966142582774 0 0.078720041346969361 -0.0088983591209618098 0 0.082009570916439054 -0.024433632367818852 0 0.09444364346814943 -0.025711266895071912 0 0.082009570916439054 -0.024433632367818852 0 0.091199869828750516 -0.028042194302752677 0 0.09444364346814943 -0.025711266895071912 0 0.091199869828750516 -0.028042194302752677 0 0.09444364346814943 -0.025711266895071912 0 0.093380992023368706 -0.027496244140319967 0 0.095596802465367559 -0.028481203480371441 0 0.094371566946768889 -0.027511337067949275 0 0.09444364346814943 -0.025711266895071912 0 0.094371566946768889 -0.027511337067949275 0 0.09444364346814943 -0.025711266895071912 0 0.094046913451519332 -0.026606613668658376 0 0.094371566946768889 -0.027511337067949275 0 0.094046913451519332 -0.026606613668658376 0 0.093694511409282644 -0.027099349430807423 0 0.093701468216091474 -0.027949322718805725 0 0.094371566946768889 -0.027511337067949275 0 0.093694511409282644 -0.027099349430807423 0 0.094046913451519332 -0.026606613668658376 0 0.093550642512209792 -0.027221626525068592 0 0.093694511409282644 -0.027099349430807423 0 0.09444364346814943 -0.025711266895071912 0 0.094046913451519332 -0.026606613668658376 0 0.093380992023368706 -0.027496244140319967 0 0.094046913451519332 -0.026606613668658376 0 0.093380992023368706 -0.027496244140319967 0 0.093550642512209792 -0.027221626525068592 0 0.081257985467200602 -0.010718243835858803 0 0.06381698876259452 -0.0085626641843828729 0 0.093380992023368706 -0.027496244140319967 0 0.093550642512209792 -0.027221626525068592 0 0.093164394492351602 -0.028362994377096815 0 0.093550642512209792 -0.027221626525068592 0 0.093325700845828863 -0.026729487828654832 0 0.093164394492351602 -0.028362994377096815 0 0.093550642512209792 -0.027221626525068592 0 0.093325700845828863 -0.026729487828654832 0 0.093298387514966108 -0.027092353152072184 0 0.092591922439299063 -0.027113837254370488 0 0.093325700845828863 -0.026729487828654832 0 0.093298387514966108 -0.027092353152072184 0 0.092676434316030384 -0.027451620370636916 0 0.092591922439299063 -0.027113837254370488 0 0.093298387514966108 -0.027092353152072184 0 0.093550642512209792 -0.027221626525068592 0 0.093298387514966108 -0.027092353152072184 0 0.093694511409282644 -0.027099349430807423 0 0.093701468216091474 -0.027949322718805725 0 0.093694511409282644 -0.027099349430807423 0 0.093060079954390459 -0.027676984956931612 0 0.093298387514966108 -0.027092353152072184 0 0.093694511409282644 -0.027099349430807423 0 0.093060079954390459 -0.027676984956931612 0 0.092676434316030384 -0.027451620370636916 0 0.092363190084420677 -0.027887398896382792 0 0.093060079954390459 -0.027676984956931612 0 0.092676434316030384 -0.027451620370636916 0 0.093298387514966108 -0.027092353152072184 0 0.093060079954390459 -0.027676984956931612 0 0.066835749853230444 0.0079699732831804062 0 0.065926426695436441 0.0064668498549529437 0 0.066923124369580894 0.005968511765390757 0 0.068794282340258764 0.0068095439658223591 0 0.066835749853230444 0.0079699732831804062 0 0.066923124369580894 0.005968511765390757 0 0.092103002165217704 -0.026287735197465602 0 0.093325700845828863 -0.026729487828654832 0 0.093346242223442205 -0.025621206531847365 0 0.093325700845828863 -0.026729487828654832 0 0.093346242223442205 -0.025621206531847365 0 0.094016033862157941 -0.025611215451654037 0 0.093325700845828863 -0.026729487828654832 0 0.094016033862157941 -0.025611215451654037 0 0.09449318836069151 -0.02607966566950732 0 0.094016033862157941 -0.025611215451654037 0 0.094316365740131705 -0.024978955877009337 0 0.09449318836069151 -0.02607966566950732 0 0.093346242223442205 -0.025621206531847365 0 0.094016033862157941 -0.025611215451654037 0 0.094316365740131705 -0.024978955877009337 0 0.073876208975693622 -0.0015603944245164631 0 0.061869947794599096 0.0038678828357972313 0 0.066835749853230444 0.0079699732831804062 0 0.064901388785222891 0.0069256860367616956 0 0.065926426695436441 0.0064668498549529437 0 0.03220172198890707 0.027378321181321792 0 0.030986947371919014 0.027554748210854872 0 0.031860596053847286 0.029141387310914844 0 0.03220172198890707 0.027378321181321792 0 0.031826563056276846 0.027143508111979669 0 0.030986947371919014 0.027554748210854872 0 0.061869947794599096 0.0038678828357972313 0 0.061142380755294677 0.0038951826255627341 0 0.061869947794599096 0.0038678828357972313 0 0.06381698876259452 -0.0085626641843828729 0 0.081598409860612037 -0.036483135950325221 0 0.093071085045040788 -0.042417000808247007 0 0.076554128426098322 -0.047721484231865147 0 0.06381698876259452 -0.0085626641843828729 0 0.05401412058824584 -0.0039772100294600647 0 0.030986947371919014 0.027554748210854872 0 0.031860596053847286 0.029141387310914844 0 0.030237877289640239 0.02858845210635403 0 0.081598409860612037 -0.036483135950325221 0 0.076554128426098322 -0.047721484231865147 0 0.065737979544401165 -0.040672292719399927 0 0.030986947371919014 0.027554748210854872 0 0.030237877289640239 0.02858845210635403 0 0.02987613259361736 0.027639358871232096 0 0.030986947371919014 0.027554748210854872 0 0.02987613259361736 0.027639358871232096 0 0.030291857748710283 0.027117700468000491 0 0.02987613259361736 0.027639358871232096 0 0.030291857748710283 0.027117700468000491 0 0.029381744109620925 0.026845758602570685 0 0.030986947371919014 0.027554748210854872 0 0.030291857748710283 0.027117700468000491 0 0.030920239117268166 0.026973294633614121 0 0.030291857748710283 0.027117700468000491 0 0.030257329633251034 0.026502525484753934 0 0.030920239117268166 0.026973294633614121 0 0.030291857748710283 0.027117700468000491 0 0.030257329633251034 0.026502525484753934 0 0.029381744109620925 0.026845758602570685 0 0.037061444011071885 0.020278594843362661 0 0.034658396311919963 0.023132274128187937 0 0.030257329633251034 0.026502525484753934 0 0.030507672504968435 0.026133591463795212 0 0.029768091712722787 0.024681163457043822 0 0.030257329633251034 0.026502525484753934 0 0.029381744109620925 0.026845758602570685 0 0.029768091712722787 0.024681163457043822 0 0.030257329633251034 0.026502525484753934 0 0.031110862992128639 0.026969557371831245 0 0.030507672504968435 0.026133591463795212 0 0.030507672504968435 0.026133591463795212 0 0.031695196981460984 0.027576571671658435 0 0.03001383546147237 0.025006703013421509 0 0.031285080034369694 0.028680852158556265 0 0.031435408129687925 0.029423939658945988 0 0.031695196981460984 0.027576571671658435 0 0.031238254717393932 0.030254493057161866 0 0.033319064646704415 0.031454119081343906 0 0.031110862992128639 0.026969557371831245 0 0.030507672504968435 0.026133591463795212 0 0.031695196981460984 0.027576571671658435 0 0.031110862992128639 0.026969557371831245 0 0.031399492312866518 0.026615096349616538 0 0.031695196981460984 0.027576571671658435 0 0.031110862992128639 0.026969557371831245 0 0.030920239117268166 0.026973294633614121 0 0.031399492312866518 0.026615096349616538 0 0.030257329633251034 0.026502525484753934 0 0.031110862992128639 0.026969557371831245 0 0.030920239117268166 0.026973294633614121 0 0.031826563056276846 0.027143508111979669 0 0.030986947371919014 0.027554748210854872 0 0.03251807383919874 0.025924768067000708 0 0.032333855103668957 0.027413910268931269 0 0.031826563056276846 0.027143508111979669 0 0.03251807383919874 0.025924768067000708 0 0.042393379643774834 0.024568477729420491 0 0.049957397539690772 0.018673443191917993 0 0.030986947371919014 0.027554748210854872 0 0.030920239117268166 0.026973294633614121 0 0.031399492312866518 0.026615096349616538 0 0.065926426695436441 0.0064668498549529437 0 0.065063414081697399 0.0057575469786227962 0 0.066923124369580894 0.005968511765390757 0 0.061869947794599096 0.0038678828357972313 0 0.049957397539690772 0.018673443191917993 0 0.064901388785222891 0.0069256860367616956 0 0.065926426695436441 0.0064668498549529437 0 0.065063414081697399 0.0057575469786227962 0 0.049957397539690772 0.018673443191917993 0 0.048020249978840815 0.025633565073706826 0 0.03141759679639166 0.029958351098206468 0 0.031238254717393932 0.030254493057161866 0 0.0311467817936757 0.030781540150622472 0 0.03141759679639166 0.029958351098206468 0 0.031005389088009767 0.03074182465044473 0 0.0311467817936757 0.030781540150622472 0 0.049957397539690772 0.018673443191917993 0 0.046373321109559149 0.024664466777969744 0 0.031399492312866518 0.026615096349616538 0 0.031695196981460984 0.027576571671658435 0 0.031238254717393932 0.030254493057161866 0 0.068079298647903866 0.0045617088569139272 0 0.066668821201385536 0.0041726423014538366 0 0.066923124369580894 0.005968511765390757 0 0.052774247198255214 0.02365325901969615 0 0.048020249978840815 0.025633565073706826 0 0.048020249978840815 0.025633565073706826 0 0.047400474997683857 0.025564355956611461 0 0.065063414081697399 0.0057575469786227962 0 0.066668821201385536 0.0041726423014538366 0 0.066923124369580894 0.005968511765390757 0 0.034811713031639567 0.015958329262964904 0 0.034641673385640954 0.015678912527414563 0 0.034572753920754068 0.015375913313985471 0 0.034811713031639567 0.015958329262964904 0 0.034572753920754068 0.015375913313985471 0 0.034253367724407117 0.01516252429744896 0 0.034811713031639567 0.015958329262964904 0 0.034053331069350636 0.016539859862521405 0 0.035138314668421607 0.016756082860398428 0 0.034811713031639567 0.015958329262964904 0 0.034641673385640954 0.015678912527414563 0 0.034796004258138731 0.016176061237983392 0 0.034641673385640954 0.015678912527414563 0 0.034530711684715235 0.015887044357183112 0 0.034796004258138731 0.016176061237983392 0 0.03444153621328816 0.015398917667525281 0 0.034641673385640954 0.015678912527414563 0 0.034530711684715235 0.015887044357183112 0 0.03444153621328816 0.015398917667525281 0 0.034641673385640954 0.015678912527414563 0 0.034562590089623382 0.015175304147474372 0 0.034641673385640954 0.015678912527414563 0 0.034562590089623382 0.015175304147474372 0 0.034572753920754068 0.015375913313985471 0 0.034434873757931486 0.014681568302812437 0 0.034535333925544122 0.014620421314407253 0 0.034562590089623382 0.015175304147474372 0 0.03444153621328816 0.015398917667525281 0 0.034562590089623382 0.015175304147474372 0 0.034461461453741619 0.014989976840474959 0 0.034535333925544122 0.014620421314407253 0 0.034562590089623382 0.015175304147474372 0 0.034461461453741619 0.014989976840474959 0 0.034434873757931486 0.014681568302812437 0 0.034562590089623382 0.015175304147474372 0 0.034572753920754068 0.015375913313985471 0 0.033952502077587217 0.014569617958937381 0 0.034434873757931486 0.014681568302812437 0 0.034253367724407117 0.01516252429744896 0 0.034434873757931486 0.014681568302812437 0 0.034572753920754068 0.015375913313985471 0 0.034253367724407117 0.01516252429744896 0 0.046673102751720409 -0.0045042726690187919 0 0.048064090207086664 0.004154087599080542 0 0.033952502077587217 0.014569617958937381 0 0.034253367724407117 0.01516252429744896 0 0.033482920739931893 0.015452253700648826 0 0.05401412058824584 -0.0039772100294600647 0 0.048064090207086664 0.004154087599080542 0 0.053769771221831464 -0.035986210695544335 0 0.065737979544401165 -0.040672292719399927 0 0.060325587678778929 -0.052922861643825432 0 0.076554128426098322 -0.047721484231865147 0 0.065737979544401165 -0.040672292719399927 0 0.060325587678778929 -0.052922861643825432 0 0.030237877289640239 0.02858845210635403 0 0.02987613259361736 0.027639358871232096 0 0.029014995001481733 0.02809912052850912 0 0.048064090207086664 0.004154087599080542 0 0.037061444011071885 0.020278594843362661 0 0.02987613259361736 0.027639358871232096 0 0.029014995001481733 0.02809912052850912 0 0.029381744109620925 0.026845758602570685 0 0.040795197325477234 0.0057952072898394807 0 0.048064090207086664 0.004154087599080542 0 0.032562833754132887 0.014975720886688217 0 0.034053331069350636 0.016539859862521405 0 0.033267794843344495 0.017306425059424941 0 0.034811713031639567 0.015958329262964904 0 0.032562833754132887 0.014975720886688217 0 0.034053331069350636 0.016539859862521405 0 0.034811713031639567 0.015958329262964904 0 0.034253367724407117 0.01516252429744896 0 0.033482920739931893 0.015452253700648826 0 0.034053331069350636 0.016539859862521405 0 0.033267794843344495 0.017306425059424941 0 0.034342694884021592 0.01782369559344809 0 0.033267794843344495 0.017306425059424941 0 0.030809578562257942 0.018483408037444152 0 0.034350961045707014 0.019742842681277219 0 0.033267794843344495 0.017306425059424941 0 0.034342694884021592 0.01782369559344809 0 0.034350961045707014 0.019742842681277219 0 0.032562833754132887 0.014975720886688217 0 0.033267794843344495 0.017306425059424941 0 0.030809578562257942 0.018483408037444152 0 0.030809578562257942 0.018483408037444152 0 0.032313006040476065 0.021709469109088299 0 0.034350961045707014 0.019742842681277219 0 0.030809578562257942 0.018483408037444152 0 0.032313006040476065 0.021709469109088299 0 0.029768091712722787 0.024681163457043822 0 0.034342694884021592 0.01782369559344809 0 0.034350961045707014 0.019742842681277219 0 0.035953355143096499 0.020125359901775223 0 0.032313006040476065 0.021709469109088299 0 0.034350961045707014 0.019742842681277219 0 0.034763140716863664 0.023077391911673722 0 0.034350961045707014 0.019742842681277219 0 0.037597362340521988 0.021059383234955143 0 0.034763140716863664 0.023077391911673722 0 0.033731579050607044 0.02213602044883296 0 0.033504375693279582 0.022268342871270982 0 0.034342694884021592 0.01782369559344809 0 0.035953355143096499 0.020125359901775223 0 0.035138314668421607 0.016756082860398428 0 0.033504375693279582 0.022268342871270982 0 0.033683391779526853 0.020410665571576687 0 0.034982298851826119 0.015725663549556894 0 0.035138314668421607 0.016756082860398428 0 0.034635784713924207 0.016006561348860734 0 0.034811713031639567 0.015958329262964904 0 0.035138314668421607 0.016756082860398428 0 0.034796004258138731 0.016176061237983392 0 0.035138314668421607 0.016756082860398428 0 0.034796004258138731 0.016176061237983392 0 0.034635784713924207 0.016006561348860734 0 0.034053331069350636 0.016539859862521405 0 0.034342694884021592 0.01782369559344809 0 0.035138314668421607 0.016756082860398428 0 0.034297182639040469 0.015823096261361982 0 0.034530711684715235 0.015887044357183112 0 0.034635784713924207 0.016006561348860734 0 0.034530711684715235 0.015887044357183112 0 0.034796004258138731 0.016176061237983392 0 0.034635784713924207 0.016006561348860734 0 0.034297182639040469 0.015823096261361982 0 0.034635784713924207 0.016006561348860734 0 0.034260067962020843 0.015725709554539606 0 0.034982298851826119 0.015725663549556894 0 0.034635784713924207 0.016006561348860734 0 0.034260067962020843 0.015725709554539606 0 0.033504375693279582 0.022268342871270982 0 0.033284993900460594 0.023531098645043502 0 0.033680810195937778 0.026360503232060586 0 0.033707242577107825 0.026338728798992173 0 0.033707944072018332 0.026382427991645339 0 0.033650131085237081 0.026305220672338401 0 0.033680810195937778 0.026360503232060586 0 0.033707242577107825 0.026338728798992173 0 0.0339537707329386 0.030023525280019395 0 0.033027605896132642 0.029170740971255028 0 0.033680810195937778 0.026360503232060586 0 0.033653548215127622 0.026411246243928752 0 0.033707944072018332 0.026382427991645339 0 0.037621634232550175 0.02530366732918048 0 0.036022274874800489 0.028127533239659358 0 0.037630503701289487 0.028880699073739417 0 0.033680810195937778 0.026360503232060586 0 0.033650737986696606 0.026358604474424237 0 0.033653548215127622 0.026411246243928752 0 0.034002253700479088 0.025982709090384422 0 0.0339537707329386 0.030023525280019395 0 0.033504375693279582 0.022268342871270982 0 0.034002253700479088 0.025982709090384422 0 0.037597362340521988 0.021059383234955143 0 0.037621634232550175 0.02530366732918048 0 0.034763140716863664 0.023077391911673722 0 0.033650131085237081 0.026305220672338401 0 0.033680810195937778 0.026360503232060586 0 0.033650737986696606 0.026358604474424237 0 0.032313006040476065 0.021709469109088299 0 0.034763140716863664 0.023077391911673722 0 0.032556365879809875 0.024399329934315848 0 0.034763140716863664 0.023077391911673722 0 0.032556365879809875 0.024399329934315848 0 0.034791188241967731 0.026049783500342035 0 0.032556365879809875 0.024399329934315848 0 0.033223389605520195 0.026761071608501445 0 0.034791188241967731 0.026049783500342035 0 0.037621634232550175 0.02530366732918048 0 0.034763140716863664 0.023077391911673722 0 0.034791188241967731 0.026049783500342035 0 0.032313006040476065 0.021709469109088299 0 0.032556365879809875 0.024399329934315848 0 0.029768091712722787 0.024681163457043822 0 0.032556365879809875 0.024399329934315848 0 0.031318941007985192 0.025876646273109857 0 0.029768091712722787 0.024681163457043822 0 0.032556365879809875 0.024399329934315848 0 0.031318941007985192 0.025876646273109857 0 0.033223389605520195 0.026761071608501445 0 0.031318941007985192 0.025876646273109857 0 0.032036273433290061 0.027199097388226734 0 0.030888452843554959 0.027333814457741471 0 0.031318941007985192 0.025876646273109857 0 0.032036273433290061 0.027199097388226734 0 0.033223389605520195 0.026761071608501445 0 0.032036273433290061 0.027199097388226734 0 0.033223389605520195 0.026761071608501445 0 0.033086283728707193 0.028781521329501115 0 0.032036273433290061 0.027199097388226734 0 0.031937095687372484 0.028564219339108039 0 0.033086283728707193 0.028781521329501115 0 0.033223389605520195 0.026761071608501445 0 0.034276615530736916 0.028099079314391266 0 0.033086283728707193 0.028781521329501115 0 0.032036273433290061 0.027199097388226734 0 0.031937095687372484 0.028564219339108039 0 0.030888452843554959 0.027333814457741471 0 0.031937095687372484 0.028564219339108039 0 0.0310134510479077 0.029402364020533592 0 0.030888452843554959 0.027333814457741471 0 0.037621634232550175 0.02530366732918048 0 0.034791188241967731 0.026049783500342035 0 0.036022274874800489 0.028127533239659358 0 0.033223389605520195 0.026761071608501445 0 0.034791188241967731 0.026049783500342035 0 0.034276615530736916 0.028099079314391266 0 0.034276615530736916 0.028099079314391266 0 0.036022274874800489 0.028127533239659358 0 0.034532746270892076 0.029622420819771973 0 0.034791188241967731 0.026049783500342035 0 0.034276615530736916 0.028099079314391266 0 0.036022274874800489 0.028127533239659358 0 0.036022274874800489 0.028127533239659358 0 0.034532746270892076 0.029622420819771973 0 0.034634562423324237 0.029926649849147651 0 0.034332450924029818 0.031341108144960904 0 0.0339537707329386 0.030023525280019395 0 0.036022274874800489 0.028127533239659358 0 0.034634562423324237 0.029926649849147651 0 0.037630503701289487 0.028880699073739417 0 0.033807639439520767 0.029292681388403435 0 0.034532746270892076 0.029622420819771973 0 0.033335557670197101 0.030751515780470612 0 0.034276615530736916 0.028099079314391266 0 0.033807639439520767 0.029292681388403435 0 0.034532746270892076 0.029622420819771973 0 0.034532746270892076 0.029622420819771973 0 0.034639667745197701 0.029908021140909395 0 0.033335557670197101 0.030751515780470612 0 0.034276615530736916 0.028099079314391266 0 0.033807639439520767 0.029292681388403435 0 0.033086283728707193 0.028781521329501115 0 0.034330621389253739 0.031332669575398681 0 0.034332450924029818 0.031341108144960904 0 0.035847956641063355 0.030081050306127847 0 0.033335557670197101 0.030751515780470612 0 0.034239135541475646 0.033698007787874254 0 0.034332450924029818 0.031341108144960904 0 0.034260207873765783 0.031324899413983941 0 0.031937095687372484 0.028564219339108039 0 0.0310134510479077 0.029402364020533592 0 0.033335557670197101 0.030751515780470612 0 0.031937095687372484 0.028564219339108039 0 0.033086283728707193 0.028781521329501115 0 0.033335557670197101 0.030751515780470612 0 0.033807639439520767 0.029292681388403435 0 0.033086283728707193 0.028781521329501115 0 0.033335557670197101 0.030751515780470612 0 0.0310134510479077 0.029402364020533592 0 0.033335557670197101 0.030751515780470612 0 0.030618110984505516 0.032792420322045504 0 0.032582693028308532 0.033829677900075399 0 0.033080613574018598 0.035213689593179574 0 0.034239135541475646 0.033698007787874254 0 0.030618110984505516 0.032792420322045504 0 0.033673017316097897 0.03789141659002359 0 0.033335557670197101 0.030751515780470612 0 0.034239135541475646 0.033698007787874254 0 0.030618110984505516 0.032792420322045504 0 0.034332450924029818 0.031341108144960904 0 0.035160164565236698 0.034617493228866106 0 0.033381130767317108 0.031629454210817247 0 0.034933706133703508 0.033568861050067018 0 0.034186923497222486 0.033833572181981263 0 0.035847956641063355 0.030081050306127847 0 0.034239135541475646 0.033698007787874254 0 0.037537916229899423 0.036457871154804436 0 0.033757671376146318 0.032883202162485255 0 0.033475483136092457 0.033682673542593931 0 0.033421053780114819 0.033158072219084969 0 0.033475483136092457 0.033682673542593931 0 0.034166929517400663 0.034031634038736734 0 0.033125373352261692 0.034728415438718616 0 0.033757671376146318 0.032883202162485255 0 0.033475483136092457 0.033682673542593931 0 0.034166929517400663 0.034031634038736734 0 0.034521607021963004 0.033573297524613042 0 0.0339537707329386 0.030023525280019395 0 0.033381130767317108 0.031629454210817247 0 0.034933706133703508 0.033568861050067018 0 0.034870954297692582 0.031101648998733203 0 0.032461106895905679 0.032001586952716689 0 0.031032686412017969 0.030958603998378468 0 0.031231043566924001 0.03149634630254123 0 0.031032686412017969 0.030958603998378468 0 0.031231043566924001 0.03149634630254123 0 0.031352300847911713 0.031745862201455359 0 0.032461106895905679 0.032001586952716689 0 0.031114693285748708 0.031118565118277632 0 0.031231043566924001 0.03149634630254123 0 0.037827564016973084 0.032765215988367909 0 0.048020249978840815 0.025633565073706826 0 0.0311467817936757 0.030781540150622472 0 0.031231043566924001 0.03149634630254123 0 0.031256257470923275 0.031145482001410284 0 0.031114693285748708 0.031118565118277632 0 0.0311467817936757 0.030781540150622472 0 0.031231043566924001 0.03149634630254123 0 0.031231043566924001 0.03149634630254123 0 0.031352300847911713 0.031745862201455359 0 0.031256257470923275 0.031145482001410284 0 0.031238254717393932 0.030254493057161866 0 0.0311467817936757 0.030781540150622472 0 0.031256257470923275 0.031145482001410284 0 0.031238254717393932 0.030254493057161866 0 0.031256257470923275 0.031145482001410284 0 0.031905419984261274 0.031545781925333256 0 0.031352300847911713 0.031745862201455359 0 0.031256257470923275 0.031145482001410284 0 0.031905419984261274 0.031545781925333256 0 0.031352300847911713 0.031745862201455359 0 0.031905419984261274 0.031545781925333256 0 0.032380582134763219 0.03359890911166237 0 0.032873710248420146 0.034422537858638844 0 0.032800122940276219 0.034103515676785788 0 0.0306126461423896 0.035080329607477256 0 0.032380582134763219 0.03359890911166237 0 0.031530185114555707 0.035833746368935174 0 0.031032686412017969 0.030958603998378468 0 0.031352300847911713 0.031745862201455359 0 0.032380582134763219 0.03359890911166237 0 0.032380582134763219 0.03359890911166237 0 0.033319064646704415 0.031454119081343906 0 0.033820865135270294 0.034306913768783545 0 0.031435408129687925 0.029423939658945988 0 0.031880902564501212 0.03141565072490584 0 0.031905419984261274 0.031545781925333256 0 0.032380582134763219 0.03359890911166237 0 0.033319064646704415 0.031454119081343906 0 0.031238254717393932 0.030254493057161866 0 0.031905419984261274 0.031545781925333256 0 0.033319064646704415 0.031454119081343906 0 0.030507672504968435 0.026133591463795212 0 0.03001383546147237 0.025006703013421509 0 0.029768091712722787 0.024681163457043822 0 0.03001383546147237 0.025006703013421509 0 0.029768091712722787 0.024681163457043822 0 0.030025853723349042 0.025909309941680021 0 0.031318941007985192 0.025876646273109857 0 0.029768091712722787 0.024681163457043822 0 0.030025853723349042 0.025909309941680021 0 0.03001383546147237 0.025006703013421509 0 0.030025853723349042 0.025909309941680021 0 0.029144603627352998 0.0277212572832801 0 0.030025853723349042 0.025909309941680021 0 0.029144603627352998 0.0277212572832801 0 0.030888452843554959 0.027333814457741471 0 0.031318941007985192 0.025876646273109857 0 0.030025853723349042 0.025909309941680021 0 0.030888452843554959 0.027333814457741471 0 0.0310134510479077 0.029402364020533592 0 0.029144603627352998 0.0277212572832801 0 0.030888452843554959 0.027333814457741471 0 0.0310134510479077 0.029402364020533592 0 0.029144603627352998 0.0277212572832801 0 0.030618110984505516 0.032792420322045504 0 0.033820865135270294 0.034306913768783545 0 0.033879006900519121 0.036483676589033669 0 0.032711250681441824 0.035823650589472913 0 0.031880902564501212 0.03141565072490584 0 0.032582693028308532 0.033829677900075399 0 0.033879006900519121 0.036483676589033669 0 0.032911720454023213 0.036924721382145295 0 0.032711250681441824 0.035823650589472913 0 0.033879006900519121 0.036483676589033669 0 0.032911720454023213 0.036924721382145295 0 0.033314140247205741 0.037434536796008673 0 0.032911720454023213 0.036924721382145295 0 0.032711250681441824 0.035823650589472913 0 0.031621850836426636 0.037135137091648479 0 0.032380582134763219 0.03359890911166237 0 0.033820865135270294 0.034306913768783545 0 0.032711250681441824 0.035823650589472913 0 0.032380582134763219 0.03359890911166237 0 0.032711250681441824 0.035823650589472913 0 0.031530185114555707 0.035833746368935174 0 0.032711250681441824 0.035823650589472913 0 0.031530185114555707 0.035833746368935174 0 0.031621850836426636 0.037135137091648479 0 0.031530185114555707 0.035833746368935174 0 0.031621850836426636 0.037135137091648479 0 0.03068556918375679 0.036937663042973405 0 0.032687922060627927 0.038433714712493544 0 0.03068556918375679 0.036937663042973405 0 0.03111040091500452 0.039720501844989951 0 0.032186985194132434 0.038106400891207724 0 0.031497619073519043 0.037651302167970344 0 0.0306126461423896 0.035080329607477256 0 0.031530185114555707 0.035833746368935174 0 0.03068556918375679 0.036937663042973405 0 0.029917116561731988 0.036552349392237442 0 0.0306126461423896 0.035080329607477256 0 0.03068556918375679 0.036937663042973405 0 0.029999049614785663 0.040917123101890669 0 0.03111040091500452 0.039720501844989951 0 0.032831432346084058 0.041127464287257609 0 0.030300732696532912 0.038993623293952763 0 0.03068556918375679 0.036937663042973405 0 0.03111040091500452 0.039720501844989951 0 0.032687922060627927 0.038433714712493544 0 0.03111040091500452 0.039720501844989951 0 0.032831432346084058 0.041127464287257609 0 0.032831432346084058 0.041127464287257609 0 0.034478262847913353 0.039771261029219879 0 0.034784571997957738 0.041418628282767961 0 0.032186985194132434 0.038106400891207724 0 0.033429486419057707 0.039006654069749624 0 0.032911720454023213 0.036924721382145295 0 0.031621850836426636 0.037135137091648479 0 0.032649644395210745 0.03788038185138759 0 0.032687922060627927 0.038433714712493544 0 0.032831432346084058 0.041127464287257609 0 0.034478262847913353 0.039771261029219879 0 0.032649644395210745 0.03788038185138759 0 0.033314140247205741 0.037434536796008673 0 0.0332508063928703 0.039200226887574803 0 0.032911720454023213 0.036924721382145295 0 0.032649644395210745 0.03788038185138759 0 0.033314140247205741 0.037434536796008673 0 0.034784571997957738 0.041418628282767961 0 0.035810984796078187 0.041210559022957151 0 0.035846173886384849 0.042514041725024446 0 0.034478262847913353 0.039771261029219879 0 0.034784571997957738 0.041418628282767961 0 0.035810984796078187 0.041210559022957151 0 0.033429486419057707 0.039006654069749624 0 0.034622393384755708 0.039954980150104534 0 0.034784571997957738 0.041418628282767961 0 0.034785175200966884 0.043034618670561096 0 0.035846173886384849 0.042514041725024446 0 0.035584501163142525 0.043764716329754511 0 0.03544892377828493 0.045543350238333592 0 0.035951031672702444 0.043954964333151089 0 0.035584501163142525 0.043764716329754511 0 0.034785175200966884 0.043034618670561096 0 0.03544892377828493 0.045543350238333592 0 0.035584501163142525 0.043764716329754511 0 0.034785175200966884 0.043034618670561096 0 0.035846173886384849 0.042514041725024446 0 0.034785175200966884 0.043034618670561096 0 0.031854946939950633 0.043369985307016329 0 0.033606453782951629 0.046402664482761126 0 0.034785175200966884 0.043034618670561096 0 0.033606453782951629 0.046402664482761126 0 0.03544892377828493 0.045543350238333592 0 0.032831432346084058 0.041127464287257609 0 0.034784571997957738 0.041418628282767961 0 0.034785175200966884 0.043034618670561096 0 0.032831432346084058 0.041127464287257609 0 0.034785175200966884 0.043034618670561096 0 0.031854946939950633 0.043369985307016329 0 0.02671136747757448 0.044905796723603141 0 0.031854946939950633 0.043369985307016329 0 0.029629908534336055 0.047962187504629175 0 0.02671136747757448 0.044905796723603141 0 0.027071489893779624 0.038775658712186689 0 0.031854946939950633 0.043369985307016329 0 0.029999049614785663 0.040917123101890669 0 0.032831432346084058 0.041127464287257609 0 0.031854946939950633 0.043369985307016329 0 0.035266598999089661 0.036866234548344541 0 0.03419082293535905 0.03840234761580328 0 0.037578925667072202 0.041030790250424401 0 0.037537916229899423 0.036457871154804436 0 0.036791940124704103 0.040146797038565996 0 0.036791940124704103 0.040146797038565996 0 0.036125875702181211 0.041718824958015183 0 0.037163069144043083 0.041749324770834421 0 0.037578925667072202 0.041030790250424401 0 0.036791940124704103 0.040146797038565996 0 0.037163069144043083 0.041749324770834421 0 0.03526934267484718 0.036744293910221527 0 0.03529058209295495 0.036911864265024838 0 0.034141178038485501 0.033234445313786123 0 0.035100155557960526 0.036593783684766942 0 0.035059583922433822 0.033474770739802061 0 0.032518435128554499 0.034712490236894669 0 0.034141178038485501 0.033234445313786123 0 0.035100155557960526 0.036593783684766942 0 0.033757671376146318 0.032883202162485255 0 0.034141178038485501 0.033234445313786123 0 0.033421053780114819 0.033158072219084969 0 0.03526934267484718 0.036744293910221527 0 0.035160164565236698 0.034617493228866106 0 0.034933706133703508 0.033568861050067018 0 0.034995694370877649 0.036046815347067662 0 0.034186923497222486 0.033833572181981263 0 0.034521607021963004 0.033573297524613042 0 0.03526934267484718 0.036744293910221527 0 0.033757671376146318 0.032883202162485255 0 0.032518435128554499 0.034712490236894669 0 0.034141178038485501 0.033234445313786123 0 0.034239135541475646 0.033698007787874254 0 0.037537916229899423 0.036457871154804436 0 0.033673017316097897 0.03789141659002359 0 0.037537916229899423 0.036457871154804436 0 0.033673017316097897 0.03789141659002359 0 0.035299608337289429 0.039213687552564547 0 0.037537916229899423 0.036457871154804436 0 0.035299608337289429 0.039213687552564547 0 0.036791940124704103 0.040146797038565996 0 0.033314140247205741 0.037434536796008673 0 0.033673017316097897 0.03789141659002359 0 0.0332508063928703 0.039200226887574803 0 0.033879006900519121 0.036483676589033669 0 0.033314140247205741 0.037434536796008673 0 0.033673017316097897 0.03789141659002359 0 0.034622393384755708 0.039954980150104534 0 0.03533556714565441 0.040500396206175841 0 0.0332508063928703 0.039200226887574803 0 0.035299608337289429 0.039213687552564547 0 0.036125875702181211 0.041718824958015183 0 0.033673017316097897 0.03789141659002359 0 0.0332508063928703 0.039200226887574803 0 0.035299608337289429 0.039213687552564547 0 0.035299608337289429 0.039213687552564547 0 0.036791940124704103 0.040146797038565996 0 0.036125875702181211 0.041718824958015183 0 0.036125875702181211 0.041718824958015183 0 0.036169055139772435 0.042864451373959452 0 0.036474495494644495 0.042186919921886362 0 0.036125875702181211 0.041718824958015183 0 0.035846173886384849 0.042514041725024446 0 0.036169055139772435 0.042864451373959452 0 0.035810984796078187 0.041210559022957151 0 0.036125875702181211 0.041718824958015183 0 0.035846173886384849 0.042514041725024446 0 0.035846173886384849 0.042514041725024446 0 0.036169055139772435 0.042864451373959452 0 0.035951031672702444 0.043954964333151089 0 0.035584501163142525 0.043764716329754511 0 0.035846173886384849 0.042514041725024446 0 0.035951031672702444 0.043954964333151089 0 0.036169055139772435 0.042864451373959452 0 0.035951031672702444 0.043954964333151089 0 0.036091767217100112 0.043937066991640905 0 0.036169055139772435 0.042864451373959452 0 0.036213823339993956 0.042848107573312325 0 0.036091767217100112 0.043937066991640905 0 0.036169055139772435 0.042864451373959452 0 0.036213823339993956 0.042848107573312325 0 0.036474495494644495 0.042186919921886362 0 0.036213823339993956 0.042848107573312325 0 0.03548516508805849 0.041206375044988461 0 0.036125668204918512 0.043159187471330684 0 0.036213823339993956 0.042848107573312325 0 0.036474495494644495 0.042186919921886362 0 0.03548516508805849 0.041206375044988461 0 0.037407953830770266 0.041897661649173842 0 0.037163069144043083 0.041749324770834421 0 0.03548516508805849 0.041206375044988461 0 0.036125875702181211 0.041718824958015183 0 0.036474495494644495 0.042186919921886362 0 0.037163069144043083 0.041749324770834421 0 0.03526934267484718 0.036744293910221527 0 0.035629674975752888 0.038526644031372896 0 0.036474495494644495 0.042186919921886362 0 0.037163069144043083 0.041749324770834421 0 0.03548516508805849 0.041206375044988461 0 0.032518435128554499 0.034712490236894669 0 0.035100155557960526 0.036593783684766942 0 0.03548516508805849 0.041206375044988461 0 0.035100155557960526 0.036593783684766942 0 0.03548516508805849 0.041206375044988461 0 0.038046557178330338 0.039724237139537058 0 0.03548516508805849 0.041206375044988461 0 0.038046557178330338 0.039724237139537058 0 0.036858941243006649 0.04223278152597712 0 0.035236366808877852 0.029579171804485941 0 0.033494710955770376 0.027671638041667824 0 0.035139360307560846 0.026171101514293912 0 0.035525028046081479 0.035736744551398518 0 0.035082493914051757 0.038470801029452141 0 0.038046557178330338 0.039724237139537058 0 0.038101915984549997 0.043484848767689169 0 0.036858941243006649 0.04223278152597712 0 0.035236366808877852 0.029579171804485941 0 0.033494710955770376 0.027671638041667824 0 0.033285178860030774 0.029460888430758649 0 0.031671800417521129 0.02896405533052019 0 0.033285178860030774 0.029460888430758649 0 0.032823000484944055 0.031351117212997666 0 0.033494710955770376 0.027671638041667824 0 0.031671800417521129 0.02896405533052019 0 0.031709764490800797 0.026613885043569964 0 0.033494710955770376 0.027671638041667824 0 0.031671800417521129 0.02896405533052019 0 0.033285178860030774 0.029460888430758649 0 0.032823000484944055 0.031351117212997666 0 0.030676487161771369 0.030802177273917358 0 0.031589007270793064 0.032421929614972006 0 0.031671800417521129 0.02896405533052019 0 0.032823000484944055 0.031351117212997666 0 0.030676487161771369 0.030802177273917358 0 0.035100155557960526 0.036593783684766942 0 0.038046557178330338 0.039724237139537058 0 0.035059583922433822 0.033474770739802061 0 0.035525028046081479 0.035736744551398518 0 0.035540123265423787 0.035126849461902789 0 0.035236366808877852 0.029579171804485941 0 0.033285178860030774 0.029460888430758649 0 0.032823000484944055 0.031351117212997666 0 0.035236366808877852 0.029579171804485941 0 0.032823000484944055 0.031351117212997666 0 0.035059583922433822 0.033474770739802061 0 0.027668753605510799 0.027992666812028753 0 0.028338193364295768 0.030496750345972851 0 0.025872946974232036 0.029126490001308798 0 0.027668753605510799 0.027992666812028753 0 0.029763505501875079 0.029306647337088029 0 0.02983912610229187 0.027433111003314435 0 0.027668753605510799 0.027992666812028753 0 0.029763505501875079 0.029306647337088029 0 0.028338193364295768 0.030496750345972851 0 0.031671800417521129 0.02896405533052019 0 0.02983912610229187 0.027433111003314435 0 0.031709764490800797 0.026613885043569964 0 0.031671800417521129 0.02896405533052019 0 0.029763505501875079 0.029306647337088029 0 0.02983912610229187 0.027433111003314435 0 0.031671800417521129 0.02896405533052019 0 0.029763505501875079 0.029306647337088029 0 0.030676487161771369 0.030802177273917358 0 0.029774818210952923 0.031578496479912628 0 0.030676487161771369 0.030802177273917358 0 0.028338193364295768 0.030496750345972851 0 0.029763505501875079 0.029306647337088029 0 0.030676487161771369 0.030802177273917358 0 0.028338193364295768 0.030496750345972851 0 0.029774818210952923 0.031578496479912628 0 0.030676487161771369 0.030802177273917358 0 0.031589007270793064 0.032421929614972006 0 0.028338193364295768 0.030496750345972851 0 0.028374288212277117 0.032451089760945601 0 0.025807593109328269 0.031915570785859687 0 0.029774818210952923 0.031578496479912628 0 0.028338193364295768 0.030496750345972851 0 0.028374288212277117 0.032451089760945601 0 0.028338193364295768 0.030496750345972851 0 0.025324590884401331 0.030856223862993276 0 0.025872946974232036 0.029126490001308798 0 0.031050431208007163 0.032061863870142482 0 0.030994066081018692 0.031996920467184345 0 0.030995734187299256 0.032086866935654136 0 0.030994066081018692 0.031996920467184345 0 0.031589007270793064 0.032421929614972006 0 0.030995734187299256 0.032086866935654136 0 0.028569731752851546 0.031660773788532465 0 0.029767629778196528 0.031948660233499758 0 0.029774818210952923 0.031578496479912628 0 0.028374288212277117 0.032451089760945601 0 0.031589007270793064 0.032421929614972006 0 0.031589007270793064 0.032421929614972006 0 0.030663753448197609 0.031758548239571652 0 0.030995734187299256 0.032086866935654136 0 0.031589007270793064 0.032421929614972006 0 0.030663753448197609 0.031758548239571652 0 0.032091647465465792 0.032811196537774381 0 0.031050431208007163 0.032061863870142482 0 0.030663753448197609 0.031758548239571652 0 0.030995734187299256 0.032086866935654136 0 0.027283648280449841 0.031367821584313518 0 0.028264858950589045 0.031743963067463167 0 0.028108804908855974 0.028223815045113135 0 0.030663753448197609 0.031758548239571652 0 0.027668233071179122 0.031164678734680533 0 0.032823000484944055 0.031351117212997666 0 0.035059583922433822 0.033474770739802061 0 0.033226093673532804 0.033147275756649115 0 0.034141178038485501 0.033234445313786123 0 0.035059583922433822 0.033474770739802061 0 0.033226093673532804 0.033147275756649115 0 0.032823000484944055 0.031351117212997666 0 0.031589007270793064 0.032421929614972006 0 0.033226093673532804 0.033147275756649115 0 0.031589007270793064 0.032421929614972006 0 0.033226093673532804 0.033147275756649115 0 0.032091647465465792 0.032811196537774381 0 0.034141178038485501 0.033234445313786123 0 0.033226093673532804 0.033147275756649115 0 0.033421053780114819 0.033158072219084969 0 0.033226093673532804 0.033147275756649115 0 0.033421053780114819 0.033158072219084969 0 0.032091647465465792 0.032811196537774381 0 0.033475483136092457 0.033682673542593931 0 0.033421053780114819 0.033158072219084969 0 0.032548171783290468 0.03366537432892823 0 0.033421053780114819 0.033158072219084969 0 0.032548171783290468 0.03366537432892823 0 0.032091647465465792 0.032811196537774381 0 0.033475483136092457 0.033682673542593931 0 0.032548171783290468 0.03366537432892823 0 0.033125373352261692 0.034728415438718616 0 0.032548171783290468 0.03366537432892823 0 0.031321485430303497 0.033624901260128397 0 0.031388389172190362 0.034579379641174926 0 0.032548171783290468 0.03366537432892823 0 0.031321485430303497 0.033624901260128397 0 0.032091647465465792 0.032811196537774381 0 0.031321485430303497 0.033624901260128397 0 0.032091647465465792 0.032811196537774381 0 0.029872613762972192 0.032914577575627331 0 0.030663753448197609 0.031758548239571652 0 0.032091647465465792 0.032811196537774381 0 0.029872613762972192 0.032914577575627331 0 0.030663753448197609 0.031758548239571652 0 0.029872613762972192 0.032914577575627331 0 0.027668233071179122 0.031164678734680533 0 0.029872613762972192 0.032914577575627331 0 0.026794415516946755 0.032864272174277058 0 0.027668233071179122 0.031164678734680533 0 0.029872613762972192 0.032914577575627331 0 0.028168826206102872 0.034089941883479476 0 0.026794415516946755 0.032864272174277058 0 0.029872613762972192 0.032914577575627331 0 0.030065160317849986 0.034267195686935259 0 0.028168826206102872 0.034089941883479476 0 0.031321485430303497 0.033624901260128397 0 0.029872613762972192 0.032914577575627331 0 0.030065160317849986 0.034267195686935259 0 0.031321485430303497 0.033624901260128397 0 0.030065160317849986 0.034267195686935259 0 0.031388389172190362 0.034579379641174926 0 0.030065160317849986 0.034267195686935259 0 0.028697581610256626 0.035143608809680531 0 0.030651836230897098 0.035665549820778887 0 0.030065160317849986 0.034267195686935259 0 0.030651836230897098 0.035665549820778887 0 0.031388389172190362 0.034579379641174926 0 0.031028355993894089 0.035757324725095629 0 0.030651836230897098 0.035665549820778887 0 0.031388389172190362 0.034579379641174926 0 0.030065160317849986 0.034267195686935259 0 0.028168826206102872 0.034089941883479476 0 0.028697581610256626 0.035143608809680531 0 0.028168826206102872 0.034089941883479476 0 0.028697581610256626 0.035143608809680531 0 0.026901463410315123 0.035321262147279563 0 0.028697581610256626 0.035143608809680531 0 0.027608481800046977 0.036383145024440462 0 0.026901463410315123 0.035321262147279563 0 0.032143281865115718 0.025980764560087671 0 0.032879438570703821 0.026906039386961855 0 0.027608481800046977 0.036383145024440462 0 0.031135965393838616 0.035898211824395274 0 0.030651836230897098 0.035665549820778887 0 0.034160123713927279 0.016052826027540556 0 0.034260057880424064 0.016369025180497387 0 0.034146937437611338 0.016042860979029436 0 0.028697581610256626 0.035143608809680531 0 0.027608481800046977 0.036383145024440462 0 0.030651836230897098 0.035665549820778887 0 0.032879438570703821 0.026906039386961855 0 0.032881978844971967 0.026956560680618968 0 0.034171444874632945 0.015876874236766276 0 0.034146937437611338 0.016042860979029436 0 0.034260067962020843 0.015725709554539606 0 0.032879438570703821 0.026906039386961855 0 0.033284993900460594 0.023531098645043502 0 0.034171444874632945 0.015876874236766276 0 0.034160123713927279 0.016052826027540556 0 0.034146937437611338 0.016042860979029436 0 0.033754984589746538 0.026363081780024576 0 0.033707242577107825 0.026338728798992173 0 0.033707944072018332 0.026382427991645339 0 0.032548171783290468 0.03366537432892823 0 0.033125373352261692 0.034728415438718616 0 0.031388389172190362 0.034579379641174926 0 0.031028355993894089 0.035757324725095629 0 0.033125373352261692 0.034728415438718616 0 0.031388389172190362 0.034579379641174926 0 0.032879438570703821 0.026906039386961855 0 0.033027605896132642 0.029170740971255028 0 0.02336851323830548 0.034094478226927412 0 0.019172602529740124 0.035207749648257854 0 0.021817331032863197 0.033368646185060559 0 0.018819353884906527 0.033686073245897508 0 0.016293869961719134 0.033287871557131594 0 0.02336851323830548 0.034094478226927412 0 0.022950693533410373 0.03564071316228494 0 0.024583466385439717 0.03519709548903692 0 0.018429507161512919 0.031503204645206721 0 0.020824359648593294 0.036131766917234263 0 0.017057710922143112 0.035169148413847974 0 0.02336851323830548 0.034094478226927412 0 0.018429507161512919 0.031503204645206721 0 0.020824359648593294 0.036131766917234263 0 0.018519333985893602 0.037760196741649689 0 0.022929063139555322 0.037338145275917445 0 0.020824359648593294 0.036131766917234263 0 0.017080727095496986 0.038832148015621709 0 0.020824359648593294 0.036131766917234263 0 0.017057710922143112 0.035169148413847974 0 0.021797597007744543 0.033523377387221436 0 0.020922652695552716 0.034323917304717504 0 0.022929063139555322 0.037338145275917445 0 0.020824359648593294 0.036131766917234263 0 0.022950693533410373 0.03564071316228494 0 0.02336851323830548 0.034094478226927412 0 0.020824359648593294 0.036131766917234263 0 0.022950693533410373 0.03564071316228494 0 0.022929063139555322 0.037338145275917445 0 0.022950693533410373 0.03564071316228494 0 0.024583466385439717 0.03519709548903692 0 0.026138740984348721 0.0349097839985264 0 0.022929063139555322 0.037338145275917445 0 0.025000447507641244 0.035566787314782744 0 0.022929063139555322 0.037338145275917445 0 0.025000447507641244 0.035566787314782744 0 0.024583466385439717 0.03519709548903692 0 0.026138740984348721 0.0349097839985264 0 0.025000447507641244 0.035566787314782744 0 0.025946187514916182 0.035180334970259318 0 0.025000447507641244 0.035566787314782744 0 0.024583466385439717 0.03519709548903692 0 0.025946187514916182 0.035180334970259318 0 0.024583466385439717 0.03519709548903692 0 0.025946187514916182 0.035180334970259318 0 0.025982928236879442 0.034548221653925106 0 0.026138740984348721 0.0349097839985264 0 0.027608481800046977 0.036383145024440462 0 0.026901463410315123 0.035321262147279563 0 0.032761463895352838 0.024676914901505548 0 0.032143281865115718 0.025980764560087671 0 0.026138740984348721 0.0349097839985264 0 0.025946187514916182 0.035180334970259318 0 0.026901463410315123 0.035321262147279563 0 0.028168826206102872 0.034089941883479476 0 0.026901463410315123 0.035321262147279563 0 0.025982928236879442 0.034548221653925106 0 0.025946187514916182 0.035180334970259318 0 0.026901463410315123 0.035321262147279563 0 0.025982928236879442 0.034548221653925106 0 0.02336851323830548 0.034094478226927412 0 0.025982928236879442 0.034548221653925106 0 0.024191803281554704 0.033067717640329307 0 0.02336851323830548 0.034094478226927412 0 0.024583466385439717 0.03519709548903692 0 0.025982928236879442 0.034548221653925106 0 0.025982928236879442 0.034548221653925106 0 0.024191803281554704 0.033067717640329307 0 0.026794415516946755 0.032864272174277058 0 0.024191803281554704 0.033067717640329307 0 0.026794415516946755 0.032864272174277058 0 0.02498716321394823 0.031339703645281276 0 0.028168826206102872 0.034089941883479476 0 0.025982928236879442 0.034548221653925106 0 0.026794415516946755 0.032864272174277058 0 0.026794415516946755 0.032864272174277058 0 0.027668233071179122 0.031164678734680533 0 0.02498716321394823 0.031339703645281276 0 0.027668233071179122 0.031164678734680533 0 0.02498716321394823 0.031339703645281276 0 0.025224897610662128 0.029052427766528059 0 0.024191803281554704 0.033067717640329307 0 0.02498716321394823 0.031339703645281276 0 0.022064416457708839 0.031650334918968369 0 0.02498716321394823 0.031339703645281276 0 0.022064416457708839 0.031650334918968369 0 0.023084691775568739 0.029821813392263082 0 0.022064416457708839 0.031650334918968369 0 0.020903977772768402 0.029679548632990226 0 0.023084691775568739 0.029821813392263082 0 0.02336851323830548 0.034094478226927412 0 0.024191803281554704 0.033067717640329307 0 0.021817331032863197 0.033368646185060559 0 0.024191803281554704 0.033067717640329307 0 0.022064416457708839 0.031650334918968369 0 0.021817331032863197 0.033368646185060559 0 0.022064416457708839 0.031650334918968369 0 0.021817331032863197 0.033368646185060559 0 0.019643476970487093 0.032809342293611418 0 0.019172602529740124 0.035207749648257854 0 0.019643476970487093 0.032809342293611418 0 0.016441494658051576 0.032662980418509791 0 0.019172602529740124 0.035207749648257854 0 0.021817331032863197 0.033368646185060559 0 0.019643476970487093 0.032809342293611418 0 0.019643476970487093 0.032809342293611418 0 0.019464149793938085 0.031022929952516785 0 0.016441494658051576 0.032662980418509791 0 0.022064416457708839 0.031650334918968369 0 0.019643476970487093 0.032809342293611418 0 0.019464149793938085 0.031022929952516785 0 0.022064416457708839 0.031650334918968369 0 0.019464149793938085 0.031022929952516785 0 0.020903977772768402 0.029679548632990226 0 0.019464149793938085 0.031022929952516785 0 0.020903977772768402 0.029679548632990226 0 0.018390814005374647 0.028709579669159442 0 0.019999875553521885 0.030749420180289592 0 0.018918718422677505 0.030503631734735196 0 0.018683788129820036 0.031439605639281644 0 0.020903977772768402 0.029679548632990226 0 0.022161459760406978 0.027393915451307975 0 0.018390814005374647 0.028709579669159442 0 0.021230969531187222 0.030146806770362283 0 0.017507692468956126 0.030749861717000004 0 0.017122127174686128 0.030094128565248273 0 0.017507692468956126 0.030749861717000004 0 0.020903977772768402 0.029679548632990226 0 0.023084691775568739 0.029821813392263082 0 0.022161459760406978 0.027393915451307975 0 0.019999875553521885 0.030749420180289592 0 0.019568676066171478 0.030150221685136751 0 0.020207152535260266 0.029782751266418307 0 0.013015957148980725 0.029834786325009157 0 0.01319528302960688 0.029275679246164619 0 0.012680651340940641 0.02969006086176287 0 0.018918718422677505 0.030503631734735196 0 0.019568676066171478 0.030150221685136751 0 0.01915017496788838 0.02956400879513196 0 0.019999875553521885 0.030749420180289592 0 0.018918718422677505 0.030503631734735196 0 0.019568676066171478 0.030150221685136751 0 0.017122127174686128 0.030094128565248273 0 0.01709349931207051 0.029150111438292065 0 0.028108804908855974 0.028223815045113135 0 0.027668233071179122 0.031164678734680533 0 0.025224897610662128 0.029052427766528059 0 0.02498716321394823 0.031339703645281276 0 0.023084691775568739 0.029821813392263082 0 0.025224897610662128 0.029052427766528059 0 0.023084691775568739 0.029821813392263082 0 0.022161459760406978 0.027393915451307975 0 0.025224897610662128 0.029052427766528059 0 0.021230969531187222 0.030146806770362283 0 0.024525018237165918 0.030636897307163274 0 0.019999875553521885 0.030749420180289592 0 0.021382320343135353 0.030028908191428456 0 0.021272386533118186 0.03000567583449807 0 0.022161459760406978 0.027393915451307975 0 0.025224897610662128 0.029052427766528059 0 0.025759166308653662 0.025763956029384791 0 0.019999875553521885 0.030749420180289592 0 0.021272386533118186 0.03000567583449807 0 0.020207152535260266 0.029782751266418307 0 0.028569731752851546 0.031660773788532465 0 0.024525018237165918 0.030636897307163274 0 0.031050431208007163 0.032061863870142482 0 0.030994066081018692 0.031996920467184345 0 0.03095621997045642 0.032002611957621545 0 0.028108804908855974 0.028223815045113135 0 0.025224897610662128 0.029052427766528059 0 0.025759166308653662 0.025763956029384791 0 0.027283648280449841 0.031367821584313518 0 0.024525018237165918 0.030636897307163274 0 0.028338193364295768 0.030496750345972851 0 0.023295936178874134 0.033546182618673405 0 0.025324590884401331 0.030856223862993276 0 0.025856609735035573 0.030421759596020927 0 0.024525018237165918 0.030636897307163274 0 0.023295936178874134 0.033546182618673405 0 0.025324590884401331 0.030856223862993276 0 0.023189643042076484 0.03226573745612004 0 0.025324590884401331 0.030856223862993276 0 0.023788636171997515 0.030716404297383666 0 0.023970168112053037 0.029369108489166275 0 0.025324590884401331 0.030856223862993276 0 0.023189643042076484 0.03226573745612004 0 0.023788636171997515 0.030716404297383666 0 0.02246820409291591 0.033027489917470808 0 0.020035849774945717 0.030890173600913291 0 0.018987527563814777 0.032313382996336258 0 0.023789491295180178 0.030580687112266122 0 0.020158733326350205 0.029990388420398636 0 0.023189643042076484 0.03226573745612004 0 0.023788636171997515 0.030716404297383666 0 0.022003178624998957 0.030103322143514043 0 0.023189643042076484 0.03226573745612004 0 0.020204773350200985 0.031046297972428867 0 0.022003178624998957 0.030103322143514043 0 0.023189643042076484 0.03226573745612004 0 0.022884352397325194 0.03344218607071605 0 0.020204773350200985 0.031046297972428867 0 0.023295936178874134 0.033546182618673405 0 0.023189643042076484 0.03226573745612004 0 0.022884352397325194 0.03344218607071605 0 0.024525018237165918 0.030636897307163274 0 0.023789491295180178 0.030580687112266122 0 0.023789491295180178 0.030580687112266122 0 0.021921384615082907 0.029916563423282964 0 0.020204773350200985 0.031046297972428867 0 0.022003178624998957 0.030103322143514043 0 0.019779526787331143 0.028894974729044429 0 0.020908996334472761 0.027640320579130812 0 0.022003178624998957 0.030103322143514043 0 0.019779526787331143 0.028894974729044429 0 0.020908996334472761 0.027640320579130812 0 0.022634196900682226 0.028484263097072107 0 0.022003178624998957 0.030103322143514043 0 0.020908996334472761 0.027640320579130812 0 0.022634196900682226 0.028484263097072107 0 0.023931312145446724 0.026792339396575712 0 0.022634196900682226 0.028484263097072107 0 0.022003178624998957 0.030103322143514043 0 0.023970168112053037 0.029369108489166275 0 0.027668753605510799 0.027992666812028753 0 0.025872946974232036 0.029126490001308798 0 0.023931312145446724 0.026792339396575712 0 0.023788636171997515 0.030716404297383666 0 0.022003178624998957 0.030103322143514043 0 0.023970168112053037 0.029369108489166275 0 0.023970168112053037 0.029369108489166275 0 0.025872946974232036 0.029126490001308798 0 0.023931312145446724 0.026792339396575712 0 0.022634196900682226 0.028484263097072107 0 0.023970168112053037 0.029369108489166275 0 0.023931312145446724 0.026792339396575712 0 0.025324590884401331 0.030856223862993276 0 0.023970168112053037 0.029369108489166275 0 0.025872946974232036 0.029126490001308798 0 0.019568676066171478 0.030150221685136751 0 0.01915017496788838 0.02956400879513196 0 0.020207152535260266 0.029782751266418307 0 0.015489777905532534 0.031600138677840985 0 0.018987527563814777 0.032313382996336258 0 0.018130009597845172 0.030590539594665119 0 0.01709349931207051 0.029150111438292065 0 0.020158733326350205 0.029990388420398636 0 0.020035849774945717 0.030890173600913291 0 0.018987527563814777 0.032313382996336258 0 0.018130009597845172 0.030590539594665119 0 0.015489777905532534 0.031600138677840985 0 0.018130009597845172 0.030590539594665119 0 0.017594819535605238 0.028737239637301525 0 0.020204773350200985 0.031046297972428867 0 0.019779526787331143 0.028894974729044429 0 0.017594819535605238 0.028737239637301525 0 0.020035849774945717 0.030890173600913291 0 0.018130009597845172 0.030590539594665119 0 0.017594819535605238 0.028737239637301525 0 0.021921384615082907 0.029916563423282964 0 0.020961821243282042 0.029371245747158721 0 0.020908996334472761 0.027640320579130812 0 0.019779526787331143 0.028894974729044429 0 0.018630913336473109 0.026516966747703579 0 0.019779526787331143 0.028894974729044429 0 0.017594819535605238 0.028737239637301525 0 0.018630913336473109 0.026516966747703579 0 0.017594819535605238 0.028737239637301525 0 0.016439424160872702 0.02760809333742183 0 0.018630913336473109 0.026516966747703579 0 0.014961151749241862 0.029824876568488388 0 0.015929140670350846 0.026927221110261901 0 0.013320684095984178 0.027219863060967218 0 0.015489777905532534 0.031600138677840985 0 0.017594819535605238 0.028737239637301525 0 0.016439424160872702 0.02760809333742183 0 0.01709349931207051 0.029150111438292065 0 0.017034441835440776 0.027403623511253479 0 0.015929140670350846 0.026927221110261901 0 0.014560842621506214 0.025093997275107485 0 0.013320684095984178 0.027219863060967218 0 0.015929140670350846 0.026927221110261901 0 0.014560842621506214 0.025093997275107485 0 0.017324672964752999 0.023462457689243127 0 0.017034441835440776 0.027403623511253479 0 0.017252451690066714 0.02599968577800427 0 0.018630913336473109 0.026516966747703579 0 0.017324672964752999 0.023462457689243127 0 0.021251493886190131 0.025023097587347963 0 0.016439424160872702 0.02760809333742183 0 0.018630913336473109 0.026516966747703579 0 0.017324672964752999 0.023462457689243127 0 0.017324672964752999 0.023462457689243127 0 0.020467575096069827 0.019743985669625094 0 0.021326313895362398 0.022404894995089832 0 0.014560842621506214 0.025093997275107485 0 0.017324672964752999 0.023462457689243127 0 0.014062668264565816 0.022627069804918111 0 0.017324672964752999 0.023462457689243127 0 0.014062668264565816 0.022627069804918111 0 0.015244844571544375 0.020381556316702434 0 0.015244844571544375 0.020381556316702434 0 0.017939898030097847 0.018472886970702564 0 0.014406860471371944 0.017275925394104327 0 0.015244844571544375 0.020381556316702434 0 0.014406860471371944 0.017275925394104327 0 0.01242509464109679 0.019970701750665912 0 0.014062668264565816 0.022627069804918111 0 0.015244844571544375 0.020381556316702434 0 0.01242509464109679 0.019970701750665912 0 0.017324672964752999 0.023462457689243127 0 0.015244844571544375 0.020381556316702434 0 0.017939898030097847 0.018472886970702564 0 0.017324672964752999 0.023462457689243127 0 0.017939898030097847 0.018472886970702564 0 0.020467575096069827 0.019743985669625094 0 0.017939898030097847 0.018472886970702564 0 0.020467575096069827 0.019743985669625094 0 0.021196139876725941 0.014923121147756718 0 0.017939898030097847 0.018472886970702564 0 0.016822560383471474 0.015138188776053394 0 0.021196139876725941 0.014923121147756718 0 0.017939898030097847 0.018472886970702564 0 0.014406860471371944 0.017275925394104327 0 0.016822560383471474 0.015138188776053394 0 0.025183600111297756 0.018627090919238969 0 0.025035805192727863 0.019454564131737469 0 0.028929643317453332 0.017489713455847274 0 0.025183600111297756 0.018627090919238969 0 0.023604903841803648 0.020478266228697434 0 0.02401907306554198 0.015903637125239709 0 0.025183600111297756 0.018627090919238969 0 0.025035805192727863 0.019454564131737469 0 0.023604903841803648 0.020478266228697434 0 0.032127933392033708 0.039686263975557891 0 0.031118262568513761 0.047063999044996571 0 0.025183600111297756 0.018627090919238969 0 0.026887091966870492 0.016827365911583136 0 0.026050334808642623 0.01597741079656367 0 0.025183600111297756 0.018627090919238969 0 0.02401907306554198 0.015903637125239709 0 0.025943471852478604 0.015381317649876776 0 0.023648549388515482 0.019999440016307175 0 0.022652075667286276 0.01783822911694373 0 0.023604903841803648 0.020478266228697434 0 0.021196139876725941 0.014923121147756718 0 0.02401907306554198 0.015903637125239709 0 0.020467575096069827 0.019743985669625094 0 0.023114448933920839 0.018982304778613346 0 0.021196139876725941 0.014923121147756718 0 0.020467575096069827 0.019743985669625094 0 0.023114448933920839 0.018982304778613346 0 0.021326313895362398 0.022404894995089832 0 0.023648549388515482 0.019999440016307175 0 0.02528545883886341 0.023464018111780737 0 0.023604903841803648 0.020478266228697434 0 0.026209996077741642 0.021695435547895093 0 0.025815236323088655 0.024520120924912344 0 0.025035805192727863 0.019454564131737469 0 0.026209996077741642 0.021695435547895093 0 0.027503292721076197 0.020125775387843253 0 0.025035805192727863 0.019454564131737469 0 0.023604903841803648 0.020478266228697434 0 0.026209996077741642 0.021695435547895093 0 0.023114448933920839 0.018982304778613346 0 0.025352441884300032 0.023334489143658477 0 0.021326313895362398 0.022404894995089832 0 0.017324672964752999 0.023462457689243127 0 0.021326313895362398 0.022404894995089832 0 0.021251493886190131 0.025023097587347963 0 0.025352441884300032 0.023334489143658477 0 0.021326313895362398 0.022404894995089832 0 0.021251493886190131 0.025023097587347963 0 0.020908996334472761 0.027640320579130812 0 0.021251493886190131 0.025023097587347963 0 0.023931312145446724 0.026792339396575712 0 0.020908996334472761 0.027640320579130812 0 0.018630913336473109 0.026516966747703579 0 0.021251493886190131 0.025023097587347963 0 0.025352441884300032 0.023334489143658477 0 0.021251493886190131 0.025023097587347963 0 0.023931312145446724 0.026792339396575712 0 0.027668753605510799 0.027992666812028753 0 0.025352441884300032 0.023334489143658477 0 0.023931312145446724 0.026792339396575712 0 0.027668753605510799 0.027992666812028753 0 0.025815236323088655 0.024520120924912344 0 0.028266037038891873 0.025888385439105141 0 0.026231832343305918 0.025465823662547481 0 0.02528545883886341 0.023464018111780737 0 0.027668753605510799 0.027992666812028753 0 0.028266037038891873 0.025888385439105141 0 0.02983912610229187 0.027433111003314435 0 0.02983912610229187 0.027433111003314435 0 0.029940028643908767 0.025415454972668793 0 0.031709764490800797 0.026613885043569964 0 0.029940028643908767 0.025415454972668793 0 0.031709764490800797 0.026613885043569964 0 0.031616546796235559 0.024701929222866095 0 0.028266037038891873 0.025888385439105141 0 0.02983912610229187 0.027433111003314435 0 0.029940028643908767 0.025415454972668793 0 0.029940028643908767 0.025415454972668793 0 0.030216099619242969 0.023501594460871772 0 0.028191711705219627 0.023828500164241487 0 0.029940028643908767 0.025415454972668793 0 0.030216099619242969 0.023501594460871772 0 0.031616546796235559 0.024701929222866095 0 0.030216099619242969 0.023501594460871772 0 0.031616546796235559 0.024701929222866095 0 0.032494531951221657 0.022548932521749498 0 0.030216099619242969 0.023501594460871772 0 0.028191711705219627 0.023828500164241487 0 0.028594684756209868 0.021760125394472904 0 0.026209996077741642 0.021695435547895093 0 0.025815236323088655 0.024520120924912344 0 0.028191711705219627 0.023828500164241487 0 0.025815236323088655 0.024520120924912344 0 0.028266037038891873 0.025888385439105141 0 0.028191711705219627 0.023828500164241487 0 0.028266037038891873 0.025888385439105141 0 0.029940028643908767 0.025415454972668793 0 0.028191711705219627 0.023828500164241487 0 0.033494710955770376 0.027671638041667824 0 0.035139360307560846 0.026171101514293912 0 0.033521823604412491 0.025505926521326657 0 0.033494710955770376 0.027671638041667824 0 0.033521823604412491 0.025505926521326657 0 0.031709764490800797 0.026613885043569964 0 0.033521823604412491 0.025505926521326657 0 0.031709764490800797 0.026613885043569964 0 0.031616546796235559 0.024701929222866095 0 0.033521823604412491 0.025505926521326657 0 0.033937517946363308 0.024406933408424248 0 0.032942676878297002 0.023937597781187734 0 0.033521823604412491 0.025505926521326657 0 0.031616546796235559 0.024701929222866095 0 0.032494531951221657 0.022548932521749498 0 0.027886891133094296 0.030226094656237074 0 0.027734383620159436 0.032436237773001336 0 0.038101915984549997 0.043484848767689169 0 0.0380012590620359 0.045828654313888009 0 0.03702962414047066 0.044141950004218181 0 0.035139360307560846 0.026171101514293912 0 0.033937517946363308 0.024406933408424248 0 0.034939194453028906 0.023749470715565289 0 0.035082493914051757 0.038470801029452141 0 0.03381732599346466 0.050420952489332413 0 0.035139360307560846 0.026171101514293912 0 0.033521823604412491 0.025505926521326657 0 0.033937517946363308 0.024406933408424248 0 0.03381732599346466 0.050420952489332413 0 0.031714220732739953 0.067281103367358833 0 0.028872547511419024 0.05591521639525962 0 0.030653492759206747 0.056894909541385777 0 0.028816685507389226 0.059029034686408549 0 0.033937517946363308 0.024406933408424248 0 0.034939194453028906 0.023749470715565289 0 0.03354706969716896 0.023127303726285225 0 0.03381732599346466 0.050420952489332413 0 0.030897604801646442 0.046025191171514566 0 0.03354706969716896 0.023127303726285225 0 0.032942676878297002 0.023937597781187734 0 0.032313352152964901 0.022531342723166762 0 0.027734383620159436 0.032436237773001336 0 0.028878000315772277 0.043557747968790417 0 0.033937517946363308 0.024406933408424248 0 0.03354706969716896 0.023127303726285225 0 0.032942676878297002 0.023937597781187734 0 0.030897604801646442 0.046025191171514566 0 0.028878000315772277 0.043557747968790417 0 0.030928942492186421 0.058871826629060146 0 0.032427199520791289 0.057870300164954029 0 0.033244698898415671 0.059775181447154234 0 0.030653492759206747 0.056894909541385777 0 0.030928942492186421 0.058871826629060146 0 0.032427199520791289 0.057870300164954029 0 0.040861261972919581 0.07337834282884706 0 0.040717216688781442 0.079749014426793441 0 0.038588125339066769 0.078019551456624481 0 0.030653492759206747 0.056894909541385777 0 0.030928942492186421 0.058871826629060146 0 0.028816685507389226 0.059029034686408549 0 0.027503292721076197 0.020125775387843253 0 0.028594684756209868 0.021760125394472904 0 0.029275628781296113 0.020235309177630358 0 0.026209996077741642 0.021695435547895093 0 0.027503292721076197 0.020125775387843253 0 0.028594684756209868 0.021760125394472904 0 0.026209996077741642 0.021695435547895093 0 0.028191711705219627 0.023828500164241487 0 0.028594684756209868 0.021760125394472904 0 0.030216099619242969 0.023501594460871772 0 0.028594684756209868 0.021760125394472904 0 0.030520297495866322 0.021690036013139818 0 0.032494531951221657 0.022548932521749498 0 0.030520297495866322 0.021690036013139818 0 0.031333818123413411 0.01963737647804847 0 0.030216099619242969 0.023501594460871772 0 0.032494531951221657 0.022548932521749498 0 0.030520297495866322 0.021690036013139818 0 0.030520297495866322 0.021690036013139818 0 0.029275628781296113 0.020235309177630358 0 0.031333818123413411 0.01963737647804847 0 0.028594684756209868 0.021760125394472904 0 0.030520297495866322 0.021690036013139818 0 0.029275628781296113 0.020235309177630358 0 0.029275628781296113 0.020235309177630358 0 0.031333818123413411 0.01963737647804847 0 0.028414652466320078 0.017976864350980011 0 0.028878000315772277 0.043557747968790417 0 0.030116720993839958 0.046256991322680477 0 0.033633073373399137 0.047627506324061111 0 0.027591961075010715 0.044361888648243329 0 0.031367623672114958 0.04241343566594246 0 0.028878000315772277 0.043557747968790417 0 0.027981881445926154 0.055558693458236469 0 0.030116720993839958 0.046256991322680477 0 0.027981881445926154 0.055558693458236469 0 0.025183600111297756 0.018627090919238969 0 0.028929643317453332 0.017489713455847274 0 0.026887091966870492 0.016827365911583136 0 0.025035805192727863 0.019454564131737469 0 0.027503292721076197 0.020125775387843253 0 0.028414652466320078 0.017976864350980011 0 0.030116720993839958 0.046256991322680477 0 0.030803455994371641 0.048857983748067449 0 0.032159628709312486 0.040259966719851138 0 0.030116720993839958 0.046256991322680477 0 0.027503292721076197 0.020125775387843253 0 0.029275628781296113 0.020235309177630358 0 0.028414652466320078 0.017976864350980011 0 0.028929643317453332 0.017489713455847274 0 0.026887091966870492 0.016827365911583136 0 0.027309447953110431 0.016615565750901756 0 0.030861566544822132 0.048752651155044596 0 0.030803455994371641 0.048857983748067449 0 0.030803455994371641 0.048857983748067449 0 0.02708869292369076 0.062784030647547867 0 0.024783019845542199 0.059270730440514403 0 0.023085702260365899 0.060154081155082917 0 0.025237479915295107 0.060408987108124257 0 0.026887091966870492 0.016827365911583136 0 0.027286426128725623 0.016629735758699977 0 0.026050334808642623 0.01597741079656367 0 0.02900258780851156 0.055704223954462589 0 0.024674066689526118 0.053353824252422515 0 0.033233906717168249 0.048973915698373748 0 0.030803455994371641 0.048857983748067449 0 0.031118262568513761 0.047063999044996571 0 0.024783019845542199 0.059270730440514403 0 0.025469724717529691 0.059632213060428679 0 0.025237479915295107 0.060408987108124257 0 0.02708869292369076 0.062784030647547867 0 0.023559147750988 0.076881204525377167 0 0.02900258780851156 0.055704223954462589 0 0.034847656334436941 0.052691247376294298 0 0.033233906717168249 0.048973915698373748 0 0.027823423936382 0.070719088134425845 0 0.028034081525599944 0.07120889923354809 0 0.026580721608606733 0.071405103783751006 0 0.027981881445926154 0.055558693458236469 0 0.02708869292369076 0.062784030647547867 0 0.021274938681985663 0.09807279029935588 0 0.020606784671812605 0.099627916212713677 0 0.019466829655816285 0.099111802188829284 0 0.021274938681985663 0.09807279029935588 0 0.020606784671812605 0.099627916212713677 0 0.022275679973065864 0.10039116523553111 0 0.023085702260365899 0.060154081155082917 0 0.024186203483536135 0.062766669438683434 0 0.025237479915295107 0.060408987108124257 0 0.024559216557200707 0.062701198851861914 0 0.024186203483536135 0.062766669438683434 0 0.025237479915295107 0.060408987108124257 0 0.020303891890255856 0.074844066938355699 0 0.029264089424316232 0.04951643980375546 0 0.02708869292369076 0.062784030647547867 0 0.020217044917051626 0.078158170488146744 0 0.028816685507389226 0.059029034686408549 0 0.031017903824642024 0.060958905696492566 0 0.028763849498329629 0.062159115672834317 0 0.031714220732739953 0.067281103367358833 0 0.028092497324628225 0.078433745615965056 0 0.040717216688781442 0.079749014426793441 0 0.039626142456980429 0.082814164037669419 0 0.040526541532898808 0.08596225816675486 0 0.030928942492186421 0.058871826629060146 0 0.028816685507389226 0.059029034686408549 0 0.031017903824642024 0.060958905696492566 0 0.028430817151904219 0.066732154527909038 0 0.028092497324628225 0.078433745615965056 0 0.029558367616340127 0.081801736672062197 0 0.028708745482288793 0.080979353226751927 0 0.030928942492186421 0.058871826629060146 0 0.033244698898415671 0.059775181447154234 0 0.031017903824642024 0.060958905696492566 0 0.028034081525599944 0.07120889923354809 0 0.026580721608606733 0.071405103783751006 0 0.026682966531778179 0.071952554862976761 0 0.027981881445926154 0.055558693458236469 0 0.028430817151904219 0.066732154527909038 0 0.026580721608606733 0.071405103783751006 0 0.026682966531778179 0.071952554862976761 0 0.025331634354046801 0.072095426977381777 0 0.020606784671812605 0.099627916212713677 0 0.019466829655816285 0.099111802188829284 0 0.019430523681047057 0.1009394061231962 0 0.019466829655816285 0.099111802188829284 0 0.018638825655952887 0.10067753953613764 0 0.019430523681047057 0.1009394061231962 0 0.023559147750988 0.076881204525377167 0 0.026425690530767623 0.08431652431463213 0 0.026682966531778179 0.071952554862976761 0 0.025325851211263871 0.072701018171341877 0 0.025331634354046801 0.072095426977381777 0 0.019466829655816285 0.099111802188829284 0 0.017900842431883834 0.10008692795251185 0 0.018638825655952887 0.10067753953613764 0 0.027936278525530659 0.080022144495933367 0 0.026036761619546503 0.080993517735147944 0 0.027934335501332574 0.084322218316237346 0 0.026425690530767623 0.08431652431463213 0 0.028092497324628225 0.078433745615965056 0 0.027390124171688516 0.085517614372675244 0 0.028708745482288793 0.080979353226751927 0 0.027390124171688516 0.085517614372675244 0 0.026425690530767623 0.08431652431463213 0 0.039626142456980429 0.082814164037669419 0 0.039566207743124089 0.086453708740284838 0 0.040526541532898808 0.08596225816675486 0 0.026036761619546503 0.080993517735147944 0 0.027934335501332574 0.084322218316237346 0 0.025981313110308577 0.085328188242140016 0 0.028708745482288793 0.080979353226751927 0 0.028092497324628225 0.078433745615965056 0 0.017686302978697901 0.10024665559701745 0 0.017996606597778814 0.10117122205464557 0 0.017825520082482161 0.10231014714303469 0 0.027390124171688516 0.085517614372675244 0 0.027212897381785346 0.095268109672034668 0 0.026425690530767623 0.08431652431463213 0 0.025802868191942569 0.088347843886702707 0 0.017900842431883834 0.10008692795251185 0 0.017996606597778814 0.10117122205464557 0 0.018638825655952887 0.10067753953613764 0 0.017686302978697901 0.10024665559701745 0 0.017983193805156873 0.10008867290701225 0 0.017996606597778814 0.10117122205464557 0 0.017996606597778814 0.10117122205464557 0 0.018638825655952887 0.10067753953613764 0 0.018665432146680688 0.1018171007345826 0 0.018638825655952887 0.10067753953613764 0 0.019430523681047057 0.1009394061231962 0 0.018665432146680688 0.1018171007345826 0 0.01944692005694762 0.10265055564501642 0 0.018665432146680688 0.1018171007345826 0 0.018721274276393331 0.10300776304856839 0 0.019430523681047057 0.1009394061231962 0 0.01944692005694762 0.10265055564501642 0 0.020157971398166177 0.1021883049644654 0 0.019430523681047057 0.1009394061231962 0 0.01944692005694762 0.10265055564501642 0 0.018665432146680688 0.1018171007345826 0 0.018665432146680688 0.1018171007345826 0 0.017825520082482161 0.10231014714303469 0 0.018721274276393331 0.10300776304856839 0 0.017996606597778814 0.10117122205464557 0 0.018665432146680688 0.1018171007345826 0 0.017825520082482161 0.10231014714303469 0 0.02130787891775383 0.10099470764579228 0 0.0206044428648255 0.10141273286860528 0 0.0209562736051692 0.10222098583404038 0 0.020366531346709071 0.10172347532941405 0 0.020474965764017895 0.10221013500263937 0 0.020563457376839969 0.10187822867872957 0 0.02023410126748415 0.082918119156506057 0 0.018523466027156685 0.095240883903123255 0 0.02023410126748415 0.082918119156506057 0 0.022786814371222968 0.093893369643040389 0 0.020366531346709071 0.10172347532941405 0 0.020414935017711602 0.1015886805136226 0 0.020563457376839969 0.10187822867872957 0 0.02023410126748415 0.082918119156506057 0 0.020303891890255856 0.074844066938355699 0 0.015789059154412768 0.066491225338312726 0 0.011116030363400179 0.082443389091490835 0 0.021917817159191558 0.080614493872037368 0 0.02023410126748415 0.082918119156506057 0 0.020217044917051626 0.078158170488146744 0 0.02130787891775383 0.10099470764579228 0 0.021180544107298666 0.10071971653881058 0 0.0206044428648255 0.10141273286860528 0 0.020303891890255856 0.074844066938355699 0 0.020217044917051626 0.078158170488146744 0 0.019430523681047057 0.1009394061231962 0 0.0206044428648255 0.10141273286860528 0 0.020157971398166177 0.1021883049644654 0 0.019430523681047057 0.1009394061231962 0 0.021180544107298666 0.10071971653881058 0 0.0206044428648255 0.10141273286860528 0 0.020606784671812605 0.099627916212713677 0 0.019430523681047057 0.1009394061231962 0 0.022275679973065864 0.10039116523553111 0 0.018518752498771409 0.085058206602024802 0 0.020217044917051626 0.078158170488146744 0 0.020157971398166177 0.1021883049644654 0 0.0209562736051692 0.10222098583404038 0 0.020329606436380345 0.10349248895113919 0 0.0206044428648255 0.10141273286860528 0 0.020157971398166177 0.1021883049644654 0 0.0209562736051692 0.10222098583404038 0 0.020494989649103474 0.10219621599407937 0 0.020346382651808537 0.10282269609540209 0 0.020705124454587706 0.10275624823219481 0 0.020346382651808537 0.10282269609540209 0 0.020705124454587706 0.10275624823219481 0 0.02056758684131002 0.10314668777311391 0 0.020474965764017895 0.10221013500263937 0 0.02093827953943727 0.10240932242416147 0 0.020793108407787995 0.10305296073973237 0 0.022786814371222968 0.093893369643040389 0 0.023311382641934265 0.096670996827630834 0 0.02093827953943727 0.10240932242416147 0 0.020767619025484872 0.10208133404567359 0 0.02109683176224916 0.1021109641067009 0 0.020474965764017895 0.10221013500263937 0 0.020767619025484872 0.10208133404567359 0 0.020563457376839969 0.10187822867872957 0 0.020474965764017895 0.10221013500263937 0 0.02093827953943727 0.10240932242416147 0 0.020767619025484872 0.10208133404567359 0 0.020767619025484872 0.10208133404567359 0 0.020563457376839969 0.10187822867872957 0 0.020802773593360906 0.10181997564477051 0 0.020414935017711602 0.1015886805136226 0 0.020802773593360906 0.10181997564477051 0 0.021087715380496124 0.10158571930757418 0 0.020767619025484872 0.10208133404567359 0 0.020802773593360906 0.10181997564477051 0 0.02109683176224916 0.1021109641067009 0 0.020414935017711602 0.1015886805136226 0 0.020563457376839969 0.10187822867872957 0 0.020802773593360906 0.10181997564477051 0 0.020802773593360906 0.10181997564477051 0 0.021138653366344073 0.10180679555577196 0 0.02109683176224916 0.1021109641067009 0 0.020802773593360906 0.10181997564477051 0 0.021138653366344073 0.10180679555577196 0 0.021087715380496124 0.10158571930757418 0 0.021138653366344073 0.10180679555577196 0 0.02114801718093957 0.10165116778865224 0 0.021087715380496124 0.10158571930757418 0 0.021138653366344073 0.10180679555577196 0 0.02109683176224916 0.1021109641067009 0 0.021200358874613166 0.10202660191598138 0 0.02109683176224916 0.1021109641067009 0 0.021329236374497941 0.10227702519441098 0 0.021200358874613166 0.10202660191598138 0 0.02093827953943727 0.10240932242416147 0 0.02109683176224916 0.1021109641067009 0 0.02125139585640055 0.10243537694059718 0 0.02109683176224916 0.1021109641067009 0 0.02125139585640055 0.10243537694059718 0 0.021329236374497941 0.10227702519441098 0 0.02125139585640055 0.10243537694059718 0 0.021329236374497941 0.10227702519441098 0 0.021505620675117569 0.10235807132733832 0 0.021329236374497941 0.10227702519441098 0 0.021453293592203628 0.10238621708123721 0 0.021505620675117569 0.10235807132733832 0 0.021329236374497941 0.10227702519441098 0 0.021453293592203628 0.10238621708123721 0 0.021246126376550153 0.1022192740826266 0 0.021453293592203628 0.10238621708123721 0 0.021351111095579044 0.10273911337625075 0 0.021246126376550153 0.1022192740826266 0 0.021351111095579044 0.10273911337625075 0 0.021246126376550153 0.1022192740826266 0 0.021127044101437422 0.1019016574844042 0 0.021246126376550153 0.1022192740826266 0 0.021127044101437422 0.1019016574844042 0 0.021155304430069265 0.10183304299734598 0 0.021246126376550153 0.1022192740826266 0 0.021200358874613166 0.10202660191598138 0 0.021155304430069265 0.10183304299734598 0 0.021329236374497941 0.10227702519441098 0 0.021246126376550153 0.1022192740826266 0 0.021200358874613166 0.10202660191598138 0 0.021351111095579044 0.10273911337625075 0 0.021127044101437422 0.1019016574844042 0 0.020883512689715018 0.10119747130279487 0 0.022209038031173411 0.096523522732263806 0 0.02044457864894788 0.099209521623863192 0 0.020883512689715018 0.10119747130279487 0 0.021296765671517535 0.098366843648707528 0 0.020907995843533662 0.10000279068091353 0 0.019410372989419705 0.097101948303173424 0 0.020533971432304607 0.097585446748235646 0 0.019541473080674169 0.098232853236736736 0 0.019410372989419705 0.097101948303173424 0 0.020608300762032187 0.096521086812507373 0 0.019452022821850816 0.095964951304247925 0 0.019410372989419705 0.097101948303173424 0 0.020608300762032187 0.096521086812507373 0 0.020533971432304607 0.097585446748235646 0 0.022209038031173411 0.096523522732263806 0 0.020533971432304607 0.097585446748235646 0 0.02044457864894788 0.099209521623863192 0 0.022209038031173411 0.096523522732263806 0 0.020608300762032187 0.096521086812507373 0 0.020533971432304607 0.097585446748235646 0 0.020533971432304607 0.097585446748235646 0 0.02044457864894788 0.099209521623863192 0 0.019541473080674169 0.098232853236736736 0 0.02044457864894788 0.099209521623863192 0 0.019541473080674169 0.098232853236736736 0 0.018974149930412635 0.099289211336674357 0 0.02044457864894788 0.099209521623863192 0 0.020428426447268298 0.10065101238489838 0 0.020883512689715018 0.10119747130279487 0 0.02044457864894788 0.099209521623863192 0 0.019481358123933156 0.10003042681200519 0 0.018974149930412635 0.099289211336674357 0 0.02044457864894788 0.099209521623863192 0 0.019481358123933156 0.10003042681200519 0 0.020428426447268298 0.10065101238489838 0 0.021127044101437422 0.1019016574844042 0 0.020883512689715018 0.10119747130279487 0 0.021079259648472553 0.10160813662044449 0 0.020883512689715018 0.10119747130279487 0 0.021066019866660762 0.10151081698342065 0 0.021079259648472553 0.10160813662044449 0 0.021138653366344073 0.10180679555577196 0 0.021200358874613166 0.10202660191598138 0 0.021155304430069265 0.10183304299734598 0 0.021138653366344073 0.10180679555577196 0 0.021155304430069265 0.10183304299734598 0 0.02114801718093957 0.10165116778865224 0 0.021155304430069265 0.10183304299734598 0 0.021079259648472553 0.10160813662044449 0 0.02114801718093957 0.10165116778865224 0 0.021127044101437422 0.1019016574844042 0 0.021155304430069265 0.10183304299734598 0 0.021079259648472553 0.10160813662044449 0 0.021066019866660762 0.10151081698342065 0 0.021079259648472553 0.10160813662044449 0 0.02114801718093957 0.10165116778865224 0 0.016422843403260359 0.011211146255869501 0 0.021196139876725941 0.014923121147756718 0 0.021852006772851779 0.010471560387995836 0 0.017989651230535902 0.060121926768140467 0 0.021427932475551012 0.064233014872017061 0 0.02114801718093957 0.10165116778865224 0 0.021118017997216805 0.10180776700606992 0 0.021087715380496124 0.10158571930757418 0 0.021066019866660762 0.10151081698342065 0 0.02114801718093957 0.10165116778865224 0 0.021118017997216805 0.10180776700606992 0 0.016422843403260359 0.011211146255869501 0 0.014104838242128777 0.013907937191876822 0 0.011081891321772388 0.011842268316574429 0 0.020883512689715018 0.10119747130279487 0 0.021118017997216805 0.10180776700606992 0 0.01930027178408877 0.10219035222237863 0 0.020883512689715018 0.10119747130279487 0 0.021066019866660762 0.10151081698342065 0 0.021118017997216805 0.10180776700606992 0 0.014406860471371944 0.017275925394104327 0 0.016822560383471474 0.015138188776053394 0 0.014104838242128777 0.013907937191876822 0 0.016422843403260359 0.011211146255869501 0 0.016822560383471474 0.015138188776053394 0 0.014104838242128777 0.013907937191876822 0 0.016422843403260359 0.011211146255869501 0 0.016822560383471474 0.015138188776053394 0 0.021196139876725941 0.014923121147756718 0 0.021196139876725941 0.014923121147756718 0 0.023752068755146443 0.013115365182165674 0 0.021852006772851779 0.010471560387995836 0 0.021196139876725941 0.014923121147756718 0 0.02401907306554198 0.015903637125239709 0 0.023752068755146443 0.013115365182165674 0 0.02401907306554198 0.015903637125239709 0 0.025943471852478604 0.015381317649876776 0 0.026303922032002196 0.013868899757552056 0 0.031118262568513761 0.047063999044996571 0 0.029264089424316232 0.04951643980375546 0 0.026303922032002196 0.013868899757552056 0 0.023752068755146443 0.013115365182165674 0 0.024839793796920778 0.011776058416732037 0 0.02401907306554198 0.015903637125239709 0 0.026303922032002196 0.013868899757552056 0 0.023752068755146443 0.013115365182165674 0 0.027475819996424795 0.009678283571804773 0 0.026303922032002196 0.013868899757552056 0 0.024839793796920778 0.011776058416732037 0 0.027475819996424795 0.009678283571804773 0 0.024839793796920778 0.011776058416732037 0 0.021852006772851779 0.010471560387995836 0 0.023752068755146443 0.013115365182165674 0 0.024839793796920778 0.011776058416732037 0 0.021852006772851779 0.010471560387995836 0 0.020303891890255856 0.074844066938355699 0 0.021427932475551012 0.064233014872017061 0 0.025730849294651595 0.056823502264485855 0 0.028570135165699513 0.061476903991064764 0 0.029985534929301491 0.056656364103407242 0 0.028570135165699513 0.061476903991064764 0 0.032476979508821224 0.061513151019857611 0 0.029985534929301491 0.056656364103407242 0 0.032476979508821224 0.061513151019857611 0 0.034771750852582529 0.056382005698029578 0 0.038454805928827517 0.063002469243349735 0 0.032476979508821224 0.061513151019857611 0 0.034771750852582529 0.056382005698029578 0 0.029985534929301491 0.056656364103407242 0 0.034771750852582529 0.056382005698029578 0 0.029985534929301491 0.056656364103407242 0 0.03138564634243781 0.051847514466039926 0 0.034771750852582529 0.056382005698029578 0 0.03138564634243781 0.051847514466039926 0 0.035062890580146285 0.04961153016041852 0 0.025730849294651595 0.056823502264485855 0 0.029985534929301491 0.056656364103407242 0 0.027637879744242595 0.05253394556632341 0 0.029985534929301491 0.056656364103407242 0 0.027637879744242595 0.05253394556632341 0 0.03138564634243781 0.051847514466039926 0 0.027637879744242595 0.05253394556632341 0 0.029629908534336055 0.047962187504629175 0 0.03138564634243781 0.051847514466039926 0 0.025949575319723365 0.049473472666567965 0 0.027637879744242595 0.05253394556632341 0 0.029629908534336055 0.047962187504629175 0 0.029629908534336055 0.047962187504629175 0 0.033606453782951629 0.046402664482761126 0 0.03138564634243781 0.051847514466039926 0 0.031854946939950633 0.043369985307016329 0 0.029629908534336055 0.047962187504629175 0 0.033606453782951629 0.046402664482761126 0 0.033606453782951629 0.046402664482761126 0 0.03138564634243781 0.051847514466039926 0 0.035062890580146285 0.04961153016041852 0 0.035062890580146285 0.04961153016041852 0 0.03544892377828493 0.045543350238333592 0 0.035649508460146376 0.04660534856182267 0 0.036927003492736754 0.051816905810146259 0 0.038695722218986324 0.052653228269510778 0 0.033606453782951629 0.046402664482761126 0 0.035062890580146285 0.04961153016041852 0 0.03544892377828493 0.045543350238333592 0 0.03544892377828493 0.045543350238333592 0 0.035649508460146376 0.04660534856182267 0 0.035899297545180731 0.045111979626554284 0 0.04379888359636195 0.051193716859960256 0 0.040798225799054191 0.056673201071696037 0 0.047035314280986312 0.056640150918732049 0 0.035062890580146285 0.04961153016041852 0 0.04379888359636195 0.051193716859960256 0 0.040798225799054191 0.056673201071696037 0 0.034771750852582529 0.056382005698029578 0 0.035062890580146285 0.04961153016041852 0 0.040798225799054191 0.056673201071696037 0 0.034771750852582529 0.056382005698029578 0 0.040798225799054191 0.056673201071696037 0 0.038454805928827517 0.063002469243349735 0 0.040798225799054191 0.056673201071696037 0 0.04464993699918559 0.061078325906693723 0 0.047035314280986312 0.056640150918732049 0 0.040798225799054191 0.056673201071696037 0 0.04464993699918559 0.061078325906693723 0 0.038454805928827517 0.063002469243349735 0 0.048801702264452684 0.060488660429923423 0 0.052592587360524364 0.057603079783387988 0 0.047035314280986312 0.056640150918732049 0 0.04464993699918559 0.061078325906693723 0 0.048801702264452684 0.060488660429923423 0 0.047035314280986312 0.056640150918732049 0 0.04464993699918559 0.061078325906693723 0 0.048801702264452684 0.060488660429923423 0 0.047496423847732165 0.063559253116719519 0 0.048801702264452684 0.060488660429923423 0 0.052355806416466491 0.062676731009150985 0 0.052592587360524364 0.057603079783387988 0 0.048801702264452684 0.060488660429923423 0 0.052355806416466491 0.062676731009150985 0 0.047496423847732165 0.063559253116719519 0 0.04586462852006512 0.070101249824980991 0 0.048436193251522229 0.06727058238987961 0 0.047276704112417051 0.070567652250572807 0 0.044936126327886919 0.065868078805183597 0 0.040960144156495522 0.065491349360484244 0 0.052355806416466491 0.062676731009150985 0 0.052592587360524364 0.057603079783387988 0 0.057574327955244614 0.057009005087644657 0 0.041036546643669056 0.05532233972014379 0 0.039838157894722177 0.060525164839210485 0 0.052592587360524364 0.057603079783387988 0 0.051314239921903794 0.052684877745361937 0 0.057574327955244614 0.057009005087644657 0 0.051314239921903794 0.052684877745361937 0 0.05869051157724535 0.053949225262761774 0 0.057574327955244614 0.057009005087644657 0 0.04379888359636195 0.051193716859960256 0 0.051314239921903794 0.052684877745361937 0 0.047035314280986312 0.056640150918732049 0 0.052592587360524364 0.057603079783387988 0 0.051314239921903794 0.052684877745361937 0 0.047035314280986312 0.056640150918732049 0 0.038695722218986324 0.052653228269510778 0 0.041036546643669056 0.05532233972014379 0 0.035649508460146376 0.04660534856182267 0 0.035969615350725882 0.045166901435048368 0 0.035899297545180731 0.045111979626554284 0 0.035899297545180731 0.045111979626554284 0 0.035951031672702444 0.043954964333151089 0 0.036091767217100112 0.043937066991640905 0 0.03544892377828493 0.045543350238333592 0 0.035899297545180731 0.045111979626554284 0 0.035951031672702444 0.043954964333151089 0 0.035899297545180731 0.045111979626554284 0 0.036091767217100112 0.043937066991640905 0 0.03610193839248798 0.04447204254473168 0 0.036213823339993956 0.042848107573312325 0 0.036091767217100112 0.043937066991640905 0 0.036182830117020531 0.043767441154273487 0 0.036091767217100112 0.043937066991640905 0 0.036182830117020531 0.043767441154273487 0 0.03610193839248798 0.04447204254473168 0 0.035969615350725882 0.045166901435048368 0 0.03637015965991261 0.04461607450452542 0 0.036521200534676009 0.044960028159426735 0 0.035969615350725882 0.045166901435048368 0 0.035899297545180731 0.045111979626554284 0 0.03610193839248798 0.04447204254473168 0 0.036182830117020531 0.043767441154273487 0 0.03610193839248798 0.04447204254473168 0 0.036346217186222822 0.0439710111250287 0 0.035969615350725882 0.045166901435048368 0 0.03610193839248798 0.04447204254473168 0 0.03637015965991261 0.04461607450452542 0 0.03637015965991261 0.04461607450452542 0 0.036820987262174365 0.044328606927870988 0 0.036521200534676009 0.044960028159426735 0 0.034889747348479876 0.070100958319567155 0 0.035274875199181287 0.07415352985566516 0 0.033505885233597432 0.073857492563811383 0 0.037266062194559711 0.052537622315391122 0 0.039838157894722177 0.060525164839210485 0 0.03642222853199778 0.0439383397152278 0 0.036346217186222822 0.0439710111250287 0 0.036246822894510221 0.043252029638257583 0 0.037266062194559711 0.052537622315391122 0 0.036921203918984492 0.052136609147714903 0 0.03637015965991261 0.04461607450452542 0 0.036820987262174365 0.044328606927870988 0 0.036346217186222822 0.0439710111250287 0 0.03610193839248798 0.04447204254473168 0 0.03637015965991261 0.04461607450452542 0 0.036346217186222822 0.0439710111250287 0 0.03548516508805849 0.041206375044988461 0 0.036125668204918512 0.043159187471330684 0 0.036246822894510221 0.043252029638257583 0 0.036182830117020531 0.043767441154273487 0 0.036346217186222822 0.0439710111250287 0 0.036125668204918512 0.043159187471330684 0 0.037266062194559711 0.052537622315391122 0 0.037641356041045938 0.050748682378875823 0 0.036346217186222822 0.0439710111250287 0 0.036125668204918512 0.043159187471330684 0 0.036246822894510221 0.043252029638257583 0 0.036213823339993956 0.042848107573312325 0 0.036182830117020531 0.043767441154273487 0 0.036125668204918512 0.043159187471330684 0 0.038101915984549997 0.043484848767689169 0 0.036858941243006649 0.04223278152597712 0 0.03702962414047066 0.044141950004218181 0 0.036858941243006649 0.04223278152597712 0 0.036246822894510221 0.043252029638257583 0 0.03702962414047066 0.044141950004218181 0 0.03548516508805849 0.041206375044988461 0 0.036858941243006649 0.04223278152597712 0 0.036246822894510221 0.043252029638257583 0 0.0380012590620359 0.045828654313888009 0 0.035726147209166968 0.044554196736049621 0 0.03702962414047066 0.044141950004218181 0 0.040861261972919581 0.07337834282884706 0 0.034889747348479876 0.070100958319567155 0 0.037231921911965997 0.073766113246307774 0 0.03381732599346466 0.050420952489332413 0 0.037266062194559711 0.052537622315391122 0 0.035726147209166968 0.044554196736049621 0 0.036246822894510221 0.043252029638257583 0 0.03702962414047066 0.044141950004218181 0 0.034889747348479876 0.070100958319567155 0 0.037231921911965997 0.073766113246307774 0 0.035274875199181287 0.07415352985566516 0 0.040861261972919581 0.07337834282884706 0 0.037241074109465762 0.076332744988262369 0 0.037231921911965997 0.073766113246307774 0 0.040861261972919581 0.07337834282884706 0 0.037241074109465762 0.076332744988262369 0 0.038588125339066769 0.078019551456624481 0 0.037241074109465762 0.076332744988262369 0 0.036099321595827807 0.075377062211640575 0 0.037231921911965997 0.073766113246307774 0 0.035838606039795592 0.07676900147341327 0 0.037241074109465762 0.076332744988262369 0 0.036099321595827807 0.075377062211640575 0 0.036099321595827807 0.075377062211640575 0 0.037231921911965997 0.073766113246307774 0 0.035274875199181287 0.07415352985566516 0 0.039588527659176198 0.060753891070169638 0 0.039838157894722177 0.060525164839210485 0 0.035274875199181287 0.07415352985566516 0 0.033531307805116969 0.073884916097891787 0 0.034236141767062779 0.074877509673650477 0 0.033531307805116969 0.073884916097891787 0 0.03328115430674488 0.075626727453497439 0 0.034236141767062779 0.074877509673650477 0 0.033531307805116969 0.073884916097891787 0 0.03328115430674488 0.075626727453497439 0 0.032640972672399016 0.076323235005633358 0 0.039838157894722177 0.060525164839210485 0 0.040960144156495522 0.065491349360484244 0 0.03328115430674488 0.075626727453497439 0 0.032627385316712859 0.076347109000341612 0 0.033782698886145601 0.076667248802080271 0 0.040776508237135418 0.065699273663322982 0 0.040960144156495522 0.065491349360484244 0 0.036099321595827807 0.075377062211640575 0 0.035274875199181287 0.07415352985566516 0 0.03491002643609873 0.075858478120703912 0 0.035274875199181287 0.07415352985566516 0 0.034236141767062779 0.074877509673650477 0 0.03491002643609873 0.075858478120703912 0 0.03328115430674488 0.075626727453497439 0 0.034236141767062779 0.074877509673650477 0 0.03491002643609873 0.075858478120703912 0 0.033782698886145601 0.076667248802080271 0 0.03491002643609873 0.075858478120703912 0 0.034635913663325149 0.077556367453379363 0 0.03328115430674488 0.075626727453497439 0 0.033782698886145601 0.076667248802080271 0 0.03491002643609873 0.075858478120703912 0 0.035838606039795592 0.07676900147341327 0 0.036099321595827807 0.075377062211640575 0 0.03491002643609873 0.075858478120703912 0 0.035838606039795592 0.07676900147341327 0 0.03491002643609873 0.075858478120703912 0 0.034635913663325149 0.077556367453379363 0 0.034635913663325149 0.077556367453379363 0 0.034084003646749128 0.079129387843594912 0 0.036128372772017948 0.078857920631605294 0 0.032627385316712859 0.076347109000341612 0 0.032570519272623735 0.079311911589173653 0 0.030807929314268179 0.081631363805702239 0 0.040960144156495522 0.065491349360484244 0 0.037825578903375928 0.074964200805686748 0 0.035838606039795592 0.07676900147341327 0 0.034635913663325149 0.077556367453379363 0 0.036128372772017948 0.078857920631605294 0 0.033782698886145601 0.076667248802080271 0 0.034635913663325149 0.077556367453379363 0 0.033518757804395623 0.077814626168419554 0 0.034635913663325149 0.077556367453379363 0 0.033518757804395623 0.077814626168419554 0 0.034084003646749128 0.079129387843594912 0 0.032627385316712859 0.076347109000341612 0 0.033518757804395623 0.077814626168419554 0 0.032570519272623735 0.079311911589173653 0 0.032627385316712859 0.076347109000341612 0 0.033782698886145601 0.076667248802080271 0 0.033518757804395623 0.077814626168419554 0 0.033518757804395623 0.077814626168419554 0 0.032570519272623735 0.079311911589173653 0 0.034084003646749128 0.079129387843594912 0 0.032570519272623735 0.079311911589173653 0 0.032329305460046504 0.080869144593541178 0 0.030807929314268179 0.081631363805702239 0 0.032570519272623735 0.079311911589173653 0 0.0332563849372252 0.080490905393446652 0 0.034084003646749128 0.079129387843594912 0 0.032570519272623735 0.079311911589173653 0 0.0332563849372252 0.080490905393446652 0 0.032329305460046504 0.080869144593541178 0 0.03458784780991029 0.080934540235391789 0 0.036163821883550912 0.080910220290976137 0 0.036128372772017948 0.078857920631605294 0 0.034084003646749128 0.079129387843594912 0 0.03458784780991029 0.080934540235391789 0 0.036128372772017948 0.078857920631605294 0 0.0332563849372252 0.080490905393446652 0 0.034084003646749128 0.079129387843594912 0 0.03458784780991029 0.080934540235391789 0 0.038588125339066769 0.078019551456624481 0 0.036128372772017948 0.078857920631605294 0 0.037912220942283047 0.080980443227377935 0 0.036163821883550912 0.080910220290976137 0 0.036128372772017948 0.078857920631605294 0 0.037912220942283047 0.080980443227377935 0 0.040717216688781442 0.079749014426793441 0 0.038588125339066769 0.078019551456624481 0 0.037912220942283047 0.080980443227377935 0 0.035838606039795592 0.07676900147341327 0 0.037241074109465762 0.076332744988262369 0 0.036128372772017948 0.078857920631605294 0 0.037241074109465762 0.076332744988262369 0 0.038588125339066769 0.078019551456624481 0 0.036128372772017948 0.078857920631605294 0 0.037339246905112936 0.083505719336180007 0 0.036000346947626514 0.08247553126731387 0 0.035663626177570816 0.084129390268697396 0 0.037339246905112936 0.083505719336180007 0 0.035663626177570816 0.084129390268697396 0 0.036560195652305789 0.085463803887532191 0 0.037339246905112936 0.083505719336180007 0 0.038345775982240975 0.084847549447694792 0 0.036560195652305789 0.085463803887532191 0 0.039626142456980429 0.082814164037669419 0 0.039571505121067538 0.086450242422001125 0 0.038345775982240975 0.084847549447694792 0 0.039626142456980429 0.082814164037669419 0 0.037339246905112936 0.083505719336180007 0 0.038345775982240975 0.084847549447694792 0 0.039626142456980429 0.082814164037669419 0 0.037339246905112936 0.083505719336180007 0 0.037912220942283047 0.080980443227377935 0 0.040717216688781442 0.079749014426793441 0 0.039626142456980429 0.082814164037669419 0 0.037912220942283047 0.080980443227377935 0 0.037339246905112936 0.083505719336180007 0 0.037912220942283047 0.080980443227377935 0 0.036000346947626514 0.08247553126731387 0 0.036163821883550912 0.080910220290976137 0 0.037912220942283047 0.080980443227377935 0 0.036000346947626514 0.08247553126731387 0 0.03458784780991029 0.080934540235391789 0 0.036163821883550912 0.080910220290976137 0 0.036000346947626514 0.08247553126731387 0 0.03458784780991029 0.080934540235391789 0 0.036000346947626514 0.08247553126731387 0 0.034573180026122592 0.083118300795490208 0 0.03458784780991029 0.080934540235391789 0 0.032705302620418063 0.082221128215920605 0 0.034573180026122592 0.083118300795490208 0 0.032329305460046504 0.080869144593541178 0 0.032705302620418063 0.082221128215920605 0 0.030807929314268179 0.081631363805702239 0 0.0332563849372252 0.080490905393446652 0 0.03458784780991029 0.080934540235391789 0 0.032705302620418063 0.082221128215920605 0 0.0332563849372252 0.080490905393446652 0 0.032329305460046504 0.080869144593541178 0 0.032705302620418063 0.082221128215920605 0 0.034573180026122592 0.083118300795490208 0 0.035663626177570816 0.084129390268697396 0 0.033972329371194571 0.085483003756786316 0 0.032705302620418063 0.082221128215920605 0 0.034573180026122592 0.083118300795490208 0 0.033972329371194571 0.085483003756786316 0 0.036000346947626514 0.08247553126731387 0 0.034573180026122592 0.083118300795490208 0 0.035663626177570816 0.084129390268697396 0 0.033972329371194571 0.085483003756786316 0 0.031953182663898683 0.087415823166253209 0 0.035828109799331216 0.088268891804787461 0 0.035663626177570816 0.084129390268697396 0 0.033972329371194571 0.085483003756786316 0 0.036560195652305789 0.085463803887532191 0 0.032705302620418063 0.082221128215920605 0 0.033972329371194571 0.085483003756786316 0 0.031953182663898683 0.087415823166253209 0 0.033972329371194571 0.085483003756786316 0 0.035828109799331216 0.088268891804787461 0 0.036560195652305789 0.085463803887532191 0 0.031953182663898683 0.087415823166253209 0 0.035828109799331216 0.088268891804787461 0 0.032196212305930387 0.08985148243556354 0 0.035828109799331216 0.088268891804787461 0 0.037573647310462456 0.086262364939589567 0 0.036560195652305789 0.085463803887532191 0 0.038345775982240975 0.084847549447694792 0 0.037573647310462456 0.086262364939589567 0 0.036560195652305789 0.085463803887532191 0 0.039571505121067538 0.086450242422001125 0 0.038345775982240975 0.084847549447694792 0 0.037573647310462456 0.086262364939589567 0 0.028708745482288793 0.080979353226751927 0 0.030633702398268792 0.082646847257472622 0 0.036000083804388114 0.089002066451836462 0 0.035993256525783265 0.087922959723425634 0 0.034111932122822125 0.088924338931546082 0 0.039571505121067538 0.086450242422001125 0 0.035828109799331216 0.088268891804787461 0 0.037573647310462456 0.086262364939589567 0 0.027390124171688516 0.085517614372675244 0 0.030473284417930725 0.086958051607347209 0 0.035982615982364366 0.086914595203521988 0 0.034643858423590856 0.089148988701973839 0 0.032226396729544332 0.088952291124114083 0 0.036000083804388114 0.089002066451836462 0 0.034111932122822125 0.088924338931546082 0 0.033133468124509582 0.090554181036479886 0 0.035982615982364366 0.086914595203521988 0 0.036102986626221363 0.091246597843946398 0 0.034643858423590856 0.089148988701973839 0 0.034643858423590856 0.089148988701973839 0 0.033224113893301668 0.090600925084918224 0 0.032226396729544332 0.088952291124114083 0 0.036102986626221363 0.091246597843946398 0 0.034643858423590856 0.089148988701973839 0 0.033224113893301668 0.090600925084918224 0 0.036102986626221363 0.091246597843946398 0 0.033224113893301668 0.090600925084918224 0 0.031981722226943086 0.092540479537344011 0 0.031204297687334751 0.091159963962172658 0 0.030077702444894987 0.091997951076243117 0 0.031981722226943086 0.092540479537344011 0 0.031204297687334751 0.091159963962172658 0 0.033224113893301668 0.090600925084918224 0 0.031981722226943086 0.092540479537344011 0 0.031204297687334751 0.091159963962172658 0 0.033224113893301668 0.090600925084918224 0 0.032226396729544332 0.088952291124114083 0 0.033133468124509582 0.090554181036479886 0 0.032196212305930387 0.08985148243556354 0 0.030846994206509989 0.090507813511130464 0 0.030633702398268792 0.082646847257472622 0 0.030719593379806967 0.083420973057964407 0 0.034111932122822125 0.088924338931546082 0 0.033133468124509582 0.090554181036479886 0 0.032196212305930387 0.08985148243556354 0 0.031953182663898683 0.087415823166253209 0 0.032196212305930387 0.08985148243556354 0 0.030649453272849212 0.089200364090831832 0 0.030649453272849212 0.089200364090831832 0 0.029270575770342179 0.091566302904826535 0 0.029565178542517698 0.086840089268430828 0 0.032196212305930387 0.08985148243556354 0 0.030649453272849212 0.089200364090831832 0 0.030846994206509989 0.090507813511130464 0 0.033133468124509582 0.090554181036479886 0 0.030846994206509989 0.090507813511130464 0 0.029543962852343404 0.091554020091733579 0 0.032313307736987908 0.087820692087451038 0 0.034555397825822905 0.08308975630732858 0 0.030649453272849212 0.089200364090831832 0 0.030846994206509989 0.090507813511130464 0 0.029270575770342179 0.091566302904826535 0 0.030846994206509989 0.090507813511130464 0 0.029543962852343404 0.091554020091733579 0 0.029270575770342179 0.091566302904826535 0 0.030473284417930725 0.086958051607347209 0 0.030153114061436514 0.087991703958505099 0 0.031204297687334751 0.091159963962172658 0 0.032226396729544332 0.088952291124114083 0 0.029543962852343404 0.091554020091733579 0 0.031204297687334751 0.091159963962172658 0 0.029543962852343404 0.091554020091733579 0 0.030077702444894987 0.091997951076243117 0 0.02977811291796768 0.091683663905990073 0 0.029734979134557867 0.092012510572663575 0 0.032128078291171494 0.091653151717090625 0 0.029543962852343404 0.091554020091733579 0 0.02977811291796768 0.091683663905990073 0 0.028458590592023103 0.09183496595084463 0 0.02977811291796768 0.091683663905990073 0 0.029734979134557867 0.092012510572663575 0 0.029270575770342179 0.091566302904826535 0 0.029543962852343404 0.091554020091733579 0 0.02977811291796768 0.091683663905990073 0 0.029270575770342179 0.091566302904826535 0 0.035616936879017791 0.084113354082487407 0 0.034555397825822905 0.08308975630732858 0 0.029734979134557867 0.092012510572663575 0 0.029270575770342179 0.091566302904826535 0 0.028687314921385588 0.093178240581001825 0 0.043536557134329613 0.077322280670719334 0 0.043170692477439446 0.072978959777549646 0 0.046114428622406584 0.073962362963365669 0 0.032705302620418063 0.082221128215920605 0 0.031953182663898683 0.087415823166253209 0 0.029565178542517698 0.086840089268430828 0 0.031953182663898683 0.087415823166253209 0 0.030649453272849212 0.089200364090831832 0 0.029565178542517698 0.086840089268430828 0 0.033490326943352848 0.083815790756973943 0 0.034555397825822905 0.08308975630732858 0 0.032705302620418063 0.082221128215920605 0 0.028974317543015 0.086711528538203575 0 0.030807929314268179 0.081631363805702239 0 0.04586462852006512 0.070101249824980991 0 0.046114428622406584 0.073962362963365669 0 0.047276704112417051 0.070567652250572807 0 0.034555397825822905 0.08308975630732858 0 0.037825578903375928 0.074964200805686748 0 0.052355806416466491 0.062676731009150985 0 0.047092773050887424 0.068256570683237275 0 0.047496423847732165 0.063559253116719519 0 0.044936126327886919 0.065868078805183597 0 0.04351003068562919 0.069671723940834915 0 0.04586462852006512 0.070101249824980991 0 0.043170692477439446 0.072978959777549646 0 0.046114428622406584 0.073962362963365669 0 0.047092773050887424 0.068256570683237275 0 0.047496423847732165 0.063559253116719519 0 0.044596948659273959 0.065256795105602991 0 0.04464993699918559 0.061078325906693723 0 0.044596948659273959 0.065256795105602991 0 0.038454805928827517 0.063002469243349735 0 0.047092773050887424 0.068256570683237275 0 0.044596948659273959 0.065256795105602991 0 0.041126510732516906 0.06704167778732463 0 0.044596948659273959 0.065256795105602991 0 0.038454805928827517 0.063002469243349735 0 0.041126510732516906 0.06704167778732463 0 0.04464993699918559 0.061078325906693723 0 0.047496423847732165 0.063559253116719519 0 0.044596948659273959 0.065256795105602991 0 0.038454805928827517 0.063002469243349735 0 0.041126510732516906 0.06704167778732463 0 0.036405568389175476 0.069055654554500689 0 0.036405568389175476 0.069055654554500689 0 0.041997240942559862 0.073682903302443384 0 0.034673722079106628 0.074419604480322435 0 0.041126510732516906 0.06704167778732463 0 0.036405568389175476 0.069055654554500689 0 0.041997240942559862 0.073682903302443384 0 0.043536557134329613 0.077322280670719334 0 0.043170692477439446 0.072978959777549646 0 0.040184649373075823 0.076016611395506223 0 0.047092773050887424 0.068256570683237275 0 0.041126510732516906 0.06704167778732463 0 0.041997240942559862 0.073682903302443384 0 0.04351003068562919 0.069671723940834915 0 0.040762492744572866 0.073615080475826641 0 0.043536557134329613 0.077322280670719334 0 0.040319650636526573 0.07849124454158514 0 0.040184649373075823 0.076016611395506223 0 0.035616936879017791 0.084113354082487407 0 0.035608588369069341 0.085389372771706926 0 0.043536557134329613 0.077322280670719334 0 0.040319650636526573 0.07849124454158514 0 0.040686620191631453 0.081440135380401915 0 0.040686620191631453 0.081440135380401915 0 0.03659516510096085 0.07924562629989261 0 0.034564530553548869 0.083137998870452784 0 0.040319650636526573 0.07849124454158514 0 0.040686620191631453 0.081440135380401915 0 0.03659516510096085 0.07924562629989261 0 0.041997240942559862 0.073682903302443384 0 0.03659516510096085 0.07924562629989261 0 0.034673722079106628 0.074419604480322435 0 0.040762492744572866 0.073615080475826641 0 0.03901512793090306 0.075746669048213019 0 0.040319650636526573 0.07849124454158514 0 0.040184649373075823 0.076016611395506223 0 0.03659516510096085 0.07924562629989261 0 0.034673722079106628 0.074419604480322435 0 0.03235239646848017 0.08007610393013434 0 0.029311036772002939 0.075462886240599783 0 0.03659516510096085 0.07924562629989261 0 0.03235239646848017 0.08007610393013434 0 0.034564530553548869 0.083137998870452784 0 0.03659516510096085 0.07924562629989261 0 0.034673722079106628 0.074419604480322435 0 0.03235239646848017 0.08007610393013434 0 0.027579867346631558 0.081858041513883137 0 0.03235239646848017 0.08007610393013434 0 0.029311036772002939 0.075462886240599783 0 0.034673722079106628 0.074419604480322435 0 0.029311036772002939 0.075462886240599783 0 0.031450143208997375 0.070171209006588839 0 0.026757377566627605 0.070208470033639142 0 0.031450143208997375 0.070171209006588839 0 0.029116934614727495 0.065930334950432989 0 0.026757377566627605 0.070208470033639142 0 0.029311036772002939 0.075462886240599783 0 0.031450143208997375 0.070171209006588839 0 0.036405568389175476 0.069055654554500689 0 0.031450143208997375 0.070171209006588839 0 0.03335586959064165 0.06593836404265202 0 0.036405568389175476 0.069055654554500689 0 0.034673722079106628 0.074419604480322435 0 0.031450143208997375 0.070171209006588839 0 0.032476979508821224 0.061513151019857611 0 0.038454805928827517 0.063002469243349735 0 0.03335586959064165 0.06593836404265202 0 0.038454805928827517 0.063002469243349735 0 0.036405568389175476 0.069055654554500689 0 0.03335586959064165 0.06593836404265202 0 0.028570135165699513 0.061476903991064764 0 0.032476979508821224 0.061513151019857611 0 0.029116934614727495 0.065930334950432989 0 0.032476979508821224 0.061513151019857611 0 0.03335586959064165 0.06593836404265202 0 0.029116934614727495 0.065930334950432989 0 0.025472706655089827 0.065217050576995741 0 0.028570135165699513 0.061476903991064764 0 0.029116934614727495 0.065930334950432989 0 0.031450143208997375 0.070171209006588839 0 0.03335586959064165 0.06593836404265202 0 0.029116934614727495 0.065930334950432989 0 0.033610775414432428 0.098972815770870692 0 0.037955764290519244 0.095760334082717224 0 0.032747431317392148 0.093859224065997574 0 0.033610775414432428 0.098972815770870692 0 0.037955764290519244 0.095760334082717224 0 0.038959699944846347 0.099659823590529384 0 0.037955764290519244 0.095760334082717224 0 0.042966307465646232 0.093840473646188957 0 0.0409448688239544 0.097476754882523539 0 0.037955764290519244 0.095760334082717224 0 0.0409448688239544 0.097476754882523539 0 0.038959699944846347 0.099659823590529384 0 0.0409448688239544 0.097476754882523539 0 0.041402968185107913 0.099796492867537639 0 0.038959699944846347 0.099659823590529384 0 0.033715491518643947 0.091608781689231172 0 0.035506505460751368 0.094124734435024962 0 0.037955764290519244 0.095760334082717224 0 0.03767101898594611 0.090871614370275688 0 0.042966307465646232 0.093840473646188957 0 0.029066221432474545 0.08745292539117569 0 0.032747431317392148 0.093859224065997574 0 0.03767101898594611 0.090871614370275688 0 0.037955764290519244 0.095760334082717224 0 0.032747431317392148 0.093859224065997574 0 0.03767101898594611 0.090871614370275688 0 0.029066221432474545 0.08745292539117569 0 0.032017462898931155 0.084941564412193402 0 0.033395327350429042 0.087941269848862358 0 0.031834823799815663 0.090431115174789245 0 0.033715491518643947 0.091608781689231172 0 0.027579867346631558 0.081858041513883137 0 0.03235239646848017 0.08007610393013434 0 0.032017462898931155 0.084941564412193402 0 0.027579867346631558 0.081858041513883137 0 0.029066221432474545 0.08745292539117569 0 0.032017462898931155 0.084941564412193402 0 0.03235239646848017 0.08007610393013434 0 0.032017462898931155 0.084941564412193402 0 0.034564530553548869 0.083137998870452784 0 0.032017462898931155 0.084941564412193402 0 0.034564530553548869 0.083137998870452784 0 0.035483536260088662 0.087145765623672336 0 0.032017462898931155 0.084941564412193402 0 0.033395327350429042 0.087941269848862358 0 0.035483536260088662 0.087145765623672336 0 0.035483536260088662 0.087145765623672336 0 0.032697720159904207 0.087136039520776545 0 0.034371260142764662 0.086541536396960425 0 0.033395327350429042 0.087941269848862358 0 0.035483536260088662 0.087145765623672336 0 0.034371260142764662 0.086541536396960425 0 0.035608588369069341 0.085389372771706926 0 0.035390634577355834 0.086013380376398552 0 0.040686620191631453 0.081440135380401915 0 0.034564530553548869 0.083137998870452784 0 0.035483536260088662 0.087145765623672336 0 0.02977811291796768 0.091683663905990073 0 0.032128078291171494 0.091653151717090625 0 0.031172194470533779 0.089841015128329038 0 0.032128078291171494 0.091653151717090625 0 0.035483536260088662 0.087145765623672336 0 0.031172194470533779 0.089841015128329038 0 0.031172194470533779 0.089841015128329038 0 0.032697720159904207 0.087136039520776545 0 0.029922686921143426 0.087359988904026284 0 0.035483536260088662 0.087145765623672336 0 0.031172194470533779 0.089841015128329038 0 0.032697720159904207 0.087136039520776545 0 0.035506505460751368 0.094124734435024962 0 0.034713748108181015 0.098139724105445567 0 0.032697720159904207 0.087136039520776545 0 0.034371260142764662 0.086541536396960425 0 0.031442864741123698 0.084784143954233795 0 0.042966307465646232 0.093840473646188957 0 0.0409448688239544 0.097476754882523539 0 0.043399486278998631 0.098010026407479522 0 0.0409448688239544 0.097476754882523539 0 0.043399486278998631 0.098010026407479522 0 0.041402968185107913 0.099796492867537639 0 0.034713748108181015 0.098139724105445567 0 0.03740984064207669 0.10058176059954696 0 0.042966307465646232 0.093840473646188957 0 0.043399486278998631 0.098010026407479522 0 0.047522454255959738 0.095904173931329662 0 0.043399486278998631 0.098010026407479522 0 0.047522454255959738 0.095904173931329662 0 0.045010435584756828 0.10097742019740723 0 0.035285651068689437 0.10960551538384149 0 0.034486959473244601 0.10705574963788637 0 0.03759413793293525 0.10667005700034619 0 0.034713748108181015 0.098139724105445567 0 0.033332288711336602 0.10063595508751449 0 0.035285651068689437 0.10960551538384149 0 0.032980616435074273 0.10799489831671123 0 0.034486959473244601 0.10705574963788637 0 0.032980616435074273 0.10799489831671123 0 0.03190989251564947 0.10575980180597153 0 0.03260154855398658 0.10663219431522514 0 0.033332288711336602 0.10063595508751449 0 0.033332172999672512 0.10149245133255812 0 0.027799123562821878 0.10367549349638372 0 0.028516214114767801 0.099764658245699855 0 0.031538982558467286 0.10198958785167253 0 0.023499746538201617 0.1019883388540674 0 0.027799123562821878 0.10367549349638372 0 0.028516214114767801 0.099764658245699855 0 0.032697720159904207 0.087136039520776545 0 0.031442864741123698 0.084784143954233795 0 0.029922686921143426 0.087359988904026284 0 0.034713748108181015 0.098139724105445567 0 0.032770448325195073 0.095388595907541729 0 0.023499746538201617 0.1019883388540674 0 0.028516214114767801 0.099764658245699855 0 0.025430044248369962 0.097363345650008759 0 0.031172194470533779 0.089841015128329038 0 0.029922686921143426 0.087359988904026284 0 0.028458590592023103 0.09183496595084463 0 0.032770448325195073 0.095388595907541729 0 0.032230981089036034 0.094531229674045078 0 0.02977811291796768 0.091683663905990073 0 0.031172194470533779 0.089841015128329038 0 0.028458590592023103 0.09183496595084463 0 0.029543962852343404 0.091554020091733579 0 0.028458590592023103 0.09183496595084463 0 0.030077702444894987 0.091997951076243117 0 0.028458590592023103 0.09183496595084463 0 0.030077702444894987 0.091997951076243117 0 0.030514281547809899 0.094717617291604134 0 0.025430044248369962 0.097363345650008759 0 0.028458590592023103 0.09183496595084463 0 0.030514281547809899 0.094717617291604134 0 0.028516214114767801 0.099764658245699855 0 0.030514281547809899 0.094717617291604134 0 0.032692075953251173 0.098401254531281956 0 0.028516214114767801 0.099764658245699855 0 0.025430044248369962 0.097363345650008759 0 0.030514281547809899 0.094717617291604134 0 0.030514281547809899 0.094717617291604134 0 0.033459849348558099 0.095185014118030209 0 0.032692075953251173 0.098401254531281956 0 0.030514281547809899 0.094717617291604134 0 0.033459849348558099 0.095185014118030209 0 0.031981722226943086 0.092540479537344011 0 0.030077702444894987 0.091997951076243117 0 0.030514281547809899 0.094717617291604134 0 0.031981722226943086 0.092540479537344011 0 0.036102986626221363 0.091246597843946398 0 0.033459849348558099 0.095185014118030209 0 0.031981722226943086 0.092540479537344011 0 0.036102986626221363 0.091246597843946398 0 0.033459849348558099 0.095185014118030209 0 0.036521414547582079 0.096057041519083758 0 0.033459849348558099 0.095185014118030209 0 0.032692075953251173 0.098401254531281956 0 0.036521414547582079 0.096057041519083758 0 0.032692075953251173 0.098401254531281956 0 0.036521414547582079 0.096057041519083758 0 0.035987819553980269 0.10235027422723292 0 0.032692075953251173 0.098401254531281956 0 0.031538982558467286 0.10198958785167253 0 0.035987819553980269 0.10235027422723292 0 0.028516214114767801 0.099764658245699855 0 0.032692075953251173 0.098401254531281956 0 0.031538982558467286 0.10198958785167253 0 0.031538982558467286 0.10198958785167253 0 0.03190989251564947 0.10575980180597153 0 0.035987819553980269 0.10235027422723292 0 0.027799123562821878 0.10367549349638372 0 0.031538982558467286 0.10198958785167253 0 0.03190989251564947 0.10575980180597153 0 0.03190989251564947 0.10575980180597153 0 0.035987819553980269 0.10235027422723292 0 0.033618100885279181 0.10661988928124876 0 0.03190989251564947 0.10575980180597153 0 0.03209954613926512 0.10697034877547895 0 0.033618100885279181 0.10661988928124876 0 0.03190989251564947 0.10575980180597153 0 0.03209954613926512 0.10697034877547895 0 0.03260154855398658 0.10663219431522514 0 0.03209954613926512 0.10697034877547895 0 0.032673574055583875 0.10673450676264487 0 0.03260154855398658 0.10663219431522514 0 0.03209954613926512 0.10697034877547895 0 0.031547010616736169 0.10673194291834871 0 0.032673574055583875 0.10673450676264487 0 0.03209954613926512 0.10697034877547895 0 0.033618100885279181 0.10661988928124876 0 0.03059363887056242 0.10725669597113115 0 0.029667289348802531 0.10621704277050266 0 0.031547010616736169 0.10673194291834871 0 0.03059363887056242 0.10725669597113115 0 0.03209954613926512 0.10697034877547895 0 0.031547010616736169 0.10673194291834871 0 0.03059363887056242 0.10725669597113115 0 0.029667289348802531 0.10621704277050266 0 0.030084309755201499 0.10499896624475176 0 0.026250474755345751 0.10499988131687661 0 0.029667289348802531 0.10621704277050266 0 0.03059363887056242 0.10725669597113115 0 0.026250474755345751 0.10499988131687661 0 0.030084309755201499 0.10499896624475176 0 0.031547010616736169 0.10673194291834871 0 0.033912860372338517 0.10500013651853816 0 0.029667289348802531 0.10621704277050266 0 0.030084309755201499 0.10499896624475176 0 0.031547010616736169 0.10673194291834871 0 0.031547010616736169 0.10673194291834871 0 0.033361629111614145 0.10625308716610581 0 0.032673574055583875 0.10673450676264487 0 0.033361629111614145 0.10625308716610581 0 0.033912860372338517 0.10500013651853816 0 0.033898032345372156 0.10575846051257348 0 0.033921614821148326 0.10499989012109504 0 0.03673962316126695 0.10565514529624583 0 0.031547010616736169 0.10673194291834871 0 0.033361629111614145 0.10625308716610581 0 0.033912860372338517 0.10500013651853816 0 0.033918199388565322 0.10499999711591118 0 0.039099442961315754 0.10499999016468048 0 0.037885782939411736 0.10742904755671447 0 0.039099442961315754 0.10499999016468048 0 0.037885782939411736 0.10742904755671447 0 0.04071060140002182 0.1071804317060977 0 0.033361629111614145 0.10625308716610581 0 0.033898032345372156 0.10575846051257348 0 0.033922709500742575 0.10622750140256662 0 0.033361629111614145 0.10625308716610581 0 0.033922709500742575 0.10622750140256662 0 0.033550914957225626 0.1065446455695874 0 0.033922709500742575 0.10622750140256662 0 0.033550914957225626 0.1065446455695874 0 0.034147712161115611 0.10656731293927545 0 0.033361629111614145 0.10625308716610581 0 0.033550914957225626 0.1065446455695874 0 0.032673574055583875 0.10673450676264487 0 0.033550914957225626 0.1065446455695874 0 0.032673574055583875 0.10673450676264487 0 0.03260154855398658 0.10663219431522514 0 0.032980616435074273 0.10799489831671123 0 0.03260154855398658 0.10663219431522514 0 0.034486959473244601 0.10705574963788637 0 0.033550914957225626 0.1065446455695874 0 0.03260154855398658 0.10663219431522514 0 0.034486959473244601 0.10705574963788637 0 0.033550914957225626 0.1065446455695874 0 0.034486959473244601 0.10705574963788637 0 0.034147712161115611 0.10656731293927545 0 0.037655842066400637 0.10737889754216394 0 0.038439487389761648 0.10686741548000017 0 0.034486959473244601 0.10705574963788637 0 0.03759413793293525 0.10667005700034619 0 0.037286017384299382 0.10427287845294059 0 0.043399486278998631 0.098010026407479522 0 0.045010435584756828 0.10097742019740723 0 0.042944306147798886 0.1005530247960057 0 0.043399486278998631 0.098010026407479522 0 0.042944306147798886 0.1005530247960057 0 0.041402968185107913 0.099796492867537639 0 0.042944306147798886 0.1005530247960057 0 0.041402968185107913 0.099796492867537639 0 0.04194678310427806 0.1017040928132311 0 0.04194678310427806 0.1017040928132311 0 0.041510740123488619 0.10284349401377366 0 0.040660262205817435 0.10180615039911402 0 0.041402968185107913 0.099796492867537639 0 0.04194678310427806 0.1017040928132311 0 0.040660262205817435 0.10180615039911402 0 0.045010435584756828 0.10097742019740723 0 0.042944306147798886 0.1005530247960057 0 0.042681807619197987 0.10197695114677119 0 0.042944306147798886 0.1005530247960057 0 0.04194678310427806 0.1017040928132311 0 0.042681807619197987 0.10197695114677119 0 0.042681807619197987 0.10197695114677119 0 0.041958827441756677 0.10270504296931791 0 0.041217077646821872 0.1029947481889617 0 0.04194678310427806 0.1017040928132311 0 0.042681807619197987 0.10197695114677119 0 0.041958827441756677 0.10270504296931791 0 0.04194678310427806 0.1017040928132311 0 0.041958827441756677 0.10270504296931791 0 0.041510740123488619 0.10284349401377366 0 0.041958827441756677 0.10270504296931791 0 0.041510740123488619 0.10284349401377366 0 0.041955374293868454 0.10307667298519037 0 0.041958827441756677 0.10270504296931791 0 0.041955374293868454 0.10307667298519037 0 0.041217077646821872 0.1029947481889617 0 0.03759413793293525 0.10667005700034619 0 0.041217077646821872 0.1029947481889617 0 0.037286017384299382 0.10427287845294059 0 0.045010435584756828 0.10097742019740723 0 0.042681807619197987 0.10197695114677119 0 0.041217077646821872 0.1029947481889617 0 0.038439487389761648 0.10686741548000017 0 0.040401028831919907 0.1062387741522009 0 0.03740984064207669 0.10058176059954696 0 0.038318275512997477 0.10085631949520985 0 0.041217077646821872 0.1029947481889617 0 0.037286017384299382 0.10427287845294059 0 0.040319039281002264 0.10140135194645125 0 0.033922709500742575 0.10622750140256662 0 0.034147712161115611 0.10656731293927545 0 0.03435628593827543 0.10612721200866551 0 0.033898032345372156 0.10575846051257348 0 0.033922709500742575 0.10622750140256662 0 0.03435628593827543 0.10612721200866551 0 0.03673962316126695 0.10565514529624583 0 0.040401028831919907 0.1062387741522009 0 0.041841378931009587 0.10985373577652066 0 0.04071060140002182 0.1071804317060977 0 0.044280652315109595 0.10499999378975425 0 0.037885782939411736 0.10742904755671447 0 0.041841378931009587 0.10985373577652066 0 0.04071060140002182 0.1071804317060977 0 0.039099442961315754 0.10499999016468048 0 0.04071060140002182 0.1071804317060977 0 0.044280652315109595 0.10499999378975425 0 0.044281479042042465 0.10500123170687892 0 0.044821898853478807 0.10769869219944105 0 0.045532018510489408 0.10888729925953392 0 0.040401028831919907 0.1062387741522009 0 0.044274856281584174 0.10500040580988619 0 0.043798872485682733 0.10806651403026164 0 0.044281479042042465 0.10500123170687892 0 0.044821898853478807 0.10769869219944105 0 0.045552539444105006 0.10761042471459377 0 0.043798872485682733 0.10806651403026164 0 0.044821898853478807 0.10769869219944105 0 0.041016287506069969 0.1058490051012143 0 0.040401028831919907 0.1062387741522009 0 0.041955374293868454 0.10307667298519037 0 0.041217077646821872 0.1029947481889617 0 0.040319039281002264 0.10140135194645125 0 0.045552539444105006 0.10761042471459377 0 0.044821898853478807 0.10769869219944105 0 0.045532018510489408 0.10888729925953392 0 0.045552539444105006 0.10761042471459377 0 0.045532018510489408 0.10888729925953392 0 0.04290249111385732 0.10617035303058085 0 0.045532018510489408 0.10888729925953392 0 0.049778362333105106 0.11042264410962142 0 0.048815823162656362 0.11431363888638246 0 0.044281479042042465 0.10500123170687892 0 0.045532018510489408 0.10888729925953392 0 0.049247469996478554 0.10756854525207335 0 0.044281479042042465 0.10500123170687892 0 0.050430387207532408 0.10499876722406142 0 0.049247469996478554 0.10756854525207335 0 0.053367322209887769 0.1087750407331072 0 0.050430387207532408 0.10499876722406142 0 0.049247469996478554 0.10756854525207335 0 0.053367322209887769 0.1087750407331072 0 0.049778362333105106 0.11042264410962142 0 0.051666831700025832 0.11282001976347099 0 0.053367322209887769 0.1087750407331072 0 0.049247469996478554 0.10756854525207335 0 0.049778362333105106 0.11042264410962142 0 0.045532018510489408 0.10888729925953392 0 0.049247469996478554 0.10756854525207335 0 0.049778362333105106 0.11042264410962142 0 0.049778362333105106 0.11042264410962142 0 0.051666831700025832 0.11282001976347099 0 0.048815823162656362 0.11431363888638246 0 0.051666831700025832 0.11282001976347099 0 0.048815823162656362 0.11431363888638246 0 0.051386861450010098 0.11544042389951442 0 0.045532018510489408 0.10888729925953392 0 0.037974716119126013 0.10373523376305628 0 0.04290249111385732 0.10617035303058085 0 0.046047491566190313 0.10666848267087316 0 0.046388212431973636 0.1062215101978591 0 0.041016287506069969 0.1058490051012143 0 0.040850277890422712 0.10551538847018403 0 0.041510740123488619 0.10284349401377366 0 0.041955374293868454 0.10307667298519037 0 0.040814875315729061 0.10378453269194778 0 0.045552539444105006 0.10761042471459377 0 0.04290249111385732 0.10617035303058085 0 0.040814875315729061 0.10378453269194778 0 0.041510740123488619 0.10284349401377366 0 0.040814875315729061 0.10378453269194778 0 0.040660262205817435 0.10180615039911402 0 0.037974716119126013 0.10373523376305628 0 0.04290249111385732 0.10617035303058085 0 0.040814875315729061 0.10378453269194778 0 0.037974716119126013 0.10373523376305628 0 0.040814875315729061 0.10378453269194778 0 0.038441630454172121 0.1015795716821043 0 0.040814875315729061 0.10378453269194778 0 0.038441630454172121 0.1015795716821043 0 0.040660262205817435 0.10180615039911402 0 0.038441630454172121 0.1015795716821043 0 0.040660262205817435 0.10180615039911402 0 0.038959699944846347 0.099659823590529384 0 0.041402968185107913 0.099796492867537639 0 0.040660262205817435 0.10180615039911402 0 0.038959699944846347 0.099659823590529384 0 0.033610775414432428 0.098972815770870692 0 0.038441630454172121 0.1015795716821043 0 0.038959699944846347 0.099659823590529384 0 0.051445231430352303 0.11889019524686129 0 0.048815823162656362 0.11431363888638246 0 0.051386861450010098 0.11544042389951442 0 0.033610775414432428 0.098972815770870692 0 0.037974716119126013 0.10373523376305628 0 0.038441630454172121 0.1015795716821043 0 0.047976513577546398 0.1043125350395019 0 0.046388212431973636 0.1062215101978591 0 0.022348165704089287 0.094255722593372823 0 0.022017607819385422 0.091215067844788014 0 0.021258235064775366 0.0980736459812072 0 0.022348165704089287 0.094255722593372823 0 0.023544455151355184 0.091646144119227668 0 0.022088459709067153 0.097666126509856802 0 0.021402395548933015 0.098765727748494944 0 0.021253630890279873 0.1004542623414417 0 0.021482366291645828 0.10444768611297653 0 0.0215753865213443 0.10529239576329287 0 0.021962563657250724 0.10386382980831219 0 0.021263509401362814 0.10489226235978488 0 0.021482366291645828 0.10444768611297653 0 0.0215753865213443 0.10529239576329287 0 0.022348165704089287 0.094255722593372823 0 0.023544455151355184 0.091646144119227668 0 0.022755130948935897 0.091807901961123359 0 0.021482366291645828 0.10444768611297653 0 0.021231338572202451 0.10410708907070228 0 0.02150985836450061 0.10393211753793646 0 0.021263509401362814 0.10489226235978488 0 0.021482366291645828 0.10444768611297653 0 0.021179182214204593 0.10452998326372623 0 0.021482366291645828 0.10444768611297653 0 0.021179182214204593 0.10452998326372623 0 0.021231338572202451 0.10410708907070228 0 0.021179182214204593 0.10452998326372623 0 0.021231338572202451 0.10410708907070228 0 0.020913455511892019 0.10425446272317465 0 0.021179182214204593 0.10452998326372623 0 0.020939061926842962 0.1049873167721467 0 0.020913455511892019 0.10425446272317465 0 0.020939061926842962 0.1049873167721467 0 0.020913455511892019 0.10425446272317465 0 0.020607748045548761 0.10473753551937896 0 0.020939061926842962 0.1049873167721467 0 0.020607748045548761 0.10473753551937896 0 0.020431162304709465 0.10557365320071882 0 0.021263509401362814 0.10489226235978488 0 0.021179182214204593 0.10452998326372623 0 0.020939061926842962 0.1049873167721467 0 0.021263509401362814 0.10489226235978488 0 0.020939061926842962 0.1049873167721467 0 0.021163146914578827 0.10520975396103861 0 0.021163146914578827 0.10520975396103861 0 0.020913394354488576 0.10568281797439481 0 0.0215753865213443 0.10529239576329287 0 0.020939061926842962 0.1049873167721467 0 0.021163146914578827 0.10520975396103861 0 0.020913394354488576 0.10568281797439481 0 0.020913394354488576 0.10568281797439481 0 0.0215753865213443 0.10529239576329287 0 0.020817569394253253 0.10644741585349646 0 0.020939061926842962 0.1049873167721467 0 0.020913394354488576 0.10568281797439481 0 0.020431162304709465 0.10557365320071882 0 0.020913394354488576 0.10568281797439481 0 0.020431162304709465 0.10557365320071882 0 0.020384213304969492 0.10614397685433223 0 0.022931270832434431 0.090894595172603357 0 0.022305015296083398 0.089344755518115423 0 0.025015983544413312 0.087491576594353471 0 0.023544455151355184 0.091646144119227668 0 0.022931270832434431 0.090894595172603357 0 0.025015983544413312 0.087491576594353471 0 0.021402395548933015 0.098765727748494944 0 0.020607278083625245 0.097920322023517872 0 0.021263509401362814 0.10489226235978488 0 0.021163146914578827 0.10520975396103861 0 0.0215753865213443 0.10529239576329287 0 0.022348165704089287 0.094255722593372823 0 0.022755130948935897 0.091807901961123359 0 0.022017607819385422 0.091215067844788014 0 0.023544455151355184 0.091646144119227668 0 0.022755130948935897 0.091807901961123359 0 0.022931270832434431 0.090894595172603357 0 0.021936847730650019 0.091402092654316355 0 0.021912483875668964 0.091412261106604456 0 0.022755130948935897 0.091807901961123359 0 0.022931270832434431 0.090894595172603357 0 0.022017607819385422 0.091215067844788014 0 0.022931270832434431 0.090894595172603357 0 0.022145317307467952 0.091011006682174156 0 0.021856123611681186 0.090438631585158885 0 0.022931270832434431 0.090894595172603357 0 0.021856123611681186 0.090438631585158885 0 0.022305015296083398 0.089344755518115423 0 0.021856123611681186 0.090438631585158885 0 0.022305015296083398 0.089344755518115423 0 0.021200973622741197 0.089882802000491271 0 0.022145317307467952 0.091011006682174156 0 0.02054968905357675 0.090504892872289244 0 0.018141673047527066 0.091689671546414941 0 0.021912483875668964 0.091412261106604456 0 0.019804392843351403 0.09114568988547303 0 0.022305015296083398 0.089344755518115423 0 0.021200973622741197 0.089882802000491271 0 0.020793323390890864 0.089135553293725633 0 0.021856123611681186 0.090438631585158885 0 0.021200973622741197 0.089882802000491271 0 0.02054968905357675 0.090504892872289244 0 0.020561077651542973 0.089933480408280558 0 0.020793323390890864 0.089135553293725633 0 0.019584692944093547 0.090022484170133046 0 0.021200973622741197 0.089882802000491271 0 0.020561077651542973 0.089933480408280558 0 0.02054968905357675 0.090504892872289244 0 0.021200973622741197 0.089882802000491271 0 0.020561077651542973 0.089933480408280558 0 0.020793323390890864 0.089135553293725633 0 0.019584692944093547 0.090022484170133046 0 0.01874192877398426 0.089534716707260723 0 0.01930096465289163 0.088734642818556211 0 0.020793323390890864 0.089135553293725633 0 0.019584692944093547 0.090022484170133046 0 0.01930096465289163 0.088734642818556211 0 0.020561077651542973 0.089933480408280558 0 0.019584692944093547 0.090022484170133046 0 0.02054968905357675 0.090504892872289244 0 0.019584692944093547 0.090022484170133046 0 0.02054968905357675 0.090504892872289244 0 0.018141673047527066 0.091689671546414941 0 0.022145317307467952 0.091011006682174156 0 0.021856123611681186 0.090438631585158885 0 0.02054968905357675 0.090504892872289244 0 0.017773203891244916 0.089242006739679039 0 0.018172071632133274 0.090190810366368002 0 0.016637221831823094 0.090490176909554659 0 0.019584692944093547 0.090022484170133046 0 0.01874192877398426 0.089534716707260723 0 0.018172071632133274 0.090190810366368002 0 0.017773203891244916 0.089242006739679039 0 0.01874192877398426 0.089534716707260723 0 0.01930096465289163 0.088734642818556211 0 0.017773203891244916 0.089242006739679039 0 0.01874192877398426 0.089534716707260723 0 0.018172071632133274 0.090190810366368002 0 0.019584692944093547 0.090022484170133046 0 0.018172071632133274 0.090190810366368002 0 0.018141673047527066 0.091689671546414941 0 0.018172071632133274 0.090190810366368002 0 0.018141673047527066 0.091689671546414941 0 0.016637221831823094 0.090490176909554659 0 0.021103181303256981 0.088938484714092006 0 0.022570719181600158 0.090295082881607258 0 0.02161891174971876 0.092043678433244999 0 0.021103181303256981 0.088938484714092006 0 0.019342565430771379 0.091468382505782778 0 0.02161891174971876 0.092043678433244999 0 0.025210850937642689 0.087423954415644142 0 0.021103181303256981 0.088938484714092006 0 0.022570719181600158 0.090295082881607258 0 0.025210850937642689 0.087423954415644142 0 0.022570719181600158 0.090295082881607258 0 0.023678246622892234 0.091949239056643539 0 0.021912483875668964 0.091412261106604456 0 0.021964227590796789 0.094517812097228621 0 0.022348165704089287 0.094255722593372823 0 0.021258235064775366 0.0980736459812072 0 0.022088459709067153 0.097666126509856802 0 0.021258235064775366 0.0980736459812072 0 0.022088459709067153 0.097666126509856802 0 0.021572788085945007 0.10186231099722545 0 0.021253630890279873 0.1004542623414417 0 0.021074001162132781 0.10126630298313839 0 0.022570719181600158 0.090295082881607258 0 0.023678246622892234 0.091949239056643539 0 0.02161891174971876 0.092043678433244999 0 0.023678246622892234 0.091949239056643539 0 0.02161891174971876 0.092043678433244999 0 0.021821603337192266 0.094276736828286883 0 0.019342565430771379 0.091468382505782778 0 0.02161891174971876 0.092043678433244999 0 0.019522594742631173 0.093119455634542672 0 0.02161891174971876 0.092043678433244999 0 0.019522594742631173 0.093119455634542672 0 0.020700317915671066 0.093820807177257604 0 0.02161891174971876 0.092043678433244999 0 0.020700317915671066 0.093820807177257604 0 0.021821603337192266 0.094276736828286883 0 0.019522594742631173 0.093119455634542672 0 0.019676979680249087 0.094731858086306978 0 0.020700317915671066 0.093820807177257604 0 0.019676979680249087 0.094731858086306978 0 0.02086274019310902 0.094927386040022793 0 0.020700317915671066 0.093820807177257604 0 0.02086274019310902 0.094927386040022793 0 0.021821603337192266 0.094276736828286883 0 0.021240805109592007 0.095738071481581241 0 0.02086274019310902 0.094927386040022793 0 0.020700317915671066 0.093820807177257604 0 0.021821603337192266 0.094276736828286883 0 0.022209038031173411 0.096523522732263806 0 0.020608300762032187 0.096521086812507373 0 0.021240805109592007 0.095738071481581241 0 0.022209038031173411 0.096523522732263806 0 0.021821603337192266 0.094276736828286883 0 0.021240805109592007 0.095738071481581241 0 0.020608300762032187 0.096521086812507373 0 0.021240805109592007 0.095738071481581241 0 0.02036514088504747 0.095645778642621318 0 0.02086274019310902 0.094927386040022793 0 0.021240805109592007 0.095738071481581241 0 0.02036514088504747 0.095645778642621318 0 0.019676979680249087 0.094731858086306978 0 0.02086274019310902 0.094927386040022793 0 0.02036514088504747 0.095645778642621318 0 0.020608300762032187 0.096521086812507373 0 0.02036514088504747 0.095645778642621318 0 0.019452022821850816 0.095964951304247925 0 0.019676979680249087 0.094731858086306978 0 0.02036514088504747 0.095645778642621318 0 0.019452022821850816 0.095964951304247925 0 0.022209038031173411 0.096523522732263806 0 0.023678246622892234 0.091949239056643539 0 0.021821603337192266 0.094276736828286883 0 0.021962563657250724 0.10386382980831219 0 0.021580428286831637 0.10273504446863828 0 0.021572788085945007 0.10186231099722545 0 0.021351111095579044 0.10273911337625075 0 0.021258235064775366 0.0980736459812072 0 0.021572788085945007 0.10186231099722545 0 0.021296765671517535 0.098366843648707528 0 0.021964227590796789 0.094517812097228621 0 0.021453293592203628 0.10238621708123721 0 0.021351111095579044 0.10273911337625075 0 0.021572788085945007 0.10186231099722545 0 0.021453293592203628 0.10238621708123721 0 0.021572788085945007 0.10186231099722545 0 0.021505620675117569 0.10235807132733832 0 0.021580428286831637 0.10273504446863828 0 0.021572788085945007 0.10186231099722545 0 0.021505620675117569 0.10235807132733832 0 0.02125139585640055 0.10243537694059718 0 0.021505620675117569 0.10235807132733832 0 0.021387229735461907 0.10273310650504072 0 0.02125139585640055 0.10243537694059718 0 0.021116790109020633 0.10275301178349409 0 0.021387229735461907 0.10273310650504072 0 0.02093827953943727 0.10240932242416147 0 0.02125139585640055 0.10243537694059718 0 0.021116790109020633 0.10275301178349409 0 0.021116790109020633 0.10275301178349409 0 0.021157274734756416 0.10317623529558329 0 0.021387229735461907 0.10273310650504072 0 0.021157274734756416 0.10317623529558329 0 0.021387229735461907 0.10273310650504072 0 0.021562806216105741 0.10325315652520127 0 0.021580428286831637 0.10273504446863828 0 0.021387229735461907 0.10273310650504072 0 0.021562806216105741 0.10325315652520127 0 0.021580428286831637 0.10273504446863828 0 0.021505620675117569 0.10235807132733832 0 0.021387229735461907 0.10273310650504072 0 0.021962563657250724 0.10386382980831219 0 0.021580428286831637 0.10273504446863828 0 0.021562806216105741 0.10325315652520127 0 0.021562806216105741 0.10325315652520127 0 0.021321413033182891 0.10361090951013098 0 0.021605363109790131 0.10365678540813074 0 0.021157274734756416 0.10317623529558329 0 0.021562806216105741 0.10325315652520127 0 0.021321413033182891 0.10361090951013098 0 0.021321413033182891 0.10361090951013098 0 0.021231338572202451 0.10410708907070228 0 0.02150985836450061 0.10393211753793646 0 0.021321413033182891 0.10361090951013098 0 0.02150985836450061 0.10393211753793646 0 0.021605363109790131 0.10365678540813074 0 0.021962563657250724 0.10386382980831219 0 0.021562806216105741 0.10325315652520127 0 0.021605363109790131 0.10365678540813074 0 0.021482366291645828 0.10444768611297653 0 0.021962563657250724 0.10386382980831219 0 0.02150985836450061 0.10393211753793646 0 0.021962563657250724 0.10386382980831219 0 0.02150985836450061 0.10393211753793646 0 0.021605363109790131 0.10365678540813074 0 0.020913455511892019 0.10425446272317465 0 0.020634607000420583 0.10376126811171826 0 0.020607748045548761 0.10473753551937896 0 0.020913455511892019 0.10425446272317465 0 0.020936770495415379 0.10358248155155161 0 0.020634607000420583 0.10376126811171826 0 0.021231338572202451 0.10410708907070228 0 0.020913455511892019 0.10425446272317465 0 0.020936770495415379 0.10358248155155161 0 0.021321413033182891 0.10361090951013098 0 0.021231338572202451 0.10410708907070228 0 0.020936770495415379 0.10358248155155161 0 0.021157274734756416 0.10317623529558329 0 0.021321413033182891 0.10361090951013098 0 0.020936770495415379 0.10358248155155161 0 0.020936770495415379 0.10358248155155161 0 0.020793108407787995 0.10305296073973237 0 0.020634607000420583 0.10376126811171826 0 0.020705124454587706 0.10275624823219481 0 0.020793108407787995 0.10305296073973237 0 0.02056758684131002 0.10314668777311391 0 0.021157274734756416 0.10317623529558329 0 0.020936770495415379 0.10358248155155161 0 0.020793108407787995 0.10305296073973237 0 0.021116790109020633 0.10275301178349409 0 0.021157274734756416 0.10317623529558329 0 0.020793108407787995 0.10305296073973237 0 0.02093827953943727 0.10240932242416147 0 0.021116790109020633 0.10275301178349409 0 0.020793108407787995 0.10305296073973237 0 0.020346382651808537 0.10282269609540209 0 0.02056758684131002 0.10314668777311391 0 0.020329606436380345 0.10349248895113919 0 0.02056758684131002 0.10314668777311391 0 0.020329606436380345 0.10349248895113919 0 0.020634607000420583 0.10376126811171826 0 0.020793108407787995 0.10305296073973237 0 0.02056758684131002 0.10314668777311391 0 0.020634607000420583 0.10376126811171826 0 0.01944692005694762 0.10265055564501642 0 0.020157971398166177 0.1021883049644654 0 0.020329606436380345 0.10349248895113919 0 0.018523466027156685 0.095240883903123255 0 0.01822131591114939 0.098224600511905347 0 0.02002644883666305 0.10425943386469319 0 0.019462229761503979 0.10400557044869765 0 0.019879668051204811 0.10508028535297713 0 0.020329606436380345 0.10349248895113919 0 0.02002644883666305 0.10425943386469319 0 0.020338862462746625 0.10455538198263108 0 0.020329606436380345 0.10349248895113919 0 0.02002644883666305 0.10425943386469319 0 0.019462229761503979 0.10400557044869765 0 0.020329606436380345 0.10349248895113919 0 0.020634607000420583 0.10376126811171826 0 0.020338862462746625 0.10455538198263108 0 0.020634607000420583 0.10376126811171826 0 0.020607748045548761 0.10473753551937896 0 0.020338862462746625 0.10455538198263108 0 0.017825520082482161 0.10231014714303469 0 0.018721274276393331 0.10300776304856839 0 0.0181671560816845 0.10407497225286159 0 0.027212897381785346 0.095268109672034668 0 0.027161864211878533 0.099700341350794974 0 0.018721274276393331 0.10300776304856839 0 0.019462229761503979 0.10400557044869765 0 0.0181671560816845 0.10407497225286159 0 0.01944692005694762 0.10265055564501642 0 0.020329606436380345 0.10349248895113919 0 0.019462229761503979 0.10400557044869765 0 0.01944692005694762 0.10265055564501642 0 0.018721274276393331 0.10300776304856839 0 0.019462229761503979 0.10400557044869765 0 0.019462229761503979 0.10400557044869765 0 0.0181671560816845 0.10407497225286159 0 0.019235286242556632 0.10505513011450411 0 0.018745499477046422 0.10568049989407513 0 0.019235286242556632 0.10505513011450411 0 0.019742583307315698 0.10626899757221467 0 0.027161864211878533 0.099700341350794974 0 0.027036718525828465 0.10290834459383709 0 0.0181671560816845 0.10407497225286159 0 0.018745499477046422 0.10568049989407513 0 0.019235286242556632 0.10505513011450411 0 0.019462229761503979 0.10400557044869765 0 0.019235286242556632 0.10505513011450411 0 0.019879668051204811 0.10508028535297713 0 0.019235286242556632 0.10505513011450411 0 0.019742583307315698 0.10626899757221467 0 0.019879668051204811 0.10508028535297713 0 0.018745499477046422 0.10568049989407513 0 0.019742583307315698 0.10626899757221467 0 0.01990637788044991 0.10698730791888844 0 0.027036718525828465 0.10290834459383709 0 0.02677528156076479 0.10486615350720992 0 0.020233997243431487 0.1052909065907779 0 0.020607748045548761 0.10473753551937896 0 0.020431162304709465 0.10557365320071882 0 0.020233997243431487 0.1052909065907779 0 0.020607748045548761 0.10473753551937896 0 0.020338862462746625 0.10455538198263108 0 0.020233997243431487 0.1052909065907779 0 0.020338862462746625 0.10455538198263108 0 0.019879668051204811 0.10508028535297713 0 0.02002644883666305 0.10425943386469319 0 0.020338862462746625 0.10455538198263108 0 0.019879668051204811 0.10508028535297713 0 0.020233997243431487 0.1052909065907779 0 0.019879668051204811 0.10508028535297713 0 0.02001628842100377 0.10593253798087027 0 0.019742583307315698 0.10626899757221467 0 0.019879668051204811 0.10508028535297713 0 0.02001628842100377 0.10593253798087027 0 0.019742583307315698 0.10626899757221467 0 0.02001628842100377 0.10593253798087027 0 0.019934994346989983 0.10685912866647809 0 0.02001628842100377 0.10593253798087027 0 0.020431162304709465 0.10557365320071882 0 0.020070570051761692 0.10626826153198581 0 0.020233997243431487 0.1052909065907779 0 0.02001628842100377 0.10593253798087027 0 0.020431162304709465 0.10557365320071882 0 0.020431162304709465 0.10557365320071882 0 0.020384213304969492 0.10614397685433223 0 0.020070570051761692 0.10626826153198581 0 0.020384213304969492 0.10614397685433223 0 0.019867784052819994 0.10666199021321161 0 0.020070570051761692 0.10626826153198581 0 0.02001628842100377 0.10593253798087027 0 0.020070570051761692 0.10626826153198581 0 0.019934994346989983 0.10685912866647809 0 0.019867784052819994 0.10666199021321161 0 0.020070570051761692 0.10626826153198581 0 0.019934994346989983 0.10685912866647809 0 0.019867784052819994 0.10666199021321161 0 0.019934994346989983 0.10685912866647809 0 0.019473350219012819 0.10709037834167866 0 0.019934994346989983 0.10685912866647809 0 0.019473350219012819 0.10709037834167866 0 0.020163051147827953 0.10718457781168904 0 0.019473350219012819 0.10709037834167866 0 0.019574667517976787 0.1069754237110354 0 0.018949966274259603 0.10714517866652383 0 0.019867784052819994 0.10666199021321161 0 0.019574667517976787 0.1069754237110354 0 0.020817569394253253 0.10644741585349646 0 0.019574667517976787 0.1069754237110354 0 0.018949966274259603 0.10714517866652383 0 0.0197825869808918 0.10718929292104351 0 0.019867784052819994 0.10666199021321161 0 0.019473350219012819 0.10709037834167866 0 0.019574667517976787 0.1069754237110354 0 0.019742583307315698 0.10626899757221467 0 0.01990637788044991 0.10698730791888844 0 0.020580021275382027 0.10730166697255937 0 0.019742583307315698 0.10626899757221467 0 0.019934994346989983 0.10685912866647809 0 0.020580021275382027 0.10730166697255937 0 0.019934994346989983 0.10685912866647809 0 0.020580021275382027 0.10730166697255937 0 0.020163051147827953 0.10718457781168904 0 0.02677528156076479 0.10486615350720992 0 0.02649582652970869 0.10510251345045593 0 0.01990637788044991 0.10698730791888844 0 0.020580021275382027 0.10730166697255937 0 0.022239207730547675 0.10734341185912118 0 0.020580021275382027 0.10730166697255937 0 0.022239207730547675 0.10734341185912118 0 0.021824669875513965 0.10684808152621157 0 0.020580021275382027 0.10730166697255937 0 0.021824669875513965 0.10684808152621157 0 0.020163051147827953 0.10718457781168904 0 0.021824669875513965 0.10684808152621157 0 0.020163051147827953 0.10718457781168904 0 0.019708418221337842 0.10643195467774645 0 0.021824669875513965 0.10684808152621157 0 0.021115567926273313 0.1049987720817014 0 0.019708418221337842 0.10643195467774645 0 0.022239207730547675 0.10734341185912118 0 0.021824669875513965 0.10684808152621157 0 0.026240621074445091 0.1049999668907655 0 0.021824669875513965 0.10684808152621157 0 0.021115567926273313 0.1049987720817014 0 0.026240621074445091 0.1049999668907655 0 0.02649582652970869 0.10510251345045593 0 0.026246622096509763 0.10499877678493974 0 0.018949966274259603 0.10714517866652383 0 0.018928785363937342 0.1069108337294714 0 0.018087681978022383 0.10659467376165209 0 0.018928785363937342 0.1069108337294714 0 0.018016156132283374 0.10633189736168754 0 0.018087681978022383 0.10659467376165209 0 0.016062715765384424 0.10430904007709293 0 0.016768879429905143 0.10151305409295068 0 0.014403752955182465 0.10812688777597645 0 0.012000543215968369 0.10856341646665271 0 0.01287683632745904 0.11119040406475303 0 0.018949966274259603 0.10714517866652383 0 0.018087681978022383 0.10659467376165209 0 0.018782276689392419 0.10729683198533439 0 0.016840969760764143 0.10166740300969172 0 0.016768879429905143 0.10151305409295068 0 0.019473350219012819 0.10709037834167866 0 0.018949966274259603 0.10714517866652383 0 0.018928785363937342 0.1069108337294714 0 0.019473350219012819 0.10709037834167866 0 0.020163051147827953 0.10718457781168904 0 0.018928785363937342 0.1069108337294714 0 0.020163051147827953 0.10718457781168904 0 0.018928785363937342 0.1069108337294714 0 0.019708418221337842 0.10643195467774645 0 0.021115567926273313 0.1049987720817014 0 0.019708418221337842 0.10643195467774645 0 0.015992645101416597 0.10500035338507038 0 0.018016156132283374 0.10633189736168754 0 0.019708418221337842 0.10643195467774645 0 0.015992645101416597 0.10500035338507038 0 0.018928785363937342 0.1069108337294714 0 0.018016156132283374 0.10633189736168754 0 0.019708418221337842 0.10643195467774645 0 0.015986457037124337 0.10499886053490196 0 0.016062715765384424 0.10430904007709293 0 0.015986361442003605 0.10499996922617963 0 0.014403752955182465 0.10812688777597645 0 0.011566850530682746 0.10499990447099324 0 0.018016156132283374 0.10633189736168754 0 0.015992645101416597 0.10500035338507038 0 0.018087681978022383 0.10659467376165209 0 0.014403752955182465 0.10812688777597645 0 0.011566850530682746 0.10499990447099324 0 0.012000543215968369 0.10856341646665271 0 0.011566850530682746 0.10499990447099324 0 0.0093865645029500011 0.10869902751497171 0 0.012000543215968369 0.10856341646665271 0 0.011566850530682746 0.10499990447099324 0 0.0071480862461142675 0.10500004282306527 0 0.0093865645029500011 0.10869902751497171 0 0.0071480862461142675 0.10500004282306527 0 0.0093865645029500011 0.10869902751497171 0 0.006376693369966299 0.10868610815557987 0 0.0093865645029500011 0.10869902751497171 0 0.00764241416138298 0.11336168822127807 0 0.006376693369966299 0.10868610815557987 0 0.0093865645029500011 0.10869902751497171 0 0.01287683632745904 0.11119040406475303 0 0.00764241416138298 0.11336168822127807 0 0.0093865645029500011 0.10869902751497171 0 0.012000543215968369 0.10856341646665271 0 0.01287683632745904 0.11119040406475303 0 0.026646871167556992 0.083924599942010722 0 0.022387600693958589 0.085722912584709904 0 0.025015983544413312 0.087491576594353471 0 0.016768879429905143 0.10151305409295068 0 0.014601995545084033 0.099428233905500304 0 0.019574667517976787 0.1069754237110354 0 0.0197825869808918 0.10718929292104351 0 0.020817569394253253 0.10644741585349646 0 0.016768879429905143 0.10151305409295068 0 0.020607278083625245 0.097920322023517872 0 0.022305015296083398 0.089344755518115423 0 0.022138049979872787 0.088078078012552491 0 0.025015983544413312 0.087491576594353471 0 0.022387600693958589 0.085722912584709904 0 0.022138049979872787 0.088078078012552491 0 0.025015983544413312 0.087491576594353471 0 0.022387600693958589 0.085722912584709904 0 0.022138049979872787 0.088078078012552491 0 0.020522166850813428 0.088129448531374388 0 0.022305015296083398 0.089344755518115423 0 0.020793323390890864 0.089135553293725633 0 0.022138049979872787 0.088078078012552491 0 0.020384213304969492 0.10614397685433223 0 0.019867784052819994 0.10666199021321161 0 0.020817569394253253 0.10644741585349646 0 0.020913394354488576 0.10568281797439481 0 0.020384213304969492 0.10614397685433223 0 0.020817569394253253 0.10644741585349646 0 0.017773203891244916 0.089242006739679039 0 0.018003634202288087 0.087934157825447154 0 0.015437204407977669 0.089037075891330988 0 0.017773203891244916 0.089242006739679039 0 0.018026196645359208 0.087611711099585599 0 0.01930096465289163 0.088734642818556211 0 0.011430753879452311 0.096257695991522355 0 0.010927961782222198 0.097789924926774935 0 0.020793323390890864 0.089135553293725633 0 0.01930096465289163 0.088734642818556211 0 0.020522166850813428 0.088129448531374388 0 0.022387600693958589 0.085722912584709904 0 0.018026196645359208 0.087611711099585599 0 0.020522166850813428 0.088129448531374388 0 0.014601995545084033 0.099428233905500304 0 0.010927961782222198 0.097789924926774935 0 0.018026196645359208 0.087611711099585599 0 0.01930096465289163 0.088734642818556211 0 0.020522166850813428 0.088129448531374388 0 0.020793323390890864 0.089135553293725633 0 0.022138049979872787 0.088078078012552491 0 0.020522166850813428 0.088129448531374388 0 0.00764241416138298 0.11336168822127807 0 0.0026024188618630926 0.11550479644098552 0 0.0034460141333203858 0.1106401425108037 0 0.010927961782222198 0.097789924926774935 0 0.0064266780329552738 0.10347699559354316 0 0.0037444280349151504 0.098587760986159387 0 0.0037625280396467228 0.098450082235664052 0 0.0036503621232172913 0.098506700464373848 0 0.0037625280396467228 0.098450082235664052 0 0.0036856919724391748 0.098403916739978572 0 0.0036503621232172913 0.098506700464373848 0 0.0037625280396467228 0.098450082235664052 0 0.0036856919724391748 0.098403916739978572 0 0.0037834987146850617 0.098319101292070485 0 0.0064266780329552738 0.10347699559354316 0 0.0042764375797254197 0.10454159003139818 0 0.0034460141333203858 0.1106401425108037 0 0.006376693369966299 0.10868610815557987 0 0.0042719453620905816 0.10568090868486731 0 0.00764241416138298 0.11336168822127807 0 0.0034460141333203858 0.1106401425108037 0 0.006376693369966299 0.10868610815557987 0 0.0071480862461142675 0.10500004282306527 0 0.006376693369966299 0.10868610815557987 0 0.0042719453620905816 0.10568090868486731 0 0.0042764375797254197 0.10454159003139818 0 0.004124773958975622 0.1049967590413262 0 0.0071424851492667132 0.10499769182399012 0 0.0042764375797254197 0.10454159003139818 0 0.0071475601344858537 0.10499999827033504 0 0.0039975234021942174 0.10569344644241151 0 0.0041231578536081066 0.10499999519697244 0 0.0036856919724391748 0.098403916739978572 0 0.0037834987146850617 0.098319101292070485 0 0.003648877833530391 0.098328003804985464 0 0.0042764375797254197 0.10454159003139818 0 0.001555166523328504 0.10335006044195585 0 0.0039975032715908465 0.10569297742444107 0 0.0041231110359544075 0.10499999476286528 0 -0.00083994373615119198 0.10674853658609101 0 0.0041231110359544075 0.10499999476286528 0 -0.00083994373615119198 0.10674853658609101 0 -0.0019536962751051969 0.10499998099801015 0 0.001555166523328504 0.10335006044195585 0 -0.0011460827668306412 0.10256098134158805 0 -0.00083994373615119198 0.10674853658609101 0 -0.0019536962751051969 0.10499998099801015 0 -0.0056184162984925486 0.10778641552632502 0 -0.001953775084356416 0.10499999567225843 0 -0.0075834201782179426 0.1049999922745626 0 -0.0065962805060352557 0.10672574305444654 0 -0.0019581324302283183 0.10500161691145318 0 -0.0058650660213295097 0.10645434902774799 0 -0.0019536962751051969 0.10499998099801015 0 -0.0056184162984925486 0.10778641552632502 0 -0.0065373883271494576 0.10669325777064602 0 0.0034849472324223669 0.098324537082304514 0 0.0035711368660859186 0.0984250836504343 0 0.0034565035185603102 0.098465894097662737 0 0.003648877833530391 0.098328003804985464 0 0.0034849472324223669 0.098324537082304514 0 0.0035711368660859186 0.0984250836504343 0 0.0036856919724391748 0.098403916739978572 0 0.003648877833530391 0.098328003804985464 0 0.0035711368660859186 0.0984250836504343 0 0.0036856919724391748 0.098403916739978572 0 0.0035711368660859186 0.0984250836504343 0 0.0036503621232172913 0.098506700464373848 0 -0.0094986257661759006 0.10649998706733067 0 -0.0075834201782179426 0.1049999922745626 0 -0.013213032269862932 0.10499998650526832 0 -0.0094986257661759006 0.10649998706733067 0 -0.011215694017963162 0.10843899638697982 0 -0.013213032269862932 0.10499998650526832 0 -0.0065373883271494576 0.10669325777064602 0 -0.01048473882646269 0.10887319562467006 0 -0.011215694017963162 0.10843899638697982 0 -0.0056184162984925486 0.10778641552632502 0 -0.0065373883271494576 0.10669325777064602 0 -0.01048473882646269 0.10887319562467006 0 -0.0058650660213295097 0.10645434902774799 0 -0.0079853157794836805 0.10724331471965279 0 -0.0094986257661759006 0.10649998706733067 0 -0.0065962805060352557 0.10672574305444654 0 -0.011215694017963162 0.10843899638697982 0 -0.0094986257661759006 0.10649998706733067 0 -0.0075834201782179426 0.1049999922745626 0 -0.0065962805060352557 0.10672574305444654 0 0.0032468628762248263 0.098333244005591083 0 0.00332292731503177 0.0985105843841068 0 0.0034565035185603102 0.098465894097662737 0 -0.0011460827668306412 0.10256098134158805 0 -0.0037667037521316987 0.1015071496499319 0 0.0034849472324223669 0.098324537082304514 0 0.0032468628762248263 0.098333244005591083 0 0.0034565035185603102 0.098465894097662737 0 0.0032468628762248263 0.098333244005591083 0 0.0031889878780405226 0.098582574376202978 0 0.0029710075780510175 0.098380228097254094 0 -0.01048473882646269 0.10887319562467006 0 -0.011215694017963162 0.10843899638697982 0 -0.015322948845320015 0.10993542062815254 0 -0.0037667037521316987 0.1015071496499319 0 -0.0058201578826853912 0.099305168436867111 0 0.0032468628762248263 0.098333244005591083 0 0.0031889878780405226 0.098582574376202978 0 0.00332292731503177 0.0985105843841068 0 0.0031889878780405226 0.098582574376202978 0 0.00332292731503177 0.0985105843841068 0 0.0034140950734088539 0.098618229504263522 0 0.00332292731503177 0.0985105843841068 0 0.0034565035185603102 0.098465894097662737 0 0.0034140950734088539 0.098618229504263522 0 0.0048844411276810452 0.097130541221882735 0 0.0051530168953478244 0.096442839193799187 0 0.0031889878780405226 0.098582574376202978 0 0.0034140950734088539 0.098618229504263522 0 0.0033835356363194945 0.098761385156335479 0 0.0051530168953478244 0.096442839193799187 0 0.0061389747140666324 0.093681078600906229 0 0.0034667835118427112 0.098544086576563369 0 0.0034605767539301006 0.098617317541435656 0 0.0035167683298453246 0.098596063447933174 0 0.008984071695863521 0.081376147793764869 0 0.012189652678031022 0.084920196898147934 0 0.0090701678738073534 0.085997442315447925 0 0.0012768107920037397 0.094748069890540701 0 0.0061389747140666324 0.093681078600906229 0 0.008984071695863521 0.081376147793764869 0 0.0090701678738073534 0.085997442315447925 0 0.005977344290378139 0.084937794040977441 0 0.0035711368660859186 0.0984250836504343 0 0.0036503621232172913 0.098506700464373848 0 0.0035454744536162343 0.098532183079271737 0 0.0035711368660859186 0.0984250836504343 0 0.0034565035185603102 0.098465894097662737 0 0.0035454744536162343 0.098532183079271737 0 0.0034565035185603102 0.098465894097662737 0 0.0034667835118427112 0.098544086576563369 0 0.0035454744536162343 0.098532183079271737 0 0.0035454744536162343 0.098532183079271737 0 0.0035167683298453246 0.098596063447933174 0 0.0036190964789719936 0.098630973268780855 0 0.0034667835118427112 0.098544086576563369 0 0.0035454744536162343 0.098532183079271737 0 0.0035167683298453246 0.098596063447933174 0 0.0036503621232172913 0.098506700464373848 0 0.0035454744536162343 0.098532183079271737 0 0.0036190964789719936 0.098630973268780855 0 0.0037444280349151504 0.098587760986159387 0 0.0036503621232172913 0.098506700464373848 0 0.0036190964789719936 0.098630973268780855 0 0.010927961782222198 0.097789924926774935 0 0.0096413604398572269 0.095076242294433372 0 0.017773203891244916 0.089242006739679039 0 0.015437204407977669 0.089037075891330988 0 0.016637221831823094 0.090490176909554659 0 0.015437204407977669 0.089037075891330988 0 0.015039231750117114 0.090664177989373623 0 0.016637221831823094 0.090490176909554659 0 0.019804392843351403 0.09114568988547303 0 0.016819562018186813 0.091705313540516059 0 0.021103181303256981 0.088938484714092006 0 0.019342565430771379 0.091468382505782778 0 0.016868356699630126 0.090486452227213743 0 0.015039231750117114 0.090664177989373623 0 0.016637221831823094 0.090490176909554659 0 0.015050762855858458 0.092137660865254462 0 0.018141673047527066 0.091689671546414941 0 0.016637221831823094 0.090490176909554659 0 0.015050762855858458 0.092137660865254462 0 0.015050762855858458 0.092137660865254462 0 0.013954603267364156 0.091380983964117382 0 0.012663543518988168 0.092393258158182431 0 0.013954603267364156 0.091380983964117382 0 0.012912003646763183 0.091267612359617473 0 0.012663543518988168 0.092393258158182431 0 0.015039231750117114 0.090664177989373623 0 0.013954603267364156 0.091380983964117382 0 0.013570740412817365 0.090367042324437097 0 0.015039231750117114 0.090664177989373623 0 0.015050762855858458 0.092137660865254462 0 0.013954603267364156 0.091380983964117382 0 0.013954603267364156 0.091380983964117382 0 0.013350912140148477 0.09091912443948473 0 0.012912003646763183 0.091267612359617473 0 0.013954603267364156 0.091380983964117382 0 0.013350912140148477 0.09091912443948473 0 0.013570740412817365 0.090367042324437097 0 0.013350912140148477 0.09091912443948473 0 0.013570740412817365 0.090367042324437097 0 0.01299352155829688 0.090653225237147098 0 0.013570740412817365 0.090367042324437097 0 0.013257549529280257 0.090030881931939366 0 0.01299352155829688 0.090653225237147098 0 0.0035167683298453246 0.098596063447933174 0 0.0036190964789719936 0.098630973268780855 0 0.0035068279572258738 0.09866470153688342 0 0.015437204407977669 0.089037075891330988 0 0.015039231750117114 0.090664177989373623 0 0.013570740412817365 0.090367042324437097 0 0.0096413604398572269 0.095076242294433372 0 0.0077549923648672385 0.093155064174357483 0 0.015437204407977669 0.089037075891330988 0 0.013570740412817365 0.090367042324437097 0 0.013209839571873676 0.089970651606777252 0 0.0078391473178910289 0.09316168638841818 0 0.0077549923648672385 0.093155064174357483 0 0.0034605767539301006 0.098617317541435656 0 0.0035167683298453246 0.098596063447933174 0 0.0035068279572258738 0.09866470153688342 0 0.0065112266868605495 0.092749369432417642 0 0.0069366503342928945 0.093219408858083858 0 0.006347369684551225 0.09347815383884274 0 0.012189652678031022 0.084920196898147934 0 0.011595774710427463 0.087531337769424428 0 0.0090701678738073534 0.085997442315447925 0 0.0061389747140666324 0.093681078600906229 0 0.0077549923648672385 0.093155064174357483 0 0.0061389747140666324 0.093681078600906229 0 0.0085151650824615999 0.091622544615595866 0 0.013257549529280257 0.090030881931939366 0 0.012225317195998902 0.090456441713712948 0 0.01299352155829688 0.090653225237147098 0 0.0077549923648672385 0.093155064174357483 0 0.0085151650824615999 0.091622544615595866 0 0.011595774710427463 0.087531337769424428 0 0.0090701678738073534 0.085997442315447925 0 0.0092842172325029171 0.088551873850989379 0 0.0090701678738073534 0.085997442315447925 0 0.0092842172325029171 0.088551873850989379 0 0.0069958078402459914 0.088594671902831421 0 0.011597142570526908 0.087534148273439014 0 0.0092842172325029171 0.088551873850989379 0 0.010794793952981319 0.091230488280062069 0 0.0092842172325029171 0.088551873850989379 0 0.0088027202588228087 0.090386909307568958 0 0.0069958078402459914 0.088594671902831421 0 0.0085151650824615999 0.091622544615595866 0 0.0091077555842990071 0.09115445361915063 0 0.0092842172325029171 0.088551873850989379 0 0.0088027202588228087 0.090386909307568958 0 0.010794793952981319 0.091230488280062069 0 0.0085151650824615999 0.091622544615595866 0 0.0093409735446592142 0.091969538887275118 0 0.012225317195998902 0.090456441713712948 0 0.012313760900820632 0.09154888166915634 0 0.011484895910766416 0.092116080201935666 0 0.012225317195998902 0.090456441713712948 0 0.012912003646763183 0.091267612359617473 0 0.01299352155829688 0.090653225237147098 0 0.012225317195998902 0.090456441713712948 0 0.012912003646763183 0.091267612359617473 0 0.012313760900820632 0.09154888166915634 0 0.013350912140148477 0.09091912443948473 0 0.012912003646763183 0.091267612359617473 0 0.01299352155829688 0.090653225237147098 0 0.012912003646763183 0.091267612359617473 0 0.012313760900820632 0.09154888166915634 0 0.012663543518988168 0.092393258158182431 0 0.011484895910766416 0.092116080201935666 0 0.010114005254802182 0.094958460912062545 0 0.012118837965124411 0.094162396079267657 0 0.012313760900820632 0.09154888166915634 0 0.012663543518988168 0.092393258158182431 0 0.011484895910766416 0.092116080201935666 0 0.012663543518988168 0.092393258158182431 0 0.011484895910766416 0.092116080201935666 0 0.012118837965124411 0.094162396079267657 0 0.012663543518988168 0.092393258158182431 0 0.012118837965124411 0.094162396079267657 0 0.013645438490495121 0.093979434181415383 0 0.0093409735446592142 0.091969538887275118 0 0.0093769185710945099 0.092903770779200742 0 0.010794793952981319 0.091230488280062069 0 0.0088432181472311803 0.092276886745070244 0 0.010114005254802182 0.094958460912062545 0 0.0088027202588228087 0.090386909307568958 0 0.0088432181472311803 0.092276886745070244 0 0.0072422333527182806 0.091352654060615254 0 0.0088027202588228087 0.090386909307568958 0 0.010794793952981319 0.091230488280062069 0 0.0088432181472311803 0.092276886745070244 0 0.010114005254802182 0.094958460912062545 0 0.0073804019870538935 0.093777443877259073 0 0.008368742498985466 0.097156370013722612 0 0.0088432181472311803 0.092276886745070244 0 0.010114005254802182 0.094958460912062545 0 0.0073804019870538935 0.093777443877259073 0 0.012118837965124411 0.094162396079267657 0 0.013566430524551261 0.095578280037029034 0 0.013645438490495121 0.093979434181415383 0 0.010114005254802182 0.094958460912062545 0 0.012118837965124411 0.094162396079267657 0 0.011483790627185787 0.096635611935305593 0 0.012118837965124411 0.094162396079267657 0 0.013566430524551261 0.095578280037029034 0 0.011483790627185787 0.096635611935305593 0 0.013566430524551261 0.095578280037029034 0 0.015059163101106261 0.094863652034797699 0 0.015146947763951198 0.09640152583463843 0 0.013566430524551261 0.095578280037029034 0 0.013645438490495121 0.093979434181415383 0 0.015059163101106261 0.094863652034797699 0 0.013645438490495121 0.093979434181415383 0 0.015059163101106261 0.094863652034797699 0 0.015270198940027273 0.09310107522685504 0 0.015059163101106261 0.094863652034797699 0 0.016675958936291608 0.094410916859821697 0 0.015270198940027273 0.09310107522685504 0 0.015059163101106261 0.094863652034797699 0 0.016534315301239746 0.095909650880716721 0 0.016675958936291608 0.094410916859821697 0 0.015059163101106261 0.094863652034797699 0 0.016534315301239746 0.095909650880716721 0 0.015146947763951198 0.09640152583463843 0 0.016534315301239746 0.095909650880716721 0 0.018173480633310819 0.095273285301955127 0 0.016675958936291608 0.094410916859821697 0 0.016534315301239746 0.095909650880716721 0 0.018173480633310819 0.095273285301955127 0 0.018024042822251649 0.096486363969052066 0 0.019452022821850816 0.095964951304247925 0 0.018173480633310819 0.095273285301955127 0 0.018024042822251649 0.096486363969052066 0 0.019676979680249087 0.094731858086306978 0 0.019452022821850816 0.095964951304247925 0 0.018173480633310819 0.095273285301955127 0 0.019676979680249087 0.094731858086306978 0 0.018173480633310819 0.095273285301955127 0 0.018137288382730054 0.094098441481908601 0 0.019522594742631173 0.093119455634542672 0 0.019676979680249087 0.094731858086306978 0 0.018137288382730054 0.094098441481908601 0 0.018137288382730054 0.094098441481908601 0 0.016675958936291608 0.094410916859821697 0 0.017573350839158435 0.092752946789922214 0 0.018173480633310819 0.095273285301955127 0 0.018137288382730054 0.094098441481908601 0 0.016675958936291608 0.094410916859821697 0 0.016675958936291608 0.094410916859821697 0 0.017573350839158435 0.092752946789922214 0 0.015270198940027273 0.09310107522685504 0 0.019522594742631173 0.093119455634542672 0 0.018137288382730054 0.094098441481908601 0 0.017573350839158435 0.092752946789922214 0 0.019342565430771379 0.091468382505782778 0 0.019522594742631173 0.093119455634542672 0 0.017573350839158435 0.092752946789922214 0 0.019342565430771379 0.091468382505782778 0 0.016868356699630126 0.090486452227213743 0 0.017573350839158435 0.092752946789922214 0 0.016868356699630126 0.090486452227213743 0 0.017573350839158435 0.092752946789922214 0 0.015270198940027273 0.09310107522685504 0 0.016868356699630126 0.090486452227213743 0 0.012663543518988168 0.092393258158182431 0 0.015270198940027273 0.09310107522685504 0 0.016819562018186813 0.091705313540516059 0 0.015193395396524379 0.092135514940524105 0 0.012663543518988168 0.092393258158182431 0 0.013645438490495121 0.093979434181415383 0 0.015270198940027273 0.09310107522685504 0 0.00070516537496899238 0.093265742651240616 0 0.0040240970543779101 0.09072235981382705 0 -0.001085184208587902 0.089519738463495951 0 -0.0025797715551468758 0.093177888227064701 0 -0.001085184208587902 0.089519738463495951 0 -0.005634702753492365 0.092048468485961252 0 -0.0025797715551468758 0.093177888227064701 0 0.00070516537496899238 0.093265742651240616 0 -0.001085184208587902 0.089519738463495951 0 -0.0025797715551468758 0.093177888227064701 0 0.00070516537496899238 0.093265742651240616 0 -0.0024461943554373298 0.096349156592304447 0 0.00070516537496899238 0.093265742651240616 0 0.0010589497676185844 0.096134025238859472 0 -0.0024461943554373298 0.096349156592304447 0 0.004888300902548097 0.094393864373198855 0 0.0042812428989299602 0.09109615420781822 0 0.00070516537496899238 0.093265742651240616 0 0.0048514004617498489 0.094609904453635374 0 0.0040240970543779101 0.09072235981382705 0 0.00070516537496899238 0.093265742651240616 0 0.0048514004617498489 0.094609904453635374 0 0.0010589497676185844 0.096134025238859472 0 0.0052814107518698774 0.095368163247460599 0 0.0073804019870538935 0.093777443877259073 0 0.008368742498985466 0.097156370013722612 0 0.0052814107518698774 0.095368163247460599 0 0.0073804019870538935 0.093777443877259073 0 0.0044985599625449605 0.0914466074052869 0 0.0073804019870538935 0.093777443877259073 0 0.0072422333527182806 0.091352654060615254 0 0.0044985599625449605 0.0914466074052869 0 0.0088432181472311803 0.092276886745070244 0 0.0073804019870538935 0.093777443877259073 0 0.0072422333527182806 0.091352654060615254 0 0.0042812428989299602 0.09109615420781822 0 0.0036835040918450344 0.087823378246126252 0 0.0040240970543779101 0.09072235981382705 0 0.0033246498661308661 0.086993745762380434 0 -0.001085184208587902 0.089519738463495951 0 0.0072422333527182806 0.091352654060615254 0 0.0044985599625449605 0.0914466074052869 0 0.0069958078402459914 0.088594671902831421 0 0.0044985599625449605 0.0914466074052869 0 0.0069958078402459914 0.088594671902831421 0 0.003675073922320176 0.08743478433007619 0 0.0088027202588228087 0.090386909307568958 0 0.0072422333527182806 0.091352654060615254 0 0.0069958078402459914 0.088594671902831421 0 0.0069958078402459914 0.088594671902831421 0 0.003675073922320176 0.08743478433007619 0 0.005977344290378139 0.084937794040977441 0 0.0090701678738073534 0.085997442315447925 0 0.0069958078402459914 0.088594671902831421 0 0.005977344290378139 0.084937794040977441 0 0.0036835040918450344 0.087823378246126252 0 0.0033709234488495466 0.086071259927623697 0 0.003675073922320176 0.08743478433007619 0 0.005977344290378139 0.084937794040977441 0 0.0028110546641836832 0.083305203614165477 0 0.0033246498661308661 0.086993745762380434 0 -0.00011229526334783469 0.086171638591967858 0 0.0028110546641836832 0.083305203614165477 0 0.0033246498661308661 0.086993745762380434 0 -0.00011229526334783469 0.086171638591967858 0 -0.001085184208587902 0.089519738463495951 0 -0.0071585951724950133 0.089370937610391998 0 -0.010703107077002671 0.087098896594840061 0 -0.00011229526334783469 0.086171638591967858 0 -0.001085184208587902 0.089519738463495951 0 -0.0035367102615419446 0.085570327615396929 0 -0.00011229526334783469 0.086171638591967858 0 -0.0011671566343798481 0.082857904028084128 0 -0.0035367102615419446 0.085570327615396929 0 -0.0011671566343798481 0.082857904028084128 0 -0.0036728358424606275 0.082152060548766975 0 -0.0039657562034822111 0.086008075969365105 0 -0.0073924992130797833 0.08448583590576117 0 -0.010703107077002671 0.087098896594840061 0 -0.00011229526334783469 0.086171638591967858 0 -0.0011671566343798481 0.082857904028084128 0 0.0028110546641836832 0.083305203614165477 0 -0.0011671566343798481 0.082857904028084128 0 0.0028110546641836832 0.083305203614165477 0 0.0014528207952124517 0.078796276331763143 0 -0.015055008783330673 0.095374532364843487 0 -0.0096713119251432313 0.096729143791673744 0 -0.0011671566343798481 0.082857904028084128 0 -0.0028375256323527266 0.079700918576536356 0 0.0014528207952124517 0.078796276331763143 0 -0.0011671566343798481 0.082857904028084128 0 -0.0036728358424606275 0.082152060548766975 0 -0.0028375256323527266 0.079700918576536356 0 0.008984071695863521 0.081376147793764869 0 0.005977344290378139 0.084937794040977441 0 0.0056897575380630006 0.081659048237290963 0 0.005977344290378139 0.084937794040977441 0 0.0028110546641836832 0.083305203614165477 0 0.0056897575380630006 0.081659048237290963 0 0.0028110546641836832 0.083305203614165477 0 0.0056897575380630006 0.081659048237290963 0 0.0014528207952124517 0.078796276331763143 0 0.0056897575380630006 0.081659048237290963 0 0.0057446768937215948 0.077853881152784035 0 0.0014528207952124517 0.078796276331763143 0 0.0012768107920037397 0.094748069890540701 0 -0.0058201578826853912 0.099305168436867111 0 0.008984071695863521 0.081376147793764869 0 0.0056897575380630006 0.081659048237290963 0 0.0057446768937215948 0.077853881152784035 0 -0.011215694017963162 0.10843899638697982 0 -0.015322948845320015 0.10993542062815254 0 -0.015574064747861712 0.10679255473439489 0 -0.015338156842243671 0.10988168804901045 0 -0.01924766654253993 0.10857466210964677 0 -0.020224500887510797 0.11097365460168691 0 -0.0058201578826853912 0.099305168436867111 0 -0.0096713119251432313 0.096729143791673744 0 -0.0058201578826853912 0.099305168436867111 0 -0.0096374969156825391 0.10055856796008587 0 -0.018842699042203787 0.1049999609856752 0 -0.019272405308465659 0.10558867616169487 0 -0.015574064747861712 0.10679255473439489 0 -0.015338156842243671 0.10988168804901045 0 -0.01924766654253993 0.10857466210964677 0 -0.019272405308465659 0.10558867616169487 0 -0.015322948845320015 0.10993542062815254 0 -0.019272405308465659 0.10558867616169487 0 -0.015574064747861712 0.10679255473439489 0 -0.018842699042203787 0.1049999609856752 0 -0.013213032269862932 0.10499998650526832 0 -0.015574064747861712 0.10679255473439489 0 -0.011215694017963162 0.10843899638697982 0 -0.013213032269862932 0.10499998650526832 0 -0.015574064747861712 0.10679255473439489 0 -0.025122344760980336 0.11204619433918589 0 -0.022162026547645215 0.10785508503853891 0 -0.025851200816465841 0.10820755909541746 0 -0.025122344760980336 0.11204619433918589 0 -0.020224500887510797 0.11097365460168691 0 -0.022162026547645215 0.10785508503853891 0 -0.01924766654253993 0.10857466210964677 0 -0.020224500887510797 0.11097365460168691 0 -0.022162026547645215 0.10785508503853891 0 -0.018842699042203787 0.1049999609856752 0 -0.019272405308465659 0.10558867616169487 0 -0.024472336113178665 0.10499997121040118 0 -0.019272405308465659 0.10558867616169487 0 -0.022162026547645215 0.10785508503853891 0 -0.024472336113178665 0.10499997121040118 0 -0.01924766654253993 0.10857466210964677 0 -0.019272405308465659 0.10558867616169487 0 -0.022162026547645215 0.10785508503853891 0 -0.022162026547645215 0.10785508503853891 0 -0.024472336113178665 0.10499997121040118 0 -0.025851200816465841 0.10820755909541746 0 -0.024472336113178665 0.10499997121040118 0 -0.025851200816465841 0.10820755909541746 0 -0.030102030587648234 0.10499994193668542 0 -0.025851200816465841 0.10820755909541746 0 -0.02895931308262616 0.10904401595226242 0 -0.030102030587648234 0.10499994193668542 0 -0.025122344760980336 0.11204619433918589 0 -0.025851200816465841 0.10820755909541746 0 -0.02895931308262616 0.10904401595226242 0 -0.025122344760980336 0.11204619433918589 0 -0.02895931308262616 0.10904401595226242 0 -0.030019161691315879 0.11311803870163493 0 -0.033146830663753096 0.10816960740221455 0 -0.035072203911544017 0.11113974843651317 0 -0.030212261567116594 0.11290346918786309 0 -0.023406772052880099 0.10122190210213287 0 -0.022880661780405022 0.094193860838297089 0 -0.02895931308262616 0.10904401595226242 0 -0.033146830663753096 0.10816960740221455 0 -0.030019161691315879 0.11311803870163493 0 -0.02895931308262616 0.10904401595226242 0 -0.030102030587648234 0.10499994193668542 0 -0.033146830663753096 0.10816960740221455 0 -0.033146830663753096 0.10816960740221455 0 -0.035731643607751232 0.10499997517384339 0 -0.037596053445547159 0.10709301285422744 0 -0.030102030587648234 0.10499994193668542 0 -0.033146830663753096 0.10816960740221455 0 -0.035731643607751232 0.10499997517384339 0 -0.033146830663753096 0.10816960740221455 0 -0.037596053445547159 0.10709301285422744 0 -0.037567447987651374 0.10940167815348983 0 -0.035731643607751232 0.10499997517384339 0 -0.037596053445547159 0.10709301285422744 0 -0.041361258621585288 0.10499995297810644 0 -0.037596053445547159 0.10709301285422744 0 -0.037567447987651374 0.10940167815348983 0 -0.040228769121443228 0.10788284598743478 0 -0.041199631562362879 0.10651917379974608 0 -0.041975925477022766 0.10631375331651087 0 -0.037567447987651374 0.10940167815348983 0 -0.039213645375833862 0.11193291448491657 0 -0.0406752658601068 0.110559955742627 0 -0.037567447987651374 0.10940167815348983 0 -0.03669596120921706 0.11126816495313975 0 -0.035072203911544017 0.11113974843651317 0 -0.037567447987651374 0.10940167815348983 0 -0.03669596120921706 0.11126816495313975 0 -0.037980326485490358 0.11200577058725264 0 -0.037567447987651374 0.10940167815348983 0 -0.039213645375833862 0.11193291448491657 0 -0.037980326485490358 0.11200577058725264 0 -0.033146830663753096 0.10816960740221455 0 -0.037567447987651374 0.10940167815348983 0 -0.035072203911544017 0.11113974843651317 0 -0.030980956774286309 0.095579663719592187 0 -0.03789331548939881 0.096899871089145453 0 -0.035072203911544017 0.11113974843651317 0 -0.033422215467033188 0.11362887072396891 0 -0.030212261567116594 0.11290346918786309 0 -0.033422215467033188 0.11362887072396891 0 -0.036156849989032847 0.11252459762188415 0 -0.036641910404517926 0.11434522656822059 0 -0.03669596120921706 0.11126816495313975 0 -0.035072203911544017 0.11113974843651317 0 -0.036156849989032847 0.11252459762188415 0 -0.035072203911544017 0.11113974843651317 0 -0.033422215467033188 0.11362887072396891 0 -0.036156849989032847 0.11252459762188415 0 -0.039231300942501865 0.11193543629173593 0 -0.037980326485490358 0.11200577058725264 0 -0.036641910404517926 0.11434522656822059 0 -0.040327799580827377 0.10482925774942416 0 -0.040197632648738449 0.10494263853558174 0 -0.03669596120921706 0.11126816495313975 0 -0.037980326485490358 0.11200577058725264 0 -0.036156849989032847 0.11252459762188415 0 -0.037980326485490358 0.11200577058725264 0 -0.036156849989032847 0.11252459762188415 0 -0.036641910404517926 0.11434522656822059 0 -0.040327799580827377 0.10482925774942416 0 -0.03789331548939881 0.096899871089145453 0 -0.035329017000562637 0.076795020775918155 0 -0.037544997056484938 0.080249444785839619 0 -0.042167684771716833 0.078112717483621863 0 -0.035329017000562637 0.076795020775918155 0 -0.037544997056484938 0.080249444785839619 0 -0.031992656181226202 0.080061113431034073 0 -0.031286228692419538 0.076328515443813666 0 -0.031992656181226202 0.080061113431034073 0 -0.028983909136763759 0.079032841486429348 0 -0.031286228692419538 0.076328515443813666 0 -0.035069804097705999 0.077196122529749597 0 -0.031992656181226202 0.080061113431034073 0 -0.03789331548939881 0.096899871089145453 0 -0.03900338994582643 0.09323612481680478 0 -0.031992656181226202 0.080061113431034073 0 -0.028983909136763759 0.079032841486429348 0 -0.030921058991768769 0.0825378497998559 0 -0.028983909136763759 0.079032841486429348 0 -0.027258527804267976 0.081297034367036461 0 -0.030921058991768769 0.0825378497998559 0 -0.028983909136763759 0.079032841486429348 0 -0.025245389196784929 0.078892706548303382 0 -0.027410171426341862 0.07546648426712331 0 -0.028983909136763759 0.079032841486429348 0 -0.025245389196784929 0.078892706548303382 0 -0.027258527804267976 0.081297034367036461 0 -0.0036728358424606275 0.082152060548766975 0 -0.0056262006770583239 0.083321549243511511 0 -0.0039657562034822111 0.086008075969365105 0 -0.025245389196784929 0.078892706548303382 0 -0.023056795838993421 0.082376827181672177 0 -0.027258527804267976 0.081297034367036461 0 -0.017577242928315428 0.088172528503327546 0 -0.010703107077002671 0.087098896594840061 0 -0.0036728358424606275 0.082152060548766975 0 -0.0056262006770583239 0.083321549243511511 0 -0.0072952757999942188 0.080662724295493149 0 -0.015055008783330673 0.095374532364843487 0 -0.022880661780405022 0.094193860838297089 0 -0.0036728358424606275 0.082152060548766975 0 -0.0028375256323527266 0.079700918576536356 0 -0.0072952757999942188 0.080662724295493149 0 -0.017577242928315428 0.088172528503327546 0 -0.022880661780405022 0.094193860838297089 0 -0.030980956774286309 0.095579663719592187 0 -0.022880661780405022 0.094193860838297089 0 -0.031286228692419538 0.076328515443813666 0 -0.028983909136763759 0.079032841486429348 0 -0.027410171426341862 0.07546648426712331 0 -0.05105306730924962 0.10670924982360704 0 -0.052990308003023491 0.10667916776623772 0 -0.052982071864460772 0.10599839624846939 0 -0.051930731573223039 0.10738525230693778 0 -0.055511649398300063 0.10673457432091754 0 -0.052982071864460772 0.10599839624846939 0 -0.051289154191355192 0.10591628547388517 0 -0.051930731573223039 0.10738525230693778 0 -0.052982071864460772 0.10599839624846939 0 -0.051708326313985753 0.10499671869823532 0 -0.051289154191355192 0.10591628547388517 0 -0.051685055058560261 0.10500038800932016 0 -0.04872466339358885 0.10613242008822513 0 -0.046991145395878869 0.10499996959979299 0 -0.047773053392612314 0.10831291596326814 0 -0.044111011093006088 0.10776609300934331 0 -0.051688376644582486 0.10499999291966775 0 -0.046991145395878869 0.10499996959979299 0 -0.047773053392612314 0.10831291596326814 0 -0.050579533887324037 0.10705886314898172 0 -0.049594242201639292 0.10748451541987093 0 -0.051930731573223039 0.10738525230693778 0 -0.051289154191355192 0.10591628547388517 0 -0.050579533887324037 0.10705886314898172 0 -0.049445998822208459 0.10749334872630964 0 -0.051289154191355192 0.10591628547388517 0 -0.050579533887324037 0.10705886314898172 0 -0.051930731573223039 0.10738525230693778 0 -0.04872466339358885 0.10613242008822513 0 -0.045410885081470301 0.10660986909148618 0 -0.044111011093006088 0.10776609300934331 0 -0.041251577270218533 0.11045430614967916 0 -0.043947844786871852 0.11159966411662352 0 -0.047773053392612314 0.10831291596326814 0 -0.044111011093006088 0.10776609300934331 0 -0.043947844786871852 0.11159966411662352 0 -0.046990945272084403 0.10500000375574702 0 -0.043938275497991279 0.1078334233111664 0 -0.041361258621585288 0.10499995297810644 0 -0.04698623712235446 0.10500097286740259 0 -0.044026581646107996 0.10632836410476035 0 -0.043938275497991279 0.1078334233111664 0 -0.041361258621585288 0.10499995297810644 0 -0.040228769121443228 0.10788284598743478 0 -0.037596053445547159 0.10709301285422744 0 -0.041361258621585288 0.10499995297810644 0 -0.040228769121443228 0.10788284598743478 0 -0.043938275497991279 0.1078334233111664 0 -0.040228769121443228 0.10788284598743478 0 -0.040889174194582989 0.1106679250657462 0 -0.037567447987651374 0.10940167815348983 0 -0.040228769121443228 0.10788284598743478 0 -0.040889174194582989 0.1106679250657462 0 -0.044026581646107996 0.10632836410476035 0 -0.041975925477022766 0.10631375331651087 0 -0.041975925477022766 0.10631375331651087 0 -0.045410885081470301 0.10660986909148618 0 -0.040327799580827377 0.10482925774942416 0 -0.041975925477022766 0.10631375331651087 0 -0.040439686246678465 0.10585021583831483 0 -0.043125203524363789 0.10698550588205813 0 -0.044679562586717077 0.10563437925730916 0 -0.040439686246678465 0.10585021583831483 0 -0.0378721786479621 0.10823931704297564 0 -0.043112493241626089 0.10943352202278465 0 -0.040439686246678465 0.10585021583831483 0 -0.043125203524363789 0.10698550588205813 0 -0.043112493241626089 0.10943352202278465 0 -0.041658618000028715 0.10540937464357029 0 -0.042221633506757256 0.10488543140297407 0 -0.04326610022632707 0.1053261769439318 0 -0.040327799580827377 0.10482925774942416 0 -0.045410885081470301 0.10660986909148618 0 -0.03789331548939881 0.096899871089145453 0 -0.042737956667217705 0.095672702554689126 0 -0.043112493241626089 0.10943352202278465 0 -0.045547557761362878 0.1082286665485316 0 -0.048406862379870019 0.11067126733382991 0 -0.042737956667217705 0.095672702554689126 0 -0.048828045859741438 0.095892002744616012 0 -0.042167684771716833 0.078112717483621863 0 -0.04929569910779829 0.079507169777134928 0 -0.046389581042063643 0.084709550256422003 0 -0.046769364396878829 0.10731780812685886 0 -0.045547557761362878 0.1082286665485316 0 -0.045012095276354164 0.10667855642118 0 -0.046769364396878829 0.10731780812685886 0 -0.045547557761362878 0.1082286665485316 0 -0.047789297569682705 0.1083837291171303 0 -0.043125203524363789 0.10698550588205813 0 -0.045547557761362878 0.1082286665485316 0 -0.045012095276354164 0.10667855642118 0 -0.043125203524363789 0.10698550588205813 0 -0.043112493241626089 0.10943352202278465 0 -0.045547557761362878 0.1082286665485316 0 -0.043125203524363789 0.10698550588205813 0 -0.045012095276354164 0.10667855642118 0 -0.044687198740942936 0.10562492844877718 0 -0.045233694685796834 0.10669895681704362 0 -0.045410885081470301 0.10660986909148618 0 -0.045012095276354164 0.10667855642118 0 -0.044687198740942936 0.10562492844877718 0 -0.04500210227078464 0.10560630822625597 0 -0.045410885081470301 0.10660986909148618 0 -0.046106221929155429 0.10664639297848906 0 -0.050579533887324037 0.10705886314898172 0 -0.049445998822208459 0.10749334872630964 0 -0.049594242201639292 0.10748451541987093 0 -0.046769364396878829 0.10731780812685886 0 -0.045012095276354164 0.10667855642118 0 -0.04500210227078464 0.10560630822625597 0 -0.046106221929155429 0.10664639297848906 0 -0.050808175445295936 0.1081468918424674 0 -0.048469870746547815 0.1071114934087804 0 -0.052210820266117224 0.10849598322671482 0 -0.052011887568669299 0.10691939870215666 0 -0.046769364396878829 0.10731780812685886 0 -0.04500210227078464 0.10560630822625597 0 -0.050501630658327371 0.10768847340459563 0 -0.046769364396878829 0.10731780812685886 0 -0.047789297569682705 0.1083837291171303 0 -0.050501630658327371 0.10768847340459563 0 -0.046106221929155429 0.10664639297848906 0 -0.05105306730924962 0.10670924982360704 0 -0.045547557761362878 0.1082286665485316 0 -0.047789297569682705 0.1083837291171303 0 -0.048406862379870019 0.11067126733382991 0 -0.047789297569682705 0.1083837291171303 0 -0.048406862379870019 0.11067126733382991 0 -0.050501630658327371 0.10768847340459563 0 -0.048828045859741438 0.095892002744616012 0 -0.055106279352631182 0.09665346210531052 0 -0.048406862379870019 0.11067126733382991 0 -0.050501630658327371 0.10768847340459563 0 -0.053757745494642052 0.11194174497944608 0 -0.052210820266117224 0.10849598322671482 0 -0.052011887568669299 0.10691939870215666 0 -0.055511649398300063 0.10673457432091754 0 -0.052288412173977686 0.085788819977175801 0 -0.053379392844056205 0.090072054564848555 0 -0.057164771355037322 0.087819624186458181 0 -0.052288412173977686 0.085788819977175801 0 -0.049690406693115224 0.088925541241594797 0 -0.053379392844056205 0.090072054564848555 0 -0.052288412173977686 0.085788819977175801 0 -0.05653490993834108 0.08099035617675919 0 -0.057164771355037322 0.087819624186458181 0 -0.04929569910779829 0.079507169777134928 0 -0.052288412173977686 0.085788819977175801 0 -0.05653490993834108 0.08099035617675919 0 -0.04929569910779829 0.079507169777134928 0 -0.052288412173977686 0.085788819977175801 0 -0.046389581042063643 0.084709550256422003 0 -0.052288412173977686 0.085788819977175801 0 -0.049690406693115224 0.088925541241594797 0 -0.046389581042063643 0.084709550256422003 0 -0.049690406693115224 0.088925541241594797 0 -0.046389581042063643 0.084709550256422003 0 -0.04538861310962073 0.089623499633702031 0 -0.046389581042063643 0.084709550256422003 0 -0.039798452863314966 0.085409600675028646 0 -0.04538861310962073 0.089623499633702031 0 -0.042167684771716833 0.078112717483621863 0 -0.046389581042063643 0.084709550256422003 0 -0.039798452863314966 0.085409600675028646 0 -0.037544997056484938 0.080249444785839619 0 -0.042167684771716833 0.078112717483621863 0 -0.039798452863314966 0.085409600675028646 0 -0.043992993074876127 0.086109123548564231 0 -0.046350109732182218 0.087181726637785187 0 -0.039798452863314966 0.085409600675028646 0 -0.040957919637064993 0.089951972667300345 0 -0.037971641302059357 0.089785484835671003 0 -0.039798452863314966 0.085409600675028646 0 -0.040957919637064993 0.089951972667300345 0 -0.044686924591403887 0.089203658759240759 0 -0.040957919637064993 0.089951972667300345 0 -0.039699306324390365 0.092278084664000365 0 -0.037971641302059357 0.089785484835671003 0 -0.040957919637064993 0.089951972667300345 0 -0.039699306324390365 0.092278084664000365 0 -0.043237293062551377 0.092023267367315489 0 -0.036437484506873473 0.090317123153778767 0 -0.029419949179749716 0.092470433800148369 0 -0.033844540727723256 0.09155727861087426 0 -0.033703734568120258 0.09158612625829439 0 -0.033813681733758164 0.091669375583274038 0 -0.033844540727723256 0.09155727861087426 0 -0.033902119155306699 0.091627913703182906 0 -0.033813681733758164 0.091669375583274038 0 -0.039699306324390365 0.092278084664000365 0 -0.041854644945776849 0.094382988361637318 0 -0.037315466594235104 0.095264078228787977 0 -0.039699306324390365 0.092278084664000365 0 -0.041854644945776849 0.094382988361637318 0 -0.043237293062551377 0.092023267367315489 0 -0.036437484506873473 0.090317123153778767 0 -0.042116678005400338 0.08756243597443629 0 -0.03398093659197126 0.091529406132431143 0 -0.033982937640451065 0.091662884531020547 0 -0.033902119155306699 0.091627913703182906 0 -0.041854644945776849 0.094382988361637318 0 -0.043237293062551377 0.092023267367315489 0 -0.046313704469910587 0.093513023637695383 0 -0.033844540727723256 0.09155727861087426 0 -0.03398093659197126 0.091529406132431143 0 -0.033902119155306699 0.091627913703182906 0 -0.046200801490576836 0.092579271523956952 0 -0.043237293062551377 0.092023267367315489 0 -0.046313704469910587 0.093513023637695383 0 -0.046200801490576836 0.092579271523956952 0 -0.043237293062551377 0.092023267367315489 0 -0.044686924591403887 0.089203658759240759 0 -0.040957919637064993 0.089951972667300345 0 -0.043237293062551377 0.092023267367315489 0 -0.044686924591403887 0.089203658759240759 0 -0.049690406693115224 0.088925541241594797 0 -0.050999708838515706 0.093824014990890214 0 -0.053379392844056205 0.090072054564848555 0 -0.046200801490576836 0.092579271523956952 0 -0.044686924591403887 0.089203658759240759 0 -0.049580122447070066 0.092897698591682482 0 -0.049690406693115224 0.088925541241594797 0 -0.04538861310962073 0.089623499633702031 0 -0.050999708838515706 0.093824014990890214 0 -0.046350109732182218 0.087181726637785187 0 -0.048880609735967244 0.086562237715140072 0 -0.042116678005400338 0.08756243597443629 0 -0.048880609735967244 0.086562237715140072 0 -0.042116678005400338 0.08756243597443629 0 -0.038171646566035097 0.088756043474684465 0 -0.046200801490576836 0.092579271523956952 0 -0.046310029629361128 0.093496672023916899 0 -0.049580122447070066 0.092897698591682482 0 -0.049137454450608471 0.081084944147800195 0 -0.049448626313997851 0.081573630834751887 0 -0.049275336591815537 0.082277850818599119 0 -0.049137454450608471 0.081084944147800195 0 -0.049448626313997851 0.081573630834751887 0 -0.049948143132113709 0.080952006268840818 0 -0.042153287981162503 0.087695189054155714 0 -0.042116678005400338 0.08756243597443629 0 -0.050227388399752153 0.082903578814067805 0 -0.051018677566293635 0.083495316578484441 0 -0.052629289059114792 0.081722269587626781 0 -0.053310674961212501 0.0815862437823619 0 -0.05329437385657651 0.082198644705210364 0 -0.049448626313997851 0.081573630834751887 0 -0.049948143132113709 0.080952006268840818 0 -0.051143594474092544 0.081860052407265488 0 -0.048880609735967244 0.086562237715140072 0 -0.051018677566293635 0.083495316578484441 0 -0.053379392844056205 0.090072054564848555 0 -0.057164771355037322 0.087819624186458181 0 -0.056743543301783196 0.09276115122725595 0 -0.048880609735967244 0.086562237715140072 0 -0.054283283685212229 0.086461990694001206 0 -0.050999708838515706 0.093824014990890214 0 -0.053379392844056205 0.090072054564848555 0 -0.056743543301783196 0.09276115122725595 0 -0.027028359634429462 0.086810597133372303 0 -0.029895403406152026 0.086625698821828204 0 -0.028160083020009045 0.084089949811105694 0 -0.029895403406152026 0.086625698821828204 0 -0.028160083020009045 0.084089949811105694 0 -0.031028095927939092 0.085191577937332286 0 -0.027028359634429462 0.086810597133372303 0 -0.029895403406152026 0.086625698821828204 0 -0.030551875625262393 0.089353630537589032 0 -0.001085184208587902 0.089519738463495951 0 -0.0065929421769231463 0.088381419381702381 0 -0.0037574253695984239 0.085219102141666531 0 -0.027028359634429462 0.086810597133372303 0 -0.023056795838993421 0.082376827181672177 0 -0.028160083020009045 0.084089949811105694 0 -0.023056795838993421 0.082376827181672177 0 -0.027258527804267976 0.081297034367036461 0 -0.028160083020009045 0.084089949811105694 0 -0.015345654504950783 0.088943302989261189 0 -0.010703107077002671 0.087098896594840061 0 -0.028160083020009045 0.084089949811105694 0 -0.030921058991768769 0.0825378497998559 0 -0.031028095927939092 0.085191577937332286 0 -0.027258527804267976 0.081297034367036461 0 -0.028160083020009045 0.084089949811105694 0 -0.030921058991768769 0.0825378497998559 0 -0.030921058991768769 0.0825378497998559 0 -0.035393695301989957 0.083124124494643112 0 -0.033271024728927387 0.085097296380765047 0 -0.031992656181226202 0.080061113431034073 0 -0.030921058991768769 0.0825378497998559 0 -0.035393695301989957 0.083124124494643112 0 -0.030921058991768769 0.0825378497998559 0 -0.031028095927939092 0.085191577937332286 0 -0.033271024728927387 0.085097296380765047 0 -0.037544997056484938 0.080249444785839619 0 -0.031992656181226202 0.080061113431034073 0 -0.035393695301989957 0.083124124494643112 0 -0.037544997056484938 0.080249444785839619 0 -0.039798452863314966 0.085409600675028646 0 -0.035393695301989957 0.083124124494643112 0 -0.039798452863314966 0.085409600675028646 0 -0.035393695301989957 0.083124124494643112 0 -0.03553071861238527 0.087444505089257968 0 -0.039798452863314966 0.085409600675028646 0 -0.03553071861238527 0.087444505089257968 0 -0.037971641302059357 0.089785484835671003 0 -0.035393695301989957 0.083124124494643112 0 -0.03553071861238527 0.087444505089257968 0 -0.033271024728927387 0.085097296380765047 0 -0.029895403406152026 0.086625698821828204 0 -0.031028095927939092 0.085191577937332286 0 -0.032376297731158951 0.087248918265941652 0 -0.031028095927939092 0.085191577937332286 0 -0.033271024728927387 0.085097296380765047 0 -0.032376297731158951 0.087248918265941652 0 -0.03553071861238527 0.087444505089257968 0 -0.033271024728927387 0.085097296380765047 0 -0.032376297731158951 0.087248918265941652 0 -0.03553071861238527 0.087444505089257968 0 -0.032376297731158951 0.087248918265941652 0 -0.03362140449088076 0.089384020161820177 0 -0.032376297731158951 0.087248918265941652 0 -0.03362140449088076 0.089384020161820177 0 -0.030551875625262393 0.089353630537589032 0 -0.029895403406152026 0.086625698821828204 0 -0.032376297731158951 0.087248918265941652 0 -0.030551875625262393 0.089353630537589032 0 -0.031039563614942499 0.09278210879358112 0 -0.030855770400423452 0.092272214402204109 0 -0.03362140449088076 0.089384020161820177 0 -0.033972659214637373 0.092369443784562077 0 -0.035604934033395784 0.090327743113055789 0 -0.03362140449088076 0.089384020161820177 0 -0.033972659214637373 0.092369443784562077 0 -0.030551875625262393 0.089353630537589032 0 -0.033448294074481695 0.092050968674858083 0 -0.030900923818754804 0.091097630172607386 0 -0.030551875625262393 0.089353630537589032 0 -0.037971641302059357 0.089785484835671003 0 -0.035604934033395784 0.090327743113055789 0 -0.036796765896698523 0.092260853675037849 0 -0.03553071861238527 0.087444505089257968 0 -0.037971641302059357 0.089785484835671003 0 -0.035604934033395784 0.090327743113055789 0 -0.03553071861238527 0.087444505089257968 0 -0.03362140449088076 0.089384020161820177 0 -0.035604934033395784 0.090327743113055789 0 -0.033972659214637373 0.092369443784562077 0 -0.035604934033395784 0.090327743113055789 0 -0.036796765896698523 0.092260853675037849 0 -0.039699306324390365 0.092278084664000365 0 -0.037971641302059357 0.089785484835671003 0 -0.036796765896698523 0.092260853675037849 0 -0.039699306324390365 0.092278084664000365 0 -0.036796765896698523 0.092260853675037849 0 -0.037315466594235104 0.095264078228787977 0 -0.031039563614942499 0.09278210879358112 0 -0.029419949179749716 0.092470433800148369 0 -0.033972659214637373 0.092369443784562077 0 -0.036796765896698523 0.092260853675037849 0 -0.037315466594235104 0.095264078228787977 0 -0.033448294074481695 0.092050968674858083 0 -0.03433567045307695 0.094924990469450882 0 -0.036260897697625742 0.094565134213113008 0 -0.02243741020843731 0.093718558104243108 0 -0.029419949179749716 0.092470433800148369 0 -0.026737493751429253 0.093514470903261163 0 -0.026728661787949023 0.093511333383970982 0 -0.026731220765516824 0.093498917080812496 0 -0.019135357244411948 0.093852781842394206 0 -0.021201450059272514 0.093729667818289009 0 -0.02213861545815065 0.095563969016096817 0 -0.023708577169941777 0.095278499970232425 0 -0.02013574254378998 0.093316233116510661 0 -0.02243741020843731 0.093718558104243108 0 -0.021201450059272514 0.093729667818289009 0 -0.00942286047564974 0.091501976664420739 0 -0.012295062384097367 0.094650861505451572 0 -0.010330674570698126 0.094174394698640695 0 -0.011488983387067216 0.094806729007936616 0 -0.010330674570698126 0.094174394698640695 0 -0.006903439005631549 0.095605664390777639 0 -0.019329999454517695 0.091533146642220203 0 -0.02243741020843731 0.093718558104243108 0 -0.033448294074481695 0.092050968674858083 0 -0.030900923818754804 0.091097630172607386 0 -0.03433567045307695 0.094924990469450882 0 -0.00942286047564974 0.091501976664420739 0 -0.010330674570698126 0.094174394698640695 0 -0.0079898262357558144 0.093454058262911616 0 -0.012295062384097367 0.094650861505451572 0 -0.011492476388223077 0.094799870304552641 0 -0.010330674570698126 0.094174394698640695 0 -0.019135357244411948 0.093852781842394206 0 -0.018575910590540652 0.093656719227532673 0 -0.02243741020843731 0.093718558104243108 0 -0.019135357244411948 0.093852781842394206 0 -0.0079898262357558144 0.093454058262911616 0 -0.005634702753492365 0.092048468485961252 0 -0.006903439005631549 0.095605664390777639 0 -0.010330674570698126 0.094174394698640695 0 -0.0079898262357558144 0.093454058262911616 0 -0.006903439005631549 0.095605664390777639 0 -0.019135357244411948 0.093852781842394206 0 -0.0092177173824686334 0.095379165084208795 0 -0.00942286047564974 0.091501976664420739 0 -0.0079898262357558144 0.093454058262911616 0 -0.005634702753492365 0.092048468485961252 0 -0.0065929421769231463 0.088381419381702381 0 -0.00942286047564974 0.091501976664420739 0 -0.005634702753492365 0.092048468485961252 0 -0.027028359634429462 0.086810597133372303 0 -0.030900923818754804 0.091097630172607386 0 -0.030551875625262393 0.089353630537589032 0 -0.015345654504950783 0.088943302989261189 0 -0.019329999454517695 0.091533146642220203 0 -0.001085184208587902 0.089519738463495951 0 -0.0065929421769231463 0.088381419381702381 0 -0.005634702753492365 0.092048468485961252 0 -0.0025797715551468758 0.093177888227064701 0 -0.006903439005631549 0.095605664390777639 0 -0.0024461943554373298 0.096349156592304447 0 -0.0025797715551468758 0.093177888227064701 0 -0.005634702753492365 0.092048468485961252 0 -0.006903439005631549 0.095605664390777639 0 -0.0058725689922989417 0.098160903845204928 0 -0.0073344911110487555 0.095165776368983157 0 -0.0024461943554373298 0.096349156592304447 0 -0.0092177173824686334 0.095379165084208795 0 -0.006011891036054923 0.095895263287261612 0 -0.0058725689922989417 0.098160903845204928 0 -0.005376368048980412 0.10068923851781333 0 -0.0023542076894205967 0.099517032136971217 0 -0.0058725689922989417 0.098160903845204928 0 -0.005376368048980412 0.10068923851781333 0 -0.0086539126062672236 0.099822855129435242 0 -0.0058725689922989417 0.098160903845204928 0 -0.0086539126062672236 0.099822855129435242 0 -0.0091537938691208347 0.097376995166705962 0 -0.0086539126062672236 0.099822855129435242 0 -0.010819757705507502 0.1000446363904926 0 -0.0082151366950865348 0.10208464141054988 0 -0.0086539126062672236 0.099822855129435242 0 -0.0091537938691208347 0.097376995166705962 0 -0.010528189712524451 0.098509802118811801 0 -0.0058725689922989417 0.098160903845204928 0 -0.0091537938691208347 0.097376995166705962 0 -0.0073344911110487555 0.095165776368983157 0 -0.012216144017644688 0.094181948690704273 0 -0.0091537938691208347 0.097376995166705962 0 -0.0073344911110487555 0.095165776368983157 0 -0.012216144017644688 0.094181948690704273 0 -0.0091537938691208347 0.097376995166705962 0 -0.011845629697135381 0.097122427871284028 0 -0.012216144017644688 0.094181948690704273 0 -0.011845629697135381 0.097122427871284028 0 -0.013123705298205704 0.095826323089455864 0 -0.0091537938691208347 0.097376995166705962 0 -0.011845629697135381 0.097122427871284028 0 -0.010528189712524451 0.098509802118811801 0 -0.026728661787949023 0.093511333383970982 0 -0.026731220765516824 0.093498917080812496 0 -0.026723074419661021 0.093480386843960497 0 -0.021201450059272514 0.093729667818289009 0 -0.024048690931033689 0.093405696334815685 0 -0.021201450059272514 0.093729667818289009 0 -0.02055554440036236 0.093674705779013379 0 -0.012216144017644688 0.094181948690704273 0 -0.013123705298205704 0.095826323089455864 0 -0.014134946630106643 0.095213373297787687 0 -0.013123705298205704 0.095826323089455864 0 -0.014134946630106643 0.095213373297787687 0 -0.014174137007364735 0.096833029594569131 0 -0.011845629697135381 0.097122427871284028 0 -0.013123705298205704 0.095826323089455864 0 -0.014174137007364735 0.096833029594569131 0 -0.011845629697135381 0.097122427871284028 0 -0.014174137007364735 0.096833029594569131 0 -0.013845119113899832 0.098318739855990392 0 -0.014174137007364735 0.096833029594569131 0 -0.015080202654731178 0.097954553475784689 0 -0.013845119113899832 0.098318739855990392 0 -0.014174137007364735 0.096833029594569131 0 -0.015080202654731178 0.097954553475784689 0 -0.015873526480921798 0.097075596972933484 0 -0.014134946630106643 0.095213373297787687 0 -0.014174137007364735 0.096833029594569131 0 -0.015873526480921798 0.097075596972933484 0 -0.015080202654731178 0.097954553475784689 0 -0.013845119113899832 0.098318739855990392 0 -0.015421559258720909 0.099303761859073345 0 -0.015080202654731178 0.097954553475784689 0 -0.015421559258720909 0.099303761859073345 0 -0.016590957076879503 0.098208745451718676 0 -0.013845119113899832 0.098318739855990392 0 -0.013222792984108429 0.099818984689589343 0 -0.012078861995400422 0.098686562734708175 0 -0.013845119113899832 0.098318739855990392 0 -0.013222792984108429 0.099818984689589343 0 -0.015421559258720909 0.099303761859073345 0 -0.015421559258720909 0.099303761859073345 0 -0.01451019656239937 0.10086783073667499 0 -0.016296436240607681 0.10126300455883462 0 -0.013222792984108429 0.099818984689589343 0 -0.015421559258720909 0.099303761859073345 0 -0.01451019656239937 0.10086783073667499 0 -0.010528189712524451 0.098509802118811801 0 -0.012078861995400422 0.098686562734708175 0 -0.010819757705507502 0.1000446363904926 0 -0.011845629697135381 0.097122427871284028 0 -0.013845119113899832 0.098318739855990392 0 -0.012078861995400422 0.098686562734708175 0 -0.011845629697135381 0.097122427871284028 0 -0.010528189712524451 0.098509802118811801 0 -0.012078861995400422 0.098686562734708175 0 -0.013222792984108429 0.099818984689589343 0 -0.010819757705507502 0.1000446363904926 0 -0.012657375347693789 0.10169178880047627 0 -0.013222792984108429 0.099818984689589343 0 -0.012078861995400422 0.098686562734708175 0 -0.010819757705507502 0.1000446363904926 0 -0.0086539126062672236 0.099822855129435242 0 -0.010528189712524451 0.098509802118811801 0 -0.010819757705507502 0.1000446363904926 0 -0.010819757705507502 0.1000446363904926 0 -0.012657375347693789 0.10169178880047627 0 -0.010675833083758539 0.10303960541455123 0 -0.010819757705507502 0.1000446363904926 0 -0.010675833083758539 0.10303960541455123 0 -0.0082151366950865348 0.10208464141054988 0 -0.012657375347693789 0.10169178880047627 0 -0.010675833083758539 0.10303960541455123 0 -0.01277528128318592 0.10379217980491584 0 -0.01451019656239937 0.10086783073667499 0 -0.0148945810251185 0.10278139437685607 0 -0.016296436240607681 0.10126300455883462 0 -0.013222792984108429 0.099818984689589343 0 -0.012657375347693789 0.10169178880047627 0 -0.01451019656239937 0.10086783073667499 0 -0.012657375347693789 0.10169178880047627 0 -0.01451019656239937 0.10086783073667499 0 -0.0148945810251185 0.10278139437685607 0 -0.012657375347693789 0.10169178880047627 0 -0.0148945810251185 0.10278139437685607 0 -0.01277528128318592 0.10379217980491584 0 -0.01277528128318592 0.10379217980491584 0 -0.015376776521212443 0.10563146334460599 0 -0.011181630276432576 0.10561542712723188 0 -0.0148945810251185 0.10278139437685607 0 -0.01277528128318592 0.10379217980491584 0 -0.015376776521212443 0.10563146334460599 0 -0.010675833083758539 0.10303960541455123 0 -0.011181630276432576 0.10561542712723188 0 -0.0084187847255041068 0.10498449886564591 0 -0.010675833083758539 0.10303960541455123 0 -0.01277528128318592 0.10379217980491584 0 -0.011181630276432576 0.10561542712723188 0 -0.0084187847255041068 0.10498449886564591 0 -0.0089466987498978412 0.10738806413495804 0 -0.0036880382643214808 0.10663231250063254 0 -0.011181630276432576 0.10561542712723188 0 -0.0084187847255041068 0.10498449886564591 0 -0.0089835602535665339 0.10733251007123752 0 -0.013389859335460738 0.075250272152987491 0 -0.012256314864113374 0.066110987319701289 0 -0.0056166428648303651 0.10347903180322618 0 -0.0036880382643214808 0.10663231250063254 0 -0.0023976743654634597 0.10300235305169017 0 -0.0084187847255041068 0.10498449886564591 0 -0.0056166428648303651 0.10347903180322618 0 -0.0036880382643214808 0.10663231250063254 0 -0.005376368048980412 0.10068923851781333 0 -0.0056166428648303651 0.10347903180322618 0 -0.0023976743654634597 0.10300235305169017 0 -0.005376368048980412 0.10068923851781333 0 -0.0056166428648303651 0.10347903180322618 0 -0.0082151366950865348 0.10208464141054988 0 -0.0084187847255041068 0.10498449886564591 0 -0.0056166428648303651 0.10347903180322618 0 -0.0082151366950865348 0.10208464141054988 0 -0.010675833083758539 0.10303960541455123 0 -0.0084187847255041068 0.10498449886564591 0 -0.0082151366950865348 0.10208464141054988 0 -0.005376368048980412 0.10068923851781333 0 -0.0086539126062672236 0.099822855129435242 0 -0.0082151366950865348 0.10208464141054988 0 -0.050420334937346191 0.083174928113858904 0 -0.049411094541177765 0.083560633334609724 0 -0.0506283621517679 0.084207467385488191 0 -0.050420334937346191 0.083174928113858904 0 -0.0506283621517679 0.084207467385488191 0 -0.051500408879462986 0.083130835593310179 0 -0.049448626313997851 0.081573630834751887 0 -0.050326828978425983 0.082132242584985762 0 -0.051359252997925181 0.081803334786684861 0 -0.050326828978425983 0.082132242584985762 0 -0.051500408879462986 0.083130835593310179 0 -0.051359252997925181 0.081803334786684861 0 -0.050420334937346191 0.083174928113858904 0 -0.050326828978425983 0.082132242584985762 0 -0.051500408879462986 0.083130835593310179 0 -0.050420334937346191 0.083174928113858904 0 -0.050326828978425983 0.082132242584985762 0 -0.049863176625974934 0.082700426213673281 0 -0.049863176625974934 0.082700426213673281 0 -0.049727075763491828 0.0821679371049088 0 -0.049275336591815537 0.082277850818599119 0 -0.050326828978425983 0.082132242584985762 0 -0.049863176625974934 0.082700426213673281 0 -0.049727075763491828 0.0821679371049088 0 -0.049448626313997851 0.081573630834751887 0 -0.050326828978425983 0.082132242584985762 0 -0.049727075763491828 0.0821679371049088 0 -0.049448626313997851 0.081573630834751887 0 -0.049727075763491828 0.0821679371049088 0 -0.049275336591815537 0.082277850818599119 0 -0.033982937640451065 0.091662884531020547 0 -0.033990602740332769 0.091785119943566834 0 -0.033913206915278361 0.091745791395726486 0 -0.049863176625974934 0.082700426213673281 0 -0.049275336591815537 0.082277850818599119 0 -0.049411094541177765 0.083560633334609724 0 -0.038171646566035097 0.088756043474684465 0 -0.033292749629259266 0.09220345973316299 0 -0.050420334937346191 0.083174928113858904 0 -0.049863176625974934 0.082700426213673281 0 -0.049411094541177765 0.083560633334609724 0 -0.022527849149261283 0.099633480271246397 0 -0.021752339415797933 0.099709254911072354 0 -0.021223505788610115 0.10121114873045153 0 -0.021752339415797933 0.099709254911072354 0 -0.01970702987254111 0.10013153600748885 0 -0.021223505788610115 0.10121114873045153 0 -0.021752339415797933 0.099709254911072354 0 -0.01970702987254111 0.10013153600748885 0 -0.020240564706055661 0.098400960844369667 0 -0.022527849149261283 0.099633480271246397 0 -0.021752339415797933 0.099709254911072354 0 -0.020311144912782225 0.098417645635418757 0 -0.01970702987254111 0.10013153600748885 0 -0.020240564706055661 0.098400960844369667 0 -0.01825256660076361 0.098659397709254054 0 -0.027968879274427878 0.093265647262936943 0 -0.028396127114011703 0.093083292993770966 0 -0.033292749629259266 0.09220345973316299 0 -0.028396127114011703 0.093083292993770966 0 -0.033982937640451065 0.091662884531020547 0 -0.033913206915278361 0.091745791395726486 0 -0.033902119155306699 0.091627913703182906 0 -0.033913206915278361 0.091745791395726486 0 -0.033902119155306699 0.091627913703182906 0 -0.033813681733758164 0.091669375583274038 0 -0.028396127114011703 0.093083292993770966 0 -0.024048690931033689 0.093405696334815685 0 -0.028396127114011703 0.093083292993770966 0 -0.029288644516991969 0.092922275641529273 0 -0.014179009441631748 0.095179667741003907 0 -0.017191938706393305 0.096805532939331668 0 -0.015873526480921798 0.097075596972933484 0 -0.026731220765516824 0.093498917080812496 0 -0.026723957612999352 0.093477758748119852 0 -0.026723074419661021 0.093480386843960497 0 -0.02674338179918425 0.093461716035236758 0 -0.026723957612999352 0.093477758748119852 0 -0.026723074419661021 0.093480386843960497 0 -0.029419949179749716 0.092470433800148369 0 -0.029288644516991969 0.092922275641529273 0 -0.017191938706393305 0.096805532939331668 0 -0.015873526480921798 0.097075596972933484 0 -0.016590957076879503 0.098208745451718676 0 -0.015080202654731178 0.097954553475784689 0 -0.015873526480921798 0.097075596972933484 0 -0.016590957076879503 0.098208745451718676 0 -0.015421559258720909 0.099303761859073345 0 -0.016590957076879503 0.098208745451718676 0 -0.017532647071494996 0.099749925964218347 0 -0.020240564706055661 0.098400960844369667 0 -0.017191938706393305 0.096805532939331668 0 -0.01825256660076361 0.098659397709254054 0 -0.016590957076879503 0.098208745451718676 0 -0.01825256660076361 0.098659397709254054 0 -0.017532647071494996 0.099749925964218347 0 -0.017191938706393305 0.096805532939331668 0 -0.016590957076879503 0.098208745451718676 0 -0.01825256660076361 0.098659397709254054 0 -0.01970702987254111 0.10013153600748885 0 -0.01825256660076361 0.098659397709254054 0 -0.017532647071494996 0.099749925964218347 0 -0.01970702987254111 0.10013153600748885 0 -0.017532647071494996 0.099749925964218347 0 -0.018033062098032127 0.10134307767319038 0 -0.015421559258720909 0.099303761859073345 0 -0.017532647071494996 0.099749925964218347 0 -0.016296436240607681 0.10126300455883462 0 -0.016296436240607681 0.10126300455883462 0 -0.018033062098032127 0.10134307767319038 0 -0.017382858662973351 0.10293847309876679 0 -0.017532647071494996 0.099749925964218347 0 -0.016296436240607681 0.10126300455883462 0 -0.018033062098032127 0.10134307767319038 0 -0.018033062098032127 0.10134307767319038 0 -0.017382858662973351 0.10293847309876679 0 -0.019623730668585391 0.10225611669013407 0 -0.0148945810251185 0.10278139437685607 0 -0.016296436240607681 0.10126300455883462 0 -0.017382858662973351 0.10293847309876679 0 -0.015376776521212443 0.10563146334460599 0 -0.017382858662973351 0.10293847309876679 0 -0.019926725561742201 0.10477783132413686 0 -0.0148945810251185 0.10278139437685607 0 -0.015376776521212443 0.10563146334460599 0 -0.017382858662973351 0.10293847309876679 0 -0.019926725561742201 0.10477783132413686 0 -0.023121213695453689 0.1039674780476442 0 -0.021853039697415352 0.10704717911770205 0 -0.019926725561742201 0.10477783132413686 0 -0.020998824583287147 0.10312679218133512 0 -0.023121213695453689 0.1039674780476442 0 -0.019926725561742201 0.10477783132413686 0 -0.020998824583287147 0.10312679218133512 0 -0.019623730668585391 0.10225611669013407 0 -0.020998824583287147 0.10312679218133512 0 -0.019623730668585391 0.10225611669013407 0 -0.021223505788610115 0.10121114873045153 0 -0.017382858662973351 0.10293847309876679 0 -0.019926725561742201 0.10477783132413686 0 -0.019623730668585391 0.10225611669013407 0 -0.01970702987254111 0.10013153600748885 0 -0.018033062098032127 0.10134307767319038 0 -0.019623730668585391 0.10225611669013407 0 -0.01970702987254111 0.10013153600748885 0 -0.019623730668585391 0.10225611669013407 0 -0.021223505788610115 0.10121114873045153 0 -0.022527849149261283 0.099633480271246397 0 -0.021223505788610115 0.10121114873045153 0 -0.023121213695453689 0.1039674780476442 0 -0.033292749629259266 0.09220345973316299 0 -0.029507253704514437 0.099560173197239754 0 -0.021912258692065055 0.090206901966463915 0 -0.022940249343711989 0.099198070264211929 0 -0.028775091868322826 0.093954631255737123 0 -0.033292749629259266 0.09220345973316299 0 -0.039670096956713745 0.08688483052316251 0 -0.020998824583287147 0.10312679218133512 0 -0.021223505788610115 0.10121114873045153 0 -0.023121213695453689 0.1039674780476442 0 -0.029507253704514437 0.099560173197239754 0 -0.028603238916274292 0.10303728303951473 0 -0.022940249343711989 0.099198070264211929 0 -0.029328101902561719 0.099207885967373663 0 -0.026884253429063542 0.10427949370821127 0 -0.029328101902561719 0.099207885967373663 0 -0.031272396292528322 0.10411693724407632 0 -0.026884253429063542 0.10427949370821127 0 -0.022940249343711989 0.099198070264211929 0 -0.029328101902561719 0.099207885967373663 0 -0.028775091868322826 0.093954631255737123 0 -0.029328101902561719 0.099207885967373663 0 -0.028775091868322826 0.093954631255737123 0 -0.035701119608289526 0.097695603407800355 0 -0.0384216792316305 0.051491107261018201 0 -0.03894778221609034 0.050724783632439256 0 -0.047848608101868501 0.053101580232630251 0 -0.049995622386195704 0.014976557467473324 0 -0.050395882552834496 0.013846388837150071 0 -0.049705453516766279 0.014353831344455534 0 -0.039129876279927291 0.051829348009100183 0 -0.050163925062346494 0.042700864933432066 0 -0.049995622386195704 0.014976557467473324 0 -0.049705453516766279 0.014353831344455534 0 -0.048999580499675309 0.014902099444658765 0 -0.054892496050810445 0.032451343045508327 0 -0.050163925062346494 0.042700864933432066 0 -0.039129876279927291 0.051829348009100183 0 -0.037742424863864664 0.054850828269967213 0 -0.026731517550751854 0.11027222839083169 0 -0.026884253429063542 0.10427949370821127 0 -0.024014935436422347 0.1082840460454982 0 -0.026731517550751854 0.11027222839083169 0 -0.031272396292528322 0.10411693724407632 0 -0.026884253429063542 0.10427949370821127 0 -0.037742424863864664 0.054850828269967213 0 -0.037995101212884325 0.073694438620268421 0 -0.043262246422011721 0.063210632629293939 0 -0.043864119696415613 0.062386867498985019 0 -0.044609800316270515 0.063203265819774118 0 -0.023121213695453689 0.1039674780476442 0 -0.024014935436422347 0.1082840460454982 0 -0.021853039697415352 0.10704717911770205 0 -0.022940249343711989 0.099198070264211929 0 -0.026884253429063542 0.10427949370821127 0 -0.024014935436422347 0.1082840460454982 0 -0.024014935436422347 0.1082840460454982 0 -0.021853039697415352 0.10704717911770205 0 -0.023667513085564529 0.10983875498808073 0 -0.028651189863357192 0.047242545063531295 0 -0.028217101391533481 0.047166937304589152 0 -0.027926479448925082 0.048214771578463787 0 -0.028217101391533481 0.047166937304589152 0 -0.027507076599027833 0.047706085234936767 0 -0.027926479448925082 0.048214771578463787 0 -0.034157442154792654 0.055028322817553606 0 -0.030371607235308323 0.053229036943800392 0 -0.039129876279927291 0.051829348009100183 0 -0.039169225939273015 0.036255704206579767 0 -0.026731517550751854 0.11027222839083169 0 -0.024014935436422347 0.1082840460454982 0 -0.023667513085564529 0.10983875498808073 0 -0.042825713392229514 0.056816406894424097 0 -0.044083571736625818 0.05498145326145143 0 -0.033343302746474242 0.055200808007166896 0 -0.037742424863864664 0.054850828269967213 0 -0.034157442154792654 0.055028322817553606 0 -0.039129876279927291 0.051829348009100183 0 -0.034157442154792654 0.055028322817553606 0 -0.027501901978700474 0.047324273120730675 0 -0.026909551955828073 0.046992263723105707 0 -0.026527309555035725 0.047246664671577024 0 -0.028535513612348691 0.047363467220271648 0 -0.027501901978700474 0.047324273120730675 0 -0.026909551955828073 0.046992263723105707 0 -0.034157442154792654 0.055028322817553606 0 -0.025537676808962448 0.065325498512019201 0 -0.030371607235308323 0.053229036943800392 0 -0.029269390376168131 0.052666389485675341 0 -0.026968574469942035 0.04764543449084737 0 -0.027359490505591357 0.047186034107553593 0 -0.026527309555035725 0.047246664671577024 0 -0.028217101391533481 0.047166937304589152 0 -0.027507076599027833 0.047706085234936767 0 -0.027359490505591357 0.047186034107553593 0 -0.027507076599027833 0.047706085234936767 0 -0.026968574469942035 0.04764543449084737 0 -0.027359490505591357 0.047186034107553593 0 -0.019926725561742201 0.10477783132413686 0 -0.021853039697415352 0.10704717911770205 0 -0.018572242947551963 0.10883883592785802 0 -0.021853039697415352 0.10704717911770205 0 -0.023667513085564529 0.10983875498808073 0 -0.018572242947551963 0.10883883592785802 0 -0.026909551955828073 0.046992263723105707 0 -0.026527309555035725 0.047246664671577024 0 -0.025538715379182987 0.046791524454943507 0 -0.015376776521212443 0.10563146334460599 0 -0.018572242947551963 0.10883883592785802 0 -0.013769409270534308 0.1080952958164305 0 -0.015376776521212443 0.10563146334460599 0 -0.019926725561742201 0.10477783132413686 0 -0.018572242947551963 0.10883883592785802 0 -0.025537676808962448 0.065325498512019201 0 -0.020126442614643098 0.068541807370952362 0 -0.026968574469942035 0.04764543449084737 0 -0.026527309555035725 0.047246664671577024 0 -0.026401963252624939 0.047846305816274144 0 -0.026527309555035725 0.047246664671577024 0 -0.026401963252624939 0.047846305816274144 0 -0.025866656862810783 0.047549021249435622 0 -0.026401963252624939 0.047846305816274144 0 -0.026339157997797836 0.048583437948073654 0 -0.025667532038218751 0.048152104341804128 0 -0.026968574469942035 0.04764543449084737 0 -0.026401963252624939 0.047846305816274144 0 -0.027055346127244043 0.048180308139444294 0 -0.026401963252624939 0.047846305816274144 0 -0.026339157997797836 0.048583437948073654 0 -0.027055346127244043 0.048180308139444294 0 -0.034823032623934977 0.029622129488622827 0 -0.026401174056183942 0.032198577331204986 0 -0.026339157997797836 0.048583437948073654 0 -0.027224381916178979 0.049153604596782488 0 -0.0260842562528073 0.049378877331843707 0 -0.026339157997797836 0.048583437948073654 0 -0.027224381916178979 0.049153604596782488 0 -0.027055346127244043 0.048180308139444294 0 -0.034823032623934977 0.029622129488622827 0 -0.039169225939273015 0.036255704206579767 0 -0.048663150489767895 0.015161829088739276 0 -0.049636626229427036 0.014789007412137322 0 -0.050381729465975036 0.013853162645681934 0 -0.048663150489767895 0.015161829088739276 0 -0.04927852949879407 0.015110650131362847 0 -0.049636626229427036 0.014789007412137322 0 -0.048431607785173005 0.015205966052793821 0 -0.04927852949879407 0.015110650131362847 0 -0.048687699943156131 0.016466813748701816 0 -0.034823032623934977 0.029622129488622827 0 -0.035801665872035954 0.029229188535367278 0 -0.027224381916178979 0.049153604596782488 0 -0.027055346127244043 0.048180308139444294 0 -0.027926479448925082 0.048214771578463787 0 -0.027507076599027833 0.047706085234936767 0 -0.027055346127244043 0.048180308139444294 0 -0.027926479448925082 0.048214771578463787 0 -0.027507076599027833 0.047706085234936767 0 -0.026968574469942035 0.04764543449084737 0 -0.027055346127244043 0.048180308139444294 0 -0.049995622386195704 0.014976557467473324 0 -0.050381729465975036 0.013853162645681934 0 -0.050395882552834496 0.013846388837150071 0 -0.050395882552834496 0.013846388837150071 0 -0.050624722816431232 0.014434855889165828 0 -0.051248061081131752 0.014104841459185374 0 -0.050395882552834496 0.013846388837150071 0 -0.050326816800299934 0.014226953378611499 0 -0.050624722816431232 0.014434855889165828 0 -0.050381729465975036 0.013853162645681934 0 -0.050326816800299934 0.014226953378611499 0 -0.050092515079323961 0.01448237153491771 0 -0.049636626229427036 0.014789007412137322 0 -0.050381729465975036 0.013853162645681934 0 -0.050092515079323961 0.01448237153491771 0 -0.050381729465975036 0.013853162645681934 0 -0.050395882552834496 0.013846388837150071 0 -0.050326816800299934 0.014226953378611499 0 -0.050326816800299934 0.014226953378611499 0 -0.050092515079323961 0.01448237153491771 0 -0.050314864175968456 0.014742151432734461 0 -0.050314864175968456 0.014742151432734461 0 -0.050019383169318164 0.015068675094919607 0 -0.05074996088518962 0.015057846534126571 0 -0.050092515079323961 0.01448237153491771 0 -0.050314864175968456 0.014742151432734461 0 -0.050019383169318164 0.015068675094919607 0 -0.049636626229427036 0.014789007412137322 0 -0.050092515079323961 0.01448237153491771 0 -0.050019383169318164 0.015068675094919607 0 -0.04927852949879407 0.015110650131362847 0 -0.049636626229427036 0.014789007412137322 0 -0.050019383169318164 0.015068675094919607 0 -0.050019383169318164 0.015068675094919607 0 -0.050522747832976077 0.01578508457320375 0 -0.049748985384390931 0.015840907497479944 0 -0.04927852949879407 0.015110650131362847 0 -0.050019383169318164 0.015068675094919607 0 -0.049748985384390931 0.015840907497479944 0 -0.051285329831480542 0.015687888875073743 0 -0.05074996088518962 0.015057846534126571 0 -0.050522747832976077 0.01578508457320375 0 -0.050019383169318164 0.015068675094919607 0 -0.05074996088518962 0.015057846534126571 0 -0.050522747832976077 0.01578508457320375 0 -0.05074996088518962 0.015057846534126571 0 -0.050624722816431232 0.014434855889165828 0 -0.051224498031974104 0.014666920458677069 0 -0.050314864175968456 0.014742151432734461 0 -0.05074996088518962 0.015057846534126571 0 -0.050624722816431232 0.014434855889165828 0 -0.050326816800299934 0.014226953378611499 0 -0.050314864175968456 0.014742151432734461 0 -0.050624722816431232 0.014434855889165828 0 -0.050624722816431232 0.014434855889165828 0 -0.051224498031974104 0.014666920458677069 0 -0.051248061081131752 0.014104841459185374 0 -0.051224498031974104 0.014666920458677069 0 -0.052154154733689062 0.01427625673629947 0 -0.051248061081131752 0.014104841459185374 0 -0.05074996088518962 0.015057846534126571 0 -0.051224498031974104 0.014666920458677069 0 -0.051768666914429988 0.015138579592587121 0 -0.051224498031974104 0.014666920458677069 0 -0.051768666914429988 0.015138579592587121 0 -0.052154154733689062 0.01427625673629947 0 -0.051285329831480542 0.015687888875073743 0 -0.051768666914429988 0.015138579592587121 0 -0.052181939208767784 0.016104906091006486 0 -0.051285329831480542 0.015687888875073743 0 -0.05074996088518962 0.015057846534126571 0 -0.051768666914429988 0.015138579592587121 0 -0.051768666914429988 0.015138579592587121 0 -0.053263686111145951 0.015172273019205816 0 -0.052181939208767784 0.016104906091006486 0 -0.051768666914429988 0.015138579592587121 0 -0.052154154733689062 0.01427625673629947 0 -0.053263686111145951 0.015172273019205816 0 -0.052154154733689062 0.01427625673629947 0 -0.053145578262648853 0.013643479634987011 0 -0.053263686111145951 0.015172273019205816 0 -0.052154154733689062 0.01427625673629947 0 -0.052049332015189333 0.01278826595670624 0 -0.053145578262648853 0.013643479634987011 0 -0.052049332015189333 0.01278826595670624 0 -0.053464181507829174 0.011930520764642495 0 -0.053145578262648853 0.013643479634987011 0 -0.052154154733689062 0.01427625673629947 0 -0.051248061081131752 0.014104841459185374 0 -0.052049332015189333 0.01278826595670624 0 -0.050395882552834496 0.013846388837150071 0 -0.051248061081131752 0.014104841459185374 0 -0.052049332015189333 0.01278826595670624 0 -0.055802353259001153 0.029649837471625438 0 -0.054892496050810445 0.032451343045508327 0 -0.0043573315348528294 0.032304355854336123 0 -0.00084966891777153936 0.031065916026262113 0 -0.0027554655938130893 0.028517343899034171 0 -0.0043573315348528294 0.032304355854336123 0 -0.0015491156128356305 0.034746128923098189 0 -0.00084966891777153936 0.031065916026262113 0 -0.012256314864113374 0.066110987319701289 0 -0.0060131689846255288 0.067230742901893681 0 -0.0043573315348528294 0.032304355854336123 0 -0.0015491156128356305 0.034746128923098189 0 -0.0062517469487906622 0.035628591628690746 0 -0.012256314864113374 0.066110987319701289 0 -0.012673880923374858 0.046047311320225409 0 -0.012256314864113374 0.066110987319701289 0 -0.020126442614643098 0.068541807370952362 0 -0.011181630276432576 0.10561542712723188 0 -0.0089835602535665339 0.10733251007123752 0 -0.013769409270534308 0.1080952958164305 0 -0.024249985492056154 0.04661669953196617 0 -0.025538715379182987 0.046791524454943507 0 -0.024498903532759263 0.047606512632717271 0 -0.015376776521212443 0.10563146334460599 0 -0.011181630276432576 0.10561542712723188 0 -0.013769409270534308 0.1080952958164305 0 -0.025538715379182987 0.046791524454943507 0 -0.025866656862810783 0.047549021249435622 0 -0.025244426070398472 0.047729372602611016 0 -0.026527309555035725 0.047246664671577024 0 -0.025538715379182987 0.046791524454943507 0 -0.025866656862810783 0.047549021249435622 0 -0.025866656862810783 0.047549021249435622 0 -0.025244426070398472 0.047729372602611016 0 -0.025667532038218751 0.048152104341804128 0 -0.025538715379182987 0.046791524454943507 0 -0.024498903532759263 0.047606512632717271 0 -0.025244426070398472 0.047729372602611016 0 -0.024498903532759263 0.047606512632717271 0 -0.025244426070398472 0.047729372602611016 0 -0.024746907800136785 0.048592240258820189 0 -0.025244426070398472 0.047729372602611016 0 -0.025667532038218751 0.048152104341804128 0 -0.024746907800136785 0.048592240258820189 0 -0.012673880923374858 0.046047311320225409 0 -0.015188441457377999 0.038361018858331743 0 -0.025667532038218751 0.048152104341804128 0 -0.025512922014649941 0.048824760664184522 0 -0.024746907800136785 0.048592240258820189 0 -0.026339157997797836 0.048583437948073654 0 -0.025667532038218751 0.048152104341804128 0 -0.025512922014649941 0.048824760664184522 0 -0.026401963252624939 0.047846305816274144 0 -0.025866656862810783 0.047549021249435622 0 -0.025667532038218751 0.048152104341804128 0 -0.026339157997797836 0.048583437948073654 0 -0.025512922014649941 0.048824760664184522 0 -0.0260842562528073 0.049378877331843707 0 -0.025512922014649941 0.048824760664184522 0 -0.024971728808791976 0.049586264480262245 0 -0.0260842562528073 0.049378877331843707 0 -0.015188441457377999 0.038361018858331743 0 -0.018883890887712716 0.031621615164544828 0 -0.00049492247107871072 0.027606281160232369 0 -0.0020515432013366859 0.026026448555716706 0 -0.00040954001917330206 0.024974900309483405 0 -0.025512922014649941 0.048824760664184522 0 -0.024746907800136785 0.048592240258820189 0 -0.024971728808791976 0.049586264480262245 0 -0.00049492247107871072 0.027606281160232369 0 -0.0020515432013366859 0.026026448555716706 0 -0.0027554655938130893 0.028517343899034171 0 -0.0020515432013366859 0.026026448555716706 0 -0.0027554655938130893 0.028517343899034171 0 -0.0034930827988292994 0.025828684960880522 0 -0.00084966891777153936 0.031065916026262113 0 -0.00049492247107871072 0.027606281160232369 0 -0.0027554655938130893 0.028517343899034171 0 -0.0043573315348528294 0.032304355854336123 0 -0.0027554655938130893 0.028517343899034171 0 -0.0061954988697072227 0.029238094874556361 0 -0.0027554655938130893 0.028517343899034171 0 -0.0034930827988292994 0.025828684960880522 0 -0.0061954988697072227 0.029238094874556361 0 -0.00012216398094002916 0.030194408538393541 0 0.00015343221500276028 0.03237997905222282 0 -0.0034930827988292994 0.025828684960880522 0 -0.0034015100022308257 0.025134467559555593 0 -0.0036241953108533576 0.025451548943121564 0 -0.0032317104559335384 0.02518644206213945 0 -0.0034015100022308257 0.025134467559555593 0 -0.0036241953108533576 0.025451548943121564 0 -0.0032317104559335384 0.02518644206213945 0 -0.0027199489344035019 0.025067223223994416 0 -0.0028263564941666784 0.025399996282985955 0 -0.0032317104559335384 0.02518644206213945 0 -0.0027909551012529721 0.024951327322777814 0 -0.0027199489344035019 0.025067223223994416 0 -0.0032317104559335384 0.02518644206213945 0 -0.0030720448897815717 0.025015671178156448 0 -0.0027909551012529721 0.024951327322777814 0 -0.0030720448897815717 0.025015671178156448 0 -0.0028035629581380983 0.02494926977046347 0 -0.0027909551012529721 0.024951327322777814 0 -0.0030720448897815717 0.025015671178156448 0 -0.002877017661107355 0.024947037445423342 0 -0.0028035629581380983 0.02494926977046347 0 -0.0032317104559335384 0.02518644206213945 0 -0.0030720448897815717 0.025015671178156448 0 -0.0034015100022308257 0.025134467559555593 0 0.00015343221500276028 0.03237997905222282 0 0.0010687187976322768 0.040353742681841352 0 -0.0043573315348528294 0.032304355854336123 0 -0.0061954988697072227 0.029238094874556361 0 -0.0086408771778769267 0.032867127090226919 0 -0.0030720448897815717 0.025015671178156448 0 -0.0034015100022308257 0.025134467559555593 0 -0.0029932946706181193 0.024907169670001238 0 -0.0030720448897815717 0.025015671178156448 0 -0.0029932946706181193 0.024907169670001238 0 -0.002877017661107355 0.024947037445423342 0 -0.0029932946706181193 0.024907169670001238 0 -0.002877017661107355 0.024947037445423342 0 -0.0028097957907388948 0.024984111832366592 0 -0.0029932946706181193 0.024907169670001238 0 -0.0028097957907388948 0.024984111832366592 0 -0.0028139543097594191 0.025028501311265144 0 0.0010687187976322768 0.040353742681841352 0 -0.0018534152722300163 0.065792793354295512 0 -0.0086408771778769267 0.032867127090226919 0 -0.0062517469487906622 0.035628591628690746 0 -0.011037269476087323 0.036554339539131196 0 -0.0043573315348528294 0.032304355854336123 0 -0.0086408771778769267 0.032867127090226919 0 -0.0062517469487906622 0.035628591628690746 0 -0.002770897317270038 0.025060890800817595 0 -0.0027687252607859715 0.025103049853696002 0 -0.0027567470659896885 0.025170662368855432 0 -0.002770897317270038 0.025060890800817595 0 -0.0027447641032325143 0.025021865820619726 0 -0.0027687252607859715 0.025103049853696002 0 -0.002770897317270038 0.025060890800817595 0 -0.0028097957907388948 0.024984111832366592 0 -0.0027447641032325143 0.025021865820619726 0 -0.002770897317270038 0.025060890800817595 0 -0.0028097957907388948 0.024984111832366592 0 -0.0028139543097594191 0.025028501311265144 0 -0.0028097957907388948 0.024984111832366592 0 -0.0027474212158485512 0.024965795695785262 0 -0.0027447641032325143 0.025021865820619726 0 -0.002877017661107355 0.024947037445423342 0 -0.0028097957907388948 0.024984111832366592 0 -0.0027474212158485512 0.024965795695785262 0 -0.002877017661107355 0.024947037445423342 0 -0.0027474212158485512 0.024965795695785262 0 -0.0028035629581380983 0.02494926977046347 0 -0.0027474212158485512 0.024965795695785262 0 -0.0027447641032325143 0.025021865820619726 0 -0.0027058930678982391 0.024966418009966632 0 -0.0027447641032325143 0.025021865820619726 0 -0.0027665979870233233 0.02503223075314814 0 -0.0027687252607859715 0.025103049853696002 0 -0.0027447641032325143 0.025021865820619726 0 -0.0027665979870233233 0.02503223075314814 0 -0.0027565584986974346 0.024987573545956852 0 -0.0027447641032325143 0.025021865820619726 0 -0.0027565584986974346 0.024987573545956852 0 -0.0027058930678982391 0.024966418009966632 0 -0.0027565584986974346 0.024987573545956852 0 -0.0027170291346566458 0.024951437531957384 0 -0.0027571821146492935 0.024909033023021544 0 -0.0014087764643769963 0.024172813401815159 0 -0.0015631204069530581 0.023986299651909872 0 -0.0023088543697917393 0.024787056272792554 0 -0.0027565584986974346 0.024987573545956852 0 -0.0027170291346566458 0.024951437531957384 0 -0.0027058930678982391 0.024966418009966632 0 -0.0027170291346566458 0.024951437531957384 0 -0.0026330260580211887 0.0249175555452479 0 -0.0027571821146492935 0.024909033023021544 0 -0.0027170291346566458 0.024951437531957384 0 -0.0027058930678982391 0.024966418009966632 0 -0.0026330260580211887 0.0249175555452479 0 -0.0027058930678982391 0.024966418009966632 0 -0.0026330260580211887 0.0249175555452479 0 -0.0026480247194172199 0.024918102034480551 0 -0.0026330260580211887 0.0249175555452479 0 -0.0027571821146492935 0.024909033023021544 0 -0.0023088543697917393 0.024787056272792554 0 -0.0027474212158485512 0.024965795695785262 0 -0.0028035629581380983 0.02494926977046347 0 -0.0026480247194172199 0.024918102034480551 0 -0.0027474212158485512 0.024965795695785262 0 -0.0027058930678982391 0.024966418009966632 0 -0.0026480247194172199 0.024918102034480551 0 -0.0026330260580211887 0.0249175555452479 0 -0.0026480247194172199 0.024918102034480551 0 -0.0023088543697917393 0.024787056272792554 0 -0.0028035629581380983 0.02494926977046347 0 -0.0026480247194172199 0.024918102034480551 0 -0.0027909551012529721 0.024951327322777814 0 -0.0027909551012529721 0.024951327322777814 0 -0.0023088543697917393 0.024787056272792554 0 -0.0027199489344035019 0.025067223223994416 0 -0.0026480247194172199 0.024918102034480551 0 -0.0027909551012529721 0.024951327322777814 0 -0.0023088543697917393 0.024787056272792554 0 -0.0023088543697917393 0.024787056272792554 0 -0.0017872202954978124 0.024981891931836059 0 -0.0023114451423384527 0.025152841231550815 0 -0.0023088543697917393 0.024787056272792554 0 -0.0027199489344035019 0.025067223223994416 0 -0.0023114451423384527 0.025152841231550815 0 -0.0014087764643769963 0.024172813401815159 0 -0.0023088543697917393 0.024787056272792554 0 -0.0017872202954978124 0.024981891931836059 0 -0.00036069688943142443 0.022837990031620629 0 -0.0017872202954978124 0.024981891931836059 0 -0.0002829142931185308 0.024272503693752681 0 0.00065613254881899158 0.024939637982403975 0 0.00021126492878131053 0.025083556615656307 0 -8.3234434161512673e-05 0.025808794730949183 0 -0.00052301100100562645 0.025813041244785923 0 -0.0017872202954978124 0.024981891931836059 0 -0.0002829142931185308 0.024272503693752681 0 -0.0007782892854394281 0.025067671919339701 0 0.00094399938567160679 0.023622030582503624 0 0.00052794805349635912 0.024733461119240633 0 0.0027664429072963353 0.023836412311347213 0 -0.0002829142931185308 0.024272503693752681 0 0.00094399938567160679 0.023622030582503624 0 0.00052794805349635912 0.024733461119240633 0 -0.0002829142931185308 0.024272503693752681 0 0.00052794805349635912 0.024733461119240633 0 -0.0007782892854394281 0.025067671919339701 0 -0.00036069688943142443 0.022837990031620629 0 -0.0002829142931185308 0.024272503693752681 0 0.00094399938567160679 0.023622030582503624 0 0.00052794805349635912 0.024733461119240633 0 0.0027664429072963353 0.023836412311347213 0 0.00081639460602643901 0.025681365981787892 0 0.00094399938567160679 0.023622030582503624 0 0.0027664429072963353 0.023836412311347213 0 0.0019265651260029755 0.022269868992804337 0 0.0054410845113943319 0.023489887278199891 0 0.0050460105191940446 0.021581514485721119 0 0.0076148347769280159 0.025159669676983024 0 0.0077576427461270216 0.021133101456836476 0 0.004687415800341709 0.020111031105890895 0 0.0027664429072963353 0.023836412311347213 0 0.0019265651260029755 0.022269868992804337 0 0.004687415800341709 0.020111031105890895 0 -0.0014087764643769963 0.024172813401815159 0 -0.0015631204069530581 0.023986299651909872 0 -0.00084012372845169872 0.023212664938662066 0 0.00065613254881899158 0.024939637982403975 0 0.001320231430887377 0.0258820661157746 0 -0.00036069688943142443 0.022837990031620629 0 0.0019265651260029755 0.022269868992804337 0 0.0016323473225589296 0.020119650894024465 0 -8.3234434161512673e-05 0.025808794730949183 0 0.001320231430887377 0.0258820661157746 0 -0.0027565584986974346 0.024987573545956852 0 -0.0027571821146492935 0.024909033023021544 0 -0.0028099380928069484 0.025016648447557903 0 -0.00036069688943142443 0.022837990031620629 0 0.00094399938567160679 0.023622030582503624 0 0.0019265651260029755 0.022269868992804337 0 0.012268053204878577 0.024870350337354196 0 0.010821035480025104 0.026963871917189443 0 0.013320684095984178 0.027219863060967218 0 0.014560842621506214 0.025093997275107485 0 0.012268053204878577 0.024870350337354196 0 0.013320684095984178 0.027219863060967218 0 0.014560842621506214 0.025093997275107485 0 0.014062668264565816 0.022627069804918111 0 0.012268053204878577 0.024870350337354196 0 0.0076148347769280159 0.025159669676983024 0 0.012268053204878577 0.024870350337354196 0 0.010821035480025104 0.026963871917189443 0 0.0076148347769280159 0.025159669676983024 0 0.012268053204878577 0.024870350337354196 0 0.010606486689143126 0.022237253702562961 0 0.0076148347769280159 0.025159669676983024 0 0.010606486689143126 0.022237253702562961 0 0.0077576427461270216 0.021133101456836476 0 0.014062668264565816 0.022627069804918111 0 0.012268053204878577 0.024870350337354196 0 0.010606486689143126 0.022237253702562961 0 0.014062668264565816 0.022627069804918111 0 0.010606486689143126 0.022237253702562961 0 0.01242509464109679 0.019970701750665912 0 0.01242509464109679 0.019970701750665912 0 0.0094507588743575257 0.019352819009317075 0 0.011594331610028413 0.017693018677079165 0 0.010606486689143126 0.022237253702562961 0 0.0094507588743575257 0.019352819009317075 0 0.0077576427461270216 0.021133101456836476 0 0.010606486689143126 0.022237253702562961 0 0.01242509464109679 0.019970701750665912 0 0.0094507588743575257 0.019352819009317075 0 0.0094507588743575257 0.019352819009317075 0 0.0077576427461270216 0.021133101456836476 0 0.0064515651488933666 0.018380450231920215 0 0.0094507588743575257 0.019352819009317075 0 0.0095300601747808824 0.016394223429510149 0 0.0064515651488933666 0.018380450231920215 0 0.0095300601747808824 0.016394223429510149 0 0.0064515651488933666 0.018380450231920215 0 0.0068869758025788584 0.01570333314208408 0 0.0094507588743575257 0.019352819009317075 0 0.0095300601747808824 0.016394223429510149 0 0.011594331610028413 0.017693018677079165 0 0.014406860471371944 0.017275925394104327 0 0.014104838242128777 0.013907937191876822 0 0.012032769246705221 0.015512553090755631 0 0.0095300601747808824 0.016394223429510149 0 0.011594331610028413 0.017693018677079165 0 0.012032769246705221 0.015512553090755631 0 0.014406860471371944 0.017275925394104327 0 0.011594331610028413 0.017693018677079165 0 0.012032769246705221 0.015512553090755631 0 0.014406860471371944 0.017275925394104327 0 0.01242509464109679 0.019970701750665912 0 0.011594331610028413 0.017693018677079165 0 0.001320231430887377 0.0258820661157746 0 -0.000260720480389295 0.026114781863736954 0 -0.0027665979870233233 0.02503223075314814 0 -0.0028099380928069484 0.025016648447557903 0 -0.0027687252607859715 0.025103049853696002 0 -0.0027665979870233233 0.02503223075314814 0 -0.0027565584986974346 0.024987573545956852 0 -0.0028099380928069484 0.025016648447557903 0 0.0019265651260029755 0.022269868992804337 0 0.0016323473225589296 0.020119650894024465 0 0.004687415800341709 0.020111031105890895 0 0.0016323473225589296 0.020119650894024465 0 0.0064515651488933666 0.018380450231920215 0 0.0068869758025788584 0.01570333314208408 0 0.0016323473225589296 0.020119650894024465 0 0.004687415800341709 0.020111031105890895 0 0.0064515651488933666 0.018380450231920215 0 0.0077576427461270216 0.021133101456836476 0 0.004687415800341709 0.020111031105890895 0 0.0064515651488933666 0.018380450231920215 0 0.001320231430887377 0.0258820661157746 0 0.0086559719402992119 0.031808561694413741 0 -0.0026825454917065025 0.025400400914192298 0 -0.0027193783290061974 0.025407304144695012 0 -0.0027388398046842661 0.025404008118265313 0 -0.0027193783290061974 0.025407304144695012 0 -0.0027388398046842661 0.025404008118265313 0 -0.0027596500516129017 0.025372661507807551 0 -0.0028335858855648185 0.025151170232977679 0 -0.0027811773716025744 0.025212890192340402 0 -0.0027927531760425913 0.02526583987862242 0 -0.0028099380928069484 0.025016648447557903 0 -0.0028335858855648185 0.025151170232977679 0 -0.0027687252607859715 0.025103049853696002 0 -0.0027687252607859715 0.025103049853696002 0 -0.0027811773716025744 0.025212890192340402 0 -0.0027567470659896885 0.025170662368855432 0 -0.0028335858855648185 0.025151170232977679 0 -0.0027687252607859715 0.025103049853696002 0 -0.0027811773716025744 0.025212890192340402 0 -0.0027811773716025744 0.025212890192340402 0 -0.0027843589504426671 0.02534007228890044 0 -0.0027567470659896885 0.025170662368855432 0 0.0047477852568331026 0.062820328019233415 0 0.0017398961526196733 0.064533804961546884 0 -0.0027811773716025744 0.025212890192340402 0 -0.0027927531760425913 0.02526583987862242 0 -0.0027843589504426671 0.02534007228890044 0 -0.0028335858855648185 0.025151170232977679 0 -0.0027927531760425913 0.02526583987862242 0 -0.0027596500516129017 0.025372661507807551 0 -0.000260720480389295 0.026114781863736954 0 -0.00069491428331671485 0.026122139194752161 0 -0.0027927531760425913 0.02526583987862242 0 -0.0027596500516129017 0.025372661507807551 0 -0.0027843589504426671 0.02534007228890044 0 0.011720519133641763 0.10476864088297687 0 0.013602854912522784 0.10173082820564018 0 0.010878191290639832 0.10024552371446271 0 0.011720519133641763 0.10476864088297687 0 0.0082533196303318547 0.10249870339385429 0 0.0067282568054980651 0.10542420601551973 0 0.011720519133641763 0.10476864088297687 0 0.0082533196303318547 0.10249870339385429 0 0.010878191290639832 0.10024552371446271 0 0.014104838242128777 0.013907937191876822 0 0.012032769246705221 0.015512553090755631 0 0.011081891321772388 0.011842268316574429 0 0.0095300601747808824 0.016394223429510149 0 0.012032769246705221 0.015512553090755631 0 0.011081891321772388 0.011842268316574429 0 0.0086559719402992119 0.031808561694413741 0 0.010099937028445029 0.059213264512939304 0 0.0095300601747808824 0.016394223429510149 0 0.0068869758025788584 0.01570333314208408 0 0.011081891321772388 0.011842268316574429 0 -0.0027596500516129017 0.025372661507807551 0 -0.0027843589504426671 0.02534007228890044 0 -0.0026667580665344316 0.025445488375716203 0 -0.0027388398046842661 0.025404008118265313 0 -0.0027596500516129017 0.025372661507807551 0 -0.0026667580665344316 0.025445488375716203 0 0.0047477852568331026 0.062820328019233415 0 0.010099937028445029 0.059213264512939304 0 0.016640064749551705 0.10414161861464123 0 0.013602854912522784 0.10173082820564018 0 0.015895319377088213 0.10008878001493521 0 0.011720519133641763 0.10476864088297687 0 0.016640064749551705 0.10414161861464123 0 0.013602854912522784 0.10173082820564018 0 0.017989651230535902 0.060121926768140467 0 0.010099937028445029 0.059213264512939304 0 0.0054917797978136776 0.078740920880927268 0 0.010099937028445029 0.059213264512939304 0 0.020428426447268298 0.10065101238489838 0 0.020883512689715018 0.10119747130279487 0 0.01930027178408877 0.10219035222237863 0 0.020428426447268298 0.10065101238489838 0 0.016640064749551705 0.10414161861464123 0 0.018042926437759951 0.10097070770213311 0 0.016640064749551705 0.10414161861464123 0 0.018042926437759951 0.10097070770213311 0 0.015895319377088213 0.10008878001493521 0 0.018974149930412635 0.099289211336674357 0 0.018042926437759951 0.10097070770213311 0 0.0175274977298693 0.099350494576866857 0 0.019481358123933156 0.10003042681200519 0 0.018974149930412635 0.099289211336674357 0 0.018042926437759951 0.10097070770213311 0 0.019481358123933156 0.10003042681200519 0 0.020428426447268298 0.10065101238489838 0 0.018042926437759951 0.10097070770213311 0 0.018042926437759951 0.10097070770213311 0 0.0175274977298693 0.099350494576866857 0 0.015895319377088213 0.10008878001493521 0 0.013602854912522784 0.10173082820564018 0 0.015895319377088213 0.10008878001493521 0 0.014113153524008675 0.097960877213249378 0 0.013566430524551261 0.095578280037029034 0 0.014113153524008675 0.097960877213249378 0 0.015146947763951198 0.09640152583463843 0 0.014113153524008675 0.097960877213249378 0 0.015146947763951198 0.09640152583463843 0 0.016483863247547043 0.097730084039227921 0 0.016534315301239746 0.095909650880716721 0 0.015146947763951198 0.09640152583463843 0 0.016483863247547043 0.097730084039227921 0 0.015895319377088213 0.10008878001493521 0 0.014113153524008675 0.097960877213249378 0 0.016483863247547043 0.097730084039227921 0 0.0175274977298693 0.099350494576866857 0 0.016483863247547043 0.097730084039227921 0 0.018349041071115468 0.098005452727290485 0 0.0175274977298693 0.099350494576866857 0 0.015895319377088213 0.10008878001493521 0 0.016483863247547043 0.097730084039227921 0 0.016483863247547043 0.097730084039227921 0 0.018024042822251649 0.096486363969052066 0 0.018349041071115468 0.098005452727290485 0 0.016534315301239746 0.095909650880716721 0 0.016483863247547043 0.097730084039227921 0 0.018024042822251649 0.096486363969052066 0 0.019410372989419705 0.097101948303173424 0 0.019452022821850816 0.095964951304247925 0 0.018024042822251649 0.096486363969052066 0 0.019410372989419705 0.097101948303173424 0 0.018024042822251649 0.096486363969052066 0 0.018349041071115468 0.098005452727290485 0 0.019410372989419705 0.097101948303173424 0 0.019541473080674169 0.098232853236736736 0 0.018349041071115468 0.098005452727290485 0 0.019541473080674169 0.098232853236736736 0 0.018974149930412635 0.099289211336674357 0 0.018349041071115468 0.098005452727290485 0 0.018974149930412635 0.099289211336674357 0 0.0175274977298693 0.099350494576866857 0 0.018349041071115468 0.098005452727290485 0 0.010878191290639832 0.10024552371446271 0 0.008368742498985466 0.097156370013722612 0 0.0078114525112813775 0.099840953936109436 0 0.0082533196303318547 0.10249870339385429 0 0.010878191290639832 0.10024552371446271 0 0.0078114525112813775 0.099840953936109436 0 0.013602854912522784 0.10173082820564018 0 0.014113153524008675 0.097960877213249378 0 0.010878191290639832 0.10024552371446271 0 0.014113153524008675 0.097960877213249378 0 0.010878191290639832 0.10024552371446271 0 0.011483790627185787 0.096635611935305593 0 0.013566430524551261 0.095578280037029034 0 0.014113153524008675 0.097960877213249378 0 0.011483790627185787 0.096635611935305593 0 0.010878191290639832 0.10024552371446271 0 0.011483790627185787 0.096635611935305593 0 0.008368742498985466 0.097156370013722612 0 0.010114005254802182 0.094958460912062545 0 0.011483790627185787 0.096635611935305593 0 0.008368742498985466 0.097156370013722612 0 0.004888300902548097 0.094393864373198855 0 0.0052119558145130246 0.096178769384287058 0 0.0052814107518698774 0.095368163247460599 0 0.008368742498985466 0.097156370013722612 0 0.0058227283668314429 0.098996054339365508 0 0.008368742498985466 0.097156370013722612 0 0.0078114525112813775 0.099840953936109436 0 0.0058227283668314429 0.098996054339365508 0 0.0078114525112813775 0.099840953936109436 0 0.0058227283668314429 0.098996054339365508 0 0.0056760720403920707 0.1003991086649525 0 0.0058227283668314429 0.098996054339365508 0 0.0056760720403920707 0.1003991086649525 0 0.0034579676447400441 0.099398237025955349 0 0.0082533196303318547 0.10249870339385429 0 0.0078114525112813775 0.099840953936109436 0 0.0056760720403920707 0.1003991086649525 0 0.0056760720403920707 0.1003991086649525 0 0.0034579676447400441 0.099398237025955349 0 0.0034907100038810983 0.10304666804285377 0 0.0058227283668314429 0.098996054339365508 0 0.0034579676447400441 0.099398237025955349 0 0.0034334275755584817 0.097420486801426801 0 0.0034579676447400441 0.099398237025955349 0 0.0034334275755584817 0.097420486801426801 0 0.0010526499107704685 0.098897795214948264 0 0.0048514004617498489 0.094609904453635374 0 0.0058227283668314429 0.098996054339365508 0 0.0034334275755584817 0.097420486801426801 0 0.0048514004617498489 0.094609904453635374 0 0.0034334275755584817 0.097420486801426801 0 0.0010589497676185844 0.096134025238859472 0 0.0010589497676185844 0.096134025238859472 0 -0.0024461943554373298 0.096349156592304447 0 0.0010526499107704685 0.098897795214948264 0 0.0034334275755584817 0.097420486801426801 0 0.0010589497676185844 0.096134025238859472 0 0.0010526499107704685 0.098897795214948264 0 -0.0058725689922989417 0.098160903845204928 0 -0.0024461943554373298 0.096349156592304447 0 -0.0023542076894205967 0.099517032136971217 0 -0.0024461943554373298 0.096349156592304447 0 -0.0023542076894205967 0.099517032136971217 0 0.0010526499107704685 0.098897795214948264 0 -0.0023542076894205967 0.099517032136971217 0 0.0010526499107704685 0.098897795214948264 0 0.00091119812860229602 0.10164281600152068 0 0.0034579676447400441 0.099398237025955349 0 0.0010526499107704685 0.098897795214948264 0 0.00091119812860229602 0.10164281600152068 0 0.00091119812860229602 0.10164281600152068 0 -0.0023976743654634597 0.10300235305169017 0 0.0014831800572996333 0.10585129104852777 0 -0.005376368048980412 0.10068923851781333 0 -0.0023542076894205967 0.099517032136971217 0 -0.0023976743654634597 0.10300235305169017 0 -0.0023542076894205967 0.099517032136971217 0 0.00091119812860229602 0.10164281600152068 0 -0.0023976743654634597 0.10300235305169017 0 -0.0060131689846255288 0.067230742901893681 0 -0.0018534152722300163 0.065792793354295512 0 -0.0036880382643214808 0.10663231250063254 0 -0.0023976743654634597 0.10300235305169017 0 0.0014831800572996333 0.10585129104852777 0 -0.002770897317270038 0.025060890800817595 0 -0.0028139543097594191 0.025028501311265144 0 -0.0027567470659896885 0.025170662368855432 0 0.0018404754753586594 0.10608716743693389 0 0.0067282568054980651 0.10542420601551973 0 0.0037703786263732064 0.10333025724703415 0 -0.0018534152722300163 0.065792793354295512 0 0.0017398961526196733 0.064533804961546884 0 -0.0018534152722300163 0.065792793354295512 0 -0.0053293676213224863 0.08527035745020195 0 0.0082533196303318547 0.10249870339385429 0 0.0067282568054980651 0.10542420601551973 0 0.006064634325616788 0.10287509912894419 0 0.0067282568054980651 0.10542420601551973 0 0.006064634325616788 0.10287509912894419 0 0.0037703786263732064 0.10333025724703415 0 0.0056760720403920707 0.1003991086649525 0 0.006064634325616788 0.10287509912894419 0 0.0037703786263732064 0.10333025724703415 0 0.0082533196303318547 0.10249870339385429 0 0.0056760720403920707 0.1003991086649525 0 0.006064634325616788 0.10287509912894419 0 0.0034579676447400441 0.099398237025955349 0 0.00091119812860229602 0.10164281600152068 0 0.0034907100038810983 0.10304666804285377 0 -0.0051187090066446049 0.089283247575919059 0 -0.0053293676213224863 0.08527035745020195 0 0.00091119812860229602 0.10164281600152068 0 0.0014831800572996333 0.10585129104852777 0 0.0034907100038810983 0.10304666804285377 0 -0.10800163117112323 0.083743628822278149 0 -0.10603242437179379 0.090880623217324458 0 -0.10598982177675748 0.087743978315073537 0 -0.10601060907354469 0.084183482836642898 0 -0.10696298639309255 0.086511739974151139 0 -0.10603242437179379 0.090880623217324458 0 -0.10703945477498016 0.082905550642517339 0 -0.10753234643326251 0.085382222644148492 0 -0.10601060907354469 0.084183482836642898 0 -0.10696298639309255 0.086511739974151139 0 -0.10905361025976858 0.082852729823233009 0 -0.10800163117112323 0.083743628822278149 0 -0.10599818936760688 0.083659266692839893 0 -0.10598982177675748 0.087743978315073537 0 -0.10499815544846515 0.0850974706840536 0 -0.10599818936760688 0.083659266692839893 0 -0.10499940345653355 0.079358371698337024 0 -0.10499815544846515 0.0850974706840536 0 -0.10599818936760688 0.083659266692839893 0 -0.10598982177675748 0.087743978315073537 0 -0.10800163117112323 0.083743628822278149 0 -0.10599818936760688 0.083659266692839893 0 -0.1064592670528636 0.081329227439530791 0 -0.10703945477498016 0.082905550642517339 0 -0.10609540408131025 0.078455985603692768 0 -0.10599818936760688 0.083659266692839893 0 -0.1064592670528636 0.081329227439530791 0 -0.10499940345653355 0.079358371698337024 0 -0.10800163117112323 0.083743628822278149 0 -0.1064592670528636 0.081329227439530791 0 -0.1069660177903924 0.078230831560532788 0 -0.1064592670528636 0.081329227439530791 0 -0.10499940345653355 0.079358371698337024 0 -0.1069660177903924 0.078230831560532788 0 -0.10601060907354469 0.084183482836642898 0 -0.10700617347517878 0.079826614685198485 0 -0.10770829466104909 0.081510599166963793 0 -0.10601060907354469 0.084183482836642898 0 -0.10700617347517878 0.079826614685198485 0 -0.1050625671733639 0.078118953517266734 0 -0.10770829466104909 0.081510599166963793 0 -0.10911801097138177 0.079665501520176402 0 -0.10905361025976858 0.082852729823233009 0 -0.10601060907354469 0.084183482836642898 0 -0.10770829466104909 0.081510599166963793 0 -0.10905361025976858 0.082852729823233009 0 -0.10700617347517878 0.079826614685198485 0 -0.10770829466104909 0.081510599166963793 0 -0.10911801097138177 0.079665501520176402 0 -0.10911801097138177 0.079665501520176402 0 -0.11152461973795647 0.082206191281375879 0 -0.11270561714350887 0.079015210149393084 0 -0.10911801097138177 0.079665501520176402 0 -0.11152461973795647 0.082206191281375879 0 -0.10905361025976858 0.082852729823233009 0 -0.1146974303255031 0.081760703300340923 0 -0.11722947893101135 0.077746716735605473 0 -0.11270561714350887 0.079015210149393084 0 -0.11152461973795647 0.082206191281375879 0 -0.1146974303255031 0.081760703300340923 0 -0.11270561714350887 0.079015210149393084 0 -0.11152461973795647 0.082206191281375879 0 -0.1146974303255031 0.081760703300340923 0 -0.11265882326043974 0.085190238166587093 0 -0.11265882326043974 0.085190238166587093 0 -0.1143279213199235 0.087216846077029314 0 -0.11625172668428076 0.085139999220375462 0 -0.1146974303255031 0.081760703300340923 0 -0.11265882326043974 0.085190238166587093 0 -0.11625172668428076 0.085139999220375462 0 -0.11265882326043974 0.085190238166587093 0 -0.1103386352450085 0.085325390186523603 0 -0.11220702095493666 0.089581877336970372 0 -0.10696298639309255 0.086511739974151139 0 -0.1103386352450085 0.085325390186523603 0 -0.11220702095493666 0.089581877336970372 0 -0.11152461973795647 0.082206191281375879 0 -0.10905361025976858 0.082852729823233009 0 -0.1103386352450085 0.085325390186523603 0 -0.10696298639309255 0.086511739974151139 0 -0.10905361025976858 0.082852729823233009 0 -0.1103386352450085 0.085325390186523603 0 -0.11152461973795647 0.082206191281375879 0 -0.11265882326043974 0.085190238166587093 0 -0.1103386352450085 0.085325390186523603 0 -0.10696298639309255 0.086511739974151139 0 -0.10546662649044429 0.093520886341792467 0 -0.10603242437179379 0.090880623217324458 0 -0.1045697103608738 0.090711440381083308 0 -0.1052260699804979 0.092618663210779842 0 -0.10546662649044429 0.093520886341792467 0 -0.10484949176668402 0.093842607085422872 0 -0.10603242437179379 0.090880623217324458 0 -0.11220702095493666 0.089581877336970372 0 -0.11637910092038588 0.09273570990196156 0 -0.11617763729740409 0.088934356338570983 0 -0.11265882326043974 0.085190238166587093 0 -0.11220702095493666 0.089581877336970372 0 -0.1143279213199235 0.087216846077029314 0 -0.1143279213199235 0.087216846077029314 0 -0.11617763729740409 0.088934356338570983 0 -0.11625172668428076 0.085139999220375462 0 -0.11220702095493666 0.089581877336970372 0 -0.1143279213199235 0.087216846077029314 0 -0.11617763729740409 0.088934356338570983 0 -0.10546662649044429 0.093520886341792467 0 -0.1033949876009063 0.096001748709979934 0 -0.10108913944358057 0.098450141528447763 0 -0.1052260699804979 0.092618663210779842 0 -0.10507439179795135 0.095970337155538488 0 -0.1033949876009063 0.096001748709979934 0 -0.10140230179889258 0.09772949467276261 0 -0.10108913944358057 0.098450141528447763 0 -0.1033949876009063 0.096001748709979934 0 -0.10484949176668402 0.093842607085422872 0 -0.10342615605699002 0.096065858440878379 0 -0.10484949176668402 0.093842607085422872 0 -0.10514985970951049 0.092625452602413991 0 -0.10342615605699002 0.096065858440878379 0 -0.10546662649044429 0.093520886341792467 0 -0.1033949876009063 0.096001748709979934 0 -0.10484949176668402 0.093842607085422872 0 -0.10484949176668402 0.093842607085422872 0 -0.10514985970951049 0.092625452602413991 0 -0.10603242437179379 0.090880623217324458 0 -0.10514985970951049 0.092625452602413991 0 -0.10603242437179379 0.090880623217324458 0 -0.10598982177675748 0.087743978315073537 0 -0.10499815544846515 0.0850974706840536 0 -0.10598982177675748 0.087743978315073537 0 -0.10499755169230983 0.090837586873934173 0 -0.10514985970951049 0.092625452602413991 0 -0.10598982177675748 0.087743978315073537 0 -0.10499755169230983 0.090837586873934173 0 -0.10514985970951049 0.092625452602413991 0 -0.10499755169230983 0.090837586873934173 0 -0.10430335772402255 0.095621579847672375 0 -0.10499755169230983 0.090837586873934173 0 -0.10430335772402255 0.095621579847672375 0 -0.10499665469031498 0.096563016137157842 0 -0.10514985970951049 0.092625452602413991 0 -0.10430335772402255 0.095621579847672375 0 -0.10342615605699002 0.096065858440878379 0 -0.10430335772402255 0.095621579847672375 0 -0.10225116685093458 0.096567123026336549 0 -0.10209584433233697 0.096969793415639161 0 -0.10499559653281884 0.096572305350226983 0 -0.10260030578539189 0.098238619101082766 0 -0.10430335772402255 0.095621579847672375 0 -0.10499665469031498 0.096563016137157842 0 -0.10225116685093458 0.096567123026336549 0 -0.10499183742086501 0.10499448834718214 0 -0.10195054662107114 0.10296124039356534 0 -0.093819426073999512 0.10498841763649858 0 -0.10499749813040155 0.096583957336941376 0 -0.10499183742086501 0.10499448834718214 0 -0.10195054662107114 0.10296124039356534 0 -0.096867064669859906 0.10224503427672275 0 -0.093819426073999512 0.10498841763649858 0 -0.099834277825009796 0.099159604626857675 0 -0.093796038816574182 0.10499651182195427 0 -0.094483769846252841 0.10309377795717911 0 -0.10195054662107114 0.10296124039356534 0 -0.096867064669859906 0.10224503427672275 0 -0.093819426073999512 0.10498841763649858 0 -0.10260030578539189 0.098238619101082766 0 -0.10146307723110495 0.099110323254241378 0 -0.10225116685093458 0.096567123026336549 0 -0.096867064669859906 0.10224503427672275 0 -0.099550287920726538 0.098397167396126042 0 -0.099550287920726538 0.098397167396126042 0 -0.099080997557999428 0.098859495157920779 0 -0.099834277825009796 0.099159604626857675 0 -0.096867064669859906 0.10224503427672275 0 -0.099550287920726538 0.098397167396126042 0 -0.099834277825009796 0.099159604626857675 0 -0.099550287920726538 0.098397167396126042 0 -0.10045228440718514 0.097995599898962338 0 -0.099080997557999428 0.098859495157920779 0 -0.099550287920726538 0.098397167396126042 0 -0.10045228440718514 0.097995599898962338 0 -0.10209584433233697 0.096969793415639161 0 -0.10045228440718514 0.097995599898962338 0 -0.098682523928920046 0.09911034224887548 0 -0.099080997557999428 0.098859495157920779 0 -0.10225116685093458 0.096567123026336549 0 -0.099550287920726538 0.098397167396126042 0 -0.10209584433233697 0.096969793415639161 0 -0.10045228440718514 0.097995599898962338 0 -0.10209584433233697 0.096969793415639161 0 -0.10342615605699002 0.096065858440878379 0 -0.10430335772402255 0.095621579847672375 0 -0.10209584433233697 0.096969793415639161 0 -0.10342615605699002 0.096065858440878379 0 -0.1033949876009063 0.096001748709979934 0 -0.10342615605699002 0.096065858440878379 0 -0.10140230179889258 0.09772949467276261 0 -0.10045228440718514 0.097995599898962338 0 -0.10342615605699002 0.096065858440878379 0 -0.10140230179889258 0.09772949467276261 0 -0.10140230179889258 0.09772949467276261 0 -0.098682523928920046 0.09911034224887548 0 -0.10108913944358057 0.098450141528447763 0 -0.10045228440718514 0.097995599898962338 0 -0.10140230179889258 0.09772949467276261 0 -0.098682523928920046 0.09911034224887548 0 -0.10274573721620293 0.099337586846500514 0 -0.10507439179795135 0.095970337155538488 0 -0.098682523928920046 0.09911034224887548 0 -0.094443697184105516 0.10070488821439645 0 -0.10108913944358057 0.098450141528447763 0 -0.098682523928920046 0.09911034224887548 0 -0.094443697184105516 0.10070488821439645 0 -0.094220386591757938 0.10030106199991337 0 -0.12015575612841128 0.09582400723015444 0 -0.12132281176729488 0.093329212627009217 0 -0.11637910092038588 0.09273570990196156 0 -0.12015575612841128 0.09582400723015444 0 -0.12218539235584595 0.095833362844555695 0 -0.12132281176729488 0.093329212627009217 0 -0.094443697184105516 0.10070488821439645 0 -0.092660555007804776 0.10189607897203173 0 -0.091471437877893455 0.10300758676034055 0 -0.10274573721620293 0.099337586846500514 0 -0.095232715674655299 0.1010368463261142 0 -0.12015575612841128 0.09582400723015444 0 -0.12218539235584595 0.095833362844555695 0 -0.12371346406200867 0.098870213904560966 0 -0.094443697184105516 0.10070488821439645 0 -0.094220386591757938 0.10030106199991337 0 -0.092660555007804776 0.10189607897203173 0 -0.094220386591757938 0.10030106199991337 0 -0.092660555007804776 0.10189607897203173 0 -0.091939014048391096 0.10291280848379852 0 -0.092660555007804776 0.10189607897203173 0 -0.090630171030073481 0.10409573217225666 0 -0.091471437877893455 0.10300758676034055 0 -0.094220386591757938 0.10030106199991337 0 -0.089727027114663113 0.10550589515714978 0 -0.091939014048391096 0.10291280848379852 0 -0.094220386591757938 0.10030106199991337 0 -0.099080997557999428 0.098859495157920779 0 -0.099834277825009796 0.099159604626857675 0 -0.094410016626230164 0.1027351283419555 0 -0.094483769846252841 0.10309377795717911 0 -0.098682523928920046 0.09911034224887548 0 -0.094220386591757938 0.10030106199991337 0 -0.099080997557999428 0.098859495157920779 0 -0.089727027114663113 0.10550589515714978 0 -0.090630171030073481 0.10409573217225666 0 -0.089268487829959067 0.10558265209135079 0 -0.089727027114663113 0.10550589515714978 0 -0.091939014048391096 0.10291280848379852 0 -0.090630171030073481 0.10409573217225666 0 -0.092660555007804776 0.10189607897203173 0 -0.091939014048391096 0.10291280848379852 0 -0.090630171030073481 0.10409573217225666 0 -0.090630171030073481 0.10409573217225666 0 -0.088150192712666095 0.10538531030482282 0 -0.088700758748925551 0.10487144296722453 0 -0.090630171030073481 0.10409573217225666 0 -0.088150192712666095 0.10538531030482282 0 -0.089268487829959067 0.10558265209135079 0 -0.088150192712666095 0.10538531030482282 0 -0.088496374226655225 0.10499773837447346 0 -0.083205320698792454 0.10499882127068844 0 -0.088150192712666095 0.10538531030482282 0 -0.088496374226655225 0.10499773837447346 0 -0.089268487829959067 0.10558265209135079 0 -0.093790293043707965 0.10500017379208551 0 -0.089727027114663113 0.10550589515714978 0 -0.089268487829959067 0.10558265209135079 0 -0.093790293043707965 0.10500017379208551 0 -0.088496374226655225 0.10499773837447346 0 -0.089268487829959067 0.10558265209135079 0 -0.080088981476376719 0.10680373317624137 0 -0.083193666861107782 0.10499924008751894 0 -0.077397445019553826 0.1050004710250297 0 -0.080088981476376719 0.10680373317624137 0 -0.080905073360494018 0.10955212287511268 0 -0.078323322483743504 0.10711201286618736 0 -0.083210753080477873 0.10499686369316938 0 -0.088847763086692302 0.10367004572528105 0 -0.088150192712666095 0.10538531030482282 0 -0.083205320698792454 0.10499882127068844 0 -0.088700758748925551 0.10487144296722453 0 -0.080088981476376719 0.10680373317624137 0 -0.083193666861107782 0.10499924008751894 0 -0.083278018647226879 0.10830271181055187 0 -0.088847763086692302 0.10367004572528105 0 -0.095232715674655299 0.1010368463261142 0 -0.090630171030073481 0.10409573217225666 0 -0.088700758748925551 0.10487144296722453 0 -0.091471437877893455 0.10300758676034055 0 -0.083278018647226879 0.10830271181055187 0 -0.080905073360494018 0.10955212287511268 0 -0.083497958469404471 0.11172024565970506 0 -0.089375566470205503 0.10137188287516515 0 -0.095232715674655299 0.1010368463261142 0 -0.080088981476376719 0.10680373317624137 0 -0.083278018647226879 0.10830271181055187 0 -0.080905073360494018 0.10955212287511268 0 -0.07879541260685452 0.10775959509275247 0 -0.078457017874913257 0.10783524906694236 0 -0.078323322483743504 0.10711201286618736 0 -0.089375566470205503 0.10137188287516515 0 -0.087501707102092346 0.10140960085261649 0 -0.078590472141560591 0.1079281125081427 0 -0.078433562427586409 0.10804367352779327 0 -0.078457017874913257 0.10783524906694236 0 -0.07879541260685452 0.10775959509275247 0 -0.078590472141560591 0.1079281125081427 0 -0.078457017874913257 0.10783524906694236 0 -0.078590472141560591 0.1079281125081427 0 -0.078695591212413304 0.10804489264640665 0 -0.078433562427586409 0.10804367352779327 0 -0.07879541260685452 0.10775959509275247 0 -0.078590472141560591 0.1079281125081427 0 -0.078695591212413304 0.10804489264640665 0 -0.07879541260685452 0.10775959509275247 0 -0.078695591212413304 0.10804489264640665 0 -0.078950643877211957 0.1079641208516873 0 -0.078695591212413304 0.10804489264640665 0 -0.07881757927851292 0.10811385930667682 0 -0.078718052215471096 0.10814520997581918 0 -0.078695591212413304 0.10804489264640665 0 -0.078718052215471096 0.10814520997581918 0 -0.078546290183259093 0.10818239057879585 0 -0.078695591212413304 0.10804489264640665 0 -0.078546290183259093 0.10818239057879585 0 -0.078433562427586409 0.10804367352779327 0 -0.12218539235584595 0.095833362844555695 0 -0.12371346406200867 0.098870213904560966 0 -0.12355055292659299 0.095270765061504101 0 -0.078950643877211957 0.1079641208516873 0 -0.07881757927851292 0.10811385930667682 0 -0.078918559458993912 0.10819016337504488 0 -0.095232715674655299 0.1010368463261142 0 -0.098986636616381837 0.10133073405720112 0 -0.078695591212413304 0.10804489264640665 0 -0.078950643877211957 0.1079641208516873 0 -0.07881757927851292 0.10811385930667682 0 -0.07881757927851292 0.10811385930667682 0 -0.078918559458993912 0.10819016337504488 0 -0.078798690556692863 0.10820346261879644 0 -0.078918559458993912 0.10819016337504488 0 -0.078798690556692863 0.10820346261879644 0 -0.078876933927516768 0.1082329168456003 0 -0.12218539235584595 0.095833362844555695 0 -0.12355055292659299 0.095270765061504101 0 -0.12132281176729488 0.093329212627009217 0 -0.078718052215471096 0.10814520997581918 0 -0.078698787709020404 0.10820351791053905 0 -0.078546290183259093 0.10818239057879585 0 -0.07881757927851292 0.10811385930667682 0 -0.078718052215471096 0.10814520997581918 0 -0.078798690556692863 0.10820346261879644 0 -0.078718052215471096 0.10814520997581918 0 -0.078798690556692863 0.10820346261879644 0 -0.078698787709020404 0.10820351791053905 0 -0.078798690556692863 0.10820346261879644 0 -0.078761072622392098 0.10823014649378533 0 -0.078767309405924621 0.10822923642626645 0 -0.09173570026934004 0.10148989432625351 0 -0.093317924592417945 0.098148900963362082 0 -0.078798690556692863 0.10820346261879644 0 -0.078761072622392098 0.10823014649378533 0 -0.078698787709020404 0.10820351791053905 0 -0.078698787709020404 0.10820351791053905 0 -0.07864363558070063 0.10825267792765968 0 -0.078546290183259093 0.10818239057879585 0 -0.078761072622392098 0.10823014649378533 0 -0.078698787709020404 0.10820351791053905 0 -0.07864363558070063 0.10825267792765968 0 -0.083059172125170763 0.10030860259923118 0 -0.084292710476927685 0.099000599984281262 0 -0.078761072622392098 0.10823014649378533 0 -0.078792147689036918 0.1082064233762136 0 -0.078767309405924621 0.10822923642626645 0 -0.078761072622392098 0.10823014649378533 0 -0.07864363558070063 0.10825267792765968 0 -0.078638781931468477 0.10833091000148042 0 -0.07864363558070063 0.10825267792765968 0 -0.078638781931468477 0.10833091000148042 0 -0.07859602447808256 0.1083159881572328 0 -0.084292710476927685 0.099000599984281262 0 -0.093317924592417945 0.098148900963362082 0 -0.078798690556692863 0.10820346261879644 0 -0.078866572076310593 0.10824992434059003 0 -0.078876933927516768 0.1082329168456003 0 -0.12672785763810943 0.091848746874656578 0 -0.12715724538439269 0.088676083513263088 0 -0.12551356541967384 0.090020582590181614 0 -0.093317924592417945 0.098148900963362082 0 -0.094589517404607609 0.09270165316384793 0 -0.088046709486190367 0.099374354015406785 0 -0.089737851027778107 0.097546772660843134 0 -0.088566609676559355 0.095225311099041185 0 -0.090715793858112861 0.099836682483625885 0 -0.088046709486190367 0.099374354015406785 0 -0.089737851027778107 0.097546772660843134 0 -0.090715793858112861 0.099836682483625885 0 -0.089737851027778107 0.097546772660843134 0 -0.092177158422859812 0.098524173218513214 0 -0.087319165181197159 0.09215176769794825 0 -0.083153499855254234 0.097263593534675577 0 -0.089737851027778107 0.097546772660843134 0 -0.090016787479888047 0.093623344538919948 0 -0.092177158422859812 0.098524173218513214 0 -0.089737851027778107 0.097546772660843134 0 -0.088566609676559355 0.095225311099041185 0 -0.090016787479888047 0.093623344538919948 0 -0.12715724538439269 0.088676083513263088 0 -0.1251934329195746 0.087114055453924547 0 -0.12551356541967384 0.090020582590181614 0 -0.088566609676559355 0.095225311099041185 0 -0.089341648098278825 0.09347256967950425 0 -0.089090872227901421 0.091075449692344768 0 -0.12715724538439269 0.088676083513263088 0 -0.1251934329195746 0.087114055453924547 0 -0.12754618343769883 0.085506494333804653 0 -0.094589517404607609 0.09270165316384793 0 -0.093054080426955912 0.089006504379735729 0 -0.079325734837102632 0.086207635307761071 0 -0.079698978905476725 0.087211954954013432 0 -0.078261528251238999 0.085975036009566255 0 -0.087344032091938778 0.092159550134138665 0 -0.087319165181197159 0.09215176769794825 0 -0.088566609676559355 0.095225311099041185 0 -0.089341648098278825 0.09347256967950425 0 -0.090016787479888047 0.093623344538919948 0 -0.1251934329195746 0.087114055453924547 0 -0.12377266525039284 0.088925471725773669 0 -0.12265107887238418 0.085882806087618321 0 -0.12551356541967384 0.090020582590181614 0 -0.12377266525039284 0.088925471725773669 0 -0.12386533803842101 0.091341975976883802 0 -0.1251934329195746 0.087114055453924547 0 -0.12551356541967384 0.090020582590181614 0 -0.12377266525039284 0.088925471725773669 0 -0.10313564734134475 0.098983639633208581 0 -0.10204171910608111 0.10097685051753137 0 -0.098986636616381837 0.10133073405720112 0 -0.10204171910608111 0.10097685051753137 0 -0.078918559458993912 0.10819016337504488 0 -0.078929837588110299 0.1082635687601214 0 -0.078876933927516768 0.1082329168456003 0 -0.12355055292659299 0.095270765061504101 0 -0.12337573836347089 0.09162661690645002 0 -0.12132281176729488 0.093329212627009217 0 -0.12672785763810943 0.091848746874656578 0 -0.12551356541967384 0.090020582590181614 0 -0.12386533803842101 0.091341975976883802 0 -0.093317924592417945 0.098148900963362082 0 -0.10204171910608111 0.10097685051753137 0 -0.078866572076310593 0.10824992434059003 0 -0.078929837588110299 0.1082635687601214 0 -0.078876933927516768 0.1082329168456003 0 -0.12132281176729488 0.093329212627009217 0 -0.11998556686867913 0.090925004645659058 0 -0.11637910092038588 0.09273570990196156 0 -0.12337573836347089 0.09162661690645002 0 -0.12132281176729488 0.093329212627009217 0 -0.11998556686867913 0.090925004645659058 0 -0.12377266525039284 0.088925471725773669 0 -0.12391810732392812 0.091579520212491855 0 -0.11998556686867913 0.090925004645659058 0 -0.10204171910608111 0.10097685051753137 0 -0.10890943818433457 0.10057135680934604 0 -0.11998556686867913 0.090925004645659058 0 -0.11637910092038588 0.09273570990196156 0 -0.11617763729740409 0.088934356338570983 0 -0.11998556686867913 0.090925004645659058 0 -0.11617763729740409 0.088934356338570983 0 -0.11932775773444884 0.087167215480883964 0 -0.11617763729740409 0.088934356338570983 0 -0.11932775773444884 0.087167215480883964 0 -0.11625172668428076 0.085139999220375462 0 -0.11998556686867913 0.090925004645659058 0 -0.11932775773444884 0.087167215480883964 0 -0.12143919921214724 0.088217334970871308 0 -0.12377266525039284 0.088925471725773669 0 -0.11998556686867913 0.090925004645659058 0 -0.12143919921214724 0.088217334970871308 0 -0.12377266525039284 0.088925471725773669 0 -0.12143919921214724 0.088217334970871308 0 -0.12265107887238418 0.085882806087618321 0 -0.11932775773444884 0.087167215480883964 0 -0.12143919921214724 0.088217334970871308 0 -0.12265107887238418 0.085882806087618321 0 -0.11932775773444884 0.087167215480883964 0 -0.12265107887238418 0.085882806087618321 0 -0.11964825114210063 0.083826957113615611 0 -0.11932775773444884 0.087167215480883964 0 -0.11964825114210063 0.083826957113615611 0 -0.11625172668428076 0.085139999220375462 0 -0.11964825114210063 0.083826957113615611 0 -0.11625172668428076 0.085139999220375462 0 -0.11761489731913444 0.081586992121890384 0 -0.11761489731913444 0.081586992121890384 0 -0.12187726530932295 0.079946282750241987 0 -0.11722947893101135 0.077746716735605473 0 -0.1146974303255031 0.081760703300340923 0 -0.11761489731913444 0.081586992121890384 0 -0.11722947893101135 0.077746716735605473 0 -0.1146974303255031 0.081760703300340923 0 -0.11625172668428076 0.085139999220375462 0 -0.11761489731913444 0.081586992121890384 0 -0.12265107887238418 0.085882806087618321 0 -0.11964825114210063 0.083826957113615611 0 -0.12187726530932295 0.079946282750241987 0 -0.11964825114210063 0.083826957113615611 0 -0.11761489731913444 0.081586992121890384 0 -0.12187726530932295 0.079946282750241987 0 -0.12004681871022889 0.082630115008747021 0 -0.11896883633446882 0.080087678262843923 0 -0.12152952707954513 0.080839336410153506 0 -0.12596357194836147 0.081196951082153079 0 -0.12449693126223002 0.083715459769874531 0 -0.12265107887238418 0.085882806087618321 0 -0.12152952707954513 0.080839336410153506 0 -0.12449693126223002 0.083715459769874531 0 -0.09204026314706136 0.084255935245438132 0 -0.093054080426955912 0.089006504379735729 0 -0.10263749010218587 0.083509089052097071 0 -0.093054080426955912 0.089006504379735729 0 -0.099505757734216188 0.08169898080581274 0 -0.097508376966587915 0.081096839580197505 0 -0.099031457793631941 0.085352103738741719 0 -0.12596357194836147 0.081196951082153079 0 -0.12754618343769883 0.085506494333804653 0 -0.12449693126223002 0.083715459769874531 0 -0.079456297177600152 0.089172605090557924 0 -0.079698978905476725 0.087211954954013432 0 -0.077993672973903222 0.088089100723892033 0 -0.089341648098278825 0.09347256967950425 0 -0.090019083049240459 0.093622157515523899 0 -0.089090872227901421 0.091075449692344768 0 -0.087319165181197159 0.09215176769794825 0 -0.093054080426955912 0.089006504379735729 0 -0.1251934329195746 0.087114055453924547 0 -0.12265107887238418 0.085882806087618321 0 -0.12449693126223002 0.083715459769874531 0 -0.1251934329195746 0.087114055453924547 0 -0.12754618343769883 0.085506494333804653 0 -0.12449693126223002 0.083715459769874531 0 -0.07579966202024209 0.088036915223675641 0 -0.07655973348293206 0.087266260576103774 0 -0.07661322157031826 0.088340735025921505 0 -0.07579966202024209 0.088036915223675641 0 -0.07655973348293206 0.087266260576103774 0 -0.075042300560284297 0.087206609395134818 0 -0.07655973348293206 0.087266260576103774 0 -0.075042300560284297 0.087206609395134818 0 -0.076664851899264863 0.085796281317528422 0 -0.07655973348293206 0.087266260576103774 0 -0.07727167670075212 0.0868654801804217 0 -0.076679886420264243 0.085875130322111526 0 -0.081037400734915985 0.090193614401016614 0 -0.082314491567655787 0.0930602086361626 0 -0.07727167670075212 0.0868654801804217 0 -0.077790913525458805 0.088166503308823585 0 -0.077987591428949399 0.086156703702094509 0 -0.079698978905476725 0.087211954954013432 0 -0.077993672973903222 0.088089100723892033 0 -0.078261528251238999 0.085975036009566255 0 -0.07655973348293206 0.087266260576103774 0 -0.077790913525458805 0.088166503308823585 0 -0.07661322157031826 0.088340735025921505 0 -0.07655973348293206 0.087266260576103774 0 -0.07727167670075212 0.0868654801804217 0 -0.077790913525458805 0.088166503308823585 0 -0.077790913525458805 0.088166503308823585 0 -0.077011067011679091 0.089296854722408656 0 -0.07661322157031826 0.088340735025921505 0 -0.077790913525458805 0.088166503308823585 0 -0.077011067011679091 0.089296854722408656 0 -0.077667101541486025 0.090288658644759254 0 -0.081037400734915985 0.090193614401016614 0 -0.080574276640195633 0.090055002268153189 0 -0.079456297177600152 0.089172605090557924 0 -0.077993672973903222 0.088089100723892033 0 -0.077667101541486025 0.090288658644759254 0 -0.077011067011679091 0.089296854722408656 0 -0.075911732650159505 0.08908835465478096 0 -0.076772584222446941 0.090520754228640268 0 -0.075911732650159505 0.08908835465478096 0 -0.074411605753421858 0.089785714069895842 0 -0.076772584222446941 0.090520754228640268 0 -0.077011067011679091 0.089296854722408656 0 -0.07661322157031826 0.088340735025921505 0 -0.075911732650159505 0.08908835465478096 0 -0.07579966202024209 0.088036915223675641 0 -0.07661322157031826 0.088340735025921505 0 -0.075911732650159505 0.08908835465478096 0 -0.07579966202024209 0.088036915223675641 0 -0.075911732650159505 0.08908835465478096 0 -0.074910838824174417 0.088533592163614672 0 -0.075911732650159505 0.08908835465478096 0 -0.074411605753421858 0.089785714069895842 0 -0.074910838824174417 0.088533592163614672 0 -0.074411605753421858 0.089785714069895842 0 -0.074910838824174417 0.088533592163614672 0 -0.073459042796211821 0.088659789475227596 0 -0.07501927102230975 0.083532790082007355 0 -0.074371853071246857 0.084341264933637361 0 -0.072588998425461806 0.088685539302169741 0 -0.072869283389251679 0.088834718162508805 0 -0.071888086611987603 0.086479965338113141 0 -0.074411605753421858 0.089785714069895842 0 -0.072588998425461806 0.088685539302169741 0 -0.073459042796211821 0.088659789475227596 0 -0.072588998425461806 0.088685539302169741 0 -0.072824724708372549 0.088400396488381661 0 -0.072869283389251679 0.088834718162508805 0 -0.072588998425461806 0.088685539302169741 0 -0.073459042796211821 0.088659789475227596 0 -0.072824724708372549 0.088400396488381661 0 -0.073459042796211821 0.088659789475227596 0 -0.072824724708372549 0.088400396488381661 0 -0.073606417394604481 0.088069755337851163 0 -0.072824724708372549 0.088400396488381661 0 -0.073606417394604481 0.088069755337851163 0 -0.072824220918289759 0.087767412783504889 0 -0.073606417394604481 0.088069755337851163 0 -0.072824220918289759 0.087767412783504889 0 -0.074435478312488257 0.087211959343897708 0 -0.074910838824174417 0.088533592163614672 0 -0.073459042796211821 0.088659789475227596 0 -0.075042300560284297 0.087206609395134818 0 -0.07579966202024209 0.088036915223675641 0 -0.074910838824174417 0.088533592163614672 0 -0.075042300560284297 0.087206609395134818 0 -0.073459042796211821 0.088659789475227596 0 -0.073606417394604481 0.088069755337851163 0 -0.075013644565924908 0.087998144958034347 0 -0.077297130732349992 0.091648449510322971 0 -0.077866791176613853 0.09220702272952952 0 -0.073606417394604481 0.088069755337851163 0 -0.075013644565924908 0.087998144958034347 0 -0.074435478312488257 0.087211959343897708 0 -0.074435478312488257 0.087211959343897708 0 -0.074094653853494286 0.085827725761278922 0 -0.076654207729665677 0.086655919283511323 0 -0.072524891623198917 0.097607404492262087 0 -0.078312283731367116 0.095312090384432641 0 -0.072824220918289759 0.087767412783504889 0 -0.074435478312488257 0.087211959343897708 0 -0.074094653853494286 0.085827725761278922 0 -0.072824220918289759 0.087767412783504889 0 -0.074094653853494286 0.085827725761278922 0 -0.069862676573471685 0.084335573321583771 0 -0.072524891623198917 0.097607404492262087 0 -0.06710882469378035 0.098021293026848713 0 -0.070173699982213705 0.11553592409819925 0 -0.067123348283994286 0.11131590164604527 0 -0.06468653031697319 0.11444939674805275 0 -0.070173699982213705 0.11553592409819925 0 -0.073914829197094689 0.11453054289528329 0 -0.071689666961888401 0.11159780444279986 0 -0.070173699982213705 0.11553592409819925 0 -0.071689666961888401 0.11159780444279986 0 -0.067123348283994286 0.11131590164604527 0 -0.073914829197094689 0.11453054289528329 0 -0.076324860855487647 0.11236004229654617 0 -0.071689666961888401 0.11159780444279986 0 -0.073914829197094689 0.11453054289528329 0 -0.07559237516681927 0.11666374488377812 0 -0.076324860855487647 0.11236004229654617 0 -0.078312283731367116 0.095312090384432641 0 -0.079100939257510938 0.10240609711643164 0 -0.079100939257510938 0.10240609711643164 0 -0.076617542129102684 0.10384847475351873 0 -0.075013644565924908 0.087998144958034347 0 -0.074435478312488257 0.087211959343897708 0 -0.076654207729665677 0.086655919283511323 0 -0.070173699982213705 0.11553592409819925 0 -0.073914829197094689 0.11453054289528329 0 -0.07559237516681927 0.11666374488377812 0 -0.078292884283568814 0.093171911155853757 0 -0.078312283731367116 0.095312090384432641 0 -0.077866791176613853 0.09220702272952952 0 -0.078312283731367116 0.095312090384432641 0 -0.083255045466375119 0.095113630436116536 0 -0.082943246384808433 0.095043540637303206 0 -0.082902873935844085 0.095441320166272742 0 -0.082314491567655787 0.0930602086361626 0 -0.083153499855254234 0.097263593534675577 0 -0.083266116741968529 0.090980459357273807 0 -0.085373985199309207 0.091448496211587446 0 -0.084986885540695889 0.094884336212336759 0 -0.087319165181197159 0.09215176769794825 0 -0.082314491567655787 0.0930602086361626 0 -0.07727167670075212 0.0868654801804217 0 -0.076679886420264243 0.085875130322111526 0 -0.077987591428949399 0.086156703702094509 0 -0.078312283731367116 0.095312090384432641 0 -0.082314491567655787 0.0930602086361626 0 -0.078312283731367116 0.095312090384432641 0 -0.083153499855254234 0.097263593534675577 0 -0.078893683923978358 0.098103318924830582 0 -0.078789442045740857 0.098317614285008334 0 -0.078852711023828168 0.098394402950164328 0 -0.07870749632416546 0.098288242044247853 0 -0.078789442045740857 0.098317614285008334 0 -0.078704238251296466 0.09832816822781143 0 -0.084292710476927685 0.099000599984281262 0 -0.083153499855254234 0.097263593534675577 0 -0.081270544142306292 0.099511990682005974 0 -0.08045708098505476 0.1002344350519444 0 -0.080506008019052236 0.099799960585993636 0 -0.083153499855254234 0.097263593534675577 0 -0.082730559014866506 0.098745650850705816 0 -0.078893683923978358 0.098103318924830582 0 -0.07870749632416546 0.098288242044247853 0 -0.078789442045740857 0.098317614285008334 0 -0.079100939257510938 0.10240609711643164 0 -0.082350406845775728 0.10013721930575969 0 -0.078789442045740857 0.098317614285008334 0 -0.078852711023828168 0.098394402950164328 0 -0.078700457434768722 0.098365839484373774 0 -0.084292710476927685 0.099000599984281262 0 -0.082350406845775728 0.10013721930575969 0 -0.081270544142306292 0.099511990682005974 0 -0.080552415113925246 0.099387400348247473 0 -0.080506008019052236 0.099799960585993636 0 -0.082350406845775728 0.10013721930575969 0 -0.082730559014866506 0.098745650850705816 0 -0.078789442045740857 0.098317614285008334 0 -0.078700457434768722 0.098365839484373774 0 -0.078704238251296466 0.09832816822781143 0 -0.07864363558070063 0.10825267792765968 0 -0.07859602447808256 0.1083159881572328 0 -0.078546290183259093 0.10818239057879585 0 -0.082350406845775728 0.10013721930575969 0 -0.081795584868185889 0.10272000025533548 0 -0.078544873710146443 0.10833749798996117 0 -0.078546290183259093 0.10818239057879585 0 -0.078382667739225406 0.10813338060330631 0 -0.079100939257510938 0.10240609711643164 0 -0.079676873222207373 0.10449499042522264 0 -0.081537696424408945 0.10065746949305429 0 -0.08011081898324493 0.10040842267675773 0 -0.081228703874267838 0.10303352976138289 0 -0.082350406845775728 0.10013721930575969 0 -0.079676873222207373 0.10449499042522264 0 -0.076277035789183628 0.11236073418436567 0 -0.0748147189773615 0.11012390886182902 0 -0.076791524695105445 0.10835610745792439 0 -0.0748147189773615 0.11012390886182902 0 -0.073698045233606305 0.10800741997155826 0 -0.071689666961888401 0.11159780444279986 0 -0.076277035789183628 0.11236073418436567 0 -0.0748147189773615 0.11012390886182902 0 -0.071689666961888401 0.11159780444279986 0 -0.0748147189773615 0.11012390886182902 0 -0.073698045233606305 0.10800741997155826 0 -0.076791524695105445 0.10835610745792439 0 -0.073698045233606305 0.10800741997155826 0 -0.075820396848644819 0.1057347425843002 0 -0.076791524695105445 0.10835610745792439 0 -0.073698045233606305 0.10800741997155826 0 -0.075820396848644819 0.1057347425843002 0 -0.073285362816461738 0.1052054809036652 0 -0.079676873222207373 0.10449499042522264 0 -0.078219266604967058 0.10517790391832349 0 -0.075820396848644819 0.1057347425843002 0 -0.0767782406051878 0.10832344591579936 0 -0.077311090116675654 0.10416564642028825 0 -0.078382667739225406 0.10813338060330631 0 -0.078433562427586409 0.10804367352779327 0 -0.0781185209165461 0.10795690562272803 0 -0.078546290183259093 0.10818239057879585 0 -0.078382667739225406 0.10813338060330631 0 -0.078433562427586409 0.10804367352779327 0 -0.079476142329719723 0.10476729519512873 0 -0.079676873222207373 0.10449499042522264 0 -0.078433562427586409 0.10804367352779327 0 -0.078457017874913257 0.10783524906694236 0 -0.0781185209165461 0.10795690562272803 0 -0.077311090116675654 0.10416564642028825 0 -0.074525925708751356 0.10289446119127708 0 -0.077848766100738986 0.099989454276524739 0 -0.078457017874913257 0.10783524906694236 0 -0.0781185209165461 0.10795690562272803 0 -0.078323322483743504 0.10711201286618736 0 -0.075820396848644819 0.1057347425843002 0 -0.077311090116675654 0.10416564642028825 0 -0.074525925708751356 0.10289446119127708 0 -0.075820396848644819 0.1057347425843002 0 -0.073285362816461738 0.1052054809036652 0 -0.074525925708751356 0.10289446119127708 0 -0.073285362816461738 0.1052054809036652 0 -0.074525925708751356 0.10289446119127708 0 -0.071484481002681691 0.10276046995467737 0 -0.074525925708751356 0.10289446119127708 0 -0.073683221604873159 0.099517222350799614 0 -0.071484481002681691 0.10276046995467737 0 -0.07299624567780981 0.1056170749566647 0 -0.073106535075597279 0.10499993508274282 0 -0.077253281321997963 0.10609454982229441 0 -0.074525925708751356 0.10289446119127708 0 -0.073683221604873159 0.099517222350799614 0 -0.077848766100738986 0.099989454276524739 0 -0.074507814150552201 0.10475899399539391 0 -0.077057050175021347 0.10480155788580778 0 -0.073106535075597279 0.10499993508274282 0 -0.077395869004387829 0.10500002572610449 0 -0.077253281321997963 0.10609454982229441 0 -0.0781185209165461 0.10795690562272803 0 -0.077440492779319747 0.10610737068909658 0 -0.078323322483743504 0.10711201286618736 0 -0.078219266604967058 0.10517790391832349 0 -0.077057050175021347 0.10480155788580778 0 -0.080088981476376719 0.10680373317624137 0 -0.077397445019553826 0.1050004710250297 0 -0.077440492779319747 0.10610737068909658 0 -0.077392609905320653 0.10499888735816928 0 -0.077057050175021347 0.10480155788580778 0 -0.080088981476376719 0.10680373317624137 0 -0.077440492779319747 0.10610737068909658 0 -0.078323322483743504 0.10711201286618736 0 -0.074198682461902102 0.10570106883918119 0 -0.067590042372709588 0.10785201377810907 0 -0.069509064418826538 0.099048127696697089 0 -0.071484481002681691 0.10276046995467737 0 -0.067225104524084381 0.10322604062022316 0 -0.067063073542091692 0.10500643662846075 0 -0.069033499169974907 0.092440548185499238 0 -0.066344310086847158 0.10051543498282722 0 -0.067063073542091692 0.10500643662846075 0 -0.011179591846481938 0.09606646911765733 0 -0.069033499169974907 0.092440548185499238 0 -0.06739526532248663 0.10500221016853162 0 -0.074198682461902102 0.10570106883918119 0 -0.074507814150552201 0.10475899399539391 0 -0.074198682461902102 0.10570106883918119 0 -0.073683221604873159 0.099517222350799614 0 -0.069509064418826538 0.099048127696697089 0 -0.071484481002681691 0.10276046995467737 0 -0.07299624567780981 0.1056170749566647 0 -0.073106535075597279 0.10499993508274282 0 -0.068737025633468063 0.10485099547351157 0 -0.073285362816461738 0.1052054809036652 0 -0.071484481002681691 0.10276046995467737 0 -0.070892022724041534 0.10664093810605799 0 -0.071484481002681691 0.10276046995467737 0 -0.067225104524084381 0.10322604062022316 0 -0.070892022724041534 0.10664093810605799 0 -0.067225104524084381 0.10322604062022316 0 -0.068019523800317616 0.10788784979164692 0 -0.064891830293597672 0.10742995165184281 0 -0.067225104524084381 0.10322604062022316 0 -0.068019523800317616 0.10788784979164692 0 -0.070892022724041534 0.10664093810605799 0 -0.073698045233606305 0.10800741997155826 0 -0.073285362816461738 0.1052054809036652 0 -0.070892022724041534 0.10664093810605799 0 -0.073698045233606305 0.10800741997155826 0 -0.070892022724041534 0.10664093810605799 0 -0.071689666961888401 0.11159780444279986 0 -0.068019523800317616 0.10788784979164692 0 -0.070892022724041534 0.10664093810605799 0 -0.071689666961888401 0.11159780444279986 0 -0.068019523800317616 0.10788784979164692 0 -0.071689666961888401 0.11159780444279986 0 -0.067123348283994286 0.11131590164604527 0 -0.068019523800317616 0.10788784979164692 0 -0.067123348283994286 0.11131590164604527 0 -0.064891830293597672 0.10742995165184281 0 -0.065211504433587295 0.10940310861062957 0 -0.066315201145649524 0.10794487048919539 0 -0.067123348283994286 0.11131590164604527 0 -0.06249794109089897 0.11177067118884713 0 -0.064891830293597672 0.10742995165184281 0 -0.06249794109089897 0.11177067118884713 0 -0.058719281624906985 0.11032402613155375 0 -0.059041424595922383 0.11321491856410405 0 -0.06249794109089897 0.11177067118884713 0 -0.059775209889987982 0.1076888655678222 0 -0.058719281624906985 0.11032402613155375 0 -0.06249794109089897 0.11177067118884713 0 -0.059775209889987982 0.1076888655678222 0 -0.065511594624354227 0.10665778127813721 0 -0.059775209889987982 0.1076888655678222 0 -0.065511594624354227 0.10665778127813721 0 -0.063370516256748527 0.10114662733317975 0 -0.067590042372709588 0.10785201377810907 0 -0.066315201145649524 0.10794487048919539 0 -0.069033499169974907 0.092440548185499238 0 -0.063370516256748527 0.10114662733317975 0 -0.066344310086847158 0.10051543498282722 0 -0.069033499169974907 0.092440548185499238 0 -0.065511594624354227 0.10665778127813721 0 -0.063370516256748527 0.10114662733317975 0 -0.059775209889987982 0.1076888655678222 0 -0.063370516256748527 0.10114662733317975 0 -0.05926845413231932 0.10415836256402165 0 -0.062255705098026845 0.10498857549324409 0 -0.056897966148659031 0.10499976480648315 0 -0.05926845413231932 0.10415836256402165 0 -0.063370516256748527 0.10114662733317975 0 -0.062255705098026845 0.10498857549324409 0 -0.05926845413231932 0.10415836256402165 0 -0.063370516256748527 0.10114662733317975 0 -0.062255705098026845 0.10498857549324409 0 -0.066344310086847158 0.10051543498282722 0 -0.067063073542091692 0.10500643662846075 0 -0.062255705098026845 0.10498857549324409 0 -0.066344310086847158 0.10051543498282722 0 -0.052982071864460772 0.10599839624846939 0 -0.051708326313985753 0.10499671869823532 0 -0.055333150589468888 0.10535157886910824 0 -0.051708326313985753 0.10499671869823532 0 -0.055333150589468888 0.10535157886910824 0 -0.056897966148659031 0.10499976480648315 0 -0.055333150589468888 0.10535157886910824 0 -0.056897966148659031 0.10499976480648315 0 -0.05926845413231932 0.10415836256402165 0 -0.055333150589468888 0.10535157886910824 0 -0.05926845413231932 0.10415836256402165 0 -0.055511649398300063 0.10673457432091754 0 -0.059775209889987982 0.1076888655678222 0 -0.05926845413231932 0.10415836256402165 0 -0.055511649398300063 0.10673457432091754 0 -0.052982071864460772 0.10599839624846939 0 -0.055333150589468888 0.10535157886910824 0 -0.055511649398300063 0.10673457432091754 0 -0.052210820266117224 0.10849598322671482 0 -0.055511649398300063 0.10673457432091754 0 -0.056031748536841626 0.10986600677473385 0 -0.059775209889987982 0.1076888655678222 0 -0.055511649398300063 0.10673457432091754 0 -0.056031748536841626 0.10986600677473385 0 -0.059775209889987982 0.1076888655678222 0 -0.058719281624906985 0.11032402613155375 0 -0.056031748536841626 0.10986600677473385 0 -0.058719281624906985 0.11032402613155375 0 -0.056031748536841626 0.10986600677473385 0 -0.059041424595922383 0.11321491856410405 0 -0.050808175445295936 0.1081468918424674 0 -0.05332132290570929 0.10901989543906457 0 -0.056031748536841626 0.10986600677473385 0 -0.053757745494642052 0.11194174497944608 0 -0.059041424595922383 0.11321491856410405 0 -0.050501630658327371 0.10768847340459563 0 -0.056031748536841626 0.10986600677473385 0 -0.053757745494642052 0.11194174497944608 0 -0.05653490993834108 0.08099035617675919 0 -0.057164771355037322 0.087819624186458181 0 -0.060950899211896455 0.085824360711849859 0 -0.057164771355037322 0.087819624186458181 0 -0.060950899211896455 0.085824360711849859 0 -0.06248716777366406 0.091659198709364481 0 -0.060950899211896455 0.085824360711849859 0 -0.064692472990256197 0.086151558108266663 0 -0.06248716777366406 0.091659198709364481 0 -0.060950899211896455 0.085824360711849859 0 -0.063752080277777928 0.082644151611567379 0 -0.064692472990256197 0.086151558108266663 0 -0.055106279352631182 0.09665346210531052 0 -0.06127823154167282 0.097504095519845721 0 -0.05653490993834108 0.08099035617675919 0 -0.060950899211896455 0.085824360711849859 0 -0.063752080277777928 0.082644151611567379 0 -0.06249794109089897 0.11177067118884713 0 -0.059041424595922383 0.11321491856410405 0 -0.06468653031697319 0.11444939674805275 0 -0.063752080277777928 0.082644151611567379 0 -0.069862676573471685 0.084335573321583771 0 -0.064692472990256197 0.086151558108266663 0 -0.06127823154167282 0.097504095519845721 0 -0.06710882469378035 0.098021293026848713 0 -0.067123348283994286 0.11131590164604527 0 -0.06249794109089897 0.11177067118884713 0 -0.06468653031697319 0.11444939674805275 0 -0.072824220918289759 0.087767412783504889 0 -0.069862676573471685 0.084335573321583771 0 -0.06770190427600567 0.089221414741358904 0 -0.064253877342092938 0.086678469340290387 0 -0.063399037327185576 0.08583713908389877 0 -0.069862676573471685 0.084335573321583771 0 -0.064692472990256197 0.086151558108266663 0 -0.06770190427600567 0.089221414741358904 0 -0.064692472990256197 0.086151558108266663 0 -0.06830791182227236 0.090566046248224633 0 -0.06248716777366406 0.091659198709364481 0 -0.054665629532789854 0.081316717736712757 0 -0.054557609262177245 0.081871778392843098 0 -0.053991417023476436 0.081450867022387338 0 -0.063399037327185576 0.08583713908389877 0 -0.058532418818843662 0.086253268489836415 0 -0.072824724708372549 0.088400396488381661 0 -0.072824220918289759 0.087767412783504889 0 -0.072027160177220162 0.088098143125798195 0 -0.063399037327185576 0.08583713908389877 0 -0.06394458733215358 0.084667743615475258 0 -0.068291346142160911 0.085783251669797625 0 -0.063399037327185576 0.08583713908389877 0 -0.072824724708372549 0.088400396488381661 0 -0.072027160177220162 0.088098143125798195 0 -0.072869283389251679 0.088834718162508805 0 -0.05515469999643622 0.081848742417345063 0 -0.054557609262177245 0.081871778392843098 0 -0.055059430847188416 0.082487644161671925 0 -0.054665629532789854 0.081316717736712757 0 -0.05515469999643622 0.081848742417345063 0 -0.054557609262177245 0.081871778392843098 0 -0.054557609262177245 0.081871778392843098 0 -0.054130180798784198 0.081885123631506448 0 -0.053991417023476436 0.081450867022387338 0 -0.054557609262177245 0.081871778392843098 0 -0.054130180798784198 0.081885123631506448 0 -0.054180711209118208 0.082323143098920207 0 -0.054130180798784198 0.081885123631506448 0 -0.05379078684378702 0.081898901809774757 0 -0.054180711209118208 0.082323143098920207 0 -0.05379078684378702 0.081898901809774757 0 -0.05329437385657651 0.082198644705210364 0 -0.054180711209118208 0.082323143098920207 0 -0.054130180798784198 0.081885123631506448 0 -0.05379078684378702 0.081898901809774757 0 -0.053991417023476436 0.081450867022387338 0 -0.05379078684378702 0.081898901809774757 0 -0.053310674961212501 0.0815862437823619 0 -0.05329437385657651 0.082198644705210364 0 -0.054283283685212229 0.086461990694001206 0 -0.058532418818843662 0.086253268489836415 0 -0.057164771355037322 0.087819624186458181 0 -0.056743543301783196 0.09276115122725595 0 -0.06248716777366406 0.091659198709364481 0 -0.05379078684378702 0.081898901809774757 0 -0.053310674961212501 0.0815862437823619 0 -0.053991417023476436 0.081450867022387338 0 -0.052849923699066693 0.082884202339954083 0 -0.053134833100714415 0.083751453453901031 0 -0.053644755235417833 0.083398627733052233 0 -0.052849923699066693 0.082884202339954083 0 -0.053134833100714415 0.083751453453901031 0 -0.052271430503043531 0.083605662944167006 0 -0.052271430503043531 0.083605662944167006 0 -0.051500408879462986 0.083130835593310179 0 -0.051723968449378023 0.083991074035661875 0 -0.0506283621517679 0.084207467385488191 0 -0.051500408879462986 0.083130835593310179 0 -0.051723968449378023 0.083991074035661875 0 -0.052849923699066693 0.082884202339954083 0 -0.052271430503043531 0.083605662944167006 0 -0.051500408879462986 0.083130835593310179 0 -0.051519341642520734 0.083379740816881417 0 -0.051018677566293635 0.083495316578484441 0 -0.052849923699066693 0.082884202339954083 0 -0.051500408879462986 0.083130835593310179 0 -0.051359252997925181 0.081803334786684861 0 -0.051018677566293635 0.083495316578484441 0 -0.053252013700384564 0.083030084536812696 0 -0.052849923699066693 0.082884202339954083 0 -0.051424801657791355 0.081820341376431877 0 -0.053223526241728839 0.082098902995746278 0 -0.053252013700384564 0.083030084536812696 0 -0.054103310755933665 0.082948468526746297 0 -0.054557609262177245 0.081871778392843098 0 -0.054180711209118208 0.082323143098920207 0 -0.055059430847188416 0.082487644161671925 0 -0.052849923699066693 0.082884202339954083 0 -0.053223526241728839 0.082098902995746278 0 -0.053917620080153578 0.082847831999405777 0 -0.053223526241728839 0.082098902995746278 0 -0.055059430847188416 0.082487644161671925 0 -0.053917620080153578 0.082847831999405777 0 -0.055059430847188416 0.082487644161671925 0 -0.054617889851523813 0.083037348977144126 0 -0.053917620080153578 0.082847831999405777 0 -0.055059430847188416 0.082487644161671925 0 -0.054617889851523813 0.083037348977144126 0 -0.05535935965549045 0.08295592852538651 0 -0.054617889851523813 0.083037348977144126 0 -0.055150952754722711 0.083409481510969719 0 -0.05535935965549045 0.08295592852538651 0 -0.054617889851523813 0.083037348977144126 0 -0.054678841363866068 0.083555062084190654 0 -0.054153697826908265 0.083251433866711105 0 -0.054678841363866068 0.083555062084190654 0 -0.054098964094555002 0.08365809811759288 0 -0.054311966793582453 0.084078296738443956 0 -0.054678841363866068 0.083555062084190654 0 -0.054153697826908265 0.083251433866711105 0 -0.054098964094555002 0.08365809811759288 0 -0.054678841363866068 0.083555062084190654 0 -0.054963428562441727 0.083711106644608721 0 -0.054782316992942434 0.084028259118710924 0 -0.054617889851523813 0.083037348977144126 0 -0.054678841363866068 0.083555062084190654 0 -0.055150952754722711 0.083409481510969719 0 -0.054678841363866068 0.083555062084190654 0 -0.054963428562441727 0.083711106644608721 0 -0.055150952754722711 0.083409481510969719 0 -0.054963428562441727 0.083711106644608721 0 -0.055150952754722711 0.083409481510969719 0 -0.055240006440250747 0.083853987929038004 0 -0.052849923699066693 0.082884202339954083 0 -0.053917620080153578 0.082847831999405777 0 -0.053644755235417833 0.083398627733052233 0 -0.054617889851523813 0.083037348977144126 0 -0.053917620080153578 0.082847831999405777 0 -0.054153697826908265 0.083251433866711105 0 -0.053917620080153578 0.082847831999405777 0 -0.054153697826908265 0.083251433866711105 0 -0.053644755235417833 0.083398627733052233 0 -0.054153697826908265 0.083251433866711105 0 -0.054098964094555002 0.08365809811759288 0 -0.053644755235417833 0.083398627733052233 0 -0.054098964094555002 0.08365809811759288 0 -0.053644755235417833 0.083398627733052233 0 -0.053709887810457269 0.083993332892540601 0 -0.053134833100714415 0.083751453453901031 0 -0.053644755235417833 0.083398627733052233 0 -0.053709887810457269 0.083993332892540601 0 -0.053134833100714415 0.083751453453901031 0 -0.053709887810457269 0.083993332892540601 0 -0.0530765529767597 0.084517426988059793 0 -0.053709887810457269 0.083993332892540601 0 -0.054004932055276643 0.084519557628091074 0 -0.054311966793582453 0.084078296738443956 0 -0.054098964094555002 0.08365809811759288 0 -0.053709887810457269 0.083993332892540601 0 -0.054311966793582453 0.084078296738443956 0 -0.054004932055276643 0.084519557628091074 0 -0.05352522449906294 0.085041778625541797 0 -0.0530765529767597 0.084517426988059793 0 -0.053709887810457269 0.083993332892540601 0 -0.054004932055276643 0.084519557628091074 0 -0.0530765529767597 0.084517426988059793 0 -0.055033141015985811 0.084191865255264522 0 -0.055240006440250747 0.083853987929038004 0 -0.055430922204510159 0.084326153005814544 0 -0.055033141015985811 0.084191865255264522 0 -0.055240006440250747 0.083853987929038004 0 -0.054782316992942434 0.084028259118710924 0 -0.054963428562441727 0.083711106644608721 0 -0.055240006440250747 0.083853987929038004 0 -0.054782316992942434 0.084028259118710924 0 -0.055033141015985811 0.084191865255264522 0 -0.054782316992942434 0.084028259118710924 0 -0.054827915544761581 0.084395715826896589 0 -0.054782316992942434 0.084028259118710924 0 -0.054311966793582453 0.084078296738443956 0 -0.054827915544761581 0.084395715826896589 0 -0.054678841363866068 0.083555062084190654 0 -0.054782316992942434 0.084028259118710924 0 -0.054311966793582453 0.084078296738443956 0 -0.054004932055276643 0.084519557628091074 0 -0.054827915544761581 0.084395715826896589 0 -0.054674227115551546 0.085112474535404811 0 -0.054004932055276643 0.084519557628091074 0 -0.054311966793582453 0.084078296738443956 0 -0.054827915544761581 0.084395715826896589 0 -0.055033141015985811 0.084191865255264522 0 -0.054827915544761581 0.084395715826896589 0 -0.055430922204510159 0.084326153005814544 0 -0.054827915544761581 0.084395715826896589 0 -0.054674227115551546 0.085112474535404811 0 -0.055561188148094437 0.084485189117677634 0 -0.058777811128577523 0.046271320563194454 0 -0.060193823573646887 0.047081037136138017 0 -0.060287299580908456 0.045269402232548141 0 -0.058777811128577523 0.046271320563194454 0 -0.057299166248765181 0.047285745553997595 0 -0.058952850976029592 0.04815922397907843 0 -0.058777811128577523 0.046271320563194454 0 -0.058952850976029592 0.04815922397907843 0 -0.060193823573646887 0.047081037136138017 0 -0.056512825638457817 0.066942543431316157 0 -0.060519319749200759 0.071720318435384858 0 -0.054004932055276643 0.084519557628091074 0 -0.054674227115551546 0.085112474535404811 0 -0.05352522449906294 0.085041778625541797 0 -0.054674227115551546 0.085112474535404811 0 -0.05352522449906294 0.085041778625541797 0 -0.053762751555595643 0.085727391238901815 0 -0.056512825638457817 0.066942543431316157 0 -0.05182442564687418 0.062901582296709266 0 -0.05182442564687418 0.062901582296709266 0 -0.048668418065449547 0.071858084113055928 0 -0.05352522449906294 0.085041778625541797 0 -0.053762751555595643 0.085727391238901815 0 -0.052845005352328049 0.085256747036345365 0 -0.04519940055012555 0.061936547247082793 0 -0.044464364250950808 0.061559134205690265 0 -0.044681066883168953 0.062370118552730218 0 -0.052845005352328049 0.085256747036345365 0 -0.0530765529767597 0.084517426988059793 0 -0.051923962360279088 0.084780603990227771 0 -0.045947573448774676 0.062331055066153052 0 -0.04519940055012555 0.061936547247082793 0 -0.045275944955421948 0.062773513644341639 0 -0.048668418065449547 0.071858084113055928 0 -0.04466125836205858 0.080008328337022733 0 -0.05352522449906294 0.085041778625541797 0 -0.052845005352328049 0.085256747036345365 0 -0.0530765529767597 0.084517426988059793 0 -0.0530765529767597 0.084517426988059793 0 -0.052360597928950141 0.084159327397102163 0 -0.051923962360279088 0.084780603990227771 0 -0.053134833100714415 0.083751453453901031 0 -0.052271430503043531 0.083605662944167006 0 -0.052360597928950141 0.084159327397102163 0 -0.053134833100714415 0.083751453453901031 0 -0.0530765529767597 0.084517426988059793 0 -0.052360597928950141 0.084159327397102163 0 -0.0506283621517679 0.084207467385488191 0 -0.051723968449378023 0.083991074035661875 0 -0.051865729494208326 0.084868506307206895 0 -0.039670096956713745 0.08688483052316251 0 -0.04466125836205858 0.080008328337022733 0 -0.052271430503043531 0.083605662944167006 0 -0.052360597928950141 0.084159327397102163 0 -0.051723968449378023 0.083991074035661875 0 -0.052360597928950141 0.084159327397102163 0 -0.051723968449378023 0.083991074035661875 0 -0.051865729494208326 0.084868506307206895 0 -0.04516199698175874 0.080184288422709193 0 -0.04466125836205858 0.080008328337022733 0 -0.037995101212884325 0.073694438620268421 0 -0.04466125836205858 0.080008328337022733 0 -0.043864119696415613 0.062386867498985019 0 -0.044464364250950808 0.061559134205690265 0 -0.044681066883168953 0.062370118552730218 0 -0.029328101902561719 0.099207885967373663 0 -0.031272396292528322 0.10411693724407632 0 -0.035701119608289526 0.097695603407800355 0 -0.043864119696415613 0.062386867498985019 0 -0.044681066883168953 0.062370118552730218 0 -0.044609800316270515 0.063203265819774118 0 -0.055450553040424656 0.0481033669315237 0 -0.053855768540812136 0.04918670529378321 0 -0.056753200609660583 0.049095756474877607 0 -0.044681066883168953 0.062370118552730218 0 -0.045275944955421948 0.062773513644341639 0 -0.044609800316270515 0.063203265819774118 0 -0.04519940055012555 0.061936547247082793 0 -0.044681066883168953 0.062370118552730218 0 -0.045275944955421948 0.062773513644341639 0 -0.050394567983710663 0.056240666759326229 0 -0.048730390592769394 0.049904931481112635 0 -0.053464181507829174 0.011930520764642495 0 -0.054741262823947562 0.014049191337301951 0 -0.056114850255914298 0.012456981509150046 0 -0.048730390592769394 0.049904931481112635 0 -0.052643210619373923 0.049697389795698994 0 -0.053897301531490402 0.049092117184947243 0 -0.056753200609660583 0.049095756474877607 0 -0.056185182787921152 0.050310811026610121 0 -0.052931950449931243 0.049737102063172993 0 -0.053897301531490402 0.049092117184947243 0 -0.056185182787921152 0.050310811026610121 0 -0.050163925062346494 0.042700864933432066 0 -0.055245223003926112 0.036084907876973743 0 -0.037742424863864664 0.054850828269967213 0 -0.048730390592769394 0.049904931481112635 0 -0.03894778221609034 0.050724783632439256 0 -0.047848608101868501 0.053101580232630251 0 -0.051709227100094325 0.050474461564752611 0 -0.050163925062346494 0.042700864933432066 0 -0.048730390592769394 0.049904931481112635 0 -0.053464181507829174 0.011930520764642495 0 -0.053145578262648853 0.013643479634987011 0 -0.054741262823947562 0.014049191337301951 0 -0.053145578262648853 0.013643479634987011 0 -0.054741262823947562 0.014049191337301951 0 -0.053263686111145951 0.015172273019205816 0 -0.054741262823947562 0.014049191337301951 0 -0.056914486898078126 0.014642029341878972 0 -0.056114850255914298 0.012456981509150046 0 -0.061163021857314828 0.020685217941347558 0 -0.058605928018688566 0.018752084474908087 0 -0.054741262823947562 0.014049191337301951 0 -0.056914486898078126 0.014642029341878972 0 -0.055160001768843232 0.016360217213647346 0 -0.054741262823947562 0.014049191337301951 0 -0.053263686111145951 0.015172273019205816 0 -0.055160001768843232 0.016360217213647346 0 -0.059882775479531539 0.012388630293348139 0 -0.06409154253483712 0.013244266997427786 0 -0.061417240149145375 0.016332034322660841 0 -0.056914486898078126 0.014642029341878972 0 -0.05868353908101949 0.012952452647173381 0 -0.056114850255914298 0.012456981509150046 0 -0.061163021857314828 0.020685217941347558 0 -0.059551222284541294 0.03247380731608572 0 -0.059882775479531539 0.012388630293348139 0 -0.062678390322693553 0.0097838779669968904 0 -0.06409154253483712 0.013244266997427786 0 -0.059332162553277806 0.050781301241720499 0 -0.056753200609660583 0.049095756474877607 0 -0.058952850976029592 0.04815922397907843 0 -0.059332162553277806 0.050781301241720499 0 -0.056753200609660583 0.049095756474877607 0 -0.056185182787921152 0.050310811026610121 0 -0.059551222284541294 0.03247380731608572 0 -0.055245223003926112 0.036084907876973743 0 -0.057013258100914163 0.047075758164406768 0 -0.056753200609660583 0.049095756474877607 0 -0.058952850976029592 0.04815922397907843 0 -0.057013258100914163 0.047075758164406768 0 -0.055450553040424656 0.0481033669315237 0 -0.056753200609660583 0.049095756474877607 0 -0.05182442564687418 0.062901582296709266 0 -0.050394567983710663 0.056240666759326229 0 -0.05182442564687418 0.062901582296709266 0 -0.052269055816514462 0.06083732990231093 0 -0.058952850976029592 0.04815922397907843 0 -0.061421375185530654 0.048634263414337374 0 -0.060193823573646887 0.047081037136138017 0 -0.061421375185530654 0.048634263414337374 0 -0.06184323821197011 0.047160298469377873 0 -0.060193823573646887 0.047081037136138017 0 -0.068702113332744799 0.071529670781527444 0 -0.068408038328676951 0.075389735874940605 0 -0.071745272924828005 0.075485804409371179 0 -0.070049927281360932 0.056290876448065887 0 -0.065302194146896447 0.063162469004643215 0 -0.061421375185530654 0.048634263414337374 0 -0.063262091931026859 0.048942035202333263 0 -0.06184323821197011 0.047160298469377873 0 -0.061421375185530654 0.048634263414337374 0 -0.061977268293637845 0.050709359387431686 0 -0.063262091931026859 0.048942035202333263 0 -0.061977268293637845 0.050709359387431686 0 -0.063262091931026859 0.048942035202333263 0 -0.063494492331839916 0.050236594414269191 0 -0.059332162553277806 0.050781301241720499 0 -0.058952850976029592 0.04815922397907843 0 -0.061421375185530654 0.048634263414337374 0 -0.059551222284541294 0.03247380731608572 0 -0.056695375372810906 0.03951000110606518 0 -0.059726247099707169 0.050281433687941489 0 -0.061421375185530654 0.048634263414337374 0 -0.061977268293637845 0.050709359387431686 0 -0.062678390322693553 0.0097838779669968904 0 -0.066339498319391912 0.010459519009179186 0 -0.06409154253483712 0.013244266997427786 0 -0.059551222284541294 0.03247380731608572 0 -0.065098258747307916 0.035046299618842855 0 -0.066339498319391912 0.010459519009179186 0 -0.06409154253483712 0.013244266997427786 0 -0.0680274964947645 0.013873937324859153 0 -0.072493600737434688 0.012605180486067328 0 -0.074691077980200776 0.01374214118135785 0 -0.073788482648301679 0.011677369128266561 0 -0.072493600737434688 0.012605180486067328 0 -0.074691077980200776 0.01374214118135785 0 -0.072530801288899424 0.014804397827140211 0 -0.074493436851724715 0.024306523325185608 0 -0.075044707873083927 0.040649459056776728 0 -0.072493600737434688 0.012605180486067328 0 -0.069546442054724461 0.013874961872262503 0 -0.072530801288899424 0.014804397827140211 0 -0.072493600737434688 0.012605180486067328 0 -0.069546442054724461 0.013874961872262503 0 -0.071740900889351589 0.010758282878832732 0 -0.065098258747307916 0.035046299618842855 0 -0.075044707873083927 0.040649459056776728 0 -0.061977268293637845 0.050709359387431686 0 -0.06433341541855718 0.051112432959030736 0 -0.063494492331839916 0.050236594414269191 0 -0.066339498319391912 0.010459519009179186 0 -0.0680274964947645 0.013873937324859153 0 -0.069959484456190449 0.011139009458777027 0 -0.06433341541855718 0.051112432959030736 0 -0.064665891350342661 0.050627660181932384 0 -0.063494492331839916 0.050236594414269191 0 -0.075044707873083927 0.040649459056776728 0 -0.076059324826288549 0.04678855040518004 0 -0.084097274571223499 0.048523838199049825 0 -0.082748475413501735 0.046824902818568132 0 -0.081986494860027681 0.051591433856505789 0 -0.08021213018839779 0.045237484272948138 0 -0.081584226182051564 0.054710237243726638 0 -0.1157186818018883 0.06375122546980902 0 -0.11558280831852229 0.064495422857951998 0 -0.11536678852446183 0.064158947427171528 0 -0.07373071168140477 0.039515306623617345 0 -0.074997697624595863 0.037684800407458828 0 -0.076890863918984934 0.040053351767880614 0 -0.076059324826288549 0.04678855040518004 0 -0.08021213018839779 0.045237484272948138 0 -0.072493600737434688 0.012605180486067328 0 -0.071740900889351589 0.010758282878832732 0 -0.0732130106218567 0.010989291014705955 0 -0.072493600737434688 0.012605180486067328 0 -0.0732130106218567 0.010989291014705955 0 -0.073788482648301679 0.011677369128266561 0 -0.075044707873083927 0.040649459056776728 0 -0.08021213018839779 0.045237484272948138 0 -0.08021213018839779 0.045237484272948138 0 -0.079498583428019326 0.044048409131241695 0 -0.1157186818018883 0.06375122546980902 0 -0.11536678852446183 0.064158947427171528 0 -0.11521451821207115 0.063978400394297349 0 -0.11558280831852229 0.064495422857951998 0 -0.11534410784566788 0.064410179885945773 0 -0.11536678852446183 0.064158947427171528 0 -0.076059324826288549 0.04678855040518004 0 -0.081584226182051564 0.054710237243726638 0 -0.11538408523261293 0.064719105437390456 0 -0.11558280831852229 0.064495422857951998 0 -0.11534410784566788 0.064410179885945773 0 -0.082695922207315864 0.054368717539248934 0 -0.081584226182051564 0.054710237243726638 0 -0.076059324826288549 0.04678855040518004 0 -0.070049927281360932 0.056290876448065887 0 -0.064665891350342661 0.050627660181932384 0 -0.063262091931026859 0.048942035202333263 0 -0.063494492331839916 0.050236594414269191 0 -0.063824699204945434 0.070112209047802646 0 -0.068702113332744799 0.071529670781527444 0 -0.065630331800872618 0.073091548195993228 0 -0.065597859200728734 0.067523151373319171 0 -0.063824699204945434 0.070112209047802646 0 -0.068702113332744799 0.071529670781527444 0 -0.068702113332744799 0.071529670781527444 0 -0.065630331800872618 0.073091548195993228 0 -0.068408038328676951 0.075389735874940605 0 -0.081584226182051564 0.054710237243726638 0 -0.085802228538263983 0.067298433816600001 0 -0.063824699204945434 0.070112209047802646 0 -0.065630331800872618 0.073091548195993228 0 -0.063176352933927774 0.075511470964055236 0 -0.11538408523261293 0.064719105437390456 0 -0.11540707364622713 0.064676693407088759 0 -0.1153173469090306 0.064844016357871362 0 -0.065630331800872618 0.073091548195993228 0 -0.063176352933927774 0.075511470964055236 0 -0.066181298787656453 0.077824864671902472 0 -0.063176352933927774 0.075511470964055236 0 -0.066181298787656453 0.077824864671902472 0 -0.062613057267543279 0.080840423064192687 0 -0.085802228538263983 0.067298433816600001 0 -0.088869493845474032 0.072668887945268532 0 -0.0655479609247097 0.080989579425243707 0 -0.066181298787656453 0.077824864671902472 0 -0.062613057267543279 0.080840423064192687 0 -0.0655479609247097 0.080989579425243707 0 -0.064666630822638141 0.083140424941428828 0 -0.062613057267543279 0.080840423064192687 0 -0.067622003875645528 0.080727683732221056 0 -0.066181298787656453 0.077824864671902472 0 -0.069762929534389742 0.07898759474631882 0 -0.067622003875645528 0.080727683732221056 0 -0.069762929534389742 0.07898759474631882 0 -0.069226768801597616 0.081668090097594057 0 -0.067622003875645528 0.080727683732221056 0 -0.066735831288869119 0.082424641501754783 0 -0.068079150166019148 0.082346291548969497 0 -0.067622003875645528 0.080727683732221056 0 -0.069226768801597616 0.081668090097594057 0 -0.068079150166019148 0.082346291548969497 0 -0.0655479609247097 0.080989579425243707 0 -0.067622003875645528 0.080727683732221056 0 -0.066735831288869119 0.082424641501754783 0 -0.0655479609247097 0.080989579425243707 0 -0.067622003875645528 0.080727683732221056 0 -0.066181298787656453 0.077824864671902472 0 -0.068408038328676951 0.075389735874940605 0 -0.066181298787656453 0.077824864671902472 0 -0.069762929534389742 0.07898759474631882 0 -0.065630331800872618 0.073091548195993228 0 -0.068408038328676951 0.075389735874940605 0 -0.066181298787656453 0.077824864671902472 0 -0.071745272924828005 0.075485804409371179 0 -0.074828261116996822 0.079404526857875024 0 -0.069762929534389742 0.07898759474631882 0 -0.068408038328676951 0.075389735874940605 0 -0.071745272924828005 0.075485804409371179 0 -0.069762929534389742 0.07898759474631882 0 -0.065302194146896447 0.063162469004643215 0 -0.060519319749200759 0.071720318435384858 0 -0.06184323821197011 0.047160298469377873 0 -0.060193823573646887 0.047081037136138017 0 -0.060287299580908456 0.045269402232548141 0 -0.055430922204510159 0.084326153005814544 0 -0.055553903043461736 0.08447616522853027 0 -0.055756784558944346 0.0835315624604899 0 -0.055553903043461736 0.08447616522853027 0 -0.056851771357826583 0.083566733973419571 0 -0.055756784558944346 0.0835315624604899 0 -0.054827915544761581 0.084395715826896589 0 -0.055430922204510159 0.084326153005814544 0 -0.055561188148094437 0.084485189117677634 0 -0.060551584988671886 0.07184321142258733 0 -0.060519319749200759 0.071720318435384858 0 -0.055240006440250747 0.083853987929038004 0 -0.055430922204510159 0.084326153005814544 0 -0.055756784558944346 0.0835315624604899 0 -0.060519319749200759 0.071720318435384858 0 -0.064121188034630572 0.079802318860355478 0 -0.074828261116996822 0.079404526857875024 0 -0.069762929534389742 0.07898759474631882 0 -0.070074535286486092 0.082687007976369284 0 -0.069762929534389742 0.07898759474631882 0 -0.069226768801597616 0.081668090097594057 0 -0.070074535286486092 0.082687007976369284 0 -0.056851771357826583 0.083566733973419571 0 -0.055756784558944346 0.0835315624604899 0 -0.055917312965535142 0.082530303996230139 0 -0.069226768801597616 0.081668090097594057 0 -0.069063314011961613 0.083387657198636334 0 -0.070036887846510007 0.082751612903989247 0 -0.069762501383185363 0.082954071305100338 0 -0.069712629761140205 0.085031014354167475 0 -0.071888086611987603 0.086479965338113141 0 -0.064121188034630572 0.079802318860355478 0 -0.064300406878057131 0.083029732647759216 0 -0.064337692884782083 0.080001927709916557 0 -0.064121188034630572 0.079802318860355478 0 -0.064226117476114633 0.079797534669561895 0 -0.064121188034630572 0.079802318860355478 0 -0.069063314011961613 0.083387657198636334 0 -0.069712629761140205 0.085031014354167475 0 -0.068239214333855838 0.084719533890137644 0 -0.069063314011961613 0.083387657198636334 0 -0.069762501383185363 0.082954071305100338 0 -0.069712629761140205 0.085031014354167475 0 -0.055756784558944346 0.0835315624604899 0 -0.05535935965549045 0.08295592852538651 0 -0.055917312965535142 0.082530303996230139 0 -0.055150952754722711 0.083409481510969719 0 -0.055240006440250747 0.083853987929038004 0 -0.055756784558944346 0.0835315624604899 0 -0.055150952754722711 0.083409481510969719 0 -0.055756784558944346 0.0835315624604899 0 -0.05535935965549045 0.08295592852538651 0 -0.05515469999643622 0.081848742417345063 0 -0.055059430847188416 0.082487644161671925 0 -0.055917312965535142 0.082530303996230139 0 -0.055059430847188416 0.082487644161671925 0 -0.05535935965549045 0.08295592852538651 0 -0.055917312965535142 0.082530303996230139 0 -0.070172706176339666 0.087939570636238876 0 -0.072588998425461806 0.088685539302169741 0 -0.071888086611987603 0.086479965338113141 0 -0.06394458733215358 0.084667743615475258 0 -0.064300406878057131 0.083029732647759216 0 -0.069712629761140205 0.085031014354167475 0 -0.070341522453047395 0.086458004429400936 0 -0.068735405014864429 0.086166291827378033 0 -0.069712629761140205 0.085031014354167475 0 -0.068735405014864429 0.086166291827378033 0 -0.068239214333855838 0.084719533890137644 0 -0.069712629761140205 0.085031014354167475 0 -0.071888086611987603 0.086479965338113141 0 -0.070341522453047395 0.086458004429400936 0 -0.070172706176339666 0.087939570636238876 0 -0.071888086611987603 0.086479965338113141 0 -0.070341522453047395 0.086458004429400936 0 -0.070172706176339666 0.087939570636238876 0 -0.070341522453047395 0.086458004429400936 0 -0.068735405014864429 0.086166291827378033 0 -0.070172706176339666 0.087939570636238876 0 -0.068735405014864429 0.086166291827378033 0 -0.066372577319443501 0.087090456763442667 0 -0.07501927102230975 0.083532790082007355 0 -0.078521847698958563 0.081104099393096277 0 -0.068735405014864429 0.086166291827378033 0 -0.067177567886039319 0.085639055277397194 0 -0.068239214333855838 0.084719533890137644 0 -0.068735405014864429 0.086166291827378033 0 -0.067177567886039319 0.085639055277397194 0 -0.066372577319443501 0.087090456763442667 0 -0.066125328409421827 0.085682621341819531 0 -0.067177567886039319 0.085639055277397194 0 -0.066538565330988078 0.084405015949862716 0 -0.066125328409421827 0.085682621341819531 0 -0.067177567886039319 0.085639055277397194 0 -0.066372577319443501 0.087090456763442667 0 -0.078521847698958563 0.081104099393096277 0 -0.091919184401774906 0.077689253544757586 0 -0.076772584222446941 0.090520754228640268 0 -0.077667101541486025 0.090288658644759254 0 -0.079204253862187046 0.091215282269006326 0 -0.066372577319443501 0.087090456763442667 0 -0.06469194432486168 0.085438213750185774 0 -0.062128846587799963 0.085923523681615002 0 -0.079456297177600152 0.089172605090557924 0 -0.077667101541486025 0.090288658644759254 0 -0.079204253862187046 0.091215282269006326 0 -0.077011067011679091 0.089296854722408656 0 -0.076772584222446941 0.090520754228640268 0 -0.077667101541486025 0.090288658644759254 0 -0.066125328409421827 0.085682621341819531 0 -0.06469194432486168 0.085438213750185774 0 -0.066538565330988078 0.084405015949862716 0 -0.066125328409421827 0.085682621341819531 0 -0.066372577319443501 0.087090456763442667 0 -0.06469194432486168 0.085438213750185774 0 -0.06469194432486168 0.085438213750185774 0 -0.064666630822638141 0.083140424941428828 0 -0.066538565330988078 0.084405015949862716 0 -0.064666630822638141 0.083140424941428828 0 -0.062128846587799963 0.085923523681615002 0 -0.062613057267543279 0.080840423064192687 0 -0.06469194432486168 0.085438213750185774 0 -0.064666630822638141 0.083140424941428828 0 -0.062128846587799963 0.085923523681615002 0 -0.0655479609247097 0.080989579425243707 0 -0.064666630822638141 0.083140424941428828 0 -0.066735831288869119 0.082424641501754783 0 -0.064666630822638141 0.083140424941428828 0 -0.066735831288869119 0.082424641501754783 0 -0.066538565330988078 0.084405015949862716 0 -0.066735831288869119 0.082424641501754783 0 -0.067787010801811001 0.083497025030448868 0 -0.066538565330988078 0.084405015949862716 0 -0.066735831288869119 0.082424641501754783 0 -0.068079150166019148 0.082346291548969497 0 -0.067787010801811001 0.083497025030448868 0 -0.069226768801597616 0.081668090097594057 0 -0.069063314011961613 0.083387657198636334 0 -0.068079150166019148 0.082346291548969497 0 -0.069063314011961613 0.083387657198636334 0 -0.068079150166019148 0.082346291548969497 0 -0.067787010801811001 0.083497025030448868 0 -0.067787010801811001 0.083497025030448868 0 -0.068239214333855838 0.084719533890137644 0 -0.066538565330988078 0.084405015949862716 0 -0.069063314011961613 0.083387657198636334 0 -0.067787010801811001 0.083497025030448868 0 -0.068239214333855838 0.084719533890137644 0 -0.067177567886039319 0.085639055277397194 0 -0.068239214333855838 0.084719533890137644 0 -0.066538565330988078 0.084405015949862716 0 -0.10776059864847211 0.077486527187272045 0 -0.11083192850551385 0.070850926279322407 0 -0.11527688611886201 0.064902841282956522 0 -0.11526720724007977 0.064932921533017704 0 -0.11530248841921149 0.064863386643084942 0 -0.091919184401774906 0.077689253544757586 0 -0.088869493845474032 0.072668887945268532 0 -0.099505757734216188 0.08169898080581274 0 -0.097508376966587915 0.081096839580197505 0 -0.099962583897543159 0.078062511997748676 0 -0.097508376966587915 0.081096839580197505 0 -0.095991157750349707 0.07686862745788807 0 -0.099962583897543159 0.078062511997748676 0 -0.10776059864847211 0.077486527187272045 0 -0.091919184401774906 0.077689253544757586 0 -0.09204026314706136 0.084255935245438132 0 -0.091919184401774906 0.077689253544757586 0 -0.12152952707954513 0.080839336410153506 0 -0.12596357194836147 0.081196951082153079 0 -0.12437249811527283 0.076886556412363138 0 -0.10263749010218587 0.083509089052097071 0 -0.10776059864847211 0.077486527187272045 0 -0.12187726530932295 0.079946282750241987 0 -0.11722947893101135 0.077746716735605473 0 -0.12076549692933972 0.073969265989413058 0 -0.12152952707954513 0.080839336410153506 0 -0.12437249811527283 0.076886556412363138 0 -0.12046602625216432 0.075715009002192885 0 -0.11896883633446882 0.080087678262843923 0 -0.11598764425484091 0.075532074576032504 0 -0.11722947893101135 0.077746716735605473 0 -0.12076549692933972 0.073969265989413058 0 -0.11411130929314965 0.071980803732115115 0 -0.11598764425484091 0.075532074576032504 0 -0.11550563913943462 0.074564595392606917 0 -0.11852328103385233 0.071267029759098544 0 -0.11662292696470794 0.070680481007547397 0 -0.11779048955527847 0.069177110099029604 0 -0.10776059864847211 0.077486527187272045 0 -0.11598764425484091 0.075532074576032504 0 -0.11662292696470794 0.070680481007547397 0 -0.1162343901184039 0.068550660874222499 0 -0.11779048955527847 0.069177110099029604 0 -0.11598764425484091 0.075532074576032504 0 -0.11577219549389245 0.071022918815691838 0 -0.1162343901184039 0.068550660874222499 0 -0.11705775711927857 0.067122954875793631 0 -0.11779048955527847 0.069177110099029604 0 -0.11793358450730075 0.072900036367045035 0 -0.1172874255636356 0.06981016127954405 0 -0.11411130929314965 0.071980803732115115 0 -0.1172874255636356 0.06981016127954405 0 -0.11479560077231173 0.068495933583113219 0 -0.11411130929314965 0.071980803732115115 0 -0.1172874255636356 0.06981016127954405 0 -0.11593225330671307 0.066509933141447458 0 -0.11479560077231173 0.068495933583113219 0 -0.11577219549389245 0.071022918815691838 0 -0.1156407761490061 0.069436200744688051 0 -0.11593225330671307 0.066509933141447458 0 -0.11444777661714073 0.066040143996938042 0 -0.11479560077231173 0.068495933583113219 0 -0.1154934299784697 0.064797868202928724 0 -0.11537598796850816 0.064815949614022331 0 -0.1153287989326737 0.064836714569521378 0 -0.1162343901184039 0.068550660874222499 0 -0.11705775711927857 0.067122954875793631 0 -0.11593225330671307 0.066509933141447458 0 -0.11247142031792025 0.068205980060834559 0 -0.11083192850551385 0.070850926279322407 0 -0.1154934299784697 0.064797868202928724 0 -0.11537598796850816 0.064815949614022331 0 -0.11541745080678591 0.064866952877283099 0 -0.11533096331608012 0.064829213583821266 0 -0.11537598796850816 0.064815949614022331 0 -0.11541745080678591 0.064866952877283099 0 -0.11533096331608012 0.064829213583821266 0 -0.11537598796850816 0.064815949614022331 0 -0.11532379893489066 0.064837213117692083 0 -0.11527688611886201 0.064902841282956522 0 -0.11532379893489066 0.064837213117692083 0 -0.1153287989326737 0.064836714569521378 0 -0.11537598796850816 0.064815949614022331 0 -0.11532379893489066 0.064837213117692083 0 -0.1153287989326737 0.064836714569521378 0 -0.11527688611886201 0.064902841282956522 0 -0.11532379893489066 0.064837213117692083 0 -0.11530248841921149 0.064863386643084942 0 -0.1153173469090306 0.064844016357871362 0 -0.11532379893489066 0.064837213117692083 0 -0.11530248841921149 0.064863386643084942 0 -0.1153173469090306 0.064844016357871362 0 -0.11533096331608012 0.064829213583821266 0 -0.11532379893489066 0.064837213117692083 0 -0.11538408523261293 0.064719105437390456 0 -0.1153173469090306 0.064844016357871362 0 -0.11530535174829243 0.06482096147752002 0 -0.1153173469090306 0.064844016357871362 0 -0.11533096331608012 0.064829213583821266 0 -0.11530535174829243 0.06482096147752002 0 -0.11533096331608012 0.064829213583821266 0 -0.11530535174829243 0.06482096147752002 0 -0.11533722834996971 0.064831592718107525 0 -0.11530535174829243 0.06482096147752002 0 -0.11525399782801043 0.064805150448379797 0 -0.11533722834996971 0.064831592718107525 0 -0.11538408523261293 0.064719105437390456 0 -0.11530535174829243 0.06482096147752002 0 -0.11525399782801043 0.064805150448379797 0 -0.11533096331608012 0.064829213583821266 0 -0.11541745080678591 0.064866952877283099 0 -0.11533722834996971 0.064831592718107525 0 -0.11541745080678591 0.064866952877283099 0 -0.11533722834996971 0.064831592718107525 0 -0.11547857335844169 0.064918347909661916 0 -0.11525399782801043 0.064805150448379797 0 -0.11533722834996971 0.064831592718107525 0 -0.11547857335844169 0.064918347909661916 0 -0.11541745080678591 0.064866952877283099 0 -0.11547857335844169 0.064918347909661916 0 -0.11554435337979294 0.065016218369866777 0 -0.11547857335844169 0.064918347909661916 0 -0.1155333580529195 0.064905744434043178 0 -0.11551270903658051 0.064834474820270799 0 -0.11547857335844169 0.064918347909661916 0 -0.1155333580529195 0.064905744434043178 0 -0.11554435337979294 0.065016218369866777 0 -0.11547857335844169 0.064918347909661916 0 -0.11547229048713471 0.064872224933829617 0 -0.11551270903658051 0.064834474820270799 0 -0.11525399782801043 0.064805150448379797 0 -0.11547857335844169 0.064918347909661916 0 -0.11547229048713471 0.064872224933829617 0 -0.11547229048713471 0.064872224933829617 0 -0.11557853161133143 0.064874252591220705 0 -0.11551270903658051 0.064834474820270799 0 -0.1155333580529195 0.064905744434043178 0 -0.11551270903658051 0.064834474820270799 0 -0.1155374843400951 0.064715846926428566 0 -0.11525399782801043 0.064805150448379797 0 -0.11547229048713471 0.064872224933829617 0 -0.11557853161133143 0.064874252591220705 0 -0.11525399782801043 0.064805150448379797 0 -0.11477814965800046 0.064196612798658584 0 -0.11520179213974341 0.064472772045130952 0 -0.10496294581503704 0.059437702339331107 0 -0.10302950041909381 0.056048026157241478 0 -0.11538408523261293 0.064719105437390456 0 -0.11525399782801043 0.064805150448379797 0 -0.11520179213974341 0.064472772045130952 0 -0.11538408523261293 0.064719105437390456 0 -0.11520179213974341 0.064472772045130952 0 -0.11534410784566788 0.064410179885945773 0 -0.11477814965800046 0.064196612798658584 0 -0.11511980319230568 0.064191810350144526 0 -0.11520179213974341 0.064472772045130952 0 -0.11511980319230568 0.064191810350144526 0 -0.11520179213974341 0.064472772045130952 0 -0.11534410784566788 0.064410179885945773 0 -0.11511980319230568 0.064191810350144526 0 -0.11534410784566788 0.064410179885945773 0 -0.11536678852446183 0.064158947427171528 0 -0.08021213018839779 0.045237484272948138 0 -0.096047352869186003 0.042500046196496132 0 -0.1157186818018883 0.06375122546980902 0 -0.11521451821207115 0.063978400394297349 0 -0.11500537023105617 0.063780061780482913 0 -0.1157186818018883 0.06375122546980902 0 -0.11500537023105617 0.063780061780482913 0 -0.11456048268244957 0.063494229180021289 0 -0.073205151273291344 0.010971597000710575 0 -0.073788482648301679 0.011677369128266561 0 -0.078336158227807443 0.011733785364221165 0 -0.11511980319230568 0.064191810350144526 0 -0.11536678852446183 0.064158947427171528 0 -0.11521451821207115 0.063978400394297349 0 -0.11500537023105617 0.063780061780482913 0 -0.11491474537903851 0.06395738419474177 0 -0.11456048268244957 0.063494229180021289 0 -0.11477814965800046 0.064196612798658584 0 -0.11511980319230568 0.064191810350144526 0 -0.11491474537903851 0.06395738419474177 0 -0.11521451821207115 0.063978400394297349 0 -0.11500537023105617 0.063780061780482913 0 -0.11491474537903851 0.06395738419474177 0 -0.11511980319230568 0.064191810350144526 0 -0.11521451821207115 0.063978400394297349 0 -0.11491474537903851 0.06395738419474177 0 -0.11477814965800046 0.064196612798658584 0 -0.11491474537903851 0.06395738419474177 0 -0.11456048268244957 0.063494229180021289 0 -0.11557853161133143 0.064874252591220705 0 -0.115500603656643 0.064663280086385166 0 -0.11547762634642171 0.064152385475319401 0 -0.11557853161133143 0.064874252591220705 0 -0.11551270903658051 0.064834474820270799 0 -0.115500603656643 0.064663280086385166 0 -0.10302950041909381 0.056048026157241478 0 -0.096047352869186003 0.042500046196496132 0 -0.11551270903658051 0.064834474820270799 0 -0.115500603656643 0.064663280086385166 0 -0.11552886871298368 0.064656906265647227 0 -0.11551270903658051 0.064834474820270799 0 -0.11552886871298368 0.064656906265647227 0 -0.1155374843400951 0.064715846926428566 0 -0.11552886871298368 0.064656906265647227 0 -0.11557063213995693 0.064429719692742388 0 -0.1155374843400951 0.064715846926428566 0 -0.115500603656643 0.064663280086385166 0 -0.11552886871298368 0.064656906265647227 0 -0.11557063213995693 0.064429719692742388 0 -0.115500603656643 0.064663280086385166 0 -0.11547762634642171 0.064152385475319401 0 -0.11484938398247689 0.064008598739247191 0 -0.1065993559430724 0.051679512671866747 0 -0.1006469888634893 0.04511872991739993 0 -0.078336158227807443 0.011733785364221165 0 -0.076700883529166777 0.014878757423811633 0 -0.079563952972762753 0.0155446343650866 0 -0.079008092261398405 0.011199472540017574 0 -0.081506781783273405 0.013810961189896068 0 -0.080089801715562639 0.015224095031792225 0 -0.096047352869186003 0.042500046196496132 0 -0.086825075360763226 0.021991680354014345 0 -0.096047352869186003 0.042500046196496132 0 -0.1006469888634893 0.04511872991739993 0 -0.079008092261398405 0.011199472540017574 0 -0.081506781783273405 0.013810961189896068 0 -0.081127197500855633 0.01153126804804577 0 -0.074691077980200776 0.01374214118135785 0 -0.078336158227807443 0.011733785364221165 0 -0.076700883529166777 0.014878757423811633 0 -0.074691077980200776 0.01374214118135785 0 -0.073788482648301679 0.011677369128266561 0 -0.078336158227807443 0.011733785364221165 0 -0.10672022385949144 0.04808652606055646 0 -0.10837757517587925 0.048390910090326679 0 -0.11520200474456774 0.064112013739779455 0 -0.1148922874833453 0.06439976716381339 0 -0.11449725695447359 0.063830108121917653 0 -0.10332144851140668 0.046319130122736439 0 -0.10488838337131352 0.046582515966977704 0 -0.10356947974636163 0.04789277001619132 0 -0.10837757517587925 0.048390910090326679 0 -0.10113949816480204 0.040192960356195115 0 -0.10672022385949144 0.04808652606055646 0 -0.1006469888634893 0.04511872991739993 0 -0.10332144851140668 0.046319130122736439 0 -0.10175503023876896 0.046058923102952232 0 -0.10356947974636163 0.04789277001619132 0 -0.1006469888634893 0.04511872991739993 0 -0.10113949816480204 0.040192960356195115 0 -0.081506781783273405 0.013810961189896068 0 -0.081127197500855633 0.01153126804804577 0 -0.085237955420249978 0.015393250844919297 0 -0.11520200474456774 0.064112013739779455 0 -0.11557063213995693 0.064429719692742388 0 -0.11539034360303667 0.064560539650383331 0 -0.11557063213995693 0.064429719692742388 0 -0.1155374843400951 0.064715846926428566 0 -0.11539034360303667 0.064560539650383331 0 -0.1155374843400951 0.064715846926428566 0 -0.11539034360303667 0.064560539650383331 0 -0.11557196633587079 0.064931114073221566 0 -0.11539034360303667 0.064560539650383331 0 -0.1148922874833453 0.06439976716381339 0 -0.11526542636134329 0.064819842845661932 0 -0.11520200474456774 0.064112013739779455 0 -0.11539034360303667 0.064560539650383331 0 -0.1148922874833453 0.06439976716381339 0 -0.1148922874833453 0.06439976716381339 0 -0.11526542636134329 0.064819842845661932 0 -0.11467915724991944 0.064876055110094991 0 -0.11526542636134329 0.064819842845661932 0 -0.11499090513084617 0.06532031523289325 0 -0.11467915724991944 0.064876055110094991 0 -0.11526542636134329 0.064819842845661932 0 -0.11499090513084617 0.06532031523289325 0 -0.11578009916858845 0.065201905370396732 0 -0.1155333580529195 0.064905744434043178 0 -0.1155374843400951 0.064715846926428566 0 -0.11557196633587079 0.064931114073221566 0 -0.11539034360303667 0.064560539650383331 0 -0.11526542636134329 0.064819842845661932 0 -0.11557196633587079 0.064931114073221566 0 -0.11526542636134329 0.064819842845661932 0 -0.11557196633587079 0.064931114073221566 0 -0.11578009916858845 0.065201905370396732 0 -0.11557196633587079 0.064931114073221566 0 -0.11578009916858845 0.065201905370396732 0 -0.11554435337979294 0.065016218369866777 0 -0.1155333580529195 0.064905744434043178 0 -0.11557196633587079 0.064931114073221566 0 -0.11554435337979294 0.065016218369866777 0 -0.1154934299784697 0.064797868202928724 0 -0.11578009916858845 0.065201905370396732 0 -0.11554435337979294 0.065016218369866777 0 -0.11705775711927857 0.067122954875793631 0 -0.11578009916858845 0.065201905370396732 0 -0.11593225330671307 0.066509933141447458 0 -0.11247142031792025 0.068205980060834559 0 -0.11292985708277468 0.067396390952896193 0 -0.1154934299784697 0.064797868202928724 0 -0.11541745080678591 0.064866952877283099 0 -0.11554435337979294 0.065016218369866777 0 -0.11499090513084617 0.06532031523289325 0 -0.11593225330671307 0.066509933141447458 0 -0.11444777661714073 0.066040143996938042 0 -0.11499090513084617 0.06532031523289325 0 -0.11578009916858845 0.065201905370396732 0 -0.11593225330671307 0.066509933141447458 0 -0.11499090513084617 0.06532031523289325 0 -0.11444777661714073 0.066040143996938042 0 -0.11398616582547288 0.065384874960841569 0 -0.11249458372306527 0.065135807420524106 0 -0.11100674601183647 0.064877611754415559 0 -0.11444777661714073 0.066040143996938042 0 -0.11340362536695993 0.065872617559325775 0 -0.11398616582547288 0.065384874960841569 0 -0.11444777661714073 0.066040143996938042 0 -0.11063381758416162 0.065455010821561022 0 -0.11201167073729278 0.068593269150410169 0 -0.11340362536695993 0.065872617559325775 0 -0.11398616582547288 0.065384874960841569 0 -0.11300605343759336 0.06511136414988701 0 -0.11398616582547288 0.065384874960841569 0 -0.11376699966276685 0.064413250620330251 0 -0.11300605343759336 0.06511136414988701 0 -0.11398616582547288 0.065384874960841569 0 -0.11467915724991944 0.064876055110094991 0 -0.11376699966276685 0.064413250620330251 0 -0.11499090513084617 0.06532031523289325 0 -0.11398616582547288 0.065384874960841569 0 -0.11467915724991944 0.064876055110094991 0 -0.1148922874833453 0.06439976716381339 0 -0.11467915724991944 0.064876055110094991 0 -0.11376699966276685 0.064413250620330251 0 -0.1148922874833453 0.06439976716381339 0 -0.11376699966276685 0.064413250620330251 0 -0.11449725695447359 0.063830108121917653 0 -0.10917012855214678 0.055670306696484456 0 -0.10837757517587925 0.048390910090326679 0 -0.10917012855214678 0.055670306696484456 0 -0.10877673337840391 0.060266142392070142 0 -0.11362138730280397 0.057331777788672954 0 -0.112335673049598 0.053350147509150778 0 -0.11679176272464364 0.054101595058004076 0 -0.11362138730280397 0.057331777788672954 0 -0.112335673049598 0.053350147509150778 0 -0.10891531921712828 0.056372237337227689 0 -0.1113087547245958 0.049598619979671292 0 -0.10837757517587925 0.048390910090326679 0 -0.112335673049598 0.053350147509150778 0 -0.116664569441035 0.054012170449804053 0 -0.11567946396616691 0.051073512100951325 0 -0.10499991425932467 0.052668255281480933 0 -0.10891531921712828 0.056372237337227689 0 -0.10884845947917283 0.051789880504825719 0 -0.10499991425932467 0.052668255281480933 0 -0.10891531921712828 0.056372237337227689 0 -0.10499998770494459 0.058182251249109057 0 -0.112335673049598 0.053350147509150778 0 -0.10891531921712828 0.056372237337227689 0 -0.10884845947917283 0.051789880504825719 0 -0.11362138730280397 0.057331777788672954 0 -0.10891531921712828 0.056372237337227689 0 -0.11046323285603807 0.060567874079779267 0 -0.10891531921712828 0.056372237337227689 0 -0.10499998770494459 0.058182251249109057 0 -0.1073036252943172 0.060527352084270895 0 -0.10499998770494459 0.058182251249109057 0 -0.1073036252943172 0.060527352084270895 0 -0.10499997466030164 0.063696213705646446 0 -0.10891531921712828 0.056372237337227689 0 -0.1073036252943172 0.060527352084270895 0 -0.11046323285603807 0.060567874079779267 0 -0.1073036252943172 0.060527352084270895 0 -0.11046323285603807 0.060567874079779267 0 -0.10729526289868607 0.063797482610814402 0 -0.10877673337840391 0.060266142392070142 0 -0.1069396891526493 0.06410897226598751 0 -0.11100674601183647 0.064877611754415559 0 -0.1069396891526493 0.06410897226598751 0 -0.11063381758416162 0.065455010821561022 0 -0.10676534866711726 0.064931134415698435 0 -0.10720574685267582 0.066964706043568162 0 -0.11340362536695993 0.065872617559325775 0 -0.11300605343759336 0.06511136414988701 0 -0.11228768547949872 0.06581203556612622 0 -0.105004399597876 0.063697890381874789 0 -0.1069396891526493 0.06410897226598751 0 -0.1073036252943172 0.060527352084270895 0 -0.10499997466030164 0.063696213705646446 0 -0.10729526289868607 0.063797482610814402 0 -0.10676534866711726 0.064931134415698435 0 -0.10499941251204838 0.066140150785552007 0 -0.10720574685267582 0.066964706043568162 0 -0.10499999693371449 0.063696288401272866 0 -0.10730662039654684 0.063815496955480888 0 -0.10499999814986885 0.066137934000918608 0 -0.1069396891526493 0.06410897226598751 0 -0.10500296747266775 0.066134747973936814 0 -0.10720574685267582 0.066964706043568162 0 -0.10500014221663263 0.069879151575907419 0 -0.1085863145577694 0.068826334166928654 0 -0.10499941251204838 0.066140150785552007 0 -0.10720574685267582 0.066964706043568162 0 -0.10500014221663263 0.069879151575907419 0 -0.10500014221663263 0.069879151575907419 0 -0.10740315294472211 0.071911667897914505 0 -0.1085863145577694 0.068826334166928654 0 -0.10500014221663263 0.069879151575907419 0 -0.10740315294472211 0.071911667897914505 0 -0.10499731438230397 0.073619980701174037 0 -0.10740315294472211 0.071911667897914505 0 -0.1085863145577694 0.068826334166928654 0 -0.11009851937825972 0.070732085226659774 0 -0.10740315294472211 0.071911667897914505 0 -0.11009851937825972 0.070732085226659774 0 -0.10984736838732458 0.073932296543903916 0 -0.11063381758416162 0.065455010821561022 0 -0.10720574685267582 0.066964706043568162 0 -0.1085863145577694 0.068826334166928654 0 -0.11063381758416162 0.065455010821561022 0 -0.1085863145577694 0.068826334166928654 0 -0.11201167073729278 0.068593269150410169 0 -0.11444777661714073 0.066040143996938042 0 -0.11201167073729278 0.068593269150410169 0 -0.11479560077231173 0.068495933583113219 0 -0.11201167073729278 0.068593269150410169 0 -0.11479560077231173 0.068495933583113219 0 -0.11411130929314965 0.071980803732115115 0 -0.11201167073729278 0.068593269150410169 0 -0.11411130929314965 0.071980803732115115 0 -0.11009851937825972 0.070732085226659774 0 -0.1085863145577694 0.068826334166928654 0 -0.11201167073729278 0.068593269150410169 0 -0.11009851937825972 0.070732085226659774 0 -0.10984736838732458 0.073932296543903916 0 -0.11333210333160433 0.075830738949555929 0 -0.11065665782821613 0.076998489483370389 0 -0.11411130929314965 0.071980803732115115 0 -0.10984736838732458 0.073932296543903916 0 -0.11333210333160433 0.075830738949555929 0 -0.11411130929314965 0.071980803732115115 0 -0.11009851937825972 0.070732085226659774 0 -0.10984736838732458 0.073932296543903916 0 -0.11722947893101135 0.077746716735605473 0 -0.11411130929314965 0.071980803732115115 0 -0.11333210333160433 0.075830738949555929 0 -0.11722947893101135 0.077746716735605473 0 -0.11333210333160433 0.075830738949555929 0 -0.11270561714350887 0.079015210149393084 0 -0.10911801097138177 0.079665501520176402 0 -0.11270561714350887 0.079015210149393084 0 -0.11065665782821613 0.076998489483370389 0 -0.11333210333160433 0.075830738949555929 0 -0.11270561714350887 0.079015210149393084 0 -0.11065665782821613 0.076998489483370389 0 -0.10783399893390644 0.076827164676528031 0 -0.1050625671733639 0.078118953517266734 0 -0.10679005756935395 0.074724915752844942 0 -0.10911801097138177 0.079665501520176402 0 -0.11065665782821613 0.076998489483370389 0 -0.10783399893390644 0.076827164676528031 0 -0.10700617347517878 0.079826614685198485 0 -0.10911801097138177 0.079665501520176402 0 -0.10783399893390644 0.076827164676528031 0 -0.10984736838732458 0.073932296543903916 0 -0.11065665782821613 0.076998489483370389 0 -0.10783399893390644 0.076827164676528031 0 -0.10700617347517878 0.079826614685198485 0 -0.10783399893390644 0.076827164676528031 0 -0.1050625671733639 0.078118953517266734 0 -0.1050625671733639 0.078118953517266734 0 -0.10499731438230397 0.073619980701174037 0 -0.10679005756935395 0.074724915752844942 0 -0.10499940345653355 0.079358371698337024 0 -0.1069660177903924 0.078230831560532788 0 -0.10500023380012284 0.073620148134079938 0 -0.10609540408131025 0.078455985603692768 0 -0.105000309055492 0.073626187371765489 0 -0.10740315294472211 0.071911667897914505 0 -0.10499731438230397 0.073619980701174037 0 -0.10679005756935395 0.074724915752844942 0 -0.10740315294472211 0.071911667897914505 0 -0.10984736838732458 0.073932296543903916 0 -0.10679005756935395 0.074724915752844942 0 -0.10984736838732458 0.073932296543903916 0 -0.10783399893390644 0.076827164676528031 0 -0.10679005756935395 0.074724915752844942 0 -0.1085300781237684 0.029668340050299842 0 -0.10987327753967857 0.03069212709965919 0 -0.11040185885949666 0.028754621993289209 0 -0.1085300781237684 0.029668340050299842 0 -0.10987327753967857 0.03069212709965919 0 -0.10770740028971991 0.032006188331253634 0 -0.10987327753967857 0.03069212709965919 0 -0.11040185885949666 0.028754621993289209 0 -0.11193900631244537 0.029969824717067127 0 -0.10987327753967857 0.03069212709965919 0 -0.11193900631244537 0.029969824717067127 0 -0.11028406445054902 0.03291361127148671 0 -0.10987327753967857 0.03069212709965919 0 -0.10770740028971991 0.032006188331253634 0 -0.11028406445054902 0.03291361127148671 0 -0.1085300781237684 0.029668340050299842 0 -0.10770740028971991 0.032006188331253634 0 -0.10499988745121364 0.028987865830801644 0 -0.10770740028971991 0.032006188331253634 0 -0.10499988745121364 0.028987865830801644 0 -0.10499984131863921 0.034924875775583897 0 -0.1085300781237684 0.029668340050299842 0 -0.10499988745121364 0.028987865830801644 0 -0.10943104281657365 0.026987135986684493 0 -0.10499988745121364 0.028987865830801644 0 -0.10943104281657365 0.026987135986684493 0 -0.10799070141080469 0.024361975207743695 0 -0.1085300781237684 0.029668340050299842 0 -0.10943104281657365 0.026987135986684493 0 -0.11040185885949666 0.028754621993289209 0 -0.10943104281657365 0.026987135986684493 0 -0.11040185885949666 0.028754621993289209 0 -0.11186336547071295 0.02728688209389616 0 -0.10943104281657365 0.026987135986684493 0 -0.11186336547071295 0.02728688209389616 0 -0.11110089647571957 0.02467827039878016 0 -0.11186336547071295 0.02728688209389616 0 -0.1139238395893379 0.028019100193724261 0 -0.1135484703371871 0.025202448240659776 0 -0.11186336547071295 0.02728688209389616 0 -0.1139238395893379 0.028019100193724261 0 -0.11193900631244537 0.029969824717067127 0 -0.11040185885949666 0.028754621993289209 0 -0.11186336547071295 0.02728688209389616 0 -0.11193900631244537 0.029969824717067127 0 -0.1139238395893379 0.028019100193724261 0 -0.11690180132107161 0.028571475240427826 0 -0.11620360534551934 0.025884318901455164 0 -0.1139238395893379 0.028019100193724261 0 -0.11620360534551934 0.025884318901455164 0 -0.1135484703371871 0.025202448240659776 0 -0.10094412584937655 0.03241241619966994 0 -0.10166129807481185 0.029522480276909027 0 -0.1139238395893379 0.028019100193724261 0 -0.11309962246677471 0.03084170625895882 0 -0.11690180132107161 0.028571475240427826 0 -0.094738175767042701 0.030997761940106224 0 -0.094485426268904174 0.031114311059031036 0 -0.09455012342173659 0.03139828849408792 0 -0.094984773874636066 0.031191402569593827 0 -0.094738175767042701 0.030997761940106224 0 -0.09455012342173659 0.03139828849408792 0 -0.10094412584937655 0.03241241619966994 0 -0.095241846418260057 0.031655590449855435 0 -0.10176337114091787 0.032738913226324294 0 -0.10094412584937655 0.03241241619966994 0 -0.1139238395893379 0.028019100193724261 0 -0.11193900631244537 0.029969824717067127 0 -0.11309962246677471 0.03084170625895882 0 -0.11193900631244537 0.029969824717067127 0 -0.11335643412298495 0.031128575891722972 0 -0.11028406445054902 0.03291361127148671 0 -0.093620248694643124 0.043946122879468426 0 -0.096496944809038671 0.040702563172261105 0 -0.099511915629678593 0.040900519160102476 0 -0.10094412584937655 0.03241241619966994 0 -0.10283300616885188 0.034195115010120597 0 -0.094643893993942185 0.039992702882954645 0 -0.091010378474062278 0.038096914408366087 0 -0.098215402126546211 0.037961807896892859 0 -0.091010378474062278 0.038096914408366087 0 -0.094728259081701488 0.033231153019010244 0 -0.09784866224570804 0.037975346036937169 0 -0.096884014962825699 0.036536237657712176 0 -0.099361218369604265 0.036280975888692384 0 -0.096496944809038671 0.040702563172261105 0 -0.094643893993942185 0.039992702882954645 0 -0.098215402126546211 0.037961807896892859 0 -0.093620248694643124 0.043946122879468426 0 -0.096496944809038671 0.040702563172261105 0 -0.094643893993942185 0.039992702882954645 0 -0.093620248694643124 0.043946122879468426 0 -0.094643893993942185 0.039992702882954645 0 -0.089004878940786278 0.040229335870952253 0 -0.089004878940786278 0.040229335870952253 0 -0.091010378474062278 0.038096914408366087 0 -0.084389830362263427 0.036488255160696578 0 -0.094643893993942185 0.039992702882954645 0 -0.089004878940786278 0.040229335870952253 0 -0.091010378474062278 0.038096914408366087 0 -0.095241846418260057 0.031655590449855435 0 -0.090278764854777316 0.030166543290888019 0 -0.091010378474062278 0.038096914408366087 0 -0.091223224832270772 0.027669799980024366 0 -0.084389830362263427 0.036488255160696578 0 -0.089981170769357077 0.030160693489355649 0 -0.090278764854777316 0.030166543290888019 0 -0.091223224832270772 0.027669799980024366 0 -0.087199548240189953 0.028473856934208914 0 -0.086857904634858887 0.032370837800478329 0 -0.091010378474062278 0.038096914408366087 0 -0.094728259081701488 0.033231153019010244 0 -0.091223224832270772 0.027669799980024366 0 -0.094728259081701488 0.033231153019010244 0 -0.098141368696222225 0.033436080518359487 0 -0.09784866224570804 0.037975346036937169 0 -0.094728259081701488 0.033231153019010244 0 -0.095856219313494653 0.029127560156926403 0 -0.091223224832270772 0.027669799980024366 0 -0.094728259081701488 0.033231153019010244 0 -0.098141368696222225 0.033436080518359487 0 -0.095856219313494653 0.029127560156926403 0 -0.098141368696222225 0.033436080518359487 0 -0.10075061871433862 0.028906050317028122 0 -0.095856219313494653 0.029127560156926403 0 -0.10155866221744696 0.03479268518308852 0 -0.098141368696222225 0.033436080518359487 0 -0.10075061871433862 0.028906050317028122 0 -0.10155866221744696 0.03479268518308852 0 -0.098141368696222225 0.033436080518359487 0 -0.09784866224570804 0.037975346036937169 0 -0.099361218369604265 0.036280975888692384 0 -0.10380446972679477 0.035501661195598319 0 -0.098215402126546211 0.037961807896892859 0 -0.099511915629678593 0.040900519160102476 0 -0.10540149877825118 0.037851010070721565 0 -0.10155866221744696 0.03479268518308852 0 -0.09784866224570804 0.037975346036937169 0 -0.1041785987540647 0.037779820398431821 0 -0.10770740028971991 0.032006188331253634 0 -0.11028406445054902 0.03291361127148671 0 -0.10726378215902474 0.034731617053721651 0 -0.10283300616885188 0.034195115010120597 0 -0.10380446972679477 0.035501661195598319 0 -0.096496944809038671 0.040702563172261105 0 -0.098215402126546211 0.037961807896892859 0 -0.099511915629678593 0.040900519160102476 0 -0.10770740028971991 0.032006188331253634 0 -0.10726378215902474 0.034731617053721651 0 -0.10499984131863921 0.034924875775583897 0 -0.10380446972679477 0.035501661195598319 0 -0.10499671800316991 0.036123372684334638 0 -0.10737403846290614 0.034889944332042733 0 -0.10499999007730676 0.034925421740073216 0 -0.10500000393603547 0.036126325503084054 0 -0.10380446972679477 0.035501661195598319 0 -0.10499789252605414 0.034927823414086602 0 -0.1041785987540647 0.037779820398431821 0 -0.10556337599636738 0.036313391465469136 0 -0.10500132076992992 0.036125033250229838 0 -0.10556337599636738 0.036313391465469136 0 -0.10500132076992992 0.036125033250229838 0 -0.10499917967674953 0.041640364857632881 0 -0.10155866221744696 0.03479268518308852 0 -0.10556337599636738 0.036313391465469136 0 -0.10075061871433862 0.028906050317028122 0 -0.1044240403695747 0.03550766831489003 0 -0.10393491752494273 0.035207511772681929 0 -0.10155866221744696 0.03479268518308852 0 -0.1041785987540647 0.037779820398431821 0 -0.10556337599636738 0.036313391465469136 0 -0.10556337599636738 0.036313391465469136 0 -0.10499917967674953 0.041640364857632881 0 -0.10950384665039688 0.040155600701449946 0 -0.10499917967674953 0.041640364857632881 0 -0.10950384665039688 0.040155600701449946 0 -0.10908284916729995 0.044552892411500893 0 -0.10393491752494273 0.035207511772681929 0 -0.10280870455545826 0.035065842873575094 0 -0.10950384665039688 0.040155600701449946 0 -0.10908284916729995 0.044552892411500893 0 -0.11297418767761028 0.043781784954848114 0 -0.10499917967674953 0.041640364857632881 0 -0.10908284916729995 0.044552892411500893 0 -0.10500018359758312 0.047154297753852395 0 -0.10500018359758312 0.047154297753852395 0 -0.10982133723714459 0.048052861013829606 0 -0.10884845947917283 0.051789880504825719 0 -0.10908284916729995 0.044552892411500893 0 -0.10500018359758312 0.047154297753852395 0 -0.10982133723714459 0.048052861013829606 0 -0.10908284916729995 0.044552892411500893 0 -0.10982133723714459 0.048052861013829606 0 -0.11285880285077685 0.046872675254312435 0 -0.112335673049598 0.053350147509150778 0 -0.10884845947917283 0.051789880504825719 0 -0.11322019793535609 0.049790119507086832 0 -0.10982133723714459 0.048052861013829606 0 -0.10884845947917283 0.051789880504825719 0 -0.11322019793535609 0.049790119507086832 0 -0.10499991425932467 0.052668255281480933 0 -0.10500018359758312 0.047154297753852395 0 -0.10884845947917283 0.051789880504825719 0 -0.11567946396616691 0.051073512100951325 0 -0.11638252786326855 0.047359593116438982 0 -0.11975902568054166 0.05086252127670117 0 -0.11567946396616691 0.051073512100951325 0 -0.11322019793535609 0.049790119507086832 0 -0.11638252786326855 0.047359593116438982 0 -0.116664569441035 0.054012170449804053 0 -0.11567946396616691 0.051073512100951325 0 -0.11975902568054166 0.05086252127670117 0 -0.112335673049598 0.053350147509150778 0 -0.11567946396616691 0.051073512100951325 0 -0.11322019793535609 0.049790119507086832 0 -0.10982133723714459 0.048052861013829606 0 -0.11322019793535609 0.049790119507086832 0 -0.11285880285077685 0.046872675254312435 0 -0.11322019793535609 0.049790119507086832 0 -0.11285880285077685 0.046872675254312435 0 -0.11638252786326855 0.047359593116438982 0 -0.11285880285077685 0.046872675254312435 0 -0.11638252786326855 0.047359593116438982 0 -0.11297418767761028 0.043781784954848114 0 -0.089493475559793423 0.018748198728791635 0 -0.089714074051675474 0.023235755742597692 0 -0.087357646643478351 0.021518654644204382 0 -0.089493475559793423 0.018748198728791635 0 -0.089714074051675474 0.023235755742597692 0 -0.094504111177999311 0.02291262059000056 0 -0.10158209733878042 0.036119734798437324 0 -0.10280870455545826 0.035065842873575094 0 -0.10908284916729995 0.044552892411500893 0 -0.11285880285077685 0.046872675254312435 0 -0.11297418767761028 0.043781784954848114 0 -0.10075061871433862 0.028906050317028122 0 -0.094504111177999311 0.02291262059000056 0 -0.095856219313494653 0.029127560156926403 0 -0.094504111177999311 0.02291262059000056 0 -0.095856219313494653 0.029127560156926403 0 -0.091223224832270772 0.027669799980024366 0 -0.089714074051675474 0.023235755742597692 0 -0.091223224832270772 0.027669799980024366 0 -0.087199548240189953 0.028473856934208914 0 -0.089714074051675474 0.023235755742597692 0 -0.094504111177999311 0.02291262059000056 0 -0.091223224832270772 0.027669799980024366 0 -0.084763244657450956 0.026937389221254958 0 -0.085586887635253545 0.023853355140024901 0 -0.087199548240189953 0.028473856934208914 0 -0.089714074051675474 0.023235755742597692 0 -0.085586887635253545 0.023853355140024901 0 -0.087199548240189953 0.028473856934208914 0 -0.084763244657450956 0.026937389221254958 0 -0.08294324280666468 0.025408126776282954 0 -0.085586887635253545 0.023853355140024901 0 -0.08294324280666468 0.025408126776282954 0 -0.079568449772708938 0.025243497757269008 0 -0.083188610712065333 0.029302927968383255 0 -0.083756671386933906 0.026577457041287195 0 -0.085490328570350757 0.027612614075766664 0 -0.084763244657450956 0.026937389221254958 0 -0.08294324280666468 0.025408126776282954 0 -0.083188610712065333 0.029302927968383255 0 -0.08294324280666468 0.025408126776282954 0 -0.082709953877619993 0.022892234120138227 0 -0.085586887635253545 0.023853355140024901 0 -0.08294324280666468 0.025408126776282954 0 -0.082709953877619993 0.022892234120138227 0 -0.079568449772708938 0.025243497757269008 0 -0.082709953877619993 0.022892234120138227 0 -0.084730263072442955 0.020203517162892325 0 -0.080960055267423336 0.019760989906909148 0 -0.082709953877619993 0.022892234120138227 0 -0.080960055267423336 0.019760989906909148 0 -0.079568449772708938 0.025243497757269008 0 -0.089714074051675474 0.023235755742597692 0 -0.085586887635253545 0.023853355140024901 0 -0.087357646643478351 0.021518654644204382 0 -0.082709953877619993 0.022892234120138227 0 -0.085586887635253545 0.023853355140024901 0 -0.084730263072442955 0.020203517162892325 0 -0.085586887635253545 0.023853355140024901 0 -0.087357646643478351 0.021518654644204382 0 -0.084730263072442955 0.020203517162892325 0 -0.10158209733878042 0.036119734798437324 0 -0.10113949816480204 0.040192960356195115 0 -0.089493475559793423 0.018748198728791635 0 -0.085430346996513903 0.017632932439962692 0 -0.085397447573025767 0.015201917587248903 0 -0.089493475559793423 0.018748198728791635 0 -0.087357646643478351 0.021518654644204382 0 -0.084730263072442955 0.020203517162892325 0 -0.089493475559793423 0.018748198728791635 0 -0.085430346996513903 0.017632932439962692 0 -0.084730263072442955 0.020203517162892325 0 -0.085430346996513903 0.017632932439962692 0 -0.084730263072442955 0.020203517162892325 0 -0.083146922314129179 0.017943760787418821 0 -0.085430346996513903 0.017632932439962692 0 -0.083146922314129179 0.017943760787418821 0 -0.084530109578004969 0.016094697034276628 0 -0.084730263072442955 0.020203517162892325 0 -0.080960055267423336 0.019760989906909148 0 -0.083146922314129179 0.017943760787418821 0 -0.080960055267423336 0.019760989906909148 0 -0.083146922314129179 0.017943760787418821 0 -0.082248521496040006 0.015752281251399412 0 -0.081506781783273405 0.013810961189896068 0 -0.082248521496040006 0.015752281251399412 0 -0.085237955420249978 0.015393250844919297 0 -0.082248521496040006 0.015752281251399412 0 -0.085237955420249978 0.015393250844919297 0 -0.084530109578004969 0.016094697034276628 0 -0.080960055267423336 0.019760989906909148 0 -0.082248521496040006 0.015752281251399412 0 -0.080089801715562639 0.015224095031792225 0 -0.083146922314129179 0.017943760787418821 0 -0.082248521496040006 0.015752281251399412 0 -0.084530109578004969 0.016094697034276628 0 -0.081506781783273405 0.013810961189896068 0 -0.082248521496040006 0.015752281251399412 0 -0.080089801715562639 0.015224095031792225 0 -0.085430346996513903 0.017632932439962692 0 -0.085397447573025767 0.015201917587248903 0 -0.084530109578004969 0.016094697034276628 0 -0.10113949816480204 0.040192960356195115 0 -0.10108788403635031 0.039776562257825089 0 -0.074691077980200776 0.01374214118135785 0 -0.076700883529166777 0.014878757423811633 0 -0.074423517760909122 0.016673656280732779 0 -0.077093078231488185 0.01685734904631352 0 -0.076700883529166777 0.014878757423811633 0 -0.074423517760909122 0.016673656280732779 0 -0.077093078231488185 0.01685734904631352 0 -0.076700883529166777 0.014878757423811633 0 -0.079563952972762753 0.0155446343650866 0 -0.085157818648859532 0.019570077478250198 0 -0.086825075360763226 0.021991680354014345 0 -0.080960055267423336 0.019760989906909148 0 -0.077093078231488185 0.01685734904631352 0 -0.075586447485761168 0.019374825431346897 0 -0.080960055267423336 0.019760989906909148 0 -0.077093078231488185 0.01685734904631352 0 -0.079563952972762753 0.0155446343650866 0 -0.077093078231488185 0.01685734904631352 0 -0.075586447485761168 0.019374825431346897 0 -0.074423517760909122 0.016673656280732779 0 -0.075586447485761168 0.019374825431346897 0 -0.076992848333200151 0.0228822550781843 0 -0.073559908470968549 0.023859534328104358 0 -0.080960055267423336 0.019760989906909148 0 -0.075586447485761168 0.019374825431346897 0 -0.076992848333200151 0.0228822550781843 0 -0.080960055267423336 0.019760989906909148 0 -0.076992848333200151 0.0228822550781843 0 -0.079568449772708938 0.025243497757269008 0 -0.076992848333200151 0.0228822550781843 0 -0.079568449772708938 0.025243497757269008 0 -0.076348044852357272 0.025809969485174531 0 -0.076992848333200151 0.0228822550781843 0 -0.076348044852357272 0.025809969485174531 0 -0.073559908470968549 0.023859534328104358 0 -0.076348044852357272 0.025809969485174531 0 -0.076653609926499389 0.029268661000879506 0 -0.07856104470016427 0.02742631641736825 0 -0.076348044852357272 0.025809969485174531 0 -0.076653609926499389 0.029268661000879506 0 -0.07440885566229001 0.027537678775050201 0 -0.076653609926499389 0.029268661000879506 0 -0.079419797844798606 0.029225310340312595 0 -0.078151480867145406 0.031907583339550294 0 -0.076653609926499389 0.029268661000879506 0 -0.079419797844798606 0.029225310340312595 0 -0.07856104470016427 0.02742631641736825 0 -0.079568449772708938 0.025243497757269008 0 -0.07856104470016427 0.02742631641736825 0 -0.080059717294628033 0.027273893270484691 0 -0.079568449772708938 0.025243497757269008 0 -0.076348044852357272 0.025809969485174531 0 -0.07856104470016427 0.02742631641736825 0 -0.079419797844798606 0.029225310340312595 0 -0.07856104470016427 0.02742631641736825 0 -0.080059717294628033 0.027273893270484691 0 -0.079568449772708938 0.025243497757269008 0 -0.08137589697271938 0.026724288518866275 0 -0.080059717294628033 0.027273893270484691 0 -0.08137589697271938 0.026724288518866275 0 -0.081404743368125296 0.02798994467937236 0 -0.080059717294628033 0.027273893270484691 0 -0.084763244657450956 0.026937389221254958 0 -0.083188610712065333 0.029302927968383255 0 -0.087199548240189953 0.028473856934208914 0 -0.083188610712065333 0.029302927968383255 0 -0.087199548240189953 0.028473856934208914 0 -0.086857904634858887 0.032370837800478329 0 -0.085490328570350757 0.027612614075766664 0 -0.090278764854777316 0.030166543290888019 0 -0.08137589697271938 0.026724288518866275 0 -0.081404743368125296 0.02798994467937236 0 -0.08342010134729573 0.02833774793845286 0 -0.094738175767042701 0.030997761940106224 0 -0.094497775055995326 0.030809442894690987 0 -0.094485426268904174 0.031114311059031036 0 -0.094497775055995326 0.030809442894690987 0 -0.094156557045047426 0.031251168314358604 0 -0.094485426268904174 0.031114311059031036 0 -0.090278764854777316 0.030166543290888019 0 -0.087698702933201464 0.031192185004361283 0 -0.081404743368125296 0.02798994467937236 0 -0.08342010134729573 0.02833774793845286 0 -0.081121951012722709 0.031363860791216717 0 -0.086290320754814867 0.030160335682225592 0 -0.087698702933201464 0.031192185004361283 0 -0.079419797844798606 0.029225310340312595 0 -0.081404743368125296 0.02798994467937236 0 -0.081170435154928666 0.031596441106867636 0 -0.079419797844798606 0.029225310340312595 0 -0.081404743368125296 0.02798994467937236 0 -0.080059717294628033 0.027273893270484691 0 -0.094156557045047426 0.031251168314358604 0 -0.094485426268904174 0.031114311059031036 0 -0.09455012342173659 0.03139828849408792 0 -0.10166129807481185 0.029522480276909027 0 -0.093394515146786969 0.029931876590191156 0 -0.094156557045047426 0.031251168314358604 0 -0.09455012342173659 0.03139828849408792 0 -0.094122980663133113 0.03160359873691395 0 -0.11690180132107161 0.028571475240427826 0 -0.12070105428790268 0.026437449042665859 0 -0.11620360534551934 0.025884318901455164 0 -0.081321874316353029 0.031618453101249229 0 -0.081047136651814497 0.034346442436293464 0 -0.079098146280278184 0.034546412778364288 0 -0.087698702933201464 0.031192185004361283 0 -0.084390080069887116 0.033789533734833878 0 -0.087698702933201464 0.031192185004361283 0 -0.093394515146786969 0.029931876590191156 0 -0.081170435154928666 0.031596441106867636 0 -0.079098146280278184 0.034546412778364288 0 -0.078151480867145406 0.031907583339550294 0 -0.079098146280278184 0.034546412778364288 0 -0.07697831650371062 0.034288241097404075 0 -0.078151480867145406 0.031907583339550294 0 -0.075366810950989307 0.032514584301667274 0 -0.07697831650371062 0.034288241097404075 0 -0.074494960616828032 0.035619563867204607 0 -0.075366810950989307 0.032514584301667274 0 -0.07697831650371062 0.034288241097404075 0 -0.078151480867145406 0.031907583339550294 0 -0.076653609926499389 0.029268661000879506 0 -0.075366810950989307 0.032514584301667274 0 -0.073303622034873728 0.029855335733740974 0 -0.076653609926499389 0.029268661000879506 0 -0.075366810950989307 0.032514584301667274 0 -0.078151480867145406 0.031907583339550294 0 -0.079419797844798606 0.029225310340312595 0 -0.081170435154928666 0.031596441106867636 0 -0.078151480867145406 0.031907583339550294 0 -0.072404562764313313 0.032959266574706755 0 -0.069065642536224853 0.033415449307113411 0 -0.069077247792828922 0.030127825918368649 0 -0.072404562764313313 0.032959266574706755 0 -0.069077247792828922 0.030127825918368649 0 -0.073303622034873728 0.029855335733740974 0 -0.075366810950989307 0.032514584301667274 0 -0.072404562764313313 0.032959266574706755 0 -0.073303622034873728 0.029855335733740974 0 -0.075366810950989307 0.032514584301667274 0 -0.072404562764313313 0.032959266574706755 0 -0.074494960616828032 0.035619563867204607 0 -0.072404562764313313 0.032959266574706755 0 -0.069065642536224853 0.033415449307113411 0 -0.071149374192509357 0.036100426324813514 0 -0.069065642536224853 0.033415449307113411 0 -0.065815479077659708 0.034635616484763022 0 -0.068316813931196665 0.036091040783537871 0 -0.069065642536224853 0.033415449307113411 0 -0.065815479077659708 0.034635616484763022 0 -0.064713414230138322 0.030536056883278116 0 -0.065815479077659708 0.034635616484763022 0 -0.064713414230138322 0.030536056883278116 0 -0.062960278966416303 0.033672654623484087 0 -0.069065642536224853 0.033415449307113411 0 -0.064713414230138322 0.030536056883278116 0 -0.069077247792828922 0.030127825918368649 0 -0.069077247792828922 0.030127825918368649 0 -0.066262443512349875 0.026906183509383206 0 -0.07109434890107208 0.026062798353755856 0 -0.064713414230138322 0.030536056883278116 0 -0.066262443512349875 0.026906183509383206 0 -0.061405302999547898 0.027222193868505714 0 -0.064713414230138322 0.030536056883278116 0 -0.069077247792828922 0.030127825918368649 0 -0.066262443512349875 0.026906183509383206 0 -0.066262443512349875 0.026906183509383206 0 -0.067392945965223522 0.023372747881650356 0 -0.062484722959884907 0.022418211090285172 0 -0.066262443512349875 0.026906183509383206 0 -0.07109434890107208 0.026062798353755856 0 -0.067392945965223522 0.023372747881650356 0 -0.069077247792828922 0.030127825918368649 0 -0.071649323089262057 0.027059604521967932 0 -0.073303622034873728 0.029855335733740974 0 -0.07035081382935697 0.028185256947150131 0 -0.071449314058479277 0.02636505062707712 0 -0.071649323089262057 0.027059604521967932 0 -0.073303622034873728 0.029855335733740974 0 -0.07440885566229001 0.027537678775050201 0 -0.076653609926499389 0.029268661000879506 0 -0.073303622034873728 0.029855335733740974 0 -0.07440885566229001 0.027537678775050201 0 -0.076348044852357272 0.025809969485174531 0 -0.07440885566229001 0.027537678775050201 0 -0.073559908470968549 0.023859534328104358 0 -0.071649323089262057 0.027059604521967932 0 -0.07440885566229001 0.027537678775050201 0 -0.073559908470968549 0.023859534328104358 0 -0.071449314058479277 0.02636505062707712 0 -0.073264472997897082 0.023325158211453274 0 -0.07109434890107208 0.026062798353755856 0 -0.070267046525893856 0.0221315974869979 0 -0.067392945965223522 0.023372747881650356 0 -0.07109434890107208 0.026062798353755856 0 -0.073185499306291188 0.022532540475097822 0 -0.070267046525893856 0.0221315974869979 0 -0.073185499306291188 0.022532540475097822 0 -0.070267046525893856 0.0221315974869979 0 -0.071306070255050313 0.018597266752882112 0 -0.070267046525893856 0.0221315974869979 0 -0.071306070255050313 0.018597266752882112 0 -0.068312552758060599 0.020206824456152832 0 -0.074374387104074346 0.021451454404430664 0 -0.073264472997897082 0.023325158211453274 0 -0.075586447485761168 0.019374825431346897 0 -0.073185499306291188 0.022532540475097822 0 -0.071306070255050313 0.018597266752882112 0 -0.075586447485761168 0.019374825431346897 0 -0.071306070255050313 0.018597266752882112 0 -0.074423517760909122 0.016673656280732779 0 -0.069546442054724461 0.013874961872262503 0 -0.071306070255050313 0.018597266752882112 0 -0.072530801288899424 0.014804397827140211 0 -0.071306070255050313 0.018597266752882112 0 -0.072530801288899424 0.014804397827140211 0 -0.074423517760909122 0.016673656280732779 0 -0.074691077980200776 0.01374214118135785 0 -0.072530801288899424 0.014804397827140211 0 -0.074423517760909122 0.016673656280732779 0 -0.06409154253483712 0.013244266997427786 0 -0.06611363207386696 0.016650474927758223 0 -0.061417240149145375 0.016332034322660841 0 -0.069546442054724461 0.013874961872262503 0 -0.071306070255050313 0.018597266752882112 0 -0.067390957956695516 0.016849714492366687 0 -0.074493436851724715 0.024306523325185608 0 -0.070784334143368557 0.021021885455812819 0 -0.06409154253483712 0.013244266997427786 0 -0.0680274964947645 0.013873937324859153 0 -0.06611363207386696 0.016650474927758223 0 -0.067390957956695516 0.016849714492366687 0 -0.065113468615331502 0.019591501542937175 0 -0.068312552758060599 0.020206824456152832 0 -0.071306070255050313 0.018597266752882112 0 -0.067390957956695516 0.016849714492366687 0 -0.068312552758060599 0.020206824456152832 0 -0.06611363207386696 0.016650474927758223 0 -0.064221744525594857 0.019487900249048454 0 -0.061417240149145375 0.016332034322660841 0 -0.070784334143368557 0.021021885455812819 0 -0.067667322808062022 0.021480920415645394 0 -0.065113468615331502 0.019591501542937175 0 -0.068312552758060599 0.020206824456152832 0 -0.067392945965223522 0.023372747881650356 0 -0.070267046525893856 0.0221315974869979 0 -0.068312552758060599 0.020206824456152832 0 -0.067392945965223522 0.023372747881650356 0 -0.065113468615331502 0.019591501542937175 0 -0.067392945965223522 0.023372747881650356 0 -0.062484722959884907 0.022418211090285172 0 -0.062484722959884907 0.022418211090285172 0 -0.057334090199133388 0.021145779052690394 0 -0.058875380579638065 0.024124892400687846 0 -0.062484722959884907 0.022418211090285172 0 -0.060565560792073606 0.019403351119697428 0 -0.057334090199133388 0.021145779052690394 0 -0.064221744525594857 0.019487900249048454 0 -0.062484722959884907 0.022418211090285172 0 -0.060565560792073606 0.019403351119697428 0 -0.067667322808062022 0.021480920415645394 0 -0.06626975953509158 0.022307116930691293 0 -0.064221744525594857 0.019487900249048454 0 -0.060565560792073606 0.019403351119697428 0 -0.061417240149145375 0.016332034322660841 0 -0.060565560792073606 0.019403351119697428 0 -0.061417240149145375 0.016332034322660841 0 -0.057209680838375569 0.018389223439058158 0 -0.059882775479531539 0.012388630293348139 0 -0.061417240149145375 0.016332034322660841 0 -0.056920922946418338 0.015052843247099846 0 -0.061417240149145375 0.016332034322660841 0 -0.056920922946418338 0.015052843247099846 0 -0.057209680838375569 0.018389223439058158 0 -0.053263686111145951 0.015172273019205816 0 -0.053308293279015435 0.016639028233943115 0 -0.055160001768843232 0.016360217213647346 0 -0.053308293279015435 0.016639028233943115 0 -0.055160001768843232 0.016360217213647346 0 -0.053731521830760749 0.018096985349660463 0 -0.058605928018688566 0.018752084474908087 0 -0.057111280692686513 0.018986749258919047 0 -0.056920922946418338 0.015052843247099846 0 -0.057209680838375569 0.018389223439058158 0 -0.053731521830760749 0.018096985349660463 0 -0.057209680838375569 0.018389223439058158 0 -0.053731521830760749 0.018096985349660463 0 -0.053205471240513565 0.020138433568516932 0 -0.057334090199133388 0.021145779052690394 0 -0.054563176568062977 0.022680818811341173 0 -0.05324117727431097 0.019678102937930365 0 -0.054838406216327927 0.020454021462364771 0 -0.053042602490104312 0.019922931590339192 0 -0.057209680838375569 0.018389223439058158 0 -0.057334090199133388 0.021145779052690394 0 -0.053205471240513565 0.020138433568516932 0 -0.060565560792073606 0.019403351119697428 0 -0.057209680838375569 0.018389223439058158 0 -0.057334090199133388 0.021145779052690394 0 -0.057334090199133388 0.021145779052690394 0 -0.054563176568062977 0.022680818811341173 0 -0.058875380579638065 0.024124892400687846 0 -0.054563176568062977 0.022680818811341173 0 -0.055661250140684598 0.026924310211729693 0 -0.051079215021233117 0.023300043294180492 0 -0.054563176568062977 0.022680818811341173 0 -0.055661250140684598 0.026924310211729693 0 -0.058875380579638065 0.024124892400687846 0 -0.055661250140684598 0.026924310211729693 0 -0.061405302999547898 0.027222193868505714 0 -0.058689260402431609 0.030498062939357688 0 -0.055661250140684598 0.026924310211729693 0 -0.058875380579638065 0.024124892400687846 0 -0.061405302999547898 0.027222193868505714 0 -0.062484722959884907 0.022418211090285172 0 -0.058875380579638065 0.024124892400687846 0 -0.061405302999547898 0.027222193868505714 0 -0.066262443512349875 0.026906183509383206 0 -0.062484722959884907 0.022418211090285172 0 -0.061405302999547898 0.027222193868505714 0 -0.06119094943440815 0.029175302927048383 0 -0.060841817280913209 0.030491492208572116 0 -0.064713414230138322 0.030536056883278116 0 -0.061405302999547898 0.027222193868505714 0 -0.05928940671601058 0.031975663939705447 0 -0.064713414230138322 0.030536056883278116 0 -0.05928940671601058 0.031975663939705447 0 -0.062960278966416303 0.033672654623484087 0 -0.065815479077659708 0.034635616484763022 0 -0.062960278966416303 0.033672654623484087 0 -0.063692982979882559 0.036151887761529049 0 -0.05928940671601058 0.031975663939705447 0 -0.062960278966416303 0.033672654623484087 0 -0.061079321088945294 0.035642822167719079 0 -0.05928940671601058 0.031975663939705447 0 -0.05908829679148201 0.03573955730276919 0 -0.061079321088945294 0.035642822167719079 0 -0.05928940671601058 0.031975663939705447 0 -0.057026739353433616 0.036445429067875616 0 -0.05908829679148201 0.03573955730276919 0 -0.060841817280913209 0.030491492208572116 0 -0.064535292550423479 0.026338615480417854 0 -0.054526405783842803 0.031950929773710564 0 -0.055939035559030958 0.030296500224308992 0 -0.056340694466055101 0.034012706833717279 0 -0.058689260402431609 0.030498062939357688 0 -0.055939035559030958 0.030296500224308992 0 -0.056340694466055101 0.034012706833717279 0 -0.054526405783842803 0.031950929773710564 0 -0.053512422279134532 0.029739834120237767 0 -0.055939035559030958 0.030296500224308992 0 -0.054526405783842803 0.031950929773710564 0 -0.053512422279134532 0.029739834120237767 0 -0.052613660691824181 0.032179928666391029 0 -0.055661250140684598 0.026924310211729693 0 -0.053512422279134532 0.029739834120237767 0 -0.055939035559030958 0.030296500224308992 0 -0.055661250140684598 0.026924310211729693 0 -0.058689260402431609 0.030498062939357688 0 -0.055939035559030958 0.030296500224308992 0 -0.056040085382509763 0.032205168309039092 0 -0.055580875605425351 0.032656914216926847 0 -0.056005455675426676 0.034219214605190396 0 -0.055192539683213589 0.033272898523213093 0 -0.055462599870358911 0.032020328144689345 0 -0.053719724716669907 0.034191663828623112 0 -0.055284759409990378 0.031299649553932746 0 -0.055462599870358911 0.032020328144689345 0 -0.053719724716669907 0.034191663828623112 0 -0.055192539683213589 0.033272898523213093 0 -0.056005455675426676 0.034219214605190396 0 -0.053719724716669907 0.034191663828623112 0 -0.055580875605425351 0.032656914216926847 0 -0.055192539683213589 0.033272898523213093 0 -0.055462599870358911 0.032020328144689345 0 -0.0706165432798318 0.020350673052112137 0 -0.070172874588594392 0.020374502480842514 0 -0.056040085382509763 0.032205168309039092 0 -0.055580875605425351 0.032656914216926847 0 -0.055462599870358911 0.032020328144689345 0 -0.055580875605425351 0.032656914216926847 0 -0.055192539683213589 0.033272898523213093 0 -0.056005455675426676 0.034219214605190396 0 -0.064535292550423479 0.026338615480417854 0 -0.05700931810051188 0.034458565184307698 0 -0.053339713407553356 0.033614910494224534 0 -0.055404674803316949 0.033138812174300543 0 -0.053938803447426943 0.03558219646574301 0 -0.053339713407553356 0.033614910494224534 0 -0.054030974563454147 0.032745070774662689 0 -0.055404674803316949 0.033138812174300543 0 -0.054526405783842803 0.031950929773710564 0 -0.054030974563454147 0.032745070774662689 0 -0.052613660691824181 0.032179928666391029 0 -0.053339713407553356 0.033614910494224534 0 -0.054030974563454147 0.032745070774662689 0 -0.052613660691824181 0.032179928666391029 0 -0.054526405783842803 0.031950929773710564 0 -0.054030974563454147 0.032745070774662689 0 -0.055404674803316949 0.033138812174300543 0 -0.063192582262643016 0.026709250501743602 0 -0.064535292550423479 0.026338615480417854 0 -0.058090141479109132 0.037697142217790358 0 -0.057026739353433616 0.036445429067875616 0 -0.05908829679148201 0.03573955730276919 0 -0.056067938584560981 0.032194165693209015 0 -0.055284759409990378 0.031299649553932746 0 -0.055462599870358911 0.032020328144689345 0 -0.0706165432798318 0.020350673052112137 0 -0.064535292550423479 0.026338615480417854 0 -0.058090141479109132 0.037697142217790358 0 -0.061079321088945294 0.035642822167719079 0 -0.06279571696428865 0.039112847663693232 0 -0.058090141479109132 0.037697142217790358 0 -0.05908829679148201 0.03573955730276919 0 -0.061079321088945294 0.035642822167719079 0 -0.061079321088945294 0.035642822167719079 0 -0.063692982979882559 0.036151887761529049 0 -0.06279571696428865 0.039112847663693232 0 -0.062960278966416303 0.033672654623484087 0 -0.061079321088945294 0.035642822167719079 0 -0.063692982979882559 0.036151887761529049 0 -0.063692982979882559 0.036151887761529049 0 -0.06279571696428865 0.039112847663693232 0 -0.065795447806735893 0.037714476815758471 0 -0.056040085382509763 0.032205168309039092 0 -0.058096401701502376 0.034670934477378873 0 -0.056005455675426676 0.034219214605190396 0 -0.10042206145839043 -0.0054243144175471786 0 -0.10146367499807266 -0.0052244928887758505 0 -0.10116170808564062 -0.0048319730108179176 0 -0.0706165432798318 0.020350673052112137 0 -0.080326926850705027 0.018769672002005792 0 -0.0706165432798318 0.020350673052112137 0 -0.079296451298567078 0.015435305555325142 0 -0.058096401701502376 0.034670934477378873 0 -0.056916231827042189 0.035772109874308684 0 -0.056005455675426676 0.034219214605190396 0 -0.058096401701502376 0.034670934477378873 0 -0.058611959887063622 0.0365738439522885 0 -0.057946377319378482 0.035964368745258858 0 -0.058096401701502376 0.034670934477378873 0 -0.056916231827042189 0.035772109874308684 0 -0.057946377319378482 0.035964368745258858 0 -0.10116170808564062 -0.0048319730108179176 0 -0.10174416706092371 -0.0048881479425363829 0 -0.10169864037911171 -0.0047312094187574238 0 -0.079296451298567078 0.015435305555325142 0 -0.088296943365411745 0.01145689146393743 0 -0.10146367499807266 -0.0052244928887758505 0 -0.10116170808564062 -0.0048319730108179176 0 -0.10174416706092371 -0.0048881479425363829 0 -0.10116170808564062 -0.0048319730108179176 0 -0.10169864037911171 -0.0047312094187574238 0 -0.10182255908885658 -0.0044917579704529358 0 -0.10116170808564062 -0.0048319730108179176 0 -0.10182589239997743 -0.0044549147503920444 0 -0.10182255908885658 -0.0044917579704529358 0 -0.058096401701502376 0.034670934477378873 0 -0.058611959887063622 0.0365738439522885 0 -0.060121331709491348 0.037049948962297484 0 -0.058611959887063622 0.0365738439522885 0 -0.058383326715833572 0.037567681746513724 0 -0.059133038584406834 0.037580249756067004 0 -0.058611959887063622 0.0365738439522885 0 -0.059133038584406834 0.037580249756067004 0 -0.060121331709491348 0.037049948962297484 0 -0.088296943365411745 0.01145689146393743 0 -0.08831271510474141 0.011394765995754555 0 -0.056916231827042189 0.035772109874308684 0 -0.057761364005713453 0.036824205792940184 0 -0.056407393404959066 0.037221562811083173 0 -0.056916231827042189 0.035772109874308684 0 -0.057946377319378482 0.035964368745258858 0 -0.057761364005713453 0.036824205792940184 0 -0.058611959887063622 0.0365738439522885 0 -0.057946377319378482 0.035964368745258858 0 -0.057761364005713453 0.036824205792940184 0 -0.058383326715833572 0.037567681746513724 0 -0.057761364005713453 0.036824205792940184 0 -0.057549027903865166 0.038107278191485593 0 -0.058611959887063622 0.0365738439522885 0 -0.058383326715833572 0.037567681746513724 0 -0.057761364005713453 0.036824205792940184 0 -0.057761364005713453 0.036824205792940184 0 -0.056407393404959066 0.037221562811083173 0 -0.057549027903865166 0.038107278191485593 0 -0.056916231827042189 0.035772109874308684 0 -0.055008766497492805 0.036079683670561545 0 -0.056407393404959066 0.037221562811083173 0 -0.055008766497492805 0.036079683670561545 0 -0.056407393404959066 0.037221562811083173 0 -0.054709468016438507 0.038157402134579937 0 -0.056916231827042189 0.035772109874308684 0 -0.055008766497492805 0.036079683670561545 0 -0.056005455675426676 0.034219214605190396 0 -0.055008766497492805 0.036079683670561545 0 -0.056005455675426676 0.034219214605190396 0 -0.053719724716669907 0.034191663828623112 0 -0.05700931810051188 0.034458565184307698 0 -0.053946276397367765 0.03760239066099718 0 -0.055008766497492805 0.036079683670561545 0 -0.053719724716669907 0.034191663828623112 0 -0.052198233693142027 0.037125804790158645 0 -0.055008766497492805 0.036079683670561545 0 -0.054709468016438507 0.038157402134579937 0 -0.052198233693142027 0.037125804790158645 0 -0.053200516822600526 0.039742989110086967 0 -0.054709468016438507 0.038157402134579937 0 -0.052198233693142027 0.037125804790158645 0 -0.053200516822600526 0.039742989110086967 0 -0.054709468016438507 0.038157402134579937 0 -0.055220346656026299 0.040292142556137729 0 -0.056228505366857348 0.038667896019808738 0 -0.054709468016438507 0.038157402134579937 0 -0.055220346656026299 0.040292142556137729 0 -0.056228505366857348 0.038667896019808738 0 -0.055220346656026299 0.040292142556137729 0 -0.057475621834230765 0.03992478353214296 0 -0.056407393404959066 0.037221562811083173 0 -0.056228505366857348 0.038667896019808738 0 -0.054709468016438507 0.038157402134579937 0 -0.055220346656026299 0.040292142556137729 0 -0.053488785577320383 0.041814795748631194 0 -0.055200010186904541 0.042145067227053079 0 -0.055220346656026299 0.040292142556137729 0 -0.055200010186904541 0.042145067227053079 0 -0.056525191886217192 0.041493016217321141 0 -0.053200516822600526 0.039742989110086967 0 -0.055220346656026299 0.040292142556137729 0 -0.053488785577320383 0.041814795748631194 0 -0.053200516822600526 0.039742989110086967 0 -0.053488785577320383 0.041814795748631194 0 -0.051975957974979094 0.041401576258492792 0 -0.053488785577320383 0.041814795748631194 0 -0.053888319659589311 0.042864456320912757 0 -0.051910168196103959 0.042439386362213075 0 -0.056704276337820624 0.023812041652516991 0 -0.055306902525759941 0.026758719844353379 0 -0.053488785577320383 0.041814795748631194 0 -0.055200010186904541 0.042145067227053079 0 -0.054146805651417669 0.043405906706196429 0 -0.057530832975686175 0.027931604774539601 0 -0.056704276337820624 0.023812041652516991 0 -0.055200010186904541 0.042145067227053079 0 -0.056907886373050054 0.04370195334220868 0 -0.056525191886217192 0.041493016217321141 0 -0.055200010186904541 0.042145067227053079 0 -0.054146805651417669 0.043405906706196429 0 -0.056907886373050054 0.04370195334220868 0 -0.044562666910888692 -0.0066893383850975428 0 -0.038265508076018723 -0.012792210775232864 0 -0.04831337360820339 -0.011611870665623227 0 -0.056704276337820624 0.023812041652516991 0 -0.058300177719039559 0.016449394471611967 0 -0.051073459013736958 0.039307004489998167 0 -0.050677835617180117 0.041769908472925096 0 -0.049537521780441456 0.03682382624740288 0 -0.044562666910888692 -0.0066893383850975428 0 -0.038265508076018723 -0.012792210775232864 0 -0.04236204099127687 -0.0012490500894048889 0 -0.056704276337820624 0.023812041652516991 0 -0.050735936269765386 0.019307275187590223 0 -0.051669370001785002 0.041178637867239652 0 -0.050677835617180117 0.041769908472925096 0 -0.051910168196103959 0.042439386362213075 0 -0.051073459013736958 0.039307004489998167 0 -0.051669370001785002 0.041178637867239652 0 -0.051816095550661689 0.038778999437901029 0 -0.051073459013736958 0.039307004489998167 0 -0.051669370001785002 0.041178637867239652 0 -0.050677835617180117 0.041769908472925096 0 -0.058737756371260767 -0.010283803759393606 0 -0.04831337360820339 -0.011611870665623227 0 -0.053528031261905896 -0.0042852207160742808 0 -0.072526924988823835 0.010572143563405793 0 -0.058300177719039559 0.016449394471611967 0 -0.04831337360820339 -0.011611870665623227 0 -0.048468937254849048 -0.0049809035613134723 0 -0.053528031261905896 -0.0042852207160742808 0 -0.044562666910888692 -0.0066893383850975428 0 -0.04831337360820339 -0.011611870665623227 0 -0.048468937254849048 -0.0049809035613134723 0 -0.059598048897087287 0.043975501887465705 0 -0.056907886373050054 0.04370195334220868 0 -0.058071404432096935 0.041925700934094604 0 -0.056907886373050054 0.04370195334220868 0 -0.056525191886217192 0.041493016217321141 0 -0.058071404432096935 0.041925700934094604 0 -0.059598048897087287 0.043975501887465705 0 -0.058071404432096935 0.041925700934094604 0 -0.059836492987685105 0.040534447614541821 0 -0.072526924988823835 0.010572143563405793 0 -0.080000158174223623 0.016178509396485085 0 -0.058071404432096935 0.041925700934094604 0 -0.059836492987685105 0.040534447614541821 0 -0.057475621834230765 0.03992478353214296 0 -0.059836492987685105 0.040534447614541821 0 -0.057475621834230765 0.03992478353214296 0 -0.058858470951395923 0.038742306620849098 0 -0.056525191886217192 0.041493016217321141 0 -0.058071404432096935 0.041925700934094604 0 -0.057475621834230765 0.03992478353214296 0 -0.055220346656026299 0.040292142556137729 0 -0.056525191886217192 0.041493016217321141 0 -0.057475621834230765 0.03992478353214296 0 -0.056228505366857348 0.038667896019808738 0 -0.057475621834230765 0.03992478353214296 0 -0.057549027903865166 0.038107278191485593 0 -0.057475621834230765 0.03992478353214296 0 -0.057549027903865166 0.038107278191485593 0 -0.058858470951395923 0.038742306620849098 0 -0.058383326715833572 0.037567681746513724 0 -0.057549027903865166 0.038107278191485593 0 -0.058858470951395923 0.038742306620849098 0 -0.056407393404959066 0.037221562811083173 0 -0.056228505366857348 0.038667896019808738 0 -0.057549027903865166 0.038107278191485593 0 -0.088296943365411745 0.01145689146393743 0 -0.080000158174223623 0.016178509396485085 0 -0.060121331709491348 0.037049948962297484 0 -0.059836492987685105 0.040534447614541821 0 -0.058858470951395923 0.038742306620849098 0 -0.058383326715833572 0.037567681746513724 0 -0.059133038584406834 0.037580249756067004 0 -0.058858470951395923 0.038742306620849098 0 -0.059133038584406834 0.037580249756067004 0 -0.060121331709491348 0.037049948962297484 0 -0.058858470951395923 0.038742306620849098 0 -0.099732298154908097 -0.0070624703864988437 0 -0.099534939172473802 -0.00427549502511149 0 -0.10093610418705423 -0.0057345062491318387 0 -0.088296943365411745 0.01145689146393743 0 -0.091538378426213179 0.0054871631472138884 0 -0.10247399512053294 -0.004496724449842191 0 -0.10264082188391935 -0.0045178313013031195 0 -0.10259305972287795 -0.0045455809730565152 0 -0.10220385972018324 -0.0043894851109914446 0 -0.10247399512053294 -0.004496724449842191 0 -0.10218334072870196 -0.0045407145629273865 0 -0.10220385972018324 -0.0043894851109914446 0 -0.10247399512053294 -0.004496724449842191 0 -0.10249435955680637 -0.0044696049238880002 0 -0.10220385972018324 -0.0043894851109914446 0 -0.10249435955680637 -0.0044696049238880002 0 -0.10231102204900339 -0.0043214440679623838 0 -0.10247399512053294 -0.004496724449842191 0 -0.10249435955680637 -0.0044696049238880002 0 -0.10273372290681999 -0.00451295019381399 0 -0.10249435955680637 -0.0044696049238880002 0 -0.10231102204900339 -0.0043214440679623838 0 -0.10291353774715066 -0.0045297129140505375 0 -0.10093610418705423 -0.0057345062491318387 0 -0.10231102204900339 -0.0043214440679623838 0 -0.1009397304998963 -0.0043383136790915901 0 -0.091538378426213179 0.0054871631472138884 0 -0.092801986623958291 0.0040009139405229053 0 -0.10231102204900339 -0.0043214440679623838 0 -0.1009397304998963 -0.0043383136790915901 0 -0.10230084054409087 -0.0032118580047962521 0 -0.10231102204900339 -0.0043214440679623838 0 -0.10230084054409087 -0.0032118580047962521 0 -0.10305501355984278 -0.0039800947639887065 0 -0.099534939172473802 -0.00427549502511149 0 -0.10093610418705423 -0.0057345062491318387 0 -0.1009397304998963 -0.0043383136790915901 0 -0.099534939172473802 -0.00427549502511149 0 -0.1009397304998963 -0.0043383136790915901 0 -0.10068560769789238 -0.0029277884284911434 0 -0.09924327262924014 -0.0015003495682457733 0 -0.099534939172473802 -0.00427549502511149 0 -0.10068560769789238 -0.0029277884284911434 0 -0.10068560769789238 -0.0029277884284911434 0 -0.10230084054409087 -0.0032118580047962521 0 -0.10164377043952076 -0.0010670850380505288 0 -0.1009397304998963 -0.0043383136790915901 0 -0.10068560769789238 -0.0029277884284911434 0 -0.10230084054409087 -0.0032118580047962521 0 -0.10164377043952076 -0.0010670850380505288 0 -0.10385699969586369 -0.0013748410047514936 0 -0.10331979966704108 0.0020749803348704349 0 -0.10230084054409087 -0.0032118580047962521 0 -0.10164377043952076 -0.0010670850380505288 0 -0.10385699969586369 -0.0013748410047514936 0 -0.094453215019540848 -0.0020458296158799879 0 -0.10164377043952076 -0.0010670850380505288 0 -0.098438249964653793 0.002660592731675565 0 -0.072526924988823835 0.010572143563405793 0 -0.08994074215967568 0.0090065684469945347 0 -0.09924327262924014 -0.0015003495682457733 0 -0.10068560769789238 -0.0029277884284911434 0 -0.10164377043952076 -0.0010670850380505288 0 -0.10978241268563389 -0.0023492151572582208 0 -0.11325983201278945 -0.0035975805336830578 0 -0.10934459845819933 0.0012632361413796303 0 -0.10978241268563389 -0.0023492151572582208 0 -0.10672805515373747 -0.0069768134410011897 0 -0.11325983201278945 -0.0035975805336830578 0 -0.11397593259841665 -0.0011893378068050214 0 -0.11272334951185715 -0.00013195302179241512 0 -0.10385699969586369 -0.0013748410047514936 0 -0.10441706595868189 -0.0028545461988225391 0 -0.106546275089726 0.00044364316568743092 0 -0.106346019758069 -0.0038891545067277948 0 -0.10635751695845509 -0.0021214987697176974 0 -0.10978241268563389 -0.0023492151572582208 0 -0.10672805515373747 -0.0069768134410011897 0 -0.106546275089726 0.00044364316568743092 0 -0.10230084054409087 -0.0032118580047962521 0 -0.10441706595868189 -0.0028545461988225391 0 -0.10305501355984278 -0.0039800947639887065 0 -0.10230084054409087 -0.0032118580047962521 0 -0.10385699969586369 -0.0013748410047514936 0 -0.10441706595868189 -0.0028545461988225391 0 -0.10672805515373747 -0.0069768134410011897 0 -0.11198453416497933 -0.011262110508535863 0 -0.11325983201278945 -0.0035975805336830578 0 -0.10672805515373747 -0.0069768134410011897 0 -0.11198453416497933 -0.011262110508535863 0 -0.10656248940779797 -0.013911817274648601 0 -0.10460693753871489 -0.00032039785915376011 0 -0.10407211007737056 -0.0017213972469542419 0 -0.10559567630941274 -0.0024986951149523324 0 -0.10916977079542656 -0.0034482639829633965 0 -0.1066877106206427 -0.0046425379339113835 0 -0.10460693753871489 -0.00032039785915376011 0 -0.10264644674140702 -0.0013038100657250223 0 -0.10407211007737056 -0.0017213972469542419 0 -0.106346019758069 -0.0038891545067277948 0 -0.1066877106206427 -0.0046425379339113835 0 -0.10441706595868189 -0.0028545461988225391 0 -0.10305501355984278 -0.0039800947639887065 0 -0.1034103291739685 -0.0044837844737580148 0 -0.1066877106206427 -0.0046425379339113835 0 -0.10651930612224737 -0.0046968021787322416 0 -0.10231102204900339 -0.0043214440679623838 0 -0.10305501355984278 -0.0039800947639887065 0 -0.10291353774715066 -0.0045297129140505375 0 -0.10305501355984278 -0.0039800947639887065 0 -0.1034103291739685 -0.0044837844737580148 0 -0.10291353774715066 -0.0045297129140505375 0 -0.10290029464825977 -0.0045119487339772271 0 -0.10273372290681999 -0.00451295019381399 0 -0.10270035664675058 -0.0045148801478106975 0 -0.10264644674140702 -0.0013038100657250223 0 -0.10264761828052113 -0.0030917127111258326 0 -0.1032426323458349 -0.0022387236439316729 0 -0.1066877106206427 -0.0046425379339113835 0 -0.10568153934119642 -0.0042137852942789157 0 -0.10290029464825977 -0.0045119487339772271 0 -0.10291353774715066 -0.0045297129140505375 0 -0.10273372290681999 -0.00451295019381399 0 -0.10249435955680637 -0.0044696049238880002 0 -0.10291353774715066 -0.0045297129140505375 0 -0.10273372290681999 -0.00451295019381399 0 -0.10264761828052113 -0.0030917127111258326 0 -0.1032426323458349 -0.0022387236439316729 0 -0.10320594907658115 -0.0029685660636820477 0 -0.10247399512053294 -0.004496724449842191 0 -0.10273372290681999 -0.00451295019381399 0 -0.10264082188391935 -0.0045178313013031195 0 -0.10273372290681999 -0.00451295019381399 0 -0.10270035664675058 -0.0045148801478106975 0 -0.10264082188391935 -0.0045178313013031195 0 -0.10407211007737056 -0.0017213972469542419 0 -0.10378108366695042 -0.0024721703300180009 0 -0.10447208494077478 -0.0028905112118480995 0 -0.10407211007737056 -0.0017213972469542419 0 -0.10447208494077478 -0.0028905112118480995 0 -0.10559567630941274 -0.0024986951149523324 0 -0.10264644674140702 -0.0013038100657250223 0 -0.10407211007737056 -0.0017213972469542419 0 -0.1032426323458349 -0.0022387236439316729 0 -0.10407211007737056 -0.0017213972469542419 0 -0.1032426323458349 -0.0022387236439316729 0 -0.10378108366695042 -0.0024721703300180009 0 -0.10378108366695042 -0.0024721703300180009 0 -0.10320594907658115 -0.0029685660636820477 0 -0.10447208494077478 -0.0028905112118480995 0 -0.1032426323458349 -0.0022387236439316729 0 -0.10378108366695042 -0.0024721703300180009 0 -0.10320594907658115 -0.0029685660636820477 0 -0.10320594907658115 -0.0029685660636820477 0 -0.10447208494077478 -0.0028905112118480995 0 -0.10570102816792376 -0.0047813824151181723 0 -0.10320594907658115 -0.0029685660636820477 0 -0.10327562782909271 -0.0040285148431844862 0 -0.10487609233641695 -0.0043884268940467272 0 -0.10327562782909271 -0.0040285148431844862 0 -0.1028672996349614 -0.0048997711752451888 0 -0.10487609233641695 -0.0043884268940467272 0 -0.10545774933495131 0.0049113910970370496 0 -0.099739382075823613 0.012940523369911144 0 -0.072229232047313019 0.04158778756272017 0 -0.075848149112894767 0.040570310135005686 0 -0.076980384821311892 0.042678728056454673 0 -0.089714993373855786 0.015495093082982322 0 -0.099739382075823613 0.012940523369911144 0 -0.073673946000361437 0.039972909321740191 0 -0.072229232047313019 0.04158778756272017 0 -0.075848149112894767 0.040570310135005686 0 -0.1028672996349614 -0.0048997711752451888 0 -0.10272754484423355 -0.0045420071540390331 0 -0.10243782785133988 -0.0047440011557305381 0 -0.072229232047313019 0.04158778756272017 0 -0.067555122601652501 0.040407801559514657 0 -0.071175327621837856 0.039793544113823819 0 -0.073673946000361437 0.039972909321740191 0 -0.072229232047313019 0.04158778756272017 0 -0.071175327621837856 0.039793544113823819 0 -0.10264761828052113 -0.0030917127111258326 0 -0.10327562782909271 -0.0040285148431844862 0 -0.10272754484423355 -0.0045420071540390331 0 -0.10272754484423355 -0.0045420071540390331 0 -0.10259305972287795 -0.0045455809730565152 0 -0.10243782785133988 -0.0047440011557305381 0 -0.10270035664675058 -0.0045148801478106975 0 -0.10272754484423355 -0.0045420071540390331 0 -0.10259305972287795 -0.0045455809730565152 0 -0.10568153934119642 -0.0042137852942789157 0 -0.10536767998050474 -0.0042503224031400985 0 -0.10327562782909271 -0.0040285148431844862 0 -0.1028672996349614 -0.0048997711752451888 0 -0.10272754484423355 -0.0045420071540390331 0 -0.10264761828052113 -0.0030917127111258326 0 -0.10320594907658115 -0.0029685660636820477 0 -0.10327562782909271 -0.0040285148431844862 0 -0.10270035664675058 -0.0045148801478106975 0 -0.10264082188391935 -0.0045178313013031195 0 -0.10259305972287795 -0.0045455809730565152 0 -0.10218334072870196 -0.0045407145629273865 0 -0.10202192721973562 -0.004711031036599052 0 -0.10243782785133988 -0.0047440011557305381 0 -0.10259305972287795 -0.0045455809730565152 0 -0.10218334072870196 -0.0045407145629273865 0 -0.10243782785133988 -0.0047440011557305381 0 -0.10247399512053294 -0.004496724449842191 0 -0.10259305972287795 -0.0045455809730565152 0 -0.10218334072870196 -0.0045407145629273865 0 -0.10183195150051538 -0.0044707774857416305 0 -0.10182255908885658 -0.0044917579704529358 0 -0.10218334072870196 -0.0045407145629273865 0 -0.10183195150051538 -0.0044707774857416305 0 -0.10220385972018324 -0.0043894851109914446 0 -0.10218334072870196 -0.0045407145629273865 0 -0.10169864037911171 -0.0047312094187574238 0 -0.10182255908885658 -0.0044917579704529358 0 -0.10202192721973562 -0.004711031036599052 0 -0.10182255908885658 -0.0044917579704529358 0 -0.10218334072870196 -0.0045407145629273865 0 -0.10202192721973562 -0.004711031036599052 0 -0.10174416706092371 -0.0048881479425363829 0 -0.10202192721973562 -0.004711031036599052 0 -0.1022064396372297 -0.0049995952702580103 0 -0.10146367499807266 -0.0052244928887758505 0 -0.10174416706092371 -0.0048881479425363829 0 -0.1022064396372297 -0.0049995952702580103 0 -0.10174416706092371 -0.0048881479425363829 0 -0.10169864037911171 -0.0047312094187574238 0 -0.10202192721973562 -0.004711031036599052 0 -0.089714993373855786 0.015495093082982322 0 -0.084967031101231202 0.017268051645860275 0 -0.10202192721973562 -0.004711031036599052 0 -0.1022064396372297 -0.0049995952702580103 0 -0.10243782785133988 -0.0047440011557305381 0 -0.1028672996349614 -0.0048997711752451888 0 -0.1022064396372297 -0.0049995952702580103 0 -0.10243782785133988 -0.0047440011557305381 0 -0.067555122601652501 0.040407801559514657 0 -0.069531878930523067 0.038233335331409338 0 -0.071175327621837856 0.039793544113823819 0 -0.067555122601652501 0.040407801559514657 0 -0.069531878930523067 0.038233335331409338 0 -0.065795447806735893 0.037714476815758471 0 -0.080326926850705027 0.018769672002005792 0 -0.084967031101231202 0.017268051645860275 0 -0.06279571696428865 0.039112847663693232 0 -0.067555122601652501 0.040407801559514657 0 -0.065795447806735893 0.037714476815758471 0 -0.065815479077659708 0.034635616484763022 0 -0.063692982979882559 0.036151887761529049 0 -0.065795447806735893 0.037714476815758471 0 -0.065815479077659708 0.034635616484763022 0 -0.065795447806735893 0.037714476815758471 0 -0.068316813931196665 0.036091040783537871 0 -0.069065642536224853 0.033415449307113411 0 -0.068316813931196665 0.036091040783537871 0 -0.071149374192509357 0.036100426324813514 0 -0.069531878930523067 0.038233335331409338 0 -0.065795447806735893 0.037714476815758471 0 -0.068316813931196665 0.036091040783537871 0 -0.069531878930523067 0.038233335331409338 0 -0.068316813931196665 0.036091040783537871 0 -0.071149374192509357 0.036100426324813514 0 -0.071149374192509357 0.036100426324813514 0 -0.074494960616828032 0.035619563867204607 0 -0.072696052910736664 0.038413615658582249 0 -0.072404562764313313 0.032959266574706755 0 -0.071149374192509357 0.036100426324813514 0 -0.074494960616828032 0.035619563867204607 0 -0.074494960616828032 0.035619563867204607 0 -0.072696052910736664 0.038413615658582249 0 -0.075268404194804489 0.038786710237354069 0 -0.073673946000361437 0.039972909321740191 0 -0.075268404194804489 0.038786710237354069 0 -0.075848149112894767 0.040570310135005686 0 -0.073673946000361437 0.039972909321740191 0 -0.072696052910736664 0.038413615658582249 0 -0.075268404194804489 0.038786710237354069 0 -0.069531878930523067 0.038233335331409338 0 -0.072696052910736664 0.038413615658582249 0 -0.071175327621837856 0.039793544113823819 0 -0.073673946000361437 0.039972909321740191 0 -0.072696052910736664 0.038413615658582249 0 -0.071175327621837856 0.039793544113823819 0 -0.069531878930523067 0.038233335331409338 0 -0.071149374192509357 0.036100426324813514 0 -0.072696052910736664 0.038413615658582249 0 -0.079268505507898254 0.038599196010744657 0 -0.077304566890774987 0.036465968793965901 0 -0.080355435378805601 0.036601777002182721 0 -0.079268505507898254 0.038599196010744657 0 -0.077495407268660832 0.039582941778751504 0 -0.077304566890774987 0.036465968793965901 0 -0.079268505507898254 0.038599196010744657 0 -0.080355435378805601 0.036601777002182721 0 -0.081636747509966495 0.039176305396613785 0 -0.079268505507898254 0.038599196010744657 0 -0.081636747509966495 0.039176305396613785 0 -0.079312065288649494 0.040872822487633527 0 -0.079268505507898254 0.038599196010744657 0 -0.077495407268660832 0.039582941778751504 0 -0.079312065288649494 0.040872822487633527 0 -0.075268404194804489 0.038786710237354069 0 -0.077495407268660832 0.039582941778751504 0 -0.077304566890774987 0.036465968793965901 0 -0.075268404194804489 0.038786710237354069 0 -0.077495407268660832 0.039582941778751504 0 -0.075848149112894767 0.040570310135005686 0 -0.074494960616828032 0.035619563867204607 0 -0.075268404194804489 0.038786710237354069 0 -0.077304566890774987 0.036465968793965901 0 -0.07697831650371062 0.034288241097404075 0 -0.074494960616828032 0.035619563867204607 0 -0.077304566890774987 0.036465968793965901 0 -0.079098146280278184 0.034546412778364288 0 -0.07697831650371062 0.034288241097404075 0 -0.077304566890774987 0.036465968793965901 0 -0.093394515146786969 0.029931876590191156 0 -0.082914868916996093 0.034822412755363526 0 -0.081047136651814497 0.034346442436293464 0 -0.079098146280278184 0.034546412778364288 0 -0.077304566890774987 0.036465968793965901 0 -0.082212919117090791 0.033893921765066011 0 -0.077304566890774987 0.036465968793965901 0 -0.080355435378805601 0.036601777002182721 0 -0.082212919117090791 0.033893921765066011 0 -0.080355435378805601 0.036601777002182721 0 -0.081636747509966495 0.039176305396613785 0 -0.12070105428790268 0.026437449042665859 0 -0.11772267708465084 0.02369801153007112 0 -0.12111643870784315 0.021086433644384939 0 -0.093394515146786969 0.029931876590191156 0 -0.10348872473297399 0.026186207921166185 0 -0.12070105428790268 0.026437449042665859 0 -0.11772267708465084 0.02369801153007112 0 -0.11620360534551934 0.025884318901455164 0 -0.11772267708465084 0.02369801153007112 0 -0.11884443154631985 0.020696498537324158 0 -0.11679379282700118 0.020891372109805989 0 -0.11772267708465084 0.02369801153007112 0 -0.11679379282700118 0.020891372109805989 0 -0.11592658620805482 0.022030203538331298 0 -0.11082847542302689 0.022274603399046949 0 -0.10348872473297399 0.026186207921166185 0 -0.11772267708465084 0.02369801153007112 0 -0.11884443154631985 0.020696498537324158 0 -0.1207018220702343 0.020797592718527189 0 -0.11884443154631985 0.020696498537324158 0 -0.1207018220702343 0.020797592718527189 0 -0.12069376189773409 0.019479523398631439 0 -0.10348872473297399 0.026186207921166185 0 -0.10388298733256947 0.025607303456995977 0 -0.11884443154631985 0.020696498537324158 0 -0.12069376189773409 0.019479523398631439 0 -0.11824982864283295 0.018730834119644893 0 -0.12069376189773409 0.019479523398631439 0 -0.12083960924337694 0.018491176089861398 0 -0.11824982864283295 0.018730834119644893 0 -0.11818526031900131 0.018518054918659252 0 -0.1199327798399573 0.017773265724860789 0 -0.12083960924337694 0.018491176089861398 0 -0.11824982864283295 0.018730834119644893 0 -0.12180015722249038 0.016919653272649673 0 -0.12061023879280268 0.020450946340389391 0 -0.12069376189773409 0.019479523398631439 0 -0.12232711498980381 0.018758140731565974 0 -0.11884443154631985 0.020696498537324158 0 -0.11679379282700118 0.020891372109805989 0 -0.11824982864283295 0.018730834119644893 0 -0.11936435259616755 0.017565615721801264 0 -0.11749014385945585 0.016502322823116537 0 -0.11878713653022195 0.015954070449710957 0 -0.11936435259616755 0.017565615721801264 0 -0.11749014385945585 0.016502322823116537 0 -0.11673003689466381 0.017939981909142557 0 -0.11749014385945585 0.016502322823116537 0 -0.11878713653022195 0.015954070449710957 0 -0.11759068449907933 0.014972534188977277 0 -0.11936435259616755 0.017565615721801264 0 -0.11878713653022195 0.015954070449710957 0 -0.11967483597987388 0.016298609329523522 0 -0.11936435259616755 0.017565615721801264 0 -0.11967483597987388 0.016298609329523522 0 -0.12049922701992657 0.016439100002333038 0 -0.11878713653022195 0.015954070449710957 0 -0.11954020582777847 0.015697524916747842 0 -0.11946653271451127 0.014900009055950314 0 -0.11878713653022195 0.015954070449710957 0 -0.11967483597987388 0.016298609329523522 0 -0.11954020582777847 0.015697524916747842 0 -0.11967483597987388 0.016298609329523522 0 -0.11954020582777847 0.015697524916747842 0 -0.12005379357688066 0.015687360632572811 0 -0.11969111005936715 0.015246615078069847 0 -0.11967388333344989 0.01480885724028682 0 -0.12005379357688066 0.015687360632572811 0 -0.11954020582777847 0.015697524916747842 0 -0.11969111005936715 0.015246615078069847 0 -0.11946653271451127 0.014900009055950314 0 -0.11954020582777847 0.015697524916747842 0 -0.11969111005936715 0.015246615078069847 0 -0.12005379357688066 0.015687360632572811 0 -0.11969111005936715 0.015246615078069847 0 -0.11967388333344989 0.01480885724028682 0 -0.11946653271451127 0.014900009055950314 0 -0.1135895163354865 0.0056420858963752932 0 -0.11358995734695485 0.005751822077758058 0 -0.11946653271451127 0.014900009055950314 0 -0.11853382790043307 0.014555357523834606 0 -0.11917408541959898 0.01357530173998488 0 -0.12023798233563691 0.014052270423532708 0 -0.11946653271451127 0.014900009055950314 0 -0.11917408541959898 0.01357530173998488 0 -0.1135895163354865 0.0056420858963752932 0 -0.1138855661319078 0.0057988871985290976 0 -0.11878713653022195 0.015954070449710957 0 -0.11946653271451127 0.014900009055950314 0 -0.11853382790043307 0.014555357523834606 0 -0.11878713653022195 0.015954070449710957 0 -0.11853382790043307 0.014555357523834606 0 -0.11759068449907933 0.014972534188977277 0 -0.11853382790043307 0.014555357523834606 0 -0.11783692387945448 0.013579075015906987 0 -0.11917408541959898 0.01357530173998488 0 -0.11853382790043307 0.014555357523834606 0 -0.11783692387945448 0.013579075015906987 0 -0.11759068449907933 0.014972534188977277 0 -0.11967388333344989 0.01480885724028682 0 -0.12005379357688066 0.015687360632572811 0 -0.12171919686764547 0.016318607613568823 0 -0.12049922701992657 0.016439100002333038 0 -0.12005379357688066 0.015687360632572811 0 -0.12171919686764547 0.016318607613568823 0 -0.11007410394252749 -0.0034363262763052738 0 -0.10789285884921736 -0.0041092733104581662 0 -0.10834923814290233 -0.002924227413685278 0 -0.1135895163354865 0.0056420858963752932 0 -0.11004876109403058 0.0093910635444495773 0 -0.11936435259616755 0.017565615721801264 0 -0.12049922701992657 0.016439100002333038 0 -0.12180015722249038 0.016919653272649673 0 -0.12049922701992657 0.016439100002333038 0 -0.12171919686764547 0.016318607613568823 0 -0.12180015722249038 0.016919653272649673 0 -0.11967483597987388 0.016298609329523522 0 -0.12049922701992657 0.016439100002333038 0 -0.12005379357688066 0.015687360632572811 0 -0.10789285884921736 -0.0041092733104581662 0 -0.10657580362317001 -0.0035335735419166616 0 -0.10570102816792376 -0.0047813824151181723 0 -0.12171919686764547 0.016318607613568823 0 -0.12180015722249038 0.016919653272649673 0 -0.12368020828953481 0.017486557659615879 0 -0.11004876109403058 0.0093910635444495773 0 -0.099739382075823613 0.012940523369911144 0 -0.10789285884921736 -0.0041092733104581662 0 -0.10657580362317001 -0.0035335735419166616 0 -0.10711486265680099 -0.0027449281424966293 0 -0.12180015722249038 0.016919653272649673 0 -0.12232711498980381 0.018758140731565974 0 -0.12368020828953481 0.017486557659615879 0 -0.12083960924337694 0.018491176089861398 0 -0.12180015722249038 0.016919653272649673 0 -0.12232711498980381 0.018758140731565974 0 -0.10348872473297399 0.026186207921166185 0 -0.10006524158881991 0.021868327005465156 0 -0.12069376189773409 0.019479523398631439 0 -0.12083960924337694 0.018491176089861398 0 -0.12232711498980381 0.018758140731565974 0 -0.079312065288649494 0.040872822487633527 0 -0.075848149112894767 0.040570310135005686 0 -0.076980384821311892 0.042678728056454673 0 -0.077495407268660832 0.039582941778751504 0 -0.079312065288649494 0.040872822487633527 0 -0.075848149112894767 0.040570310135005686 0 -0.10006524158881991 0.021868327005465156 0 -0.099739382075823613 0.012940523369911144 0 -0.10657580362317001 -0.0035335735419166616 0 -0.10570102816792376 -0.0047813824151181723 0 -0.10559567630941274 -0.0024986951149523324 0 -0.10447208494077478 -0.0028905112118480995 0 -0.10570102816792376 -0.0047813824151181723 0 -0.10559567630941274 -0.0024986951149523324 0 -0.10657580362317001 -0.0035335735419166616 0 -0.10559567630941274 -0.0024986951149523324 0 -0.10711486265680099 -0.0027449281424966293 0 -0.10559567630941274 -0.0024986951149523324 0 -0.10711486265680099 -0.0027449281424966293 0 -0.10653207334010426 -0.0011920372111286625 0 -0.10711486265680099 -0.0027449281424966293 0 -0.10653207334010426 -0.0011920372111286625 0 -0.10831420580758604 -0.0014058328518992403 0 -0.10789285884921736 -0.0041092733104581662 0 -0.10711486265680099 -0.0027449281424966293 0 -0.10834923814290233 -0.002924227413685278 0 -0.10711486265680099 -0.0027449281424966293 0 -0.10831420580758604 -0.0014058328518992403 0 -0.10834923814290233 -0.002924227413685278 0 -0.11412432763629858 -0.00037162134511789058 0 -0.11454632513723585 0.0027590140783702978 0 -0.10653207334010426 -0.0011920372111286625 0 -0.10656148668330467 0.00064027697163035967 0 -0.10831420580758604 -0.0014058328518992403 0 -0.10460693753871489 -0.00032039785915376011 0 -0.10559567630941274 -0.0024986951149523324 0 -0.10653207334010426 -0.0011920372111286625 0 -0.10460693753871489 -0.00032039785915376011 0 -0.10653207334010426 -0.0011920372111286625 0 -0.10656148668330467 0.00064027697163035967 0 -0.10916977079542656 -0.0034482639829633965 0 -0.11412432763629858 -0.00037162134511789058 0 -0.11198453416497933 -0.011262110508535863 0 -0.11747509014335897 -0.0085433942384062003 0 -0.11325983201278945 -0.0035975805336830578 0 -0.11412432763629858 -0.00037162134511789058 0 -0.11397593259841665 -0.0011893378068050214 0 -0.11412432763629858 -0.00037162134511789058 0 -0.11855054388556167 0.00071925270084548015 0 -0.12815740943432405 0.0048003632538768139 0 -0.12330146989771466 0.002389309240832927 0 -0.12431746576034643 0.0093378296763197526 0 -0.1196993711601277 -0.0021888929813486829 0 -0.12009099537241631 -0.0016606306723953277 0 -0.12004953331344106 -0.0015193710279642657 0 -0.11916884349472114 -0.0041087031506274992 0 -0.1196993711601277 -0.0021888929813486829 0 -0.12009099537241631 -0.0016606306723953277 0 -0.11916884349472114 -0.0041087031506274992 0 -0.1196993711601277 -0.0021888929813486829 0 -0.11593980969959683 -0.0031206629700425534 0 -0.1196993711601277 -0.0021888929813486829 0 -0.11593980969959683 -0.0031206629700425534 0 -0.11524760979239461 0.00014919982048668056 0 -0.11852515128973717 0.00049909053928208285 0 -0.11855054388556167 0.00071925270084548015 0 -0.11812799807727997 -0.00016712784187855115 0 -0.12330146989771466 0.002389309240832927 0 -0.12036182104041451 0.0050827861340518926 0 -0.11812799807727997 -0.00016712784187855115 0 -0.12009099537241631 -0.0016606306723953277 0 -0.12004953331344106 -0.0015193710279642657 0 -0.12330146989771466 0.002389309240832927 0 -0.12036182104041451 0.0050827861340518926 0 -0.12431746576034643 0.0093378296763197526 0 -0.11812799807727997 -0.00016712784187855115 0 -0.12036182104041451 0.0050827861340518926 0 -0.1166549042656978 0.0051481289197021539 0 -0.12036182104041451 0.0050827861340518926 0 -0.11935293157868365 0.0084374648081241132 0 -0.1166549042656978 0.0051481289197021539 0 -0.11935293157868365 0.0084374648081241132 0 -0.11725032837107825 0.01021882908717601 0 -0.11621597215089868 0.0081019517805022076 0 -0.12036182104041451 0.0050827861340518926 0 -0.11935293157868365 0.0084374648081241132 0 -0.12431746576034643 0.0093378296763197526 0 -0.11935293157868365 0.0084374648081241132 0 -0.12431746576034643 0.0093378296763197526 0 -0.12061882106030675 0.011076335522636094 0 -0.11007410394252749 -0.0034363262763052738 0 -0.10831420580758604 -0.0014058328518992403 0 -0.10834923814290233 -0.002924227413685278 0 -0.12041184565528343 0.013921542887681533 0 -0.12431746576034643 0.0093378296763197526 0 -0.12061882106030675 0.011076335522636094 0 -0.1135895163354865 0.0056420858963752932 0 -0.11454632513723585 0.0027590140783702978 0 -0.11874759856789274 0.011548276600071216 0 -0.116766000820066 0.012336435583900168 0 -0.11725032837107825 0.01021882908717601 0 -0.11935293157868365 0.0084374648081241132 0 -0.11874759856789274 0.011548276600071216 0 -0.11725032837107825 0.01021882908717601 0 -0.11935293157868365 0.0084374648081241132 0 -0.11874759856789274 0.011548276600071216 0 -0.12061882106030675 0.011076335522636094 0 -0.11874759856789274 0.011548276600071216 0 -0.12061882106030675 0.011076335522636094 0 -0.11917408541959898 0.01357530173998488 0 -0.12041184565528343 0.013921542887681533 0 -0.12061882106030675 0.011076335522636094 0 -0.11917408541959898 0.01357530173998488 0 -0.11783692387945448 0.013579075015906987 0 -0.11874759856789274 0.011548276600071216 0 -0.11917408541959898 0.01357530173998488 0 -0.11783692387945448 0.013579075015906987 0 -0.11874759856789274 0.011548276600071216 0 -0.116766000820066 0.012336435583900168 0 -0.11783692387945448 0.013579075015906987 0 -0.116766000820066 0.012336435583900168 0 -0.11654621324543693 0.014045676573863689 0 -0.116766000820066 0.012336435583900168 0 -0.11494632058642069 0.013272720217925259 0 -0.11654621324543693 0.014045676573863689 0 -0.116766000820066 0.012336435583900168 0 -0.11494632058642069 0.013272720217925259 0 -0.11525525977369307 0.010617912564860495 0 -0.116766000820066 0.012336435583900168 0 -0.11525525977369307 0.010617912564860495 0 -0.11725032837107825 0.01021882908717601 0 -0.11494632058642069 0.013272720217925259 0 -0.11236568511032521 0.010552478181369125 0 -0.11185105730106738 0.013589255588459715 0 -0.11494632058642069 0.013272720217925259 0 -0.11525525977369307 0.010617912564860495 0 -0.11236568511032521 0.010552478181369125 0 -0.11236568511032521 0.010552478181369125 0 -0.11312000290780812 0.0073629024025218207 0 -0.10922263946815909 0.0096293208026407406 0 -0.11525525977369307 0.010617912564860495 0 -0.11236568511032521 0.010552478181369125 0 -0.11312000290780812 0.0073629024025218207 0 -0.11312000290780812 0.0073629024025218207 0 -0.11621597215089868 0.0081019517805022076 0 -0.1166549042656978 0.0051481289197021539 0 -0.11525525977369307 0.010617912564860495 0 -0.11725032837107825 0.01021882908717601 0 -0.11621597215089868 0.0081019517805022076 0 -0.11525525977369307 0.010617912564860495 0 -0.11312000290780812 0.0073629024025218207 0 -0.11621597215089868 0.0081019517805022076 0 -0.11935293157868365 0.0084374648081241132 0 -0.11621597215089868 0.0081019517805022076 0 -0.1166549042656978 0.0051481289197021539 0 -0.11312000290780812 0.0073629024025218207 0 -0.1166549042656978 0.0051481289197021539 0 -0.11367590275592934 0.0032349346883713652 0 -0.11812799807727997 -0.00016712784187855115 0 -0.1166549042656978 0.0051481289197021539 0 -0.11367590275592934 0.0032349346883713652 0 -0.11312000290780812 0.0073629024025218207 0 -0.11367590275592934 0.0032349346883713652 0 -0.10937975454315646 0.0046386675669846051 0 -0.11367590275592934 0.0032349346883713652 0 -0.11179353124223017 0.0010466053841224892 0 -0.11448527252375192 -0.0016997595099632577 0 -0.11367590275592934 0.0032349346883713652 0 -0.11179353124223017 0.0010466053841224892 0 -0.10937975454315646 0.0046386675669846051 0 -0.11812799807727997 -0.00016712784187855115 0 -0.11367590275592934 0.0032349346883713652 0 -0.11448527252375192 -0.0016997595099632577 0 -0.11179353124223017 0.0010466053841224892 0 -0.10937975454315646 0.0046386675669846051 0 -0.10933440278300395 -0.0020945883079394822 0 -0.10937975454315646 0.0046386675669846051 0 -0.1049997540862618 0.0044996562730451667 0 -0.10933440278300395 -0.0020945883079394822 0 -0.1049997540862618 0.0044996562730451667 0 -0.10933440278300395 -0.0020945883079394822 0 -0.10499981138097655 -0.0018071089761505404 0 -0.10937975454315646 0.0046386675669846051 0 -0.1049997540862618 0.0044996562730451667 0 -0.10922263946815909 0.0096293208026407406 0 -0.1049997540862618 0.0044996562730451667 0 -0.10922263946815909 0.0096293208026407406 0 -0.10499978528887946 0.010806716470281473 0 -0.11312000290780812 0.0073629024025218207 0 -0.10937975454315646 0.0046386675669846051 0 -0.10922263946815909 0.0096293208026407406 0 -0.10922263946815909 0.0096293208026407406 0 -0.10837747081079394 0.014266797257711374 0 -0.11185105730106738 0.013589255588459715 0 -0.11236568511032521 0.010552478181369125 0 -0.10922263946815909 0.0096293208026407406 0 -0.11185105730106738 0.013589255588459715 0 -0.10922263946815909 0.0096293208026407406 0 -0.10499978528887946 0.010806716470281473 0 -0.10837747081079394 0.014266797257711374 0 -0.10499978528887946 0.010806716470281473 0 -0.10499984046709093 0.017113113904113846 0 -0.10837747081079394 0.014266797257711374 0 -0.10499984046709093 0.017113113904113846 0 -0.1095993806823678 0.017950108200267347 0 -0.10837747081079394 0.014266797257711374 0 -0.10499988861190925 0.017113753980840547 0 -0.10965616193000183 0.018152064494026558 0 -0.10751096615271741 0.020925835704858276 0 -0.10500433332222718 0.017114299545549112 0 -0.10895155755145773 0.017881787351821055 0 -0.1095993806823678 0.017950108200267347 0 -0.11109277384634716 0.015839908553253648 0 -0.10837747081079394 0.014266797257711374 0 -0.11109277384634716 0.015839908553253648 0 -0.10837747081079394 0.014266797257711374 0 -0.11185105730106738 0.013589255588459715 0 -0.11185105730106738 0.013589255588459715 0 -0.11315834856850296 0.015844515738451283 0 -0.11430016937392909 0.014889738155155603 0 -0.11494632058642069 0.013272720217925259 0 -0.11185105730106738 0.013589255588459715 0 -0.11430016937392909 0.014889738155155603 0 -0.11315834856850296 0.015844515738451283 0 -0.11430016937392909 0.014889738155155603 0 -0.11506689051719579 0.017152185849938689 0 -0.11109277384634716 0.015839908553253648 0 -0.11185105730106738 0.013589255588459715 0 -0.11315834856850296 0.015844515738451283 0 -0.11109277384634716 0.015839908553253648 0 -0.11315834856850296 0.015844515738451283 0 -0.11298942797282276 0.017324220372010004 0 -0.11759068449907933 0.014972534188977277 0 -0.11654621324543693 0.014045676573863689 0 -0.11596459341130866 0.015535836960558682 0 -0.11783692387945448 0.013579075015906987 0 -0.11759068449907933 0.014972534188977277 0 -0.11654621324543693 0.014045676573863689 0 -0.11494632058642069 0.013272720217925259 0 -0.11654621324543693 0.014045676573863689 0 -0.11596459341130866 0.015535836960558682 0 -0.11494632058642069 0.013272720217925259 0 -0.11430016937392909 0.014889738155155603 0 -0.11596459341130866 0.015535836960558682 0 -0.11430016937392909 0.014889738155155603 0 -0.11596459341130866 0.015535836960558682 0 -0.11506689051719579 0.017152185849938689 0 -0.11596459341130866 0.015535836960558682 0 -0.11629619099309429 0.016784238552446148 0 -0.11506689051719579 0.017152185849938689 0 -0.11749014385945585 0.016502322823116537 0 -0.11759068449907933 0.014972534188977277 0 -0.11596459341130866 0.015535836960558682 0 -0.11749014385945585 0.016502322823116537 0 -0.11596459341130866 0.015535836960558682 0 -0.11629619099309429 0.016784238552446148 0 -0.11679379282700118 0.020891372109805989 0 -0.11824982864283295 0.018730834119644893 0 -0.1142689516037788 0.020513927681878256 0 -0.11818526031900131 0.018518054918659252 0 -0.11481742416189497 0.019968714614231386 0 -0.11936435259616755 0.017565615721801264 0 -0.11673003689466381 0.017939981909142557 0 -0.11492960459749002 0.019816852665036699 0 -0.11673003689466381 0.017939981909142557 0 -0.11629619099309429 0.016784238552446148 0 -0.11506689051719579 0.017152185849938689 0 -0.11749014385945585 0.016502322823116537 0 -0.11673003689466381 0.017939981909142557 0 -0.11629619099309429 0.016784238552446148 0 -0.11673003689466381 0.017939981909142557 0 -0.11506689051719579 0.017152185849938689 0 -0.11532487861453303 0.018470644364788083 0 -0.11506689051719579 0.017152185849938689 0 -0.11476913749069272 0.018071522892465303 0 -0.11532487861453303 0.018470644364788083 0 -0.11673003689466381 0.017939981909142557 0 -0.11532487861453303 0.018470644364788083 0 -0.11492960459749002 0.019816852665036699 0 -0.11476913749069272 0.018071522892465303 0 -0.11532487861453303 0.018470644364788083 0 -0.11434579575488504 0.018938746105341176 0 -0.11532487861453303 0.018470644364788083 0 -0.11434579575488504 0.018938746105341176 0 -0.11492960459749002 0.019816852665036699 0 -0.1095993806823678 0.017950108200267347 0 -0.11109277384634716 0.015839908553253648 0 -0.11298942797282276 0.017324220372010004 0 -0.10895155755145773 0.017881787351821055 0 -0.11112370892604358 0.018299502077657421 0 -0.10965616193000183 0.018152064494026558 0 -0.11434579575488504 0.018938746105341176 0 -0.11210175818606809 0.019766879370292478 0 -0.1095993806823678 0.017950108200267347 0 -0.11298942797282276 0.017324220372010004 0 -0.11434579575488504 0.018938746105341176 0 -0.11506689051719579 0.017152185849938689 0 -0.11476913749069272 0.018071522892465303 0 -0.11298942797282276 0.017324220372010004 0 -0.11315834856850296 0.015844515738451283 0 -0.11506689051719579 0.017152185849938689 0 -0.11298942797282276 0.017324220372010004 0 -0.11434579575488504 0.018938746105341176 0 -0.11210175818606809 0.019766879370292478 0 -0.11492960459749002 0.019816852665036699 0 -0.11476913749069272 0.018071522892465303 0 -0.11298942797282276 0.017324220372010004 0 -0.11434579575488504 0.018938746105341176 0 -0.11210175818606809 0.019766879370292478 0 -0.11492960459749002 0.019816852665036699 0 -0.11002084551903418 0.02206938308493846 0 -0.11481742416189497 0.019968714614231386 0 -0.11269559138004409 0.020869461755307222 0 -0.11286851705330547 0.02299564311385735 0 -0.1142689516037788 0.020513927681878256 0 -0.11002084551903418 0.02206938308493846 0 -0.11772267708465084 0.02369801153007112 0 -0.11497704261843224 0.023066887088073251 0 -0.11592658620805482 0.022030203538331298 0 -0.11679379282700118 0.020891372109805989 0 -0.1142689516037788 0.020513927681878256 0 -0.11592658620805482 0.022030203538331298 0 -0.11286851705330547 0.02299564311385735 0 -0.1142689516037788 0.020513927681878256 0 -0.11497704261843224 0.023066887088073251 0 -0.1142689516037788 0.020513927681878256 0 -0.11497704261843224 0.023066887088073251 0 -0.11592658620805482 0.022030203538331298 0 -0.11772267708465084 0.02369801153007112 0 -0.11497704261843224 0.023066887088073251 0 -0.11620360534551934 0.025884318901455164 0 -0.11497704261843224 0.023066887088073251 0 -0.11620360534551934 0.025884318901455164 0 -0.1135484703371871 0.025202448240659776 0 -0.11286851705330547 0.02299564311385735 0 -0.11110089647571957 0.02467827039878016 0 -0.11002084551903418 0.02206938308493846 0 -0.11286851705330547 0.02299564311385735 0 -0.1135484703371871 0.025202448240659776 0 -0.11110089647571957 0.02467827039878016 0 -0.11286851705330547 0.02299564311385735 0 -0.11497704261843224 0.023066887088073251 0 -0.1135484703371871 0.025202448240659776 0 -0.11186336547071295 0.02728688209389616 0 -0.1135484703371871 0.025202448240659776 0 -0.11110089647571957 0.02467827039878016 0 -0.10943104281657365 0.026987135986684493 0 -0.11110089647571957 0.02467827039878016 0 -0.10799070141080469 0.024361975207743695 0 -0.11110089647571957 0.02467827039878016 0 -0.10799070141080469 0.024361975207743695 0 -0.11002084551903418 0.02206938308493846 0 -0.10499988745121364 0.028987865830801644 0 -0.10499986867495323 0.023050800341147922 0 -0.10799070141080469 0.024361975207743695 0 -0.10499986867495323 0.023050800341147922 0 -0.10799070141080469 0.024361975207743695 0 -0.10751096615271741 0.020925835704858276 0 -0.10499988861190925 0.017113753980840547 0 -0.10499986867495323 0.023050800341147922 0 -0.10751096615271741 0.020925835704858276 0 -0.10965616193000183 0.018152064494026558 0 -0.11210175818606809 0.019766879370292478 0 -0.11002084551903418 0.02206938308493846 0 -0.10965616193000183 0.018152064494026558 0 -0.10751096615271741 0.020925835704858276 0 -0.11002084551903418 0.02206938308493846 0 -0.10799070141080469 0.024361975207743695 0 -0.10751096615271741 0.020925835704858276 0 -0.11002084551903418 0.02206938308493846 0 -0.002393958278535082 0.03050787800793819 0 -0.0021632713731563028 0.028260512319683202 0 -0.0046032917538108425 0.030922573602932501 0 -0.0048157730767613115 0.031225900849420511 0 -0.0028993414085273193 0.030279481041102223 0 -0.0048283210942673439 0.033144914109881372 0 -0.0033557301093662018 0.029931710822857723 0 -0.0047536242139031059 0.032231524298506453 0 -0.002393958278535082 0.03050787800793819 0 -0.0014888338433602904 0.029032142795673281 0 -0.0021632713731563028 0.028260512319683202 0 -0.002393958278535082 0.03050787800793819 0 -6.5382748805566847e-05 0.030660298886069238 0 -0.0014888338433602904 0.029032142795673281 0 -0.0014888338433602904 0.029032142795673281 0 -0.0013912861954621025 0.028417932898531333 0 -0.0021632713731563028 0.028260512319683202 0 -0.0014888338433602904 0.029032142795673281 0 -0.0013912861954621025 0.028417932898531333 0 -0.00050726165247224665 0.028599010749477367 0 -0.0013912861954621025 0.028417932898531333 0 -0.0021632713731563028 0.028260512319683202 0 -0.0013667185524505008 0.027980691063285334 0 -0.0013912861954621025 0.028417932898531333 0 -0.00050726165247224665 0.028599010749477367 0 -0.00095734538864013436 0.028309592328031267 0 -0.0048157730767613115 0.031225900849420511 0 -0.0028510871971439674 0.029575174162189719 0 -0.0068567231980333392 0.030657535326401569 0 -0.0048157730767613115 0.031225900849420511 0 -0.0028510871971439674 0.029575174162189719 0 -0.0028993414085273193 0.030279481041102223 0 -0.0028510871971439674 0.029575174162189719 0 -0.0068567231980333392 0.030657535326401569 0 -0.0069102012199538793 0.027851864744292108 0 -0.0068567231980333392 0.030657535326401569 0 -0.0090790544118114908 0.032085560699648248 0 -0.0095061999232677677 0.030298364877216537 0 -0.0068567231980333392 0.030657535326401569 0 -0.0069102012199538793 0.027851864744292108 0 -0.0095061999232677677 0.030298364877216537 0 -0.0090790544118114908 0.032085560699648248 0 -0.0065691130209848273 0.032445117338793898 0 -0.0081883253216657372 0.033345272557197762 0 -0.0068567231980333392 0.030657535326401569 0 -0.0090790544118114908 0.032085560699648248 0 -0.0065691130209848273 0.032445117338793898 0 -0.0048157730767613115 0.031225900849420511 0 -0.0068567231980333392 0.030657535326401569 0 -0.0065691130209848273 0.032445117338793898 0 -0.0048157730767613115 0.031225900849420511 0 -0.0065691130209848273 0.032445117338793898 0 -0.0048283210942673439 0.033144914109881372 0 -0.0065691130209848273 0.032445117338793898 0 -0.0066024262999199385 0.035646800386193278 0 -0.0048283210942673439 0.033144914109881372 0 -0.0065691130209848273 0.032445117338793898 0 -0.0081883253216657372 0.033345272557197762 0 -0.0066024262999199385 0.035646800386193278 0 -0.0062394660800757376 0.034731095927639746 0 -0.0047536242139031059 0.032231524298506453 0 -0.0081883253216657372 0.033345272557197762 0 -0.0083676347530377317 0.034886717931548301 0 -0.010830343759734266 0.033165469234861286 0 -0.0081883253216657372 0.033345272557197762 0 -0.0083676347530377317 0.034886717931548301 0 -0.0066024262999199385 0.035646800386193278 0 -0.0083676347530377317 0.034886717931548301 0 -0.0085909765634234313 0.036409280907769785 0 -0.0095298512305850794 0.035884604474630842 0 -0.0083676347530377317 0.034886717931548301 0 -0.0085909765634234313 0.036409280907769785 0 -0.0066024262999199385 0.035646800386193278 0 -0.0068837432879767999 0.034751090087468052 0 -0.0050079168171625575 0.035854600188077144 0 -0.003771980156035712 0.033601632304468741 0 -0.0050079168171625575 0.035854600188077144 0 -0.003771980156035712 0.033601632304468741 0 -0.0030611179166878822 0.036272750718823299 0 -0.002393958278535082 0.03050787800793819 0 -0.003771980156035712 0.033601632304468741 0 -0.0046032917538108425 0.030922573602932501 0 -0.0068837432879767999 0.034751090087468052 0 -0.003771980156035712 0.033601632304468741 0 -0.0046032917538108425 0.030922573602932501 0 -0.002393958278535082 0.03050787800793819 0 -0.003771980156035712 0.033601632304468741 0 -0.0014966154376423008 0.032447515019197314 0 -6.5382748805566847e-05 0.030660298886069238 0 -0.0014966154376423008 0.032447515019197314 0 0.0011225384573258406 0.032591684549645741 0 -0.002393958278535082 0.03050787800793819 0 -6.5382748805566847e-05 0.030660298886069238 0 -0.0014966154376423008 0.032447515019197314 0 -0.003771980156035712 0.033601632304468741 0 -0.0014966154376423008 0.032447515019197314 0 -0.0012066029711083257 0.03457884958957598 0 -0.0014966154376423008 0.032447515019197314 0 -0.0012066029711083257 0.03457884958957598 0 0.0011225384573258406 0.032591684549645741 0 -0.003771980156035712 0.033601632304468741 0 -0.0012066029711083257 0.03457884958957598 0 -0.0030611179166878822 0.036272750718823299 0 -0.0012066029711083257 0.03457884958957598 0 -0.0030611179166878822 0.036272750718823299 0 -0.0002628532104222261 0.037300898468307177 0 -0.0012066029711083257 0.03457884958957598 0 -0.0002628532104222261 0.037300898468307177 0 0.0016886045441583226 0.035829928036984565 0 0.0016886045441583226 0.035829928036984565 0 0.0017316212274225565 0.038896462525697402 0 0.0035311028217561526 0.037874067952464514 0 -0.0002628532104222261 0.037300898468307177 0 0.0016886045441583226 0.035829928036984565 0 0.0017316212274225565 0.038896462525697402 0 -0.0012066029711083257 0.03457884958957598 0 0.0016886045441583226 0.035829928036984565 0 0.0011225384573258406 0.032591684549645741 0 0.0016886045441583226 0.035829928036984565 0 0.0052562917711807674 0.036375742444708481 0 0.0040513847618771238 0.033457188293140677 0 0.0016886045441583226 0.035829928036984565 0 0.0052562917711807674 0.036375742444708481 0 0.0035311028217561526 0.037874067952464514 0 0.0052562917711807674 0.036375742444708481 0 0.0072538709684859554 0.033907340191087015 0 0.0093918000073763223 0.0383519098141646 0 0.0052562917711807674 0.036375742444708481 0 0.0093918000073763223 0.0383519098141646 0 0.0058432846883372438 0.038934945686949711 0 0.0052562917711807674 0.036375742444708481 0 0.0058432846883372438 0.038934945686949711 0 0.0035311028217561526 0.037874067952464514 0 0.0052562917711807674 0.036375742444708481 0 0.0072538709684859554 0.033907340191087015 0 0.0040513847618771238 0.033457188293140677 0 0.0072538709684859554 0.033907340191087015 0 0.009981381235884627 0.031612238698324573 0 0.0044482027892611764 0.028728790189940057 0 0.0072538709684859554 0.033907340191087015 0 0.0040513847618771238 0.033457188293140677 0 0.0044482027892611764 0.028728790189940057 0 -6.5382748805566847e-05 0.030660298886069238 0 0.0011225384573258406 0.032591684549645741 0 0.0044482027892611764 0.028728790189940057 0 0.0011225384573258406 0.032591684549645741 0 0.0040513847618771238 0.033457188293140677 0 0.0044482027892611764 0.028728790189940057 0 0.0016886045441583226 0.035829928036984565 0 0.0011225384573258406 0.032591684549645741 0 0.0040513847618771238 0.033457188293140677 0 0.017080727095496986 0.038832148015621709 0 0.01227427669734291 0.0368058106525904 0 0.0093918000073763223 0.0383519098141646 0 0.017080727095496986 0.038832148015621709 0 0.014938148122087012 0.036434487501441154 0 0.01227427669734291 0.0368058106525904 0 0.017057710922143112 0.035169148413847974 0 0.014938148122087012 0.036434487501441154 0 0.013386614823602828 0.034945761762277171 0 0.017080727095496986 0.038832148015621709 0 0.017057710922143112 0.035169148413847974 0 0.014938148122087012 0.036434487501441154 0 0.014938148122087012 0.036434487501441154 0 0.013386614823602828 0.034945761762277171 0 0.01227427669734291 0.0368058106525904 0 0.0072538709684859554 0.033907340191087015 0 0.010435147169329945 0.034607759344782843 0 0.0093918000073763223 0.0383519098141646 0 0.013386614823602828 0.034945761762277171 0 0.010435147169329945 0.034607759344782843 0 0.01227427669734291 0.0368058106525904 0 0.010435147169329945 0.034607759344782843 0 0.01227427669734291 0.0368058106525904 0 0.0093918000073763223 0.0383519098141646 0 0.0072538709684859554 0.033907340191087015 0 0.010435147169329945 0.034607759344782843 0 0.009981381235884627 0.031612238698324573 0 0.009981381235884627 0.031612238698324573 0 0.011961258207307942 0.0314635255462552 0 0.012279461577252768 0.032875853731632654 0 0.009981381235884627 0.031612238698324573 0 0.011850882979519604 0.029651279804768876 0 0.01195004371379141 0.030085624527598675 0 0.009981381235884627 0.031612238698324573 0 0.011961258207307942 0.0314635255462552 0 0.01195004371379141 0.030085624527598675 0 0.012588094917450438 0.030806357975840113 0 0.011961258207307942 0.0314635255462552 0 0.01195004371379141 0.030085624527598675 0 0.013386614823602828 0.034945761762277171 0 0.010435147169329945 0.034607759344782843 0 0.012279461577252768 0.032875853731632654 0 0.010435147169329945 0.034607759344782843 0 0.009981381235884627 0.031612238698324573 0 0.012279461577252768 0.032875853731632654 0 0.018429507161512919 0.031503204645206721 0 0.017057710922143112 0.035169148413847974 0 0.014930909897929836 0.033139485044457982 0 0.016293869961719134 0.033287871557131594 0 0.0097499322601609546 0.032312777980822827 0 0.018429507161512919 0.031503204645206721 0 0.013693973099802866 0.031562651507841127 0 0.011893021429506118 0.029596807269888614 0 0.018429507161512919 0.031503204645206721 0 0.013693973099802866 0.031562651507841127 0 0.014930909897929836 0.033139485044457982 0 0.013386614823602828 0.034945761762277171 0 0.012279461577252768 0.032875853731632654 0 0.014930909897929836 0.033139485044457982 0 0.012279461577252768 0.032875853731632654 0 0.013693973099802866 0.031562651507841127 0 0.014930909897929836 0.033139485044457982 0 0.011961258207307942 0.0314635255462552 0 0.012279461577252768 0.032875853731632654 0 0.013693973099802866 0.031562651507841127 0 0.012588094917450438 0.030806357975840113 0 0.013693973099802866 0.031562651507841127 0 0.011893021429506118 0.029596807269888614 0 0.012588094917450438 0.030806357975840113 0 0.011961258207307942 0.0314635255462552 0 0.013693973099802866 0.031562651507841127 0 0.017057710922143112 0.035169148413847974 0 0.013386614823602828 0.034945761762277171 0 0.014930909897929836 0.033139485044457982 0 0.019172602529740124 0.035207749648257854 0 0.016441494658051576 0.032662980418509791 0 0.014033326341121685 0.034661855567868279 0 0.016441494658051576 0.032662980418509791 0 0.014033326341121685 0.034661855567868279 0 0.014131989672253523 0.031944896067162734 0 0.0017677835973723356 0.03000928510325147 0 0.0010639378705094883 0.029302757984658249 0 0.0014816512393065768 0.028586887912108436 0 0.0017677835973723356 0.03000928510325147 0 0.0010639378705094883 0.029302757984658249 0 0.00020278798037456645 0.029688891333856337 0 0.009981381235884627 0.031612238698324573 0 0.011850882979519604 0.029651279804768876 0 0.0044482027892611764 0.028728790189940057 0 0.0097499322601609546 0.032312777980822827 0 0.0080634811032043573 0.029693364797980643 0 0.012588094917450438 0.030806357975840113 0 0.011893021429506118 0.029596807269888614 0 0.01195004371379141 0.030085624527598675 0 0.0097499322601609546 0.032312777980822827 0 0.0097512743271227602 0.032305060922765395 0 0.014033326341121685 0.034661855567868279 0 0.013121244945265195 0.029997359595248851 0 0.014131989672253523 0.031944896067162734 0 0.0010639378705094883 0.029302757984658249 0 0.0014816512393065768 0.028586887912108436 0 0.00066565761230331824 0.028712437059965595 0 0.013121244945265195 0.029997359595248851 0 0.013814115155772091 0.030872706907489757 0 0.013717381124541841 0.029930418087194703 0 0.013121244945265195 0.029997359595248851 0 0.014131989672253523 0.031944896067162734 0 0.013814115155772091 0.030872706907489757 0 0.019464149793938085 0.031022929952516785 0 0.016441494658051576 0.032662980418509791 0 0.018390814005374647 0.028709579669159442 0 0.017227603392816909 0.031383885987394965 0 0.017507692468956126 0.030749861717000004 0 0.016441494658051576 0.032662980418509791 0 0.013717381124541841 0.029930418087194703 0 0.016649662507501814 0.028377593895042044 0 0.016441494658051576 0.032662980418509791 0 0.013814115155772091 0.030872706907489757 0 0.013717381124541841 0.029930418087194703 0 0.016441494658051576 0.032662980418509791 0 0.014131989672253523 0.031944896067162734 0 0.013814115155772091 0.030872706907489757 0 -0.0014888338433602904 0.029032142795673281 0 0.00020278798037456645 0.029688891333856337 0 -0.00050726165247224665 0.028599010749477367 0 -6.5382748805566847e-05 0.030660298886069238 0 -0.0014888338433602904 0.029032142795673281 0 0.0044482027892611764 0.028728790189940057 0 0.0012480050735299497 0.02977835434988689 0 0.003533075421138193 0.030365203642125999 0 0.0097499322601609546 0.032312777980822827 0 0.003533075421138193 0.030365203642125999 0 0.0010639378705094883 0.029302757984658249 0 0.00020278798037456645 0.029688891333856337 0 0.00066565761230331824 0.028712437059965595 0 0.00066565761230331824 0.028712437059965595 0 -0.00050726165247224665 0.028599010749477367 0 0.00023128899482262384 0.028072909265503078 0 0.00020278798037456645 0.029688891333856337 0 0.00066565761230331824 0.028712437059965595 0 -0.00050726165247224665 0.028599010749477367 0 0.0014816512393065768 0.028586887912108436 0 0.00066565761230331824 0.028712437059965595 0 0.00089949621520507398 0.028051683835009767 0 -0.00060367047180198393 0.028038716599265028 0 -0.00022912660024208736 0.027458673832054987 0 -0.0013667185524505008 0.027980691063285334 0 -0.00050726165247224665 0.028599010749477367 0 -0.00060367047180198393 0.028038716599265028 0 -0.00095734538864013436 0.028309592328031267 0 -0.00060367047180198393 0.028038716599265028 0 0.00023128899482262384 0.028072909265503078 0 -0.00022912660024208736 0.027458673832054987 0 -0.00050726165247224665 0.028599010749477367 0 -0.00060367047180198393 0.028038716599265028 0 0.00023128899482262384 0.028072909265503078 0 0.00066565761230331824 0.028712437059965595 0 0.00023128899482262384 0.028072909265503078 0 0.00089949621520507398 0.028051683835009767 0 0.00023128899482262384 0.028072909265503078 0 0.00089949621520507398 0.028051683835009767 0 0.00064951224554623112 0.027528651124148137 0 0.00064951224554623112 0.027528651124148137 0 0.001440174576451505 0.027358964355985227 0 0.00070850649614130439 0.026799858241883918 0 0.00089949621520507398 0.028051683835009767 0 0.00064951224554623112 0.027528651124148137 0 0.001440174576451505 0.027358964355985227 0 0.00064951224554623112 0.027528651124148137 0 -0.00022912660024208736 0.027458673832054987 0 0.00070850649614130439 0.026799858241883918 0 -0.00022912660024208736 0.027458673832054987 0 -0.00033950879582878956 0.026480490702308252 0 -0.0014160689653668944 0.026984495452604965 0 0.00023128899482262384 0.028072909265503078 0 0.00064951224554623112 0.027528651124148137 0 -0.00022912660024208736 0.027458673832054987 0 0.013015957148980725 0.029834786325009157 0 0.012841608397644583 0.029988594620673405 0 0.013018420778396688 0.030002914248708028 0 0.013717381124541841 0.029930418087194703 0 0.012841608397644583 0.029988594620673405 0 0.013018420778396688 0.030002914248708028 0 0.016584311596788321 0.030939471361996602 0 0.017507692468956126 0.030749861717000004 0 0.0080634811032043573 0.029693364797980643 0 0.0070026831403921823 0.02799968851416023 0 0.013121244945265195 0.029997359595248851 0 0.013717381124541841 0.029930418087194703 0 0.012841608397644583 0.029988594620673405 0 0.013121244945265195 0.029997359595248851 0 0.012841608397644583 0.029988594620673405 0 0.011943050595900017 0.02999567629894026 0 0.0014816512393065768 0.028586887912108436 0 0.00089949621520507398 0.028051683835009767 0 0.001440174576451505 0.027358964355985227 0 0.012841608397644583 0.029988594620673405 0 0.011943050595900017 0.02999567629894026 0 0.012680651340940641 0.02969006086176287 0 0.013015957148980725 0.029834786325009157 0 0.012841608397644583 0.029988594620673405 0 0.012680651340940641 0.02969006086176287 0 0.01319528302960688 0.029275679246164619 0 0.012680651340940641 0.02969006086176287 0 0.012332013298834623 0.029079031051807157 0 0.01709349931207051 0.029150111438292065 0 0.015392905568082167 0.028925053336152449 0 0.011943050595900017 0.02999567629894026 0 0.012680651340940641 0.02969006086176287 0 0.012332013298834623 0.029079031051807157 0 0.0070026831403921823 0.02799968851416023 0 0.006169457809769705 0.026119392294600793 0 0.011943050595900017 0.02999567629894026 0 0.012332013298834623 0.029079031051807157 0 0.010025085782871567 0.028546711785554034 0 0.012332013298834623 0.029079031051807157 0 0.010821035480025104 0.026963871917189443 0 0.010025085782871567 0.028546711785554034 0 0.0076148347769280159 0.025159669676983024 0 0.010821035480025104 0.026963871917189443 0 0.010025085782871567 0.028546711785554034 0 0.012332013298834623 0.029079031051807157 0 0.010821035480025104 0.026963871917189443 0 0.013320684095984178 0.027219863060967218 0 0.014961151749241862 0.029824876568488388 0 0.012332013298834623 0.029079031051807157 0 0.013320684095984178 0.027219863060967218 0 -0.00022912660024208736 0.027458673832054987 0 -0.00033950879582878956 0.026480490702308252 0 0.00070850649614130439 0.026799858241883918 0 -0.00033950879582878956 0.026480490702308252 0 0.00070850649614130439 0.026799858241883918 0 0.00081639460602643901 0.025681365981787892 0 0.00070850649614130439 0.026799858241883918 0 0.0018403284640026965 0.025921989034553242 0 0.00081639460602643901 0.025681365981787892 0 0.001440174576451505 0.027358964355985227 0 0.00070850649614130439 0.026799858241883918 0 0.0018403284640026965 0.025921989034553242 0 0.0054410845113943319 0.023489887278199891 0 0.006169457809769705 0.026119392294600793 0 0.0027664429072963353 0.023836412311347213 0 0.0018403284640026965 0.025921989034553242 0 0.00081639460602643901 0.025681365981787892 0 0.00052794805349635912 0.024733461119240633 0 0.00081639460602643901 0.025681365981787892 0 -0.00037229990825830871 0.025613755029593663 0 -0.00033950879582878956 0.026480490702308252 0 0.00081639460602643901 0.025681365981787892 0 -0.00037229990825830871 0.025613755029593663 0 0.00052794805349635912 0.024733461119240633 0 -0.00037229990825830871 0.025613755029593663 0 -0.0007782892854394281 0.025067671919339701 0 -0.00033950879582878956 0.026480490702308252 0 -0.00037229990825830871 0.025613755029593663 0 -0.0017231934480972284 0.025757150196376481 0 -0.00037229990825830871 0.025613755029593663 0 -0.0007782892854394281 0.025067671919339701 0 -0.0017231934480972284 0.025757150196376481 0 -0.0017872202954978124 0.024981891931836059 0 -0.0017231934480972284 0.025757150196376481 0 -0.0023114451423384527 0.025152841231550815 0 -0.0017872202954978124 0.024981891931836059 0 -0.0007782892854394281 0.025067671919339701 0 -0.0017231934480972284 0.025757150196376481 0 -0.0017231934480972284 0.025757150196376481 0 -0.0028263564941666784 0.025399996282985955 0 -0.0024209048455978402 0.026369644255393454 0 -0.0027199489344035019 0.025067223223994416 0 -0.0028263564941666784 0.025399996282985955 0 -0.0023114451423384527 0.025152841231550815 0 -0.0017231934480972284 0.025757150196376481 0 -0.0028263564941666784 0.025399996282985955 0 -0.0023114451423384527 0.025152841231550815 0 -0.00033950879582878956 0.026480490702308252 0 -0.0017231934480972284 0.025757150196376481 0 -0.0014160689653668944 0.026984495452604965 0 -0.0017231934480972284 0.025757150196376481 0 -0.0024209048455978402 0.026369644255393454 0 -0.0014160689653668944 0.026984495452604965 0 -0.00022912660024208736 0.027458673832054987 0 -0.0014160689653668944 0.026984495452604965 0 -0.0013667185524505008 0.027980691063285334 0 -0.0014160689653668944 0.026984495452604965 0 -0.0026701818953184177 0.027879541182686613 0 -0.0013667185524505008 0.027980691063285334 0 -0.0024209048455978402 0.026369644255393454 0 -0.0014160689653668944 0.026984495452604965 0 -0.0026701818953184177 0.027879541182686613 0 -0.0024209048455978402 0.026369644255393454 0 -0.0026701818953184177 0.027879541182686613 0 -0.0034761759917697832 0.027105344184897521 0 -0.0028510871971439674 0.029575174162189719 0 -0.0026701818953184177 0.027879541182686613 0 -0.0013667185524505008 0.027980691063285334 0 -0.0028510871971439674 0.029575174162189719 0 -0.0026701818953184177 0.027879541182686613 0 -0.0041858685883824015 0.028600092762176017 0 -0.0033557301093662018 0.029931710822857723 0 -0.0027460392766779167 0.02893794658858799 0 -0.0028510871971439674 0.029575174162189719 0 -0.0028993414085273193 0.030279481041102223 0 -0.0013667185524505008 0.027980691063285334 0 -0.0013912861954621025 0.028417932898531333 0 -0.00095734538864013436 0.028309592328031267 0 -0.0013667185524505008 0.027980691063285334 0 -0.00060367047180198393 0.028038716599265028 0 -0.00095734538864013436 0.028309592328031267 0 -0.0013667185524505008 0.027980691063285334 0 -0.0041858685883824015 0.028600092762176017 0 -0.0034761759917697832 0.027105344184897521 0 -0.0072176742646143811 0.02762599628580029 0 -0.0069102012199538793 0.027851864744292108 0 -0.0092045893412360334 0.028324509317806428 0 -0.0095061999232677677 0.030298364877216537 0 -0.0042621833203970493 0.029074244870087924 0 -0.0057956799710777752 0.028295710241239586 0 -0.0026701818953184177 0.027879541182686613 0 -0.0041858685883824015 0.028600092762176017 0 -0.0034761759917697832 0.027105344184897521 0 -0.0057956799710777752 0.028295710241239586 0 -0.008431156717889814 0.026999279412190914 0 -0.0069102012199538793 0.027851864744292108 0 -0.0092045893412360334 0.028324509317806428 0 -0.0097959108169152192 0.02671521083718326 0 -0.0034761759917697832 0.027105344184897521 0 -0.0039001851679385502 0.025544615477785471 0 -0.0072176742646143811 0.02762599628580029 0 -0.0028263564941666784 0.025399996282985955 0 -0.0024209048455978402 0.026369644255393454 0 -0.0039001851679385502 0.025544615477785471 0 -0.0024209048455978402 0.026369644255393454 0 -0.0034761759917697832 0.027105344184897521 0 -0.0039001851679385502 0.025544615477785471 0 -0.0032317104559335384 0.02518644206213945 0 -0.0028263564941666784 0.025399996282985955 0 -0.0039001851679385502 0.025544615477785471 0 -0.0032317104559335384 0.02518644206213945 0 -0.0039001851679385502 0.025544615477785471 0 -0.0036241953108533576 0.025451548943121564 0 -0.0039001851679385502 0.025544615477785471 0 -0.0036241953108533576 0.025451548943121564 0 -0.0034258101455941015 0.024940437957011091 0 -0.0059437189764307338 0.028168787990647634 0 -0.0081039067415370428 0.028954310967194877 0 -0.0034930827988292994 0.025828684960880522 0 -0.0036241953108533576 0.025451548943121564 0 -0.0034258101455941015 0.024940437957011091 0 -0.0039001851679385502 0.025544615477785471 0 -0.0080290761985724012 0.024028082860909985 0 -0.0072176742646143811 0.02762599628580029 0 -0.0080290761985724012 0.024028082860909985 0 -0.011914017804475404 0.025404298762614408 0 -0.0072176742646143811 0.02762599628580029 0 -0.010158903193153013 0.026108413377306891 0 -0.008431156717889814 0.026999279412190914 0 -0.0020515432013366859 0.026026448555716706 0 -0.0034258101455941015 0.024940437957011091 0 -0.00040954001917330206 0.024974900309483405 0 -0.0080290761985724012 0.024028082860909985 0 -0.012867812252769985 0.023055364231338776 0 -0.011914017804475404 0.025404298762614408 0 -0.0020515432013366859 0.026026448555716706 0 -0.0034930827988292994 0.025828684960880522 0 -0.0034258101455941015 0.024940437957011091 0 -0.0081039067415370428 0.028954310967194877 0 -0.018883890887712716 0.031621615164544828 0 -0.027652675519287608 0.028308743981983509 0 -0.027998610047357979 0.028507922656644345 0 -0.027762835040673114 0.02873635449988857 0 -0.027652675519287608 0.028308743981983509 0 -0.028142658474699586 0.028199277047928795 0 -0.027998610047357979 0.028507922656644345 0 -0.018883890887712716 0.031621615164544828 0 -0.026401174056183942 0.032198577331204986 0 -0.027998610047357979 0.028507922656644345 0 -0.02810052600653444 0.028810332953146878 0 -0.027762835040673114 0.02873635449988857 0 -0.012867812252769985 0.023055364231338776 0 -0.013221807993235404 0.0260132803794609 0 -0.011914017804475404 0.025404298762614408 0 -0.013221807993235404 0.0260132803794609 0 -0.011914017804475404 0.025404298762614408 0 -0.011892536581540764 0.027234342262456263 0 -0.018883890887712716 0.031621615164544828 0 -0.022105625857536667 0.027842971430239064 0 -0.013221807993235404 0.0260132803794609 0 -0.013709105574150887 0.027923901138673293 0 -0.011892536581540764 0.027234342262456263 0 -0.013709105574150887 0.027923901138673293 0 -0.011892536581540764 0.027234342262456263 0 -0.012301341786814602 0.030360541806590088 0 -0.022105625857536667 0.027842971430239064 0 -0.026250709349259795 0.025672366317745228 0 -0.02810052600653444 0.028810332953146878 0 -0.027762835040673114 0.02873635449988857 0 -0.027852290354570985 0.02913941504594136 0 -0.032458765388840516 0.02383725888650046 0 -0.026250709349259795 0.025672366317745228 0 -0.045363682460801913 0.01909156869257558 0 -0.044156578847472205 0.020855134329203044 0 -0.046034140744586206 0.020589090238589784 0 -0.026250709349259795 0.025672366317745228 0 -0.03488488458637954 0.025146007026976617 0 -0.044156578847472205 0.020855134329203044 0 -0.046260047934609368 0.022175748864822462 0 -0.044758450472562779 0.023647794267161654 0 -0.044156578847472205 0.020855134329203044 0 -0.046034140744586206 0.020589090238589784 0 -0.046260047934609368 0.022175748864822462 0 -0.026250709349259795 0.025672366317745228 0 -0.017167101970305909 0.030495203801677473 0 -0.01053269045804503 0.028542941099342231 0 -0.011892536581540764 0.027234342262456263 0 -0.012301341786814602 0.030360541806590088 0 -0.0092045893412360334 0.028324509317806428 0 -0.01053269045804503 0.028542941099342231 0 -0.0095061999232677677 0.030298364877216537 0 -0.0092045893412360334 0.028324509317806428 0 -0.01053269045804503 0.028542941099342231 0 -0.0097959108169152192 0.02671521083718326 0 -0.011914017804475404 0.025404298762614408 0 -0.0097959108169152192 0.02671521083718326 0 -0.011892536581540764 0.027234342262456263 0 -0.01053269045804503 0.028542941099342231 0 -0.0097959108169152192 0.02671521083718326 0 -0.011892536581540764 0.027234342262456263 0 -0.051876187987618408 0.017563595844249585 0 -0.050113083847774707 0.019212863430395386 0 -0.053205471240513565 0.020138433568516932 0 -0.053731521830760749 0.018096985349660463 0 -0.051876187987618408 0.017563595844249585 0 -0.053205471240513565 0.020138433568516932 0 -0.053308293279015435 0.016639028233943115 0 -0.053731521830760749 0.018096985349660463 0 -0.051876187987618408 0.017563595844249585 0 -0.053308293279015435 0.016639028233943115 0 -0.051876187987618408 0.017563595844249585 0 -0.052181939208767784 0.016104906091006486 0 -0.053263686111145951 0.015172273019205816 0 -0.053308293279015435 0.016639028233943115 0 -0.052181939208767784 0.016104906091006486 0 -0.051285329831480542 0.015687888875073743 0 -0.052181939208767784 0.016104906091006486 0 -0.051204142245797057 0.016377960864545391 0 -0.051876187987618408 0.017563595844249585 0 -0.052181939208767784 0.016104906091006486 0 -0.051204142245797057 0.016377960864545391 0 -0.051876187987618408 0.017563595844249585 0 -0.051204142245797057 0.016377960864545391 0 -0.050175858868732985 0.016859862203639935 0 -0.051204142245797057 0.016377960864545391 0 -0.050522747832976077 0.01578508457320375 0 -0.050175858868732985 0.016859862203639935 0 -0.051285329831480542 0.015687888875073743 0 -0.051204142245797057 0.016377960864545391 0 -0.050522747832976077 0.01578508457320375 0 -0.050522747832976077 0.01578508457320375 0 -0.049748985384390931 0.015840907497479944 0 -0.050175858868732985 0.016859862203639935 0 -0.049748985384390931 0.015840907497479944 0 -0.050175858868732985 0.016859862203639935 0 -0.048687699943156131 0.016466813748701816 0 -0.050175858868732985 0.016859862203639935 0 -0.050113083847774707 0.019212863430395386 0 -0.048758031388188981 0.017641812472324082 0 -0.051876187987618408 0.017563595844249585 0 -0.050175858868732985 0.016859862203639935 0 -0.050113083847774707 0.019212863430395386 0 -0.049547059958148142 0.018824133122591635 0 -0.046857862073483122 0.018257089486142082 0 -0.04740199637524925 0.020045175493246661 0 -0.050113083847774707 0.019212863430395386 0 -0.048758031388188981 0.017641812472324082 0 -0.046857862073483122 0.018257089486142082 0 -0.050300137265369901 0.019131249698459439 0 -0.048774858866087394 0.01869401755830475 0 -0.048758031388188981 0.017641812472324082 0 -0.047717496012408593 0.017453974036755051 0 -0.046857862073483122 0.018257089486142082 0 -0.034823032623934977 0.029622129488622827 0 -0.035221564147023356 0.024708590797849171 0 -0.050175858868732985 0.016859862203639935 0 -0.048758031388188981 0.017641812472324082 0 -0.048687699943156131 0.016466813748701816 0 -0.048431607785173005 0.015205966052793821 0 -0.048687699943156131 0.016466813748701816 0 -0.046778344225868143 0.017169501117621538 0 -0.04927852949879407 0.015110650131362847 0 -0.049748985384390931 0.015840907497479944 0 -0.048687699943156131 0.016466813748701816 0 -0.048687699943156131 0.016466813748701816 0 -0.047717496012408593 0.017453974036755051 0 -0.046778344225868143 0.017169501117621538 0 -0.048758031388188981 0.017641812472324082 0 -0.048687699943156131 0.016466813748701816 0 -0.047717496012408593 0.017453974036755051 0 -0.028664878193017575 0.028095885906009973 0 -0.028142658474699586 0.028199277047928795 0 -0.028377697110160357 0.0284668443348443 0 -0.028142658474699586 0.028199277047928795 0 -0.027998610047357979 0.028507922656644345 0 -0.028377697110160357 0.0284668443348443 0 -0.032458765388840516 0.02383725888650046 0 -0.035221564147023356 0.024708590797849171 0 -0.045363682460801913 0.01909156869257558 0 -0.046778344225868143 0.017169501117621538 0 -0.046857862073483122 0.018257089486142082 0 -0.027998610047357979 0.028507922656644345 0 -0.02810052600653444 0.028810332953146878 0 -0.028377697110160357 0.0284668443348443 0 -0.047717496012408593 0.017453974036755051 0 -0.046778344225868143 0.017169501117621538 0 -0.046857862073483122 0.018257089486142082 0 -0.045363682460801913 0.01909156869257558 0 -0.046857862073483122 0.018257089486142082 0 -0.046422197381301981 0.019500584085859855 0 -0.046857862073483122 0.018257089486142082 0 -0.046422197381301981 0.019500584085859855 0 -0.04740199637524925 0.020045175493246661 0 -0.045363682460801913 0.01909156869257558 0 -0.046422197381301981 0.019500584085859855 0 -0.046034140744586206 0.020589090238589784 0 -0.046422197381301981 0.019500584085859855 0 -0.046034140744586206 0.020589090238589784 0 -0.04740199637524925 0.020045175493246661 0 -0.046034140744586206 0.020589090238589784 0 -0.047004209487757583 0.02141692667242694 0 -0.04740199637524925 0.020045175493246661 0 -0.046034140744586206 0.020589090238589784 0 -0.046260047934609368 0.022175748864822462 0 -0.047004209487757583 0.02141692667242694 0 -0.046260047934609368 0.022175748864822462 0 -0.047004209487757583 0.02141692667242694 0 -0.04689793534447257 0.0225417932998732 0 -0.047004209487757583 0.02141692667242694 0 -0.04878190931831327 0.021483665175058505 0 -0.04740199637524925 0.020045175493246661 0 -0.047004209487757583 0.02141692667242694 0 -0.04878190931831327 0.021483665175058505 0 -0.04689793534447257 0.0225417932998732 0 -0.04878190931831327 0.021483665175058505 0 -0.048964504200693933 0.02348637663807681 0 -0.04689793534447257 0.0225417932998732 0 -0.049547059958148142 0.018824133122591635 0 -0.04878190931831327 0.021483665175058505 0 -0.04740199637524925 0.020045175493246661 0 -0.049547059958148142 0.018824133122591635 0 -0.04878190931831327 0.021483665175058505 0 -0.051151229408215391 0.020961494237075426 0 -0.04878190931831327 0.021483665175058505 0 -0.051079215021233117 0.023300043294180492 0 -0.048964504200693933 0.02348637663807681 0 -0.04878190931831327 0.021483665175058505 0 -0.051151229408215391 0.020961494237075426 0 -0.051079215021233117 0.023300043294180492 0 -0.054563176568062977 0.022680818811341173 0 -0.051151229408215391 0.020961494237075426 0 -0.051079215021233117 0.023300043294180492 0 -0.054563176568062977 0.022680818811341173 0 -0.051151229408215391 0.020961494237075426 0 -0.05324117727431097 0.019678102937930365 0 -0.050300137265369901 0.019131249698459439 0 -0.053042602490104312 0.019922931590339192 0 -0.049547059958148142 0.018824133122591635 0 -0.051151229408215391 0.020961494237075426 0 -0.05324117727431097 0.019678102937930365 0 -0.055661250140684598 0.026924310211729693 0 -0.051079215021233117 0.023300043294180492 0 -0.050867102514067147 0.027523942608057995 0 -0.055661250140684598 0.026924310211729693 0 -0.053512422279134532 0.029739834120237767 0 -0.050867102514067147 0.027523942608057995 0 -0.050991054284182116 0.025532410162558167 0 -0.050878620532044436 0.027231389640315847 0 -0.051079215021233117 0.023300043294180492 0 -0.048964504200693933 0.02348637663807681 0 -0.050847967972694204 0.026401863569396177 0 -0.050847967972694204 0.026401863569396177 0 -0.048358920959812653 0.025527238005238477 0 -0.04823948905429782 0.028522118274206233 0 -0.048964504200693933 0.02348637663807681 0 -0.050847967972694204 0.026401863569396177 0 -0.048358920959812653 0.025527238005238477 0 -0.048358920959812653 0.025527238005238477 0 -0.046139852842618657 0.026927933160664337 0 -0.04823948905429782 0.028522118274206233 0 -0.048358920959812653 0.025527238005238477 0 -0.04689793534447257 0.0225417932998732 0 -0.046139852842618657 0.026927933160664337 0 -0.048964504200693933 0.02348637663807681 0 -0.048358920959812653 0.025527238005238477 0 -0.04689793534447257 0.0225417932998732 0 -0.04689793534447257 0.0225417932998732 0 -0.046224163064443408 0.022068840596296754 0 -0.046402029609591396 0.021863094627889719 0 -0.046260047934609368 0.022175748864822462 0 -0.04689793534447257 0.0225417932998732 0 -0.046224163064443408 0.022068840596296754 0 -0.046260047934609368 0.022175748864822462 0 -0.046224163064443408 0.022068840596296754 0 -0.046076293249239134 0.021941031498137479 0 -0.046224163064443408 0.022068840596296754 0 -0.045823179509813315 0.021815898077855653 0 -0.046076293249239134 0.021941031498137479 0 -0.046643501720335129 0.023592682499956056 0 -0.046279476935190043 0.025236877496022211 0 -0.046224163064443408 0.022068840596296754 0 -0.045823179509813315 0.021815898077855653 0 -0.046402029609591396 0.021863094627889719 0 -0.045823179509813315 0.021815898077855653 0 -0.046402029609591396 0.021863094627889719 0 -0.044865157372564024 0.021725094177957819 0 -0.046402029609591396 0.021863094627889719 0 -0.046056597699580828 0.026834756528692324 0 -0.044865157372564024 0.021725094177957819 0 -0.046139852842618657 0.026927933160664337 0 -0.045351785151925589 0.030809487380802088 0 -0.04823948905429782 0.028522118274206233 0 -0.046279476935190043 0.025236877496022211 0 -0.045460614024902771 0.029142461948769835 0 -0.045351785151925589 0.030809487380802088 0 -0.04823948905429782 0.028522118274206233 0 -0.048459749952871868 0.031385659505005534 0 -0.050847967972694204 0.026401863569396177 0 -0.04823948905429782 0.028522118274206233 0 -0.050640443502213542 0.029902898205694476 0 -0.050878620532044436 0.027231389640315847 0 -0.050697623039987344 0.030020941856462011 0 -0.04823948905429782 0.028522118274206233 0 -0.050640443502213542 0.029902898205694476 0 -0.048459749952871868 0.031385659505005534 0 -0.053512422279134532 0.029739834120237767 0 -0.050841203511336135 0.030983267608740237 0 -0.052613660691824181 0.032179928666391029 0 -0.053512422279134532 0.029739834120237767 0 -0.050867102514067147 0.027523942608057995 0 -0.050841203511336135 0.030983267608740237 0 -0.015073544812506933 0.027703150298419615 0 -0.015561280361812316 0.031699799854596984 0 -0.012055875940584314 0.032125058949542179 0 -0.0095061999232677677 0.030298364877216537 0 -0.012301341786814602 0.030360541806590088 0 -0.010830343759734266 0.033165469234861286 0 -0.017167101970305909 0.030495203801677473 0 -0.013095934694707852 0.03324652437489168 0 -0.0090790544118114908 0.032085560699648248 0 -0.0081883253216657372 0.033345272557197762 0 -0.010830343759734266 0.033165469234861286 0 -0.0090790544118114908 0.032085560699648248 0 -0.0095061999232677677 0.030298364877216537 0 -0.010830343759734266 0.033165469234861286 0 -0.01053269045804503 0.028542941099342231 0 -0.0095061999232677677 0.030298364877216537 0 -0.012301341786814602 0.030360541806590088 0 -0.01818700835231217 0.023214941757298446 0 -0.015073544812506933 0.027703150298419615 0 -0.019233297985144518 0.028172919109392749 0 -0.038566911531546351 0.022685866633213751 0 -0.03488488458637954 0.025146007026976617 0 -0.045823179509813315 0.021815898077855653 0 -0.046076293249239134 0.021941031498137479 0 -0.044865157372564024 0.021725094177957819 0 -0.03488488458637954 0.025146007026976617 0 -0.03622655412113137 0.024142577447461414 0 -0.043888171589359953 0.017214821716178892 0 -0.044865157372564024 0.021725094177957819 0 -0.039372597660233481 0.021076681034761222 0 -0.015073544812506933 0.027703150298419615 0 -0.019233297985144518 0.028172919109392749 0 -0.015561280361812316 0.031699799854596984 0 -0.03488488458637954 0.025146007026976617 0 -0.028413771797722875 0.027520823575811263 0 -0.039372597660233481 0.021076681034761222 0 -0.042014453710451517 0.02425104991477434 0 -0.038713428967460148 0.024726014736103235 0 -0.044865157372564024 0.021725094177957819 0 -0.039372597660233481 0.021076681034761222 0 -0.042014453710451517 0.02425104991477434 0 -0.046056597699580828 0.026834756528692324 0 -0.044865157372564024 0.021725094177957819 0 -0.042014453710451517 0.02425104991477434 0 -0.046056597699580828 0.026834756528692324 0 -0.042014453710451517 0.02425104991477434 0 -0.041086117223752668 0.027739681433550437 0 -0.042014453710451517 0.02425104991477434 0 -0.038713428967460148 0.024726014736103235 0 -0.041086117223752668 0.027739681433550437 0 -0.038713428967460148 0.024726014736103235 0 -0.03749648228345847 0.027754518474359256 0 -0.041086117223752668 0.027739681433550437 0 -0.038713428967460148 0.024726014736103235 0 -0.033953435669407284 0.023924887195988023 0 -0.03749648228345847 0.027754518474359256 0 -0.028413771797722875 0.027520823575811263 0 -0.022888553523796189 0.03051296646552806 0 -0.015561280361812316 0.031699799854596984 0 -0.012001997959065935 0.034869518362705056 0 -0.012055875940584314 0.032125058949542179 0 -0.039372597660233481 0.021076681034761222 0 -0.038713428967460148 0.024726014736103235 0 -0.033953435669407284 0.023924887195988023 0 -0.011483639292638844 0.034820826280923381 0 -0.013095934694707852 0.03324652437489168 0 -0.0083676347530377317 0.034886717931548301 0 -0.0095298512305850794 0.035884604474630842 0 -0.010830343759734266 0.033165469234861286 0 -0.022888553523796189 0.03051296646552806 0 -0.01741471929884203 0.034306433031814687 0 -0.0095298512305850794 0.035884604474630842 0 -0.012001997959065935 0.034869518362705056 0 -0.009125878273145191 0.037191497680010122 0 -0.0095298512305850794 0.035884604474630842 0 -0.012001997959065935 0.034869518362705056 0 -0.012055875940584314 0.032125058949542179 0 -0.033953435669407284 0.023924887195988023 0 -0.029708162943927342 0.029755908247089586 0 -0.034333993999150103 0.030544981847156281 0 -0.033953435669407284 0.023924887195988023 0 -0.029708162943927342 0.029755908247089586 0 -0.024841994971113519 0.028116886115069826 0 -0.029708162943927342 0.029755908247089586 0 -0.029030515928315039 0.034186710622407808 0 -0.034333993999150103 0.030544981847156281 0 -0.029708162943927342 0.029755908247089586 0 -0.029030515928315039 0.034186710622407808 0 -0.024693719264854412 0.033797691306498338 0 -0.029030515928315039 0.034186710622407808 0 -0.035305594917327994 0.036823318220841443 0 -0.021465828408074355 0.041164048025858574 0 -0.029030515928315039 0.034186710622407808 0 -0.034333993999150103 0.030544981847156281 0 -0.035305594917327994 0.036823318220841443 0 -0.038881143666238176 0.032045939070036646 0 -0.039634794858140726 0.035935664497771469 0 -0.035305594917327994 0.036823318220841443 0 -0.034333993999150103 0.030544981847156281 0 -0.038881143666238176 0.032045939070036646 0 -0.035305594917327994 0.036823318220841443 0 -0.033953435669407284 0.023924887195988023 0 -0.034333993999150103 0.030544981847156281 0 -0.03749648228345847 0.027754518474359256 0 -0.034333993999150103 0.030544981847156281 0 -0.03749648228345847 0.027754518474359256 0 -0.038881143666238176 0.032045939070036646 0 -0.041086117223752668 0.027739681433550437 0 -0.044483342510384161 0.033780216079658434 0 -0.038881143666238176 0.032045939070036646 0 -0.03749648228345847 0.027754518474359256 0 -0.041086117223752668 0.027739681433550437 0 -0.038881143666238176 0.032045939070036646 0 -0.046056597699580828 0.026834756528692324 0 -0.041086117223752668 0.027739681433550437 0 -0.044483342510384161 0.033780216079658434 0 -0.044483342510384161 0.033780216079658434 0 -0.038881143666238176 0.032045939070036646 0 -0.039634794858140726 0.035935664497771469 0 -0.039634794858140726 0.035935664497771469 0 -0.043061491492234101 0.03843887336915193 0 -0.039069109752239664 0.03808140341269315 0 -0.044483342510384161 0.033780216079658434 0 -0.039634794858140726 0.035935664497771469 0 -0.043061491492234101 0.03843887336915193 0 -0.044435504383741317 0.033619732010702848 0 -0.043814083722412779 0.036121702662836347 0 -0.043061491492234101 0.03843887336915193 0 -0.039069109752239664 0.03808140341269315 0 -0.040416120925506165 0.040149522404543052 0 -0.039069109752239664 0.03808140341269315 0 -0.037878490377701517 0.039095915561878879 0 -0.040416120925506165 0.040149522404543052 0 -0.039069109752239664 0.03808140341269315 0 -0.037878490377701517 0.039095915561878879 0 -0.037133292006105732 0.038105456130435346 0 -0.039069109752239664 0.03808140341269315 0 -0.037133292006105732 0.038105456130435346 0 -0.037265985820791603 0.037295137222047664 0 -0.037133292006105732 0.038105456130435346 0 -0.035946760408936046 0.038870268012204064 0 -0.035984249710126433 0.03742003361908209 0 -0.037878490377701517 0.039095915561878879 0 -0.037133292006105732 0.038105456130435346 0 -0.035946760408936046 0.038870268012204064 0 -0.037878490377701517 0.039095915561878879 0 -0.035946760408936046 0.038870268012204064 0 -0.038646864959939187 0.040663900021942943 0 -0.046960533010808811 0.024988245005099032 0 -0.045488297910802791 0.029181130021366707 0 -0.034138352191961603 0.035334995558379982 0 -0.035043414831666814 0.036708591397947174 0 -0.034955933104838348 0.03590147897006208 0 -0.034138352191961603 0.035334995558379982 0 -0.034788648747569283 0.034907217155304406 0 -0.034955933104838348 0.03590147897006208 0 -0.035043414831666814 0.036708591397947174 0 -0.035305594917327994 0.036823318220841443 0 -0.035089305474552704 0.03664436545391124 0 -0.035946760408936046 0.038870268012204064 0 -0.035984249710126433 0.03742003361908209 0 -0.035043414831666814 0.036708591397947174 0 -0.028953660768791748 0.029017236930178797 0 -0.024732981855854583 0.02670146403796686 0 -0.035984249710126433 0.03742003361908209 0 -0.035043414831666814 0.036708591397947174 0 -0.035305594917327994 0.036823318220841443 0 -0.039634794858140726 0.035935664497771469 0 -0.035305594917327994 0.036823318220841443 0 -0.037265985820791603 0.037295137222047664 0 -0.039634794858140726 0.035935664497771469 0 -0.039069109752239664 0.03808140341269315 0 -0.037265985820791603 0.037295137222047664 0 -0.037133292006105732 0.038105456130435346 0 -0.035984249710126433 0.03742003361908209 0 -0.037265985820791603 0.037295137222047664 0 -0.035984249710126433 0.03742003361908209 0 -0.035305594917327994 0.036823318220841443 0 -0.037265985820791603 0.037295137222047664 0 -0.053339713407553356 0.033614910494224534 0 -0.050452680839742574 0.033529512616705053 0 -0.051172102201049161 0.035665876767325515 0 -0.053339713407553356 0.033614910494224534 0 -0.053938803447426943 0.03558219646574301 0 -0.051172102201049161 0.035665876767325515 0 -0.050841203511336135 0.030983267608740237 0 -0.052613660691824181 0.032179928666391029 0 -0.050452680839742574 0.033529512616705053 0 -0.053339713407553356 0.033614910494224534 0 -0.052613660691824181 0.032179928666391029 0 -0.050452680839742574 0.033529512616705053 0 -0.050697623039987344 0.030020941856462011 0 -0.050585071933040862 0.031604454746660557 0 -0.050640443502213542 0.029902898205694476 0 -0.050452680839742574 0.033529512616705053 0 -0.048459749952871868 0.031385659505005534 0 -0.050452680839742574 0.033529512616705053 0 -0.047759219201540137 0.034135755746782459 0 -0.051172102201049161 0.035665876767325515 0 -0.050452680839742574 0.033529512616705053 0 -0.047759219201540137 0.034135755746782459 0 -0.048459749952871868 0.031385659505005534 0 -0.045351785151925589 0.030809487380802088 0 -0.047759219201540137 0.034135755746782459 0 -0.048459749952871868 0.031385659505005534 0 -0.045460614024902771 0.029142461948769835 0 -0.044435504383741317 0.033619732010702848 0 -0.045351785151925589 0.030809487380802088 0 -0.044415741479608806 0.034516373627050206 0 -0.047759219201540137 0.034135755746782459 0 -0.044415741479608806 0.034516373627050206 0 -0.043061491492234101 0.03843887336915193 0 -0.047967886161574658 0.037160659116983789 0 -0.043061491492234101 0.03843887336915193 0 -0.047967886161574658 0.037160659116983789 0 -0.045386075374563947 0.039831947027877061 0 -0.044415741479608806 0.034516373627050206 0 -0.047759219201540137 0.034135755746782459 0 -0.047967886161574658 0.037160659116983789 0 -0.047967886161574658 0.037160659116983789 0 -0.048893197927510124 0.039588553954030319 0 -0.045386075374563947 0.039831947027877061 0 -0.047759219201540137 0.034135755746782459 0 -0.047967886161574658 0.037160659116983789 0 -0.051172102201049161 0.035665876767325515 0 -0.047967886161574658 0.037160659116983789 0 -0.052335678931150022 0.038171161791376383 0 -0.051172102201049161 0.035665876767325515 0 -0.047967886161574658 0.037160659116983789 0 -0.052335678931150022 0.038171161791376383 0 -0.048893197927510124 0.039588553954030319 0 -0.053938803447426943 0.03558219646574301 0 -0.052335678931150022 0.038171161791376383 0 -0.051172102201049161 0.035665876767325515 0 -0.051975957974979094 0.041401576258492792 0 -0.050851969608924977 0.040340259030925064 0 -0.050646128626776012 0.042240671829680207 0 -0.053200516822600526 0.039742989110086967 0 -0.051975957974979094 0.041401576258492792 0 -0.050851969608924977 0.040340259030925064 0 -0.053200516822600526 0.039742989110086967 0 -0.052198233693142027 0.037125804790158645 0 -0.050851969608924977 0.040340259030925064 0 -0.053946276397367765 0.03760239066099718 0 -0.052833348028787169 0.038966518281504214 0 -0.052335678931150022 0.038171161791376383 0 -0.050851969608924977 0.040340259030925064 0 -0.048893197927510124 0.039588553954030319 0 -0.050851969608924977 0.040340259030925064 0 -0.048723000286628362 0.041584831721021641 0 -0.050646128626776012 0.042240671829680207 0 -0.050851969608924977 0.040340259030925064 0 -0.048723000286628362 0.041584831721021641 0 -0.048893197927510124 0.039588553954030319 0 -0.048723000286628362 0.041584831721021641 0 -0.048893197927510124 0.039588553954030319 0 -0.046858692850680249 0.04110837975493211 0 -0.048723000286628362 0.041584831721021641 0 -0.046858692850680249 0.04110837975493211 0 -0.046508452877750864 0.042515766677939743 0 -0.048893197927510124 0.039588553954030319 0 -0.045386075374563947 0.039831947027877061 0 -0.046858692850680249 0.04110837975493211 0 -0.045386075374563947 0.039831947027877061 0 -0.044763289834824381 0.041862303151787919 0 -0.046858692850680249 0.04110837975493211 0 -0.044763289834824381 0.041862303151787919 0 -0.046508452877750864 0.042515766677939743 0 -0.044010042431604328 0.043783335453582171 0 -0.044763289834824381 0.041862303151787919 0 -0.046858692850680249 0.04110837975493211 0 -0.046508452877750864 0.042515766677939743 0 -0.055786238518151059 0.035004767491038168 0 -0.05750505720215239 0.027582953781247598 0 -0.046508452877750864 0.042515766677939743 0 -0.048065031632059836 0.043842147567141082 0 -0.044010042431604328 0.043783335453582171 0 -0.062418957595441395 0.039887454033116249 0 -0.060448927976030811 0.040440761502403166 0 -0.063704989434224452 0.041105803014209664 0 -0.062418957595441395 0.039887454033116249 0 -0.062429181142146642 0.038332958325476896 0 -0.064146792667043193 0.04044273667398169 0 -0.062418957595441395 0.039887454033116249 0 -0.062429181142146642 0.038332958325476896 0 -0.060827772376560695 0.038951137725290207 0 -0.062429181142146642 0.038332958325476896 0 -0.060827772376560695 0.038951137725290207 0 -0.060238204666845305 0.036867894147119391 0 -0.062418957595441395 0.039887454033116249 0 -0.060827772376560695 0.038951137725290207 0 -0.060448927976030811 0.040440761502403166 0 -0.059070667335879852 0.038598515479426165 0 -0.060448927976030811 0.040440761502403166 0 -0.056289032820511828 0.039272817225703013 0 -0.060827772376560695 0.038951137725290207 0 -0.059070667335879852 0.038598515479426165 0 -0.060448927976030811 0.040440761502403166 0 -0.060827772376560695 0.038951137725290207 0 -0.059070667335879852 0.038598515479426165 0 -0.060238204666845305 0.036867894147119391 0 -0.048723000286628362 0.041584831721021641 0 -0.048065031632059836 0.043842147567141082 0 -0.050646128626776012 0.042240671829680207 0 -0.048723000286628362 0.041584831721021641 0 -0.046508452877750864 0.042515766677939743 0 -0.048065031632059836 0.043842147567141082 0 -0.048065031632059836 0.043842147567141082 0 -0.050646128626776012 0.042240671829680207 0 -0.051621183643400792 0.042969182373962182 0 -0.055786238518151059 0.035004767491038168 0 -0.053982320778704608 0.037376493391056267 0 -0.059070667335879852 0.038598515479426165 0 -0.056289032820511828 0.039272817225703013 0 -0.057679404960263969 0.037371717502964821 0 -0.056289032820511828 0.039272817225703013 0 -0.053784707727241941 0.03844849603675736 0 -0.051816095550661689 0.038778999437901029 0 -0.053982320778704608 0.037376493391056267 0 -0.052678120066143495 0.037548075143555834 0 -0.051669370001785002 0.041178637867239652 0 -0.051621183643400792 0.042969182373962182 0 -0.051910168196103959 0.042439386362213075 0 -0.051669370001785002 0.041178637867239652 0 -0.051621183643400792 0.042969182373962182 0 -0.051816095550661689 0.038778999437901029 0 -0.050646128626776012 0.042240671829680207 0 -0.051621183643400792 0.042969182373962182 0 -0.051910168196103959 0.042439386362213075 0 -0.053488785577320383 0.041814795748631194 0 -0.051975957974979094 0.041401576258492792 0 -0.051910168196103959 0.042439386362213075 0 -0.051975957974979094 0.041401576258492792 0 -0.050646128626776012 0.042240671829680207 0 -0.051910168196103959 0.042439386362213075 0 -0.082632765078842554 -0.040473780487676303 0 -0.082576799098413256 -0.044377374766543069 0 -0.085166999459306392 -0.046714456345979538 0 -0.082632765078842554 -0.040473780487676303 0 -0.082576799098413256 -0.044377374766543069 0 -0.08045655688066955 -0.04522828647086051 0 -0.08295245036221241 -0.040698608775006515 0 -0.08137683165354051 -0.042612199679098711 0 -0.080773364584072777 -0.045753185916985836 0 -0.017820964057599729 -0.015359637636018022 0 -0.01925023014358283 -0.015887361009756407 0 -0.019643117110320053 -0.01957881041183105 0 -0.048691851836095847 0.00057464416791572161 0 -0.053767521878413979 -0.02206900000751022 0 -0.048691851836095847 0.00057464416791572161 0 -0.035819444371315769 -0.03140205653077259 0 -0.048691851836095847 0.00057464416791572161 0 -0.057482777750924537 0.0088360684604930958 0 -0.038275718281104279 0.04188208335914053 0 -0.03977151687240818 0.041531581715468682 0 -0.039745941625644356 0.042969694520548628 0 -0.08295245036221241 -0.040698608775006515 0 -0.08137683165354051 -0.042612199679098711 0 -0.080235584173544802 -0.043071454393221166 0 -0.08137683165354051 -0.042612199679098711 0 -0.080271493515313541 -0.043129528817560756 0 -0.080773364584072777 -0.045753185916985836 0 -0.057715595307567202 0.0084950696024559454 0 -0.057482777750924537 0.0088360684604930958 0 -0.020805894552678162 -0.016602798378254305 0 -0.01925023014358283 -0.015887361009756407 0 -0.019643117110320053 -0.01957881041183105 0 -0.020805894552678162 -0.016602798378254305 0 -0.021287895181864674 -0.018229936537285069 0 -0.022045699525251389 -0.017117302732749626 0 -0.020805894552678162 -0.016602798378254305 0 -0.020479895425592649 -0.014731948234406758 0 -0.022729739489587342 -0.014840122668875962 0 -0.020805894552678162 -0.016602798378254305 0 -0.01925023014358283 -0.015887361009756407 0 -0.020479895425592649 -0.014731948234406758 0 -0.017820964057599729 -0.015359637636018022 0 -0.01925023014358283 -0.015887361009756407 0 -0.020479895425592649 -0.014731948234406758 0 -0.034138352191961603 0.035334995558379982 0 -0.033236715327151091 0.033056604273523617 0 -0.034788648747569283 0.034907217155304406 0 -0.048691851836095847 0.00057464416791572161 0 -0.033680492604601549 0.0073175782064133473 0 -0.017820964057599729 -0.015359637636018022 0 -0.020479895425592649 -0.014731948234406758 0 -0.021098708198287908 -0.012031270687928223 0 -0.020479895425592649 -0.014731948234406758 0 -0.021098708198287908 -0.012031270687928223 0 -0.022729739489587342 -0.014840122668875962 0 -0.035946760408936046 0.038870268012204064 0 -0.038005431917207635 0.042159601996820291 0 -0.038646864959939187 0.040663900021942943 0 -0.046960533010808811 0.024988245005099032 0 -0.048691851836095847 0.00057464416791572161 0 -0.048691851836095847 0.00057464416791572161 0 -0.046224518042778703 0.0070132200992716305 0 -0.038275718281104279 0.04188208335914053 0 -0.038646864959939187 0.040663900021942943 0 -0.03977151687240818 0.041531581715468682 0 -0.037878490377701517 0.039095915561878879 0 -0.038646864959939187 0.040663900021942943 0 -0.040416120925506165 0.040149522404543052 0 -0.040416120925506165 0.040149522404543052 0 -0.043072359127418365 0.040843114395779971 0 -0.041222094366364551 0.041608585024838302 0 -0.038646864959939187 0.040663900021942943 0 -0.040416120925506165 0.040149522404543052 0 -0.03977151687240818 0.041531581715468682 0 -0.040416120925506165 0.040149522404543052 0 -0.03977151687240818 0.041531581715468682 0 -0.041222094366364551 0.041608585024838302 0 -0.043061491492234101 0.03843887336915193 0 -0.045386075374563947 0.039831947027877061 0 -0.043072359127418365 0.040843114395779971 0 -0.043061491492234101 0.03843887336915193 0 -0.040416120925506165 0.040149522404543052 0 -0.043072359127418365 0.040843114395779971 0 -0.045386075374563947 0.039831947027877061 0 -0.044763289834824381 0.041862303151787919 0 -0.043072359127418365 0.040843114395779971 0 -0.044763289834824381 0.041862303151787919 0 -0.043072359127418365 0.040843114395779971 0 -0.042567941478543897 0.042206644523755305 0 -0.043072359127418365 0.040843114395779971 0 -0.042567941478543897 0.042206644523755305 0 -0.041222094366364551 0.041608585024838302 0 -0.044763289834824381 0.041862303151787919 0 -0.042567941478543897 0.042206644523755305 0 -0.044010042431604328 0.043783335453582171 0 -0.042567941478543897 0.042206644523755305 0 -0.039745941625644356 0.042969694520548628 0 -0.044010042431604328 0.043783335453582171 0 -0.057482777750924537 0.0088360684604930958 0 -0.05750505720215239 0.027582953781247598 0 -0.042567941478543897 0.042206644523755305 0 -0.041222094366364551 0.041608585024838302 0 -0.039745941625644356 0.042969694520548628 0 -0.03977151687240818 0.041531581715468682 0 -0.041222094366364551 0.041608585024838302 0 -0.039745941625644356 0.042969694520548628 0 -0.07520028609633099 -0.048451465653907851 0 -0.078633759359570468 -0.050510155685578602 0 -0.080773364584072777 -0.045753185916985836 0 -0.05544534892285629 -0.028710295869748902 0 -0.053767521878413979 -0.02206900000751022 0 -0.057482777750924537 0.0088360684604930958 0 -0.063683153322586297 0.0010981651525174367 0 -0.080271493515313541 -0.043129528817560756 0 -0.07520028609633099 -0.048451465653907851 0 -0.080773364584072777 -0.045753185916985836 0 -0.062418957595441395 0.039887454033116249 0 -0.064146792667043193 0.04044273667398169 0 -0.063704989434224452 0.041105803014209664 0 -0.065401448476202315 0.041515350861140436 0 -0.064146792667043193 0.04044273667398169 0 -0.063704989434224452 0.041105803014209664 0 -0.07520028609633099 -0.048451465653907851 0 -0.078633759359570468 -0.050510155685578602 0 -0.075132867424401145 -0.053832022495383269 0 -0.070705768403159716 -0.053588934927966667 0 -0.07520028609633099 -0.048451465653907851 0 -0.075132867424401145 -0.053832022495383269 0 -0.063783460748635709 -0.0056647520664868832 0 -0.063683153322586297 0.0010981651525174367 0 -0.078633759359570468 -0.050510155685578602 0 -0.080623317810371367 -0.053956568437858822 0 -0.075132867424401145 -0.053832022495383269 0 -0.082274734858496804 -0.048989110537954531 0 -0.086391306653285635 -0.048818431714216085 0 -0.080623317810371367 -0.053956568437858822 0 -0.0038097773547593463 -0.052588917975268948 0 -0.0074158403827341316 -0.049547820023607483 0 -0.0048750731964459304 -0.047808659012438186 0 -0.078633759359570468 -0.050510155685578602 0 -0.082274734858496804 -0.048989110537954531 0 -0.080623317810371367 -0.053956568437858822 0 -0.029297535027931206 -0.031044564600444229 0 -0.036913831933562548 -0.04313688803792641 0 -0.082274734858496804 -0.048989110537954531 0 -0.082500185801882772 -0.046605488131858983 0 -0.08045655688066955 -0.04522828647086051 0 -0.078633759359570468 -0.050510155685578602 0 -0.082274734858496804 -0.048989110537954531 0 -0.08045655688066955 -0.04522828647086051 0 -0.082274734858496804 -0.048989110537954531 0 -0.082500185801882772 -0.046605488131858983 0 -0.085725000476272989 -0.047175382219047365 0 -0.082274734858496804 -0.048989110537954531 0 -0.085725000476272989 -0.047175382219047365 0 -0.086391306653285635 -0.048818431714216085 0 -0.04524098326042842 -0.03761799054478112 0 -0.035819444371315769 -0.03140205653077259 0 -0.082500185801882772 -0.046605488131858983 0 -0.082576799098413256 -0.044377374766543069 0 -0.085725000476272989 -0.047175382219047365 0 -0.082500185801882772 -0.046605488131858983 0 -0.082576799098413256 -0.044377374766543069 0 -0.08045655688066955 -0.04522828647086051 0 -0.021287895181864674 -0.018229936537285069 0 -0.020444592638283385 -0.02026492419197215 0 -0.023493912867549368 -0.01757851476027299 0 -0.020805894552678162 -0.016602798378254305 0 -0.021287895181864674 -0.018229936537285069 0 -0.019643117110320053 -0.01957881041183105 0 -0.03261817098750832 -0.024844811178565129 0 -0.034188494590653984 -0.028460170902297213 0 -0.035504894028042876 -0.027348488498361578 0 -0.035819444371315769 -0.03140205653077259 0 -0.029297535027931206 -0.031044564600444229 0 -0.035819444371315769 -0.03140205653077259 0 -0.028980140197136545 -0.029763026013427361 0 -0.029297535027931206 -0.031044564600444229 0 -0.028980140197136545 -0.029763026013427361 0 -0.021287895181864674 -0.018229936537285069 0 -0.019643117110320053 -0.01957881041183105 0 -0.020444592638283385 -0.02026492419197215 0 -0.020076399398926175 -0.02665154924011132 0 -0.01990458395664926 -0.026796163647776365 0 -0.01867360201264659 -0.02575660249278924 0 -0.020076399398926175 -0.02665154924011132 0 -0.01867360201264659 -0.02575660249278924 0 -0.019146588619683318 -0.024638539542287584 0 -0.028980140197136545 -0.029763026013427361 0 -0.0094822354553803778 -0.021434458478502671 0 -0.029297535027931206 -0.031044564600444229 0 -0.012631848398258269 -0.033853344240463719 0 0.027878052105433159 0.00010533542712545018 0 0.028121498070067839 0.00025351710605714476 0 0.027972159954687666 0.0001037255780458731 0 -0.019888265257302248 -0.020560056334166035 0 -0.022785878367973862 -0.023070807452803356 0 -0.022618686951418904 -0.0201725862218184 0 0.028121498070067839 0.00025351710605714476 0 0.028435065069391651 0.00073344919725261458 0 0.027197796548867559 -0.00019503109001857419 0 0.027878052105433159 0.00010533542712545018 0 0.028121498070067839 0.00025351710605714476 0 0.027894133686711044 -0.00036372989702117958 0 0.028121498070067839 0.00025351710605714476 0 0.028435065069391651 0.00073344919725261458 0 0.027972159954687666 0.0001037255780458731 0 0.028435065069391651 0.00073344919725261458 0 0.02905330367182227 -2.6077026382241604e-05 0 0.027972159954687666 0.0001037255780458731 0 -0.022785878367973862 -0.023070807452803356 0 -0.024741159933961164 -0.018458641390370609 0 -0.022618686951418904 -0.0201725862218184 0 -0.019888265257302248 -0.020560056334166035 0 -0.022618686951418904 -0.0201725862218184 0 -0.023493912867549368 -0.01757851476027299 0 -0.024741159933961164 -0.018458641390370609 0 -0.022618686951418904 -0.0201725862218184 0 -0.023493912867549368 -0.01757851476027299 0 -0.0094822354553803778 -0.021434458478502671 0 -0.0039366288002144314 -0.01307128936105908 0 -0.028980140197136545 -0.029763026013427361 0 -0.028363765539226309 -0.027240060193569577 0 0.033516951307013383 0.0028408534453043138 0 0.030973825563980251 0.0016413376000524336 0 0.032940840291346835 0.00094105793303782791 0 0.033516951307013383 0.0028408534453043138 0 0.030973825563980251 0.0016413376000524336 0 0.031193984128136381 0.0037216715855335754 0 0.028435065069391651 0.00073344919725261458 0 0.030973825563980251 0.0016413376000524336 0 0.031139520257194978 0.0043435848441759255 0 0.028300990034345747 -0.0025431977548665608 0 0.02528390309100333 -0.0072144466718826357 0 0.026016623242848431 -0.0039656560269069798 0 0.02528390309100333 -0.0072144466718826357 0 0.02905330367182227 -2.6077026382241604e-05 0 0.030973825563980251 0.0016413376000524336 0 0.030808270022334841 -0.00035515848229383757 0 0.028435065069391651 0.00073344919725261458 0 0.02905330367182227 -2.6077026382241604e-05 0 0.030973825563980251 0.0016413376000524336 0 0.032940840291346835 0.00094105793303782791 0 0.032640323765626943 -0.00017802557935760291 0 0.034457704036861284 -0.00010689749545596888 0 0.032940840291346835 0.00094105793303782791 0 0.032640323765626943 -0.00017802557935760291 0 0.030808270022334841 -0.00035515848229383757 0 0.030973825563980251 0.0016413376000524336 0 0.032940840291346835 0.00094105793303782791 0 0.030808270022334841 -0.00035515848229383757 0 0.033041935672224111 -0.00095069617744970446 0 0.030808270022334841 -0.00035515848229383757 0 0.03079674433135033 -0.002969142079117798 0 0.033041935672224111 -0.00095069617744970446 0 0.032640323765626943 -0.00017802557935760291 0 0.034457704036861284 -0.00010689749545596888 0 0.033041935672224111 -0.00095069617744970446 0 0.032640323765626943 -0.00017802557935760291 0 0.030808270022334841 -0.00035515848229383757 0 0.02905330367182227 -2.6077026382241604e-05 0 0.030808270022334841 -0.00035515848229383757 0 0.028563044278177702 -0.0022361738616972341 0 0.030808270022334841 -0.00035515848229383757 0 0.03079674433135033 -0.002969142079117798 0 0.028563044278177702 -0.0022361738616972341 0 0.03079674433135033 -0.002969142079117798 0 0.028563044278177702 -0.0022361738616972341 0 0.029515475467309187 -0.0059316304424310122 0 0.033041935672224111 -0.00095069617744970446 0 0.03079674433135033 -0.002969142079117798 0 0.033737791136306837 -0.0042399044414302457 0 -0.023493912867549368 -0.01757851476027299 0 -0.026458779105667823 -0.014217091861182472 0 -0.022729739489587342 -0.014840122668875962 0 -0.020805894552678162 -0.016602798378254305 0 -0.022045699525251389 -0.017117302732749626 0 -0.022729739489587342 -0.014840122668875962 0 -0.021287895181864674 -0.018229936537285069 0 -0.022045699525251389 -0.017117302732749626 0 -0.023493912867549368 -0.01757851476027299 0 -0.022045699525251389 -0.017117302732749626 0 -0.023493912867549368 -0.01757851476027299 0 -0.022729739489587342 -0.014840122668875962 0 0.02905330367182227 -2.6077026382241604e-05 0 0.027972159954687666 0.0001037255780458731 0 0.028563044278177702 -0.0022361738616972341 0 -0.0039366288002144314 -0.01307128936105908 0 -0.00033175334811762257 -0.0088295957787312244 0 -0.024741159933961164 -0.018458641390370609 0 -0.023493912867549368 -0.01757851476027299 0 -0.026458779105667823 -0.014217091861182472 0 -0.00033175334811762257 -0.0088295957787312244 0 0.0022648922323861257 -0.0042020069768792115 0 -0.026458779105667823 -0.014217091861182472 0 -0.024489670470187117 -0.011974293423160523 0 -0.028152434171061766 -0.010025907443410899 0 -0.021098708198287908 -0.012031270687928223 0 -0.024489670470187117 -0.011974293423160523 0 -0.022729739489587342 -0.014840122668875962 0 -0.026458779105667823 -0.014217091861182472 0 -0.024489670470187117 -0.011974293423160523 0 -0.022729739489587342 -0.014840122668875962 0 -0.021098708198287908 -0.012031270687928223 0 -0.024489670470187117 -0.011974293423160523 0 -0.02430725932244111 -0.0089621112604651512 0 -0.033680492604601549 0.0073175782064133473 0 -0.025802940037801033 0.014278964132614869 0 -0.034788648747569283 0.034907217155304406 0 -0.034955933104838348 0.03590147897006208 0 -0.035460131515901792 0.036142962691296368 0 -0.035043414831666814 0.036708591397947174 0 -0.034955933104838348 0.03590147897006208 0 -0.035162121774009798 0.036372836994958593 0 -0.035162121774009798 0.036372836994958593 0 -0.035460131515901792 0.036142962691296368 0 -0.035089305474552704 0.03664436545391124 0 -0.034955933104838348 0.03590147897006208 0 -0.035162121774009798 0.036372836994958593 0 -0.035460131515901792 0.036142962691296368 0 -0.035043414831666814 0.036708591397947174 0 -0.035162121774009798 0.036372836994958593 0 -0.035089305474552704 0.03664436545391124 0 -0.02430725932244111 -0.0089621112604651512 0 -0.028152434171061766 -0.010025907443410899 0 -0.027508000255363506 -0.005925783365931532 0 -0.035460131515901792 0.036142962691296368 0 -0.035836406949977639 0.036588885611931715 0 -0.035089305474552704 0.03664436545391124 0 -0.025802940037801033 0.014278964132614869 0 -0.011825267909456342 0.017975694140658863 0 -0.024489670470187117 -0.011974293423160523 0 -0.02430725932244111 -0.0089621112604651512 0 -0.028152434171061766 -0.010025907443410899 0 0.03079674433135033 -0.002969142079117798 0 0.029515475467309187 -0.0059316304424310122 0 0.033737791136306837 -0.0042399044414302457 0 0.029515475467309187 -0.0059316304424310122 0 0.033737791136306837 -0.0042399044414302457 0 0.033117784316960282 -0.0074988076655876723 0 0.033737791136306837 -0.0042399044414302457 0 0.033117784316960282 -0.0074988076655876723 0 0.036801194366918269 -0.0063178744193145963 0 0.033117784316960282 -0.0074988076655876723 0 0.031247344113823992 -0.01042934137259189 0 0.034595576492476736 -0.010565730250391319 0 0.029515475467309187 -0.0059316304424310122 0 0.033117784316960282 -0.0074988076655876723 0 0.031247344113823992 -0.01042934137259189 0 -0.028152434171061766 -0.010025907443410899 0 -0.027508000255363506 -0.005925783365931532 0 -0.029839310905137941 -0.0058552443734750806 0 0.0022648922323861257 -0.0042020069768792115 0 0.0028606805707397623 0.0088508206949560915 0 0.0010726114756738005 0.013645742746573363 0 0.0035130214322109019 0.011998919490975294 0 0.00399077035820424 0.011085243165380017 0 0.0010726114756738005 0.013645742746573363 0 0.0027853819818908273 0.013613308445738661 0 0.0035130214322109019 0.011998919490975294 0 -0.011825267909456342 0.017975694140658863 0 0.0028606805707397623 0.0088508206949560915 0 -0.0056942544797388365 0.041067919701802978 0 -0.0025043480581543689 0.037552158320391618 0 -0.0061045393197815389 0.03780161939511581 0 -0.011825267909456342 0.017975694140658863 0 0.0039669232909286126 0.024272574843187168 0 0.0028606805707397623 0.0088508206949560915 0 0.015909874617260223 0.015167343637667785 0 0.0028329212887974091 0.013581220100393063 0 0.0050315200479578532 0.01354635680469039 0 0.0035130214322109019 0.011998919490975294 0 0.00047708544968285723 0.045119858204641809 0 -0.0016523766820700214 0.040221875720118878 0 0.0011972737012119522 0.041899417071869664 0 0.0050315200479578532 0.01354635680469039 0 0.0035130214322109019 0.011998919490975294 0 0.00399077035820424 0.011085243165380017 0 0.015909874617260223 0.015167343637667785 0 0.0039669232909286126 0.024272574843187168 0 0.0028606805707397623 0.0088508206949560915 0 0.0026662761928369963 0.0096271608793621309 0 0.00045697479408042497 0.040541551010228258 0 -0.0010806747524751037 0.039676049756603528 0 -0.0016523766820700214 0.040221875720118878 0 0.00045697479408042497 0.040541551010228258 0 -0.0016523766820700214 0.040221875720118878 0 0.0011972737012119522 0.041899417071869664 0 0.00045697479408042497 0.040541551010228258 0 -0.0010806747524751037 0.039676049756603528 0 0.0002183477079224707 0.039112438978091073 0 0.0038343227243657638 0.024431594265417564 0 0.0039669232909286126 0.024272574843187168 0 0.0041461389992222542 0.026764581552230691 0 0.0039669232909286126 0.024272574843187168 0 -0.0030611179166878822 0.036272750718823299 0 -0.0025043480581543689 0.037552158320391618 0 -0.0041814279153250221 0.036850425551489888 0 -0.0030611179166878822 0.036272750718823299 0 -0.0010806747524751037 0.039676049756603528 0 -0.0017570857001522559 0.040283301804893992 0 -0.0030611179166878822 0.036272750718823299 0 -0.0002628532104222261 0.037300898468307177 0 -0.0010806747524751037 0.039676049756603528 0 -0.0002628532104222261 0.037300898468307177 0 -0.0010806747524751037 0.039676049756603528 0 0.0002183477079224707 0.039112438978091073 0 -0.0068837432879767999 0.034751090087468052 0 -0.0050079168171625575 0.035854600188077144 0 -0.0061045393197815389 0.03780161939511581 0 -0.0025043480581543689 0.037552158320391618 0 -0.0061045393197815389 0.03780161939511581 0 -0.0041814279153250221 0.036850425551489888 0 -0.0050079168171625575 0.035854600188077144 0 -0.0061045393197815389 0.03780161939511581 0 -0.0041814279153250221 0.036850425551489888 0 -0.0050079168171625575 0.035854600188077144 0 -0.0030611179166878822 0.036272750718823299 0 -0.0041814279153250221 0.036850425551489888 0 -0.0085909765634234313 0.036409280907769785 0 -0.0066024262999199385 0.035646800386193278 0 -0.0091383140662838255 0.037826456911075897 0 -0.0068837432879767999 0.034751090087468052 0 -0.0061045393197815389 0.03780161939511581 0 -0.0091383140662838255 0.037826456911075897 0 -0.0062394660800757376 0.034731095927639746 0 -0.0070417477530248856 0.036085910835026033 0 -0.0061045393197815389 0.03780161939511581 0 -0.0091383140662838255 0.037826456911075897 0 -0.0083078177184858545 0.038296388009905383 0 -0.0085909765634234313 0.036409280907769785 0 -0.0091383140662838255 0.037826456911075897 0 -0.009125878273145191 0.037191497680010122 0 -0.0085909765634234313 0.036409280907769785 0 -0.0095298512305850794 0.035884604474630842 0 -0.009125878273145191 0.037191497680010122 0 -0.029708162943927342 0.029755908247089586 0 -0.024841994971113519 0.028116886115069826 0 -0.024693719264854412 0.033797691306498338 0 -0.020315116896608917 0.03554283410328575 0 -0.021465828408074355 0.041164048025858574 0 -0.01027378411386322 0.039451168199730026 0 -0.0091383140662838255 0.037826456911075897 0 -0.009125878273145191 0.037191497680010122 0 -0.01027378411386322 0.039451168199730026 0 -0.024841994971113519 0.028116886115069826 0 -0.020315116896608917 0.03554283410328575 0 -0.01027378411386322 0.039451168199730026 0 -0.01741471929884203 0.034306433031814687 0 -0.014004725328228778 0.037170169898692186 0 -0.024841994971113519 0.028116886115069826 0 -0.020315116896608917 0.03554283410328575 0 -0.024693719264854412 0.033797691306498338 0 -0.029030515928315039 0.034186710622407808 0 -0.024693719264854412 0.033797691306498338 0 -0.021465828408074355 0.041164048025858574 0 -0.020315116896608917 0.03554283410328575 0 -0.024693719264854412 0.033797691306498338 0 -0.021465828408074355 0.041164048025858574 0 -0.0056942544797388365 0.041067919701802978 0 -0.0061045393197815389 0.03780161939511581 0 -0.0083078177184858545 0.038296388009905383 0 -0.011825267909456342 0.017975694140658863 0 -0.024732981855854583 0.02670146403796686 0 -0.0056942544797388365 0.041067919701802978 0 -0.021465828408074355 0.041164048025858574 0 -0.01027378411386322 0.039451168199730026 0 -0.0056942544797388365 0.041067919701802978 0 -0.01027378411386322 0.039451168199730026 0 -0.0083078177184858545 0.038296388009905383 0 -0.0091383140662838255 0.037826456911075897 0 -0.01027378411386322 0.039451168199730026 0 -0.0083078177184858545 0.038296388009905383 0 0.042386587505458227 0.019776371939496058 0 0.040791402822501426 0.018659882049161212 0 0.041857856010052624 0.022901454705381557 0 0.042386587505458227 0.019776371939496058 0 0.041857856010052624 0.022901454705381557 0 0.043965521132767672 0.019729088277936482 0 0.011895892191460075 0.040952814026155519 0 0.0074273208199306428 0.040631198224250063 0 0.0078872546672982147 0.043636600319450651 0 0.023384520070845485 0.029558706096191364 0 0.023149330522789391 0.025158162869830501 0 0.042386587505458227 0.019776371939496058 0 0.043965521132767672 0.019729088277936482 0 0.042711814649373035 0.018078175189669869 0 0.042386587505458227 0.019776371939496058 0 0.040791402822501426 0.018659882049161212 0 0.042711814649373035 0.018078175189669869 0 0.038148343106698887 0.020271977690561813 0 0.040791402822501426 0.018659882049161212 0 0.038635277216217151 0.016861465408692052 0 0.038148343106698887 0.020271977690561813 0 0.040791402822501426 0.018659882049161212 0 0.041857856010052624 0.022901454705381557 0 0.021797597007744543 0.033523377387221436 0 0.015153589438970327 0.034782294141183286 0 0.015827344288553355 0.038238657269685124 0 0.011895892191460075 0.040952814026155519 0 0.0093918000073763223 0.0383519098141646 0 0.021797597007744543 0.033523377387221436 0 0.023384520070845485 0.029558706096191364 0 0.037129671913872543 0.028474882802783187 0 0.038148343106698887 0.020271977690561813 0 0.041857856010052624 0.022901454705381557 0 0.011895892191460075 0.040952814026155519 0 0.0093918000073763223 0.0383519098141646 0 0.0074273208199306428 0.040631198224250063 0 0.0093918000073763223 0.0383519098141646 0 0.0058432846883372438 0.038934945686949711 0 0.0074273208199306428 0.040631198224250063 0 0.0058432846883372438 0.038934945686949711 0 0.0035311028217561526 0.037874067952464514 0 0.0041288901859772298 0.040188247920634572 0 0.0074273208199306428 0.040631198224250063 0 0.0041288901859772298 0.040188247920634572 0 0.0058921615256365429 0.042391391979864641 0 0.0058432846883372438 0.038934945686949711 0 0.0074273208199306428 0.040631198224250063 0 0.0041288901859772298 0.040188247920634572 0 -0.0002628532104222261 0.037300898468307177 0 0.0002183477079224707 0.039112438978091073 0 0.0017316212274225565 0.038896462525697402 0 0.0017316212274225565 0.038896462525697402 0 0.0035311028217561526 0.037874067952464514 0 0.0041288901859772298 0.040188247920634572 0 0.0041288901859772298 0.040188247920634572 0 0.0024476575697137408 0.040773321690689944 0 0.0035937265820389342 0.042633880836423242 0 0.0017316212274225565 0.038896462525697402 0 0.0041288901859772298 0.040188247920634572 0 0.0024476575697137408 0.040773321690689944 0 0.00045697479408042497 0.040541551010228258 0 0.0017316212274225565 0.038896462525697402 0 0.0024476575697137408 0.040773321690689944 0 0.00045697479408042497 0.040541551010228258 0 0.0024476575697137408 0.040773321690689944 0 0.0011972737012119522 0.041899417071869664 0 0.00045697479408042497 0.040541551010228258 0 0.0002183477079224707 0.039112438978091073 0 0.0017316212274225565 0.038896462525697402 0 0.00047708544968285723 0.045119858204641809 0 0.0035937265820389342 0.042633880836423242 0 0.0058192852201591093 0.045073417571827458 0 0.015909874617260223 0.015167343637667785 0 0.023135074330897933 0.021831195456759593 0 0.0024476575697137408 0.040773321690689944 0 0.0011972737012119522 0.041899417071869664 0 0.0035937265820389342 0.042633880836423242 0 0.00047708544968285723 0.045119858204641809 0 0.0011972737012119522 0.041899417071869664 0 0.0035937265820389342 0.042633880836423242 0 0.0074273208199306428 0.040631198224250063 0 0.0058921615256365429 0.042391391979864641 0 0.0078872546672982147 0.043636600319450651 0 0.0035937265820389342 0.042633880836423242 0 0.0058921615256365429 0.042391391979864641 0 0.0058192852201591093 0.045073417571827458 0 0.0041288901859772298 0.040188247920634572 0 0.0035937265820389342 0.042633880836423242 0 0.0058921615256365429 0.042391391979864641 0 0.044927037826732318 0.018687222548187478 0 0.043965521132767672 0.019729088277936482 0 0.044235999497028347 0.017677414005457553 0 0.0058921615256365429 0.042391391979864641 0 0.0058192852201591093 0.045073417571827458 0 0.0078872546672982147 0.043636600319450651 0 0.023135074330897933 0.021831195456759593 0 0.023149330522789391 0.025158162869830501 0 0.043965521132767672 0.019729088277936482 0 0.044235999497028347 0.017677414005457553 0 0.042711814649373035 0.018078175189669869 0 0.044235999497028347 0.017677414005457553 0 0.043424069966588867 0.016512926377383344 0 0.042711814649373035 0.018078175189669869 0 0.044235999497028347 0.017677414005457553 0 0.045063354426666299 0.01632885236234706 0 0.045977682063411116 0.017808991284554078 0 0.044927037826732318 0.018687222548187478 0 0.044235999497028347 0.017677414005457553 0 0.045977682063411116 0.017808991284554078 0 0.023135074330897933 0.021831195456759593 0 0.025798518789814526 0.020448203047323719 0 0.044235999497028347 0.017677414005457553 0 0.045063354426666299 0.01632885236234706 0 0.043424069966588867 0.016512926377383344 0 0.04787545990047299 0.018623838992572285 0 0.045977682063411116 0.017808991284554078 0 0.046497127612485693 0.015219928355626636 0 0.04787545990047299 0.018623838992572285 0 0.044736191294868735 0.018668230945535116 0 0.045977682063411116 0.017808991284554078 0 0.015909874617260223 0.015167343637667785 0 0.02868769862426758 0.010334948385175569 0 0.033117784316960282 -0.0074988076655876723 0 0.034595576492476736 -0.010565730250391319 0 0.036801194366918269 -0.0063178744193145963 0 0.045063354426666299 0.01632885236234706 0 0.045977682063411116 0.017808991284554078 0 0.046497127612485693 0.015219928355626636 0 0.045063354426666299 0.01632885236234706 0 0.046497127612485693 0.015219928355626636 0 0.043982485711980594 0.014182972226797774 0 0.046497127612485693 0.015219928355626636 0 0.043982485711980594 0.014182972226797774 0 0.044869101579400994 0.011704487931529653 0 0.045063354426666299 0.01632885236234706 0 0.043424069966588867 0.016512926377383344 0 0.043982485711980594 0.014182972226797774 0 0.043424069966588867 0.016512926377383344 0 0.043982485711980594 0.014182972226797774 0 0.042366970466814272 0.014711775595713917 0 0.042366970466814272 0.014711775595713917 0 0.040756330412962373 0.0155846965637714 0 0.04133877965238459 0.012616074139835749 0 0.043982485711980594 0.014182972226797774 0 0.042366970466814272 0.014711775595713917 0 0.04133877965238459 0.012616074139835749 0 0.043424069966588867 0.016512926377383344 0 0.042366970466814272 0.014711775595713917 0 0.040756330412962373 0.0155846965637714 0 0.043424069966588867 0.016512926377383344 0 0.042711814649373035 0.018078175189669869 0 0.040756330412962373 0.0155846965637714 0 0.040791402822501426 0.018659882049161212 0 0.042711814649373035 0.018078175189669869 0 0.040756330412962373 0.0155846965637714 0 0.040791402822501426 0.018659882049161212 0 0.038635277216217151 0.016861465408692052 0 0.040756330412962373 0.0155846965637714 0 0.040756330412962373 0.0155846965637714 0 0.038754827383818434 0.014142326123478759 0 0.04133877965238459 0.012616074139835749 0 0.038635277216217151 0.016861465408692052 0 0.040756330412962373 0.0155846965637714 0 0.038754827383818434 0.014142326123478759 0 0.0386852488145739 0.011558709421494517 0 0.038754827383818434 0.014142326123478759 0 0.04133877965238459 0.012616074139835749 0 0.04133877965238459 0.012616074139835749 0 0.042141531172961912 0.010293320263409709 0 0.044869101579400994 0.011704487931529653 0 0.04133877965238459 0.012616074139835749 0 0.040604167370343003 0.0095095512256185219 0 0.042141531172961912 0.010293320263409709 0 0.040604167370343003 0.0095095512256185219 0 0.042141531172961912 0.010293320263409709 0 0.042362009825823534 0.0074519163808149458 0 0.0386852488145739 0.011558709421494517 0 0.04133877965238459 0.012616074139835749 0 0.040604167370343003 0.0095095512256185219 0 0.0386852488145739 0.011558709421494517 0 0.038045792884606258 0.0095938896186294718 0 0.040604167370343003 0.0095095512256185219 0 0.033737791136306837 -0.0042399044414302457 0 0.036801194366918269 -0.0063178744193145963 0 0.039890438424489819 -0.00084718831188069143 0 0.033041935672224111 -0.00095069617744970446 0 0.033737791136306837 -0.0042399044414302457 0 0.039890438424489819 -0.00084718831188069143 0 0.02868769862426758 0.010334948385175569 0 0.03462652952112498 0.0087998690140070508 0 0.043982485711980594 0.014182972226797774 0 0.04133877965238459 0.012616074139835749 0 0.044869101579400994 0.011704487931529653 0 0.03462652952112498 0.0087998690140070508 0 0.036406935328118929 0.0087372517377485893 0 0.042141531172961912 0.010293320263409709 0 0.044869101579400994 0.011704487931529653 0 0.042362009825823534 0.0074519163808149458 0 0.039890438424489819 -0.00084718831188069143 0 0.037580100946990068 0.0061805170686939134 0 0.042362009825823534 0.0074519163808149458 0 0.035651875939780218 0.0012495570284357541 0 0.036749927227054287 0.0023437020313703755 0 0.033041935672224111 -0.00095069617744970446 0 0.039890438424489819 -0.00084718831188069143 0 0.037580100946990068 0.0061805170686939134 0 0.034457704036861284 -0.00010689749545596888 0 0.036885233583968814 0.0020659748064550025 0 0.034911126494703286 0.0019097364006768092 0 0.032940840291346835 0.00094105793303782791 0 0.034457704036861284 -0.00010689749545596888 0 0.034911126494703286 0.0019097364006768092 0 0.036749927227054287 0.0023437020313703755 0 0.038265051890685964 0.0033855880838643479 0 0.042362009825823534 0.0074519163808149458 0 0.041810086538489201 0.0084170722370478668 0 0.041403513508129416 0.0080667133369555465 0 0.037580100946990068 0.0061805170686939134 0 0.042362009825823534 0.0074519163808149458 0 0.041810086538489201 0.0084170722370478668 0 0.038265051890685964 0.0033855880838643479 0 0.038569327566704927 0.0025682700361052599 0 0.036885233583968814 0.0020659748064550025 0 0.036145970194766425 0.0024449996537204014 0 0.037266685001975719 0.00262650374673854 0 0.036885233583968814 0.0020659748064550025 0 0.036145970194766425 0.0024449996537204014 0 0.034911126494703286 0.0019097364006768092 0 0.033516951307013383 0.0028408534453043138 0 0.032940840291346835 0.00094105793303782791 0 0.034911126494703286 0.0019097364006768092 0 0.036145970194766425 0.0024449996537204014 0 0.034911126494703286 0.0019097364006768092 0 0.03526691494377291 0.002988857786211707 0 0.033516951307013383 0.0028408534453043138 0 0.034911126494703286 0.0019097364006768092 0 0.03526691494377291 0.002988857786211707 0 0.038045792884606258 0.0095938896186294718 0 0.040604167370343003 0.0095095512256185219 0 0.040110048065654651 0.0080547758369966509 0 0.040604167370343003 0.0095095512256185219 0 0.042362009825823534 0.0074519163808149458 0 0.041403513508129416 0.0080667133369555465 0 0.040604167370343003 0.0095095512256185219 0 0.040110048065654651 0.0080547758369966509 0 0.041403513508129416 0.0080667133369555465 0 0.041810086538489201 0.0084170722370478668 0 0.041403513508129416 0.0080667133369555465 0 0.041140736869251321 0.0076372821613690774 0 0.040110048065654651 0.0080547758369966509 0 0.041403513508129416 0.0080667133369555465 0 0.041140736869251321 0.0076372821613690774 0 0.041810086538489201 0.0084170722370478668 0 0.041140736869251321 0.0076372821613690774 0 0.041274804381409499 0.006251139346249864 0 0.038640348254593171 0.0076004245861761438 0 0.040110048065654651 0.0080547758369966509 0 0.039947220860336863 0.0067305583303622777 0 0.038640348254593171 0.0076004245861761438 0 0.039947220860336863 0.0067305583303622777 0 0.038465568529474851 0.0060880386536051488 0 0.040110048065654651 0.0080547758369966509 0 0.041140736869251321 0.0076372821613690774 0 0.039947220860336863 0.0067305583303622777 0 0.039947220860336863 0.0067305583303622777 0 0.041274804381409499 0.006251139346249864 0 0.039921134999307516 0.0044282079799500161 0 0.039947220860336863 0.0067305583303622777 0 0.039921134999307516 0.0044282079799500161 0 0.038465568529474851 0.0060880386536051488 0 0.041140736869251321 0.0076372821613690774 0 0.039947220860336863 0.0067305583303622777 0 0.041274804381409499 0.006251139346249864 0 0.036338070516370703 0.0023478079050873561 0 0.036529108828931706 -0.0012269843649757924 0 0.03777365351420315 0.00058360210869828075 0 0.036529108828931706 -0.0012269843649757924 0 0.033018216576931998 -0.0014669467168458962 0 0.035246104820083793 -0.0042409701473892468 0 0.036338070516370703 0.0023478079050873561 0 0.036529108828931706 -0.0012269843649757924 0 0.033018216576931998 -0.0014669467168458962 0 0.038569327566704927 0.0025682700361052599 0 0.03797430950878343 -4.9263037069034663e-05 0 0.03797430950878343 -4.9263037069034663e-05 0 0.036966564335374402 0.0038148332624853318 0 0.027576676754032442 -0.010021053275134657 0 0.031994850400107952 -0.007582532503295966 0 0.033516951307013383 0.0028408534453043138 0 0.033898079585632263 0.0048827059639658795 0 0.03526691494377291 0.002988857786211707 0 0.033898079585632263 0.0048827059639658795 0 0.03526691494377291 0.002988857786211707 0 0.037266685001975719 0.00262650374673854 0 0.043757052552909945 0.00082931401067617148 0 0.037266685001975719 0.00262650374673854 0 0.039926839451029615 0.00028674180883045999 0 0.036885233583968814 0.0020659748064550025 0 0.036338070516370703 0.0023478079050873561 0 0.037266685001975719 0.00262650374673854 0 0.036145970194766425 0.0024449996537204014 0 0.03526691494377291 0.002988857786211707 0 0.037266685001975719 0.00262650374673854 0 0.037266685001975719 0.00262650374673854 0 0.03777365351420315 0.00058360210869828075 0 0.039926839451029615 0.00028674180883045999 0 0.036338070516370703 0.0023478079050873561 0 0.037266685001975719 0.00262650374673854 0 0.03777365351420315 0.00058360210869828075 0 0.036529108828931706 -0.0012269843649757924 0 0.03777365351420315 0.00058360210869828075 0 0.038995198834131564 -0.0016353006732538181 0 0.036529108828931706 -0.0012269843649757924 0 0.038995198834131564 -0.0016353006732538181 0 0.038552929968882481 -0.0042835891313788696 0 0.03777365351420315 0.00058360210869828075 0 0.038995198834131564 -0.0016353006732538181 0 0.039926839451029615 0.00028674180883045999 0 0.038995198834131564 -0.0016353006732538181 0 0.039926839451029615 0.00028674180883045999 0 0.042055035241335574 -0.00082373825329410376 0 0.043757052552909945 0.00082931401067617148 0 0.039926839451029615 0.00028674180883045999 0 0.042055035241335574 -0.00082373825329410376 0 0.043757052552909945 0.00082931401067617148 0 0.042055035241335574 -0.00082373825329410376 0 0.043184386126234341 -0.0027176186459098839 0 0.027576676754032442 -0.010021053275134657 0 0.027181238387233058 -0.014099512029414087 0 0.042055035241335574 -0.00082373825329410376 0 0.043184386126234341 -0.0027176186459098839 0 0.040644493237606147 -0.0031484271741141685 0 0.038995198834131564 -0.0016353006732538181 0 0.042055035241335574 -0.00082373825329410376 0 0.040644493237606147 -0.0031484271741141685 0 0.043184386126234341 -0.0027176186459098839 0 0.040644493237606147 -0.0031484271741141685 0 0.040576764210940593 -0.0061385273231392701 0 0.027181238387233058 -0.014099512029414087 0 0.02411798138998061 -0.023235681105512305 0 0.024657888489489091 -0.020838636984361392 0 0.024782235723950413 -0.019980924189215991 0 0.024181270764293376 -0.020978232439234874 0 0.023903583632279273 -0.027466794801095911 0 0.027825227146064228 -0.022820104909487052 0 0.02455319241058191 -0.022594222522326447 0 0.027181238387233058 -0.014099512029414087 0 0.031237976248640359 -0.013063857350261939 0 0.038552929968882481 -0.0042835891313788696 0 0.040576764210940593 -0.0061385273231392701 0 0.038093390905540411 -0.0070208940548225577 0 0.040644493237606147 -0.0031484271741141685 0 0.038552929968882481 -0.0042835891313788696 0 0.040576764210940593 -0.0061385273231392701 0 0.038995198834131564 -0.0016353006732538181 0 0.040644493237606147 -0.0031484271741141685 0 0.038552929968882481 -0.0042835891313788696 0 0.029321419073563081 -0.018460045861609507 0 0.027825227146064228 -0.022820104909487052 0 0.031963284249162366 -0.017940465643995155 0 0.031237976248640359 -0.013063857350261939 0 0.03323465117494729 -0.012494690947417586 0 0.040576764210940593 -0.0061385273231392701 0 0.038093390905540411 -0.0070208940548225577 0 0.038766753283540477 -0.0090446995516971808 0 0.030706159128440304 -0.017124898134056214 0 0.02761680286264661 -0.019798591592999352 0 0.028274408154374334 -0.015193222392878425 0 0.02411798138998061 -0.023235681105512305 0 0.025298366382171179 -0.021082562960710757 0 0.028886355263068219 -0.018914518836417333 0 0.02411798138998061 -0.023235681105512305 0 0.029321419073563081 -0.018460045861609507 0 0.027825227146064228 -0.022820104909487052 0 0.02455319241058191 -0.022594222522326447 0 0.02247163903594181 -0.042072873705554029 0 0.024518744242372326 -0.028994569045279639 0 0.017762942573316533 -0.035182763214986354 0 0.037167447140551514 -0.0059261659404522306 0 0.037576986772452872 -0.0059894777086698103 0 0.037332364868404674 -0.007272781691954288 0 0.037167447140551514 -0.0059261659404522306 0 0.036832716294857223 -0.0063535605743329721 0 0.037189329887031837 -0.0053251063352545199 0 0.03797430950878343 -4.9263037069034663e-05 0 0.037311119398401718 -0.001443929652553013 0 0.037201503826441024 -0.0056650548617830894 0 0.037167447140551514 -0.0059261659404522306 0 0.037189329887031837 -0.0053251063352545199 0 0.037201503826441024 -0.0056650548617830894 0 0.037167447140551514 -0.0059261659404522306 0 0.037576986772452872 -0.0059894777086698103 0 0.03797430950878343 -4.9263037069034663e-05 0 0.038328205582026334 -0.002167167190348377 0 0.036529108828931706 -0.0012269843649757924 0 0.038552929968882481 -0.0042835891313788696 0 0.035246104820083793 -0.0042409701473892468 0 0.038328205582026334 -0.002167167190348377 0 0.038595905720385924 -0.0030143711937466104 0 0.038552929968882481 -0.0042835891313788696 0 0.035246104820083793 -0.0042409701473892468 0 0.038093390905540411 -0.0070208940548225577 0 0.037576986772452872 -0.0059894777086698103 0 0.037332364868404674 -0.007272781691954288 0 0.038093390905540411 -0.0070208940548225577 0 0.038093390905540411 -0.0070208940548225577 0 0.037543862203867601 -0.008754244161626153 0 0.038766753283540477 -0.0090446995516971808 0 0.037332364868404674 -0.007272781691954288 0 0.037543862203867601 -0.008754244161626153 0 0.036761955355415335 -0.0092840227707144847 0 0.037332364868404674 -0.007272781691954288 0 0.038093390905540411 -0.0070208940548225577 0 0.037543862203867601 -0.008754244161626153 0 0.036707488049234717 -0.0077318060368475406 0 0.035796259189660444 -0.011207062260393792 0 0.035949783150741307 -0.0066665269637886009 0 0.037332364868404674 -0.007272781691954288 0 0.036707488049234717 -0.0077318060368475406 0 0.036761955355415335 -0.0092840227707144847 0 0.037167447140551514 -0.0059261659404522306 0 0.037332364868404674 -0.007272781691954288 0 0.036707488049234717 -0.0077318060368475406 0 0.036832716294857223 -0.0063535605743329721 0 0.036707488049234717 -0.0077318060368475406 0 0.035949783150741307 -0.0066665269637886009 0 0.037167447140551514 -0.0059261659404522306 0 0.036832716294857223 -0.0063535605743329721 0 0.036707488049234717 -0.0077318060368475406 0 0.035796259189660444 -0.011207062260393792 0 0.036761955355415335 -0.0092840227707144847 0 0.03589552567128864 -0.011951890588362187 0 0.036707488049234717 -0.0077318060368475406 0 0.035796259189660444 -0.011207062260393792 0 0.036761955355415335 -0.0092840227707144847 0 0.034061988545942889 -0.012598457002414871 0 0.03176973684707033 -0.015828481872914187 0 0.038322808055907397 -0.011672763638660898 0 0.040546027357115412 -0.016728424823656496 0 0.036303045708060949 -0.016135381125370225 0 0.035796259189660444 -0.011207062260393792 0 0.03589552567128864 -0.011951890588362187 0 0.0359274424915881 -0.010119960216873317 0 0.033741222795467748 -0.011802827843597924 0 0.03589552567128864 -0.011951890588362187 0 0.0359274424915881 -0.010119960216873317 0 0.033741222795467748 -0.011802827843597924 0 0.03589552567128864 -0.011951890588362187 0 0.034220275620846542 -0.013573176350049941 0 0.033741222795467748 -0.011802827843597924 0 0.034220275620846542 -0.013573176350049941 0 0.032404950022372606 -0.013155974464173213 0 0.03589552567128864 -0.011951890588362187 0 0.034220275620846542 -0.013573176350049941 0 0.031963284249162366 -0.017940465643995155 0 0.037543862203867601 -0.008754244161626153 0 0.036761955355415335 -0.0092840227707144847 0 0.03589552567128864 -0.011951890588362187 0 0.033954148151749533 -0.012121788060812797 0 0.03323465117494729 -0.012494690947417586 0 0.037543862203867601 -0.008754244161626153 0 0.03589552567128864 -0.011951890588362187 0 0.038766753283540477 -0.0090446995516971808 0 0.028886355263068219 -0.018914518836417333 0 0.030990601591499318 -0.017001017784374177 0 0.030706159128440304 -0.017124898134056214 0 0.034220275620846542 -0.013573176350049941 0 0.031123936388430636 -0.014324658297603829 0 0.029321419073563081 -0.018460045861609507 0 0.034220275620846542 -0.013573176350049941 0 0.031963284249162366 -0.017940465643995155 0 0.030706159128440304 -0.017124898134056214 0 0.031123936388430636 -0.014324658297603829 0 0.028274408154374334 -0.015193222392878425 0 0.028274408154374334 -0.015193222392878425 0 0.030534392966347201 -0.012811319080358735 0 0.027697263169843674 -0.012484242629957657 0 0.025298366382171179 -0.021082562960710757 0 0.026022886915386876 -0.017557687221034401 0 0.024518744242372326 -0.028994569045279639 0 0.027697263169843674 -0.012484242629957657 0 0.01622985002726824 -0.018915148736607986 0 0.031123936388430636 -0.014324658297603829 0 0.028274408154374334 -0.015193222392878425 0 0.030534392966347201 -0.012811319080358735 0 0.031123936388430636 -0.014324658297603829 0 0.032404950022372606 -0.013155974464173213 0 0.030534392966347201 -0.012811319080358735 0 0.034220275620846542 -0.013573176350049941 0 0.031123936388430636 -0.014324658297603829 0 0.032404950022372606 -0.013155974464173213 0 0.033741222795467748 -0.011802827843597924 0 0.030534392966347201 -0.012811319080358735 0 0.032586881506063183 -0.010404915111658688 0 0.033741222795467748 -0.011802827843597924 0 0.032404950022372606 -0.013155974464173213 0 0.030534392966347201 -0.012811319080358735 0 0.032586881506063183 -0.010404915111658688 0 0.030228303196634575 -0.010823685230930611 0 0.03102978716770996 -0.0084628595647625784 0 0.030534392966347201 -0.012811319080358735 0 0.032586881506063183 -0.010404915111658688 0 0.030228303196634575 -0.010823685230930611 0 0.030534392966347201 -0.012811319080358735 0 0.030228303196634575 -0.010823685230930611 0 0.027697263169843674 -0.012484242629957657 0 0.030228303196634575 -0.010823685230930611 0 0.02882150447320235 -0.0093277157029841903 0 0.027697263169843674 -0.012484242629957657 0 0.02882150447320235 -0.0093277157029841903 0 0.029085117991380305 -0.0074495659457261753 0 0.03102978716770996 -0.0084628595647625784 0 0.030228303196634575 -0.010823685230930611 0 0.02882150447320235 -0.0093277157029841903 0 0.03102978716770996 -0.0084628595647625784 0 0.032586881506063183 -0.010404915111658688 0 0.03102978716770996 -0.0084628595647625784 0 0.033163530016850282 -0.0081568354277041909 0 0.03102978716770996 -0.0084628595647625784 0 0.03144931296430626 -0.0065872221030276118 0 0.033163530016850282 -0.0081568354277041909 0 0.023997021265042839 -0.010552185646581525 0 0.022386759344670871 -0.0065804830848797168 0 0.01622985002726824 -0.018915148736607986 0 0.023997021265042839 -0.010552185646581525 0 0.027697263169843674 -0.012484242629957657 0 0.01622985002726824 -0.018915148736607986 0 0.023997021265042839 -0.010552185646581525 0 0.027697263169843674 -0.012484242629957657 0 0.026618946635996548 -0.0091384710667191862 0 0.02882150447320235 -0.0093277157029841903 0 0.027697263169843674 -0.012484242629957657 0 0.026618946635996548 -0.0091384710667191862 0 0.02882150447320235 -0.0093277157029841903 0 0.027721373614369469 -0.0074687110802809835 0 0.026618946635996548 -0.0091384710667191862 0 0.02882150447320235 -0.0093277157029841903 0 0.029085117991380305 -0.0074495659457261753 0 0.027721373614369469 -0.0074687110802809835 0 0.027721373614369469 -0.0074687110802809835 0 0.026618946635996548 -0.0091384710667191862 0 0.025156902833239927 -0.0066319297102481354 0 0.023997021265042839 -0.010552185646581525 0 0.026618946635996548 -0.0091384710667191862 0 0.025156902833239927 -0.0066319297102481354 0 0.023997021265042839 -0.010552185646581525 0 0.025156902833239927 -0.0066319297102481354 0 0.022386759344670871 -0.0065804830848797168 0 0.018717710917179501 -0.013953327331798999 0 0.017189058096641941 -0.018314598796449297 0 0.025156902833239927 -0.0066319297102481354 0 0.022386759344670871 -0.0065804830848797168 0 0.026725118664386229 0.0031793498638432111 0 0.017285903088356341 -0.013004623576906047 0 0.015753127391242138 -0.0087613375822894711 0 0.019311106214040814 -0.0069937521116980516 0 0.025156902833239927 -0.0066319297102481354 0 0.030650840339515942 -0.0029526675568046419 0 0.026725118664386229 0.0031793498638432111 0 0.022500642099345176 -0.014331314094145878 0 0.02101745974926221 -0.0156739496444319 0 0.027721373614369469 -0.0074687110802809835 0 0.025156902833239927 -0.0066319297102481354 0 0.029448634698188394 -0.005601162950883103 0 0.02101745974926221 -0.0156739496444319 0 0.017189058096641941 -0.018314598796449297 0 0.012884391722206408 -0.028983939752247844 0 0.012614190055060202 -0.029185612078232313 0 0.012804978483353106 -0.029250198401267653 0 0.03144931296430626 -0.0065872221030276118 0 0.02944312208986536 -0.0060002420588862772 0 0.033546286571209991 -0.0035760249613703329 0 0.03144931296430626 -0.0065872221030276118 0 0.033163530016850282 -0.0081568354277041909 0 0.033546286571209991 -0.0035760249613703329 0 0.02101745974926221 -0.0156739496444319 0 0.025260120335648149 -0.021581253316651259 0 0.029085117991380305 -0.0074495659457261753 0 0.03102978716770996 -0.0084628595647625784 0 0.029803003350081413 -0.0064314932908295045 0 0.03144931296430626 -0.0065872221030276118 0 0.029803003350081413 -0.0064314932908295045 0 0.02944312208986536 -0.0060002420588862772 0 0.03102978716770996 -0.0084628595647625784 0 0.03144931296430626 -0.0065872221030276118 0 0.029803003350081413 -0.0064314932908295045 0 0.029085117991380305 -0.0074495659457261753 0 0.027721373614369469 -0.0074687110802809835 0 0.029448634698188394 -0.005601162950883103 0 0.029085117991380305 -0.0074495659457261753 0 0.029803003350081413 -0.0064314932908295045 0 0.029448634698188394 -0.005601162950883103 0 0.021024332749692468 -0.015616982864207153 0 0.02101745974926221 -0.0156739496444319 0 0.012884391722206408 -0.028983939752247844 0 0.012804978483353106 -0.029250198401267653 0 0.012990569210409284 -0.029184205555201074 0 0.038631014061423399 -0.020210119342091784 0 0.040546027357115412 -0.016728424823656496 0 0.042793813467509462 -0.021720063246177358 0 0.03176973684707033 -0.015828481872914187 0 0.025260120335648149 -0.021581253316651259 0 0.0359274424915881 -0.010119960216873317 0 0.033163530016850282 -0.0081568354277041909 0 0.033546286571209991 -0.0035760249613703329 0 0.038631014061423399 -0.020210119342091784 0 0.040546027357115412 -0.016728424823656496 0 0.036303045708060949 -0.016135381125370225 0 0.033741222795467748 -0.011802827843597924 0 0.032586881506063183 -0.010404915111658688 0 0.0359274424915881 -0.010119960216873317 0 0.032586881506063183 -0.010404915111658688 0 0.0359274424915881 -0.010119960216873317 0 0.033163530016850282 -0.0081568354277041909 0 -0.00086867102483293638 -0.015958752865161779 0 0.0040169294852539063 -0.0099809648720412952 0 0.0046809187847652476 -0.017404853948917907 0 -0.00010338891446743619 -0.022476978437740484 0 -0.0063747842552590184 -0.026405831909296566 0 -0.010560852791212459 -0.015956005018795502 0 -0.0049737377752462264 -0.0091614373168104248 0 -0.010560852791212459 -0.015956005018795502 0 -0.0083446215868115039 -0.0013637133591358076 0 -0.00010338891446743619 -0.022476978437740484 0 -0.0049737377752462264 -0.0091614373168104248 0 -0.010560852791212459 -0.015956005018795502 0 -0.00069872851707833471 -0.020394744025353986 0 -0.0025375540122992125 -0.01591195588486791 0 -0.00086867102483293638 -0.015958752865161779 0 -0.0049737377752462264 -0.0091614373168104248 0 0.0040169294852539063 -0.0099809648720412952 0 0.0040169294852539063 -0.0099809648720412952 0 0.0095854718784427785 -0.013455751082445002 0 0.012200349366301802 -0.0068344432515397976 0 0.014109386798194123 -0.01157156511842255 0 0.0095854718784427785 -0.013455751082445002 0 0.012200349366301802 -0.0068344432515397976 0 0.015753127391242138 -0.0087613375822894711 0 0.014109386798194123 -0.01157156511842255 0 0.012200349366301802 -0.0068344432515397976 0 0.017285903088356341 -0.013004623576906047 0 0.015753127391242138 -0.0087613375822894711 0 0.014109386798194123 -0.01157156511842255 0 0.018717710917179501 -0.013953327331798999 0 0.018142495481985658 -0.015171056849490553 0 0.01418091938295999 -0.015232948532682321 0 0.0095854718784427785 -0.013455751082445002 0 0.0095221371449467889 -0.019860346605510407 0 0.017285903088356341 -0.013004623576906047 0 0.01418091938295999 -0.015232948532682321 0 0.01622985002726824 -0.018915148736607986 0 0.017285903088356341 -0.013004623576906047 0 0.014109386798194123 -0.01157156511842255 0 0.01418091938295999 -0.015232948532682321 0 0.014109386798194123 -0.01157156511842255 0 0.01418091938295999 -0.015232948532682321 0 0.0095854718784427785 -0.013455751082445002 0 0.0040169294852539063 -0.0099809648720412952 0 0.0046809187847652476 -0.017404853948917907 0 0.0095854718784427785 -0.013455751082445002 0 0.0046809187847652476 -0.017404853948917907 0 0.0095854718784427785 -0.013455751082445002 0 0.0095221371449467889 -0.019860346605510407 0 0.0046809187847652476 -0.017404853948917907 0 0.0095221371449467889 -0.019860346605510407 0 0.0019860759076311021 -0.024285549241921358 0 0.0095221371449467889 -0.019860346605510407 0 0.012262030489542906 -0.028824176658395855 0 0.0019860759076311021 -0.024285549241921358 0 0.0095221371449467889 -0.019860346605510407 0 0.01622985002726824 -0.018915148736607986 0 0.012262030489542906 -0.028824176658395855 0 0.01418091938295999 -0.015232948532682321 0 0.0095221371449467889 -0.019860346605510407 0 0.01622985002726824 -0.018915148736607986 0 0.024518744242372326 -0.028994569045279639 0 0.01622985002726824 -0.018915148736607986 0 0.012262030489542906 -0.028824176658395855 0 0.024518744242372326 -0.028994569045279639 0 0.012262030489542906 -0.028824176658395855 0 0.017762942573316533 -0.035182763214986354 0 0.012262030489542906 -0.028824176658395855 0 0.0019860759076311021 -0.024285549241921358 0 0.0056401207320912793 -0.034937643873275075 0 -0.0006857301650986566 -0.037297061829375429 0 0.00082605602528168672 -0.04072828256571364 0 0.0055724819416285388 -0.040573862931129495 0 0.0024686465069657742 -0.028433363784564611 0 0.0055555412931129998 -0.036158150008242643 0 -0.0006857301650986566 -0.037297061829375429 0 0.0027753689788211416 -0.033178056786219781 0 -0.0043826512169973216 -0.033055209892009232 0 -0.0006857301650986566 -0.037297061829375429 0 0.0027753689788211416 -0.033178056786219781 0 0.0055724819416285388 -0.040573862931129495 0 -0.0006857301650986566 -0.037297061829375429 0 -0.0021015331034308147 -0.039327932566308822 0 0.00082605602528168672 -0.04072828256571364 0 -0.00010338891446743619 -0.022476978437740484 0 0.0027753689788211416 -0.033178056786219781 0 -0.0043826512169973216 -0.033055209892009232 0 -0.00069872851707833471 -0.020394744025353986 0 0.0024686465069657742 -0.028433363784564611 0 -0.00086867102483293638 -0.015958752865161779 0 0.0046809187847652476 -0.017404853948917907 0 0.0019860759076311021 -0.024285549241921358 0 -0.00010338891446743619 -0.022476978437740484 0 -0.0063747842552590184 -0.026405831909296566 0 -0.0043826512169973216 -0.033055209892009232 0 -0.0063747842552590184 -0.026405831909296566 0 -0.0043826512169973216 -0.033055209892009232 0 -0.011205480111385243 -0.033235954767368174 0 -0.0043826512169973216 -0.033055209892009232 0 -0.0078615663747737766 -0.036813753843595393 0 -0.011205480111385243 -0.033235954767368174 0 -0.0043826512169973216 -0.033055209892009232 0 -0.0078615663747737766 -0.036813753843595393 0 -0.0042488483390248416 -0.037904861775904318 0 -0.0006857301650986566 -0.037297061829375429 0 -0.0043826512169973216 -0.033055209892009232 0 -0.0042488483390248416 -0.037904861775904318 0 -0.0042488483390248416 -0.037904861775904318 0 -0.0021015331034308147 -0.039327932566308822 0 -0.0044313581334405562 -0.04131505636567092 0 -0.0006857301650986566 -0.037297061829375429 0 -0.0042488483390248416 -0.037904861775904318 0 -0.0021015331034308147 -0.039327932566308822 0 -0.0078615663747737766 -0.036813753843595393 0 -0.0042488483390248416 -0.037904861775904318 0 -0.0044313581334405562 -0.04131505636567092 0 -0.0018480174504868787 -0.041373747759030972 0 0.002219014141487521 -0.043733122137618506 0 -0.00018969231245962443 -0.044034554164686636 0 -0.0032941234943225112 -0.041997640511150049 0 -0.0015307486282884143 -0.041096248279155229 0 0.0042050022048692381 -0.0438346428991533 0 -0.0018480174504868787 -0.041373747759030972 0 -0.0019741440337269554 -0.043206896137248249 0 -0.00018969231245962443 -0.044034554164686636 0 -0.0029386454365168159 -0.041605244178858532 0 0.00027933877035903374 -0.04267476078672125 0 -0.0018480174504868787 -0.041373747759030972 0 0.0042050022048692381 -0.0438346428991533 0 0.002219014141487521 -0.043733122137618506 0 -0.0044313581334405562 -0.04131505636567092 0 0.00082605602528168672 -0.04072828256571364 0 0.0047799857484607444 -0.043546289363599854 0 -0.0021015331034308147 -0.039327932566308822 0 -0.0044313581334405562 -0.04131505636567092 0 0.00082605602528168672 -0.04072828256571364 0 -0.0015307486282884143 -0.041096248279155229 0 0.0042050022048692381 -0.0438346428991533 0 0.0047799857484607444 -0.043546289363599854 0 -0.0036134801138968018 -0.040694710782434425 0 -0.00042664724098991341 -0.04210898432720353 0 0.00082605602528168672 -0.04072828256571364 0 0.0055724819416285388 -0.040573862931129495 0 0.0047799857484607444 -0.043546289363599854 0 0.002219014141487521 -0.043733122137618506 0 0.0014247159434741506 -0.04734954887610817 0 -0.00018969231245962443 -0.044034554164686636 0 0.002219014141487521 -0.043733122137618506 0 0.0033461881725362292 -0.045572330926653977 0 0.0014247159434741506 -0.04734954887610817 0 0.0042050022048692381 -0.0438346428991533 0 0.002219014141487521 -0.043733122137618506 0 0.0035241457951611871 -0.044438158740628869 0 0.0043324543898743606 -0.044680475707221036 0 0.0033461881725362292 -0.045572330926653977 0 0.0055217409762699961 -0.045506451263841806 0 0.0042050022048692381 -0.0438346428991533 0 0.0043324543898743606 -0.044680475707221036 0 0.0054805933110398681 -0.044634473972534588 0 0.0042050022048692381 -0.0438346428991533 0 0.0043324543898743606 -0.044680475707221036 0 0.0035241457951611871 -0.044438158740628869 0 0.002219014141487521 -0.043733122137618506 0 0.0035241457951611871 -0.044438158740628869 0 0.0033461881725362292 -0.045572330926653977 0 0.0043324543898743606 -0.044680475707221036 0 0.0035241457951611871 -0.044438158740628869 0 0.0033461881725362292 -0.045572330926653977 0 0.0033461881725362292 -0.045572330926653977 0 0.0055217409762699961 -0.045506451263841806 0 0.0051857514205365836 -0.047237846840337189 0 0.0033461881725362292 -0.045572330926653977 0 0.0014247159434741506 -0.04734954887610817 0 0.0051857514205365836 -0.047237846840337189 0 0.0014247159434741506 -0.04734954887610817 0 -0.00018969231245962443 -0.044034554164686636 0 -0.0029994720014401852 -0.044660299692963014 0 -0.00090539458482284836 -0.043959809360879766 0 -0.0016421939104222997 -0.044222353874836286 0 -0.0025443921657972678 -0.043108741018454223 0 0.006460636065765646 -0.032866750942952196 0 0.0011987054799704655 -0.036486337696498651 0 -0.0019741440337269554 -0.043206896137248249 0 -0.00018969231245962443 -0.044034554164686636 0 -0.0029994720014401852 -0.044660299692963014 0 0.012262030489542906 -0.028824176658395855 0 0.011693642472368416 -0.040659942376733121 0 0.017762942573316533 -0.035182763214986354 0 0.014549018376444801 -0.033722466763915097 0 0.01498024881607756 -0.03488225392572402 0 0.02247163903594181 -0.042072873705554029 0 0.011693642472368416 -0.040659942376733121 0 0.017762942573316533 -0.035182763214986354 0 0.0055724819416285388 -0.040573862931129495 0 0.0047799857484607444 -0.043546289363599854 0 0.0092761471858872485 -0.045385082581723808 0 0.01105568830138701 -0.039462960028922661 0 0.0056401207320912793 -0.034937643873275075 0 0.0092761471858872485 -0.045385082581723808 0 0.0055555412931129998 -0.036158150008242643 0 0.0071910324778110147 -0.040072892512791808 0 0.012262030489542906 -0.028824176658395855 0 0.01105568830138701 -0.039462960028922661 0 0.0056401207320912793 -0.034937643873275075 0 0.01105568830138701 -0.039462960028922661 0 0.0092761471858872485 -0.045385082581723808 0 0.0095620324731041234 -0.04936779741918567 0 0.0054805933110398681 -0.044634473972534588 0 0.0055217409762699961 -0.045506451263841806 0 0.0092761471858872485 -0.045385082581723808 0 0.0047799857484607444 -0.043546289363599854 0 0.0054805933110398681 -0.044634473972534588 0 0.0092761471858872485 -0.045385082581723808 0 0.0042050022048692381 -0.0438346428991533 0 0.0047799857484607444 -0.043546289363599854 0 0.0054805933110398681 -0.044634473972534588 0 0.0043324543898743606 -0.044680475707221036 0 0.0054805933110398681 -0.044634473972534588 0 0.0055217409762699961 -0.045506451263841806 0 0.0055217409762699961 -0.045506451263841806 0 0.0051857514205365836 -0.047237846840337189 0 0.0071074339527911713 -0.046864516231795758 0 0.0051857514205365836 -0.047237846840337189 0 0.0071074339527911713 -0.046864516231795758 0 0.0072183491539909352 -0.048515246091305052 0 0.0055217409762699961 -0.045506451263841806 0 0.0071074339527911713 -0.046864516231795758 0 0.0092761471858872485 -0.045385082581723808 0 0.0071074339527911713 -0.046864516231795758 0 0.0092761471858872485 -0.045385082581723808 0 0.0095620324731041234 -0.04936779741918567 0 0.0071074339527911713 -0.046864516231795758 0 0.0095620324731041234 -0.04936779741918567 0 0.0072183491539909352 -0.048515246091305052 0 0.024782235723950413 -0.019980924189215991 0 0.024181270764293376 -0.020978232439234874 0 0.023691156317847524 -0.020892025200431066 0 0.02247163903594181 -0.042072873705554029 0 0.011693642472368416 -0.040659942376733121 0 0.010890305674126398 -0.051988434627547986 0 0.01498024881607756 -0.03488225392572402 0 0.017376765657889752 -0.026384745928350398 0 0.02411798138998061 -0.023235681105512305 0 0.017376765657889752 -0.026384745928350398 0 0.028641988283497278 -0.012647380391459507 0 0.028535883954442114 -0.013478648921864022 0 0.029074633394348529 -0.012816873647735681 0 0.027576676754032442 -0.010021053275134657 0 0.025040425843778455 -0.013663847347763153 0 0.027181238387233058 -0.014099512029414087 0 0.025040425843778455 -0.013663847347763153 0 0.024657888489489091 -0.020838636984361392 0 0.024130496817643874 -0.021460114160394596 0 0.024181270764293376 -0.020978232439234874 0 0.024181270764293376 -0.020978232439234874 0 0.023660770574585144 -0.021284051424385195 0 0.023691156317847524 -0.020892025200431066 0 0.024130496817643874 -0.021460114160394596 0 0.024181270764293376 -0.020978232439234874 0 0.023660770574585144 -0.021284051424385195 0 0.025040425843778455 -0.013663847347763153 0 0.019402537843854116 -0.019667255281987928 0 0.016144552029140707 -0.024141826349081213 0 0.0071746180410785804 -0.020849588879947593 0 0.027083927301182011 -0.00086607697056359924 0 0.027319280808359235 -0.00095652088929268375 0 0.027348671903698284 -0.00054346577926091689 0 0.019402537843854116 -0.019667255281987928 0 0.016144552029140707 -0.024141826349081213 0 0.023187835277296752 -0.02494412060134809 0 0.023457135968268102 -0.021218567227298674 0 0.020395089767197588 -0.023863881695608612 0 0.019402537843854116 -0.019667255281987928 0 0.017376765657889752 -0.026384745928350398 0 0.0095620324731041234 -0.04936779741918567 0 0.0072183491539909352 -0.048515246091305052 0 0.0072722128209988688 -0.05058746800135 0 0.017376765657889752 -0.026384745928350398 0 0.016144552029140707 -0.024141826349081213 0 0.0051857514205365836 -0.047237846840337189 0 0.0072183491539909352 -0.048515246091305052 0 0.0072722128209988688 -0.05058746800135 0 0.027319280808359235 -0.00095652088929268375 0 0.027348671903698284 -0.00054346577926091689 0 0.027894133686711044 -0.00036372989702117958 0 0.027197796548867559 -0.00019503109001857419 0 0.027348671903698284 -0.00054346577926091689 0 0.027894133686711044 -0.00036372989702117958 0 0.019402537843854116 -0.019667255281987928 0 0.02528390309100333 -0.0072144466718826357 0 0.027083927301182011 -0.00086607697056359924 0 0.027197796548867559 -0.00019503109001857419 0 0.027348671903698284 -0.00054346577926091689 0 0.028566887448924442 -0.0055717302598361339 0 0.027576676754032442 -0.010021053275134657 0 0.033516951307013383 0.0028408534453043138 0 0.033755286967739682 0.0049686778623302267 0 0.032758808598768119 0.0041056044749301634 0 0.019098095221486588 -0.01458602032957574 0 0.020053520939901655 -0.014959842101415634 0 0.02017867300757438 -0.013258768186641939 0 0.033516951307013383 0.0028408534453043138 0 0.031193984128136381 0.0037216715855335754 0 0.032758808598768119 0.0041056044749301634 0 0.032633505183288239 0.0054025729050589163 0 0.031193984128136381 0.0037216715855335754 0 0.032758808598768119 0.0041056044749301634 0 0.025040425843778455 -0.013663847347763153 0 0.02528390309100333 -0.0072144466718826357 0 0.033755286967739682 0.0049686778623302267 0 0.032633505183288239 0.0054025729050589163 0 0.032758808598768119 0.0041056044749301634 0 -0.0010918126300748473 -0.044295367318328623 0 -0.0013560605705174634 -0.044621141980114964 0 -0.0016421939104222997 -0.044222353874836286 0 -0.0013560605705174634 -0.044621141980114964 0 -0.0016421939104222997 -0.044222353874836286 0 -0.0032483698676426249 -0.044668056733518598 0 -0.00090539458482284836 -0.043959809360879766 0 -0.0010918126300748473 -0.044295367318328623 0 -0.0016421939104222997 -0.044222353874836286 0 0.0014247159434741506 -0.04734954887610817 0 0.0051857514205365836 -0.047237846840337189 0 0.0072722128209988688 -0.05058746800135 0 -0.00094075809591499685 -0.044091001239527715 0 -0.00096860807197667585 -0.04409826053609938 0 -0.0010527378586548445 -0.043915894091329587 0 0.006460636065765646 -0.032866750942952196 0 0.016144552029140707 -0.024141826349081213 0 -0.00090539458482284836 -0.043959809360879766 0 -0.00094075809591499685 -0.044091001239527715 0 -0.00096860807197667585 -0.04409826053609938 0 -0.00090539458482284836 -0.043959809360879766 0 -0.0010918126300748473 -0.044295367318328623 0 -0.00096860807197667585 -0.04409826053609938 0 -0.0010918126300748473 -0.044295367318328623 0 -0.00096860807197667585 -0.04409826053609938 0 -0.0010527378586548445 -0.043915894091329587 0 0.028121498070067839 0.00025351710605714476 0 0.027197796548867559 -0.00019503109001857419 0 0.027894133686711044 -0.00036372989702117958 0 -0.0010918126300748473 -0.044295367318328623 0 -0.0010527378586548445 -0.043915894091329587 0 -0.00094942095201718739 -0.044005459486786976 0 -0.0094822354553803778 -0.021434458478502671 0 0.0071746180410785804 -0.020849588879947593 0 -0.00048852742960365408 -0.042906174729413438 0 -0.0010527378586548445 -0.043915894091329587 0 -0.00094942095201718739 -0.044005459486786976 0 -0.0010918126300748473 -0.044295367318328623 0 -0.0013560605705174634 -0.044621141980114964 0 -0.00094942095201718739 -0.044005459486786976 0 -0.012392817671919973 -0.034756407699547034 0 -0.012631848398258269 -0.033853344240463719 0 -0.0013560605705174634 -0.044621141980114964 0 -0.00094942095201718739 -0.044005459486786976 0 -0.00048960417652438727 -0.043902475287319095 0 -0.00048852742960365408 -0.042906174729413438 0 -0.00094942095201718739 -0.044005459486786976 0 -0.00048960417652438727 -0.043902475287319095 0 -0.0094822354553803778 -0.021434458478502671 0 -0.012631848398258269 -0.033853344240463719 0 -0.0038097773547593463 -0.052588917975268948 0 -0.0018548232991555482 -0.048434335401925627 0 -0.0048750731964459304 -0.047808659012438186 0 -0.0013560605705174634 -0.044621141980114964 0 -0.0015659403177181752 -0.045221805862974182 0 -0.0032483698676426249 -0.044668056733518598 0 -0.012631848398258269 -0.033853344240463719 0 -0.0091164733568876444 -0.040065269157840297 0 -0.0018548232991555482 -0.048434335401925627 0 -0.0032483698676426249 -0.044668056733518598 0 -0.0048750731964459304 -0.047808659012438186 0 -0.0032483698676426249 -0.044668056733518598 0 -0.006892593227901176 -0.045388576870199954 0 -0.0047466921058271477 -0.043846510265887574 0 -0.0032483698676426249 -0.044668056733518598 0 -0.006892593227901176 -0.045388576870199954 0 -0.0048750731964459304 -0.047808659012438186 0 -0.006892593227901176 -0.045388576870199954 0 -0.0074158403827341316 -0.049547820023607483 0 -0.0048750731964459304 -0.047808659012438186 0 -0.080623317810371367 -0.053956568437858822 0 -0.075132867424401145 -0.053832022495383269 0 -0.075528811433721546 -0.058765646151772835 0 -0.036913831933562548 -0.04313688803792641 0 -0.040217405600479296 -0.049225957289002809 0 -0.075132867424401145 -0.053832022495383269 0 -0.075528811433721546 -0.058765646151772835 0 -0.070824320596697535 -0.058618148214384408 0 -0.040217405600479296 -0.049225957289002809 0 -0.041705067900837368 -0.052848384743994253 0 -0.006892593227901176 -0.045388576870199954 0 -0.0074158403827341316 -0.049547820023607483 0 -0.010880158749533951 -0.046749366462496403 0 -0.006892593227901176 -0.045388576870199954 0 -0.010880158749533951 -0.046749366462496403 0 -0.010068093623260992 -0.043834425909299354 0 -0.006892593227901176 -0.045388576870199954 0 -0.010068093623260992 -0.043834425909299354 0 -0.0064325822375658464 -0.042274231842807097 0 -0.010880158749533951 -0.046749366462496403 0 -0.010068093623260992 -0.043834425909299354 0 -0.014215613041910968 -0.044178041691981723 0 -0.010068093623260992 -0.043834425909299354 0 -0.011772720297026397 -0.041611324683079765 0 -0.014215613041910968 -0.044178041691981723 0 -0.011772720297026397 -0.041611324683079765 0 -0.009212529021788575 -0.041169339068454158 0 -0.010883388912304398 -0.038390234947638199 0 -0.010068093623260992 -0.043834425909299354 0 -0.011772720297026397 -0.041611324683079765 0 -0.009212529021788575 -0.041169339068454158 0 -0.010068093623260992 -0.043834425909299354 0 -0.009212529021788575 -0.041169339068454158 0 -0.0064325822375658464 -0.042274231842807097 0 -0.0064325822375658464 -0.042274231842807097 0 -0.0045510916416942708 -0.04151577201409086 0 -0.0064878256741491593 -0.039667488253269899 0 -0.009212529021788575 -0.041169339068454158 0 -0.0064325822375658464 -0.042274231842807097 0 -0.0064878256741491593 -0.039667488253269899 0 -0.0064325822375658464 -0.042274231842807097 0 -0.0045510916416942708 -0.04151577201409086 0 -0.0033659128884480981 -0.042637352239602702 0 -0.0032941234943225112 -0.041997640511150049 0 -0.0015307486282884143 -0.041096248279155229 0 -0.0073809945001523086 -0.038751166513298782 0 -0.0018480174504868787 -0.041373747759030972 0 -0.0045510916416942708 -0.04151577201409086 0 -0.0064878256741491593 -0.039667488253269899 0 -0.0029386454365168159 -0.041605244178858532 0 -0.0079551001829542001 -0.039958596913462964 0 -0.0018480174504868787 -0.041373747759030972 0 -0.0019741440337269554 -0.043206896137248249 0 -0.0033659128884480981 -0.042637352239602702 0 -0.0018480174504868787 -0.041373747759030972 0 -0.0045510916416942708 -0.04151577201409086 0 -0.0033659128884480981 -0.042637352239602702 0 -0.00097271996233650696 -0.037260109038292771 0 0.0011987054799704655 -0.036486337696498651 0 -0.0064325822375658464 -0.042274231842807097 0 -0.0025443921657972678 -0.043108741018454223 0 -0.0047466921058271477 -0.043846510265887574 0 -0.0064325822375658464 -0.042274231842807097 0 -0.0033659128884480981 -0.042637352239602702 0 -0.0029994720014401852 -0.044660299692963014 0 -0.0019741440337269554 -0.043206896137248249 0 -0.0033659128884480981 -0.042637352239602702 0 -0.0029994720014401852 -0.044660299692963014 0 -0.0016421939104222997 -0.044222353874836286 0 -0.0032483698676426249 -0.044668056733518598 0 -0.0025443921657972678 -0.043108741018454223 0 -0.0032483698676426249 -0.044668056733518598 0 -0.0025443921657972678 -0.043108741018454223 0 -0.0047466921058271477 -0.043846510265887574 0 -0.006892593227901176 -0.045388576870199954 0 -0.0064325822375658464 -0.042274231842807097 0 -0.0047466921058271477 -0.043846510265887574 0 -0.054443469859778638 0.03153974241494157 0 -0.052690685167931961 0.026690900464936648 0 -0.047118990690983117 0.025643837557969128 0 -0.054329345251364049 0.03525887941266645 0 -0.056948679509542591 0.035037408998237589 0 -0.053047928424088002 0.033711576525675947 0 -0.056948679509542591 0.035037408998237589 0 -0.053047928424088002 0.033711576525675947 0 -0.052977414726394723 0.031942696983001721 0 -0.056641855359820935 0.030844377424620602 0 -0.053297638275372136 0.025419166760852645 0 -0.054329345251364049 0.03525887941266645 0 -0.05577444747806598 0.036984174234649739 0 -0.056948679509542591 0.035037408998237589 0 -0.054329345251364049 0.03525887941266645 0 -0.053964789173701067 0.036305744056710457 0 -0.05577444747806598 0.036984174234649739 0 -0.053964789173701067 0.036305744056710457 0 -0.053784707727241941 0.03844849603675736 0 -0.05577444747806598 0.036984174234649739 0 -0.056289032820511828 0.039272817225703013 0 -0.053784707727241941 0.03844849603675736 0 -0.05577444747806598 0.036984174234649739 0 -0.05577444747806598 0.036984174234649739 0 -0.057679404960263969 0.037371717502964821 0 -0.056948679509542591 0.035037408998237589 0 -0.057679404960263969 0.037371717502964821 0 -0.056948679509542591 0.035037408998237589 0 -0.060238204666845305 0.036867894147119391 0 -0.056289032820511828 0.039272817225703013 0 -0.05577444747806598 0.036984174234649739 0 -0.057679404960263969 0.037371717502964821 0 -0.066548296837276186 -0.058565929501415148 0 -0.066666842266907736 -0.063287584537145031 0 -0.062820945154209912 -0.063398253763277637 0 -0.054443469859778638 0.03153974241494157 0 -0.058155824998993147 0.033031127400992039 0 -0.052690685167931961 0.026690900464936648 0 -0.061267366730523624 -0.01199718566096585 0 -0.057748556608181796 -0.018153495282064162 0 -0.070824320596697535 -0.058618148214384408 0 -0.070785663180024952 -0.063400645173354392 0 -0.066666842266907736 -0.063287584537145031 0 -0.066548296837276186 -0.058565929501415148 0 -0.070824320596697535 -0.058618148214384408 0 -0.066666842266907736 -0.063287584537145031 0 -0.056641855359820935 0.030844377424620602 0 -0.058896726500463653 0.033326966637666683 0 -0.059070667335879852 0.038598515479426165 0 -0.057679404960263969 0.037371717502964821 0 -0.060238204666845305 0.036867894147119391 0 -0.063783460748635709 -0.0056647520664868832 0 -0.061267366730523624 -0.01199718566096585 0 -0.062429181142146642 0.038332958325476896 0 -0.058155824998993147 0.033031127400992039 0 -0.060238204666845305 0.036867894147119391 0 -0.054443469859778638 0.03153974241494157 0 -0.058155824998993147 0.033031127400992039 0 -0.060238204666845305 0.036867894147119391 0 -0.070705768403159716 -0.053588934927966667 0 -0.066548296837276186 -0.058565929501415148 0 -0.070824320596697535 -0.058618148214384408 0 -0.070705768403159716 -0.053588934927966667 0 -0.075132867424401145 -0.053832022495383269 0 -0.070824320596697535 -0.058618148214384408 0 -0.075528811433721546 -0.058765646151772835 0 -0.070824320596697535 -0.058618148214384408 0 -0.070785663180024952 -0.063400645173354392 0 -0.011772720297026397 -0.041611324683079765 0 -0.014215613041910968 -0.044178041691981723 0 -0.014445508397246428 -0.040425792748859199 0 -0.014215613041910968 -0.044178041691981723 0 -0.017382619249528816 -0.041647976087594074 0 -0.014445508397246428 -0.040425792748859199 0 -0.041705067900837368 -0.052848384743994253 0 -0.042825274537969735 -0.055723860498422033 0 -0.070785663180024952 -0.063400645173354392 0 -0.066400493841937136 -0.067746076531462265 0 -0.066666842266907736 -0.063287584537145031 0 -0.066400493841937136 -0.067746076531462265 0 -0.066666842266907736 -0.063287584537145031 0 -0.062820945154209912 -0.063398253763277637 0 -0.066400493841937136 -0.067746076531462265 0 -0.062343131297231978 -0.068189799967997566 0 -0.062820945154209912 -0.063398253763277637 0 -0.066400493841937136 -0.067746076531462265 0 -0.062343131297231978 -0.068189799967997566 0 -0.062463969429576098 -0.07155000306757095 0 -0.062343131297231978 -0.068189799967997566 0 -0.062820945154209912 -0.063398253763277637 0 -0.05986006150663483 -0.06788375297728455 0 -0.062343131297231978 -0.068189799967997566 0 -0.05986006150663483 -0.06788375297728455 0 -0.060578517101587834 -0.070066569316861949 0 -0.052690685167931961 0.026690900464936648 0 -0.047118990690983117 0.025643837557969128 0 -0.046153945571834741 0.019993474033615913 0 -0.057748556608181796 -0.018153495282064162 0 -0.054312097836815884 -0.024122286112492647 0 -0.01994170823357971 -0.039335599686945423 0 -0.019148821686035527 -0.037184583625199406 0 -0.021482543756299849 -0.038204363849048489 0 -0.044975328618812975 -0.058950328764739844 0 -0.051197781500417122 -0.063169779981351745 0 -0.062343131297231978 -0.068189799967997566 0 -0.062463969429576098 -0.07155000306757095 0 -0.060578517101587834 -0.070066569316861949 0 -0.062463969429576098 -0.07155000306757095 0 -0.060578517101587834 -0.070066569316861949 0 -0.060390256426898867 -0.071929530907202555 0 -0.042825274537969735 -0.055723860498422033 0 -0.044975328618812975 -0.058950328764739844 0 -0.017382619249528816 -0.041647976087594074 0 -0.01994170823357971 -0.039335599686945423 0 -0.017751556159576652 -0.038765605961789081 0 -0.01994170823357971 -0.039335599686945423 0 -0.017751556159576652 -0.038765605961789081 0 -0.019148821686035527 -0.037184583625199406 0 -0.017955627024303557 -0.037016149728634977 0 -0.018523860729855735 -0.036480451639024192 0 -0.019148821686035527 -0.037184583625199406 0 -0.015859944870682256 -0.037529432870655521 0 -0.017413852170504548 -0.037127761807528165 0 -0.017751556159576652 -0.038765605961789081 0 -0.015208670244110462 -0.037467910409042487 0 -0.019148821686035527 -0.037184583625199406 0 -0.017751556159576652 -0.038765605961789081 0 -0.014445508397246428 -0.040425792748859199 0 -0.015208670244110462 -0.037467910409042487 0 -0.017382619249528816 -0.041647976087594074 0 -0.017751556159576652 -0.038765605961789081 0 -0.014445508397246428 -0.040425792748859199 0 -0.014445508397246428 -0.040425792748859199 0 -0.015208670244110462 -0.037467910409042487 0 -0.010883388912304398 -0.038390234947638199 0 -0.015859944870682256 -0.037529432870655521 0 -0.012439627134778855 -0.038534389804260445 0 -0.017955627024303557 -0.037016149728634977 0 -0.01702924808491128 -0.035611137205504864 0 -0.016039804359328568 -0.035824870894641779 0 -0.017955627024303557 -0.037016149728634977 0 -0.01702924808491128 -0.035611137205504864 0 -0.017885665996497688 -0.036007340140143083 0 -0.01702924808491128 -0.035611137205504864 0 -0.017628832182146097 -0.035466905630733417 0 -0.017885665996497688 -0.036007340140143083 0 -0.01702924808491128 -0.035611137205504864 0 -0.017012213135249966 -0.034873924092959377 0 -0.017628832182146097 -0.035466905630733417 0 -0.01702924808491128 -0.035611137205504864 0 -0.017012213135249966 -0.034873924092959377 0 -0.015953223615353597 -0.034955145129198562 0 -0.035928621412230778 -0.043309239246915876 0 -0.036651659508529368 -0.043402754717058997 0 -0.017012213135249966 -0.034873924092959377 0 -0.017427698018005127 -0.033844229449176283 0 -0.016153443642364956 -0.0339027997659802 0 -0.017547769698845327 -0.035225911029155635 0 -0.017875051529944903 -0.035404897662543254 0 -0.017977300133584232 -0.035237676096245042 0 -0.017012213135249966 -0.034873924092959377 0 -0.017547769698845327 -0.035225911029155635 0 -0.017875051529944903 -0.035404897662543254 0 -0.017012213135249966 -0.034873924092959377 0 -0.017875051529944903 -0.035404897662543254 0 -0.017628832182146097 -0.035466905630733417 0 -0.017875051529944903 -0.035404897662543254 0 -0.017628832182146097 -0.035466905630733417 0 -0.018245841747649209 -0.035755579419785723 0 -0.017875051529944903 -0.035404897662543254 0 -0.018245841747649209 -0.035755579419785723 0 -0.018380272744144756 -0.035452979817238633 0 -0.018245841747649209 -0.035755579419785723 0 -0.0190393684167003 -0.035642517082151527 0 -0.018380272744144756 -0.035452979817238633 0 -0.018245841747649209 -0.035755579419785723 0 -0.018523860729855735 -0.036480451639024192 0 -0.019192387017034365 -0.036371928157658301 0 -0.017955627024303557 -0.037016149728634977 0 -0.017885665996497688 -0.036007340140143083 0 -0.018523860729855735 -0.036480451639024192 0 -0.017628832182146097 -0.035466905630733417 0 -0.018245841747649209 -0.035755579419785723 0 -0.017885665996497688 -0.036007340140143083 0 -0.018245841747649209 -0.035755579419785723 0 -0.017885665996497688 -0.036007340140143083 0 -0.018523860729855735 -0.036480451639024192 0 -0.018523860729855735 -0.036480451639024192 0 -0.019148821686035527 -0.037184583625199406 0 -0.019192387017034365 -0.036371928157658301 0 -0.018245841747649209 -0.035755579419785723 0 -0.019192387017034365 -0.036371928157658301 0 -0.0190393684167003 -0.035642517082151527 0 -0.019192387017034365 -0.036371928157658301 0 -0.0190393684167003 -0.035642517082151527 0 -0.020740698048263485 -0.036747980706972751 0 -0.019148821686035527 -0.037184583625199406 0 -0.021482543756299849 -0.038204363849048489 0 -0.020740698048263485 -0.036747980706972751 0 -0.019148821686035527 -0.037184583625199406 0 -0.019192387017034365 -0.036371928157658301 0 -0.020740698048263485 -0.036747980706972751 0 -0.013355979635922131 -0.034478558977720987 0 -0.01289887551893173 -0.036634080387462582 0 -0.014682147044030661 -0.035191997962385368 0 -0.013355979635922131 -0.034478558977720987 0 -0.014682147044030661 -0.035191997962385368 0 -0.013964461227234101 -0.034183785813926969 0 -0.013355979635922131 -0.034478558977720987 0 -0.011205480111385243 -0.033235954767368174 0 -0.012984161205163833 -0.033680755276656281 0 -0.013355979635922131 -0.034478558977720987 0 -0.011205480111385243 -0.033235954767368174 0 -0.01289887551893173 -0.036634080387462582 0 -0.0078615663747737766 -0.036813753843595393 0 -0.0044313581334405562 -0.04131505636567092 0 -0.01289887551893173 -0.036634080387462582 0 -0.0036134801138968018 -0.040694710782434425 0 -0.0088040565043361642 -0.0383054684972539 0 -0.0032941234943225112 -0.041997640511150049 0 -0.0073809945001523086 -0.038751166513298782 0 -0.0099172276843057412 -0.039973697083965455 0 -0.0078615663747737766 -0.036813753843595393 0 -0.011205480111385243 -0.033235954767368174 0 -0.01289887551893173 -0.036634080387462582 0 -0.0088040565043361642 -0.0383054684972539 0 -0.012560148592250558 -0.03660588970184913 0 -0.0073809945001523086 -0.038751166513298782 0 -0.0099172276843057412 -0.039973697083965455 0 -0.012323680126545748 -0.036916832131767184 0 -0.009212529021788575 -0.041169339068454158 0 -0.0064878256741491593 -0.039667488253269899 0 -0.010883388912304398 -0.038390234947638199 0 -0.0099172276843057412 -0.039973697083965455 0 -0.014982448684860693 -0.038151754911639489 0 -0.012323680126545748 -0.036916832131767184 0 -0.0079551001829542001 -0.039958596913462964 0 -0.012439627134778855 -0.038534389804260445 0 -0.011772720297026397 -0.041611324683079765 0 -0.014445508397246428 -0.040425792748859199 0 -0.010883388912304398 -0.038390234947638199 0 -0.014982448684860693 -0.038151754911639489 0 -0.016039804359328568 -0.035824870894641779 0 -0.012323680126545748 -0.036916832131767184 0 -0.017955627024303557 -0.037016149728634977 0 -0.014982448684860693 -0.038151754911639489 0 -0.016039804359328568 -0.035824870894641779 0 -0.016039804359328568 -0.035824870894641779 0 -0.014682147044030661 -0.035191997962385368 0 -0.015022702253989091 -0.034680640457108974 0 -0.014125604900300263 -0.035955419607703328 0 -0.012560148592250558 -0.03660588970184913 0 -0.014682147044030661 -0.035191997962385368 0 -0.015022702253989091 -0.034680640457108974 0 -0.013964461227234101 -0.034183785813926969 0 -0.015022702253989091 -0.034680640457108974 0 -0.014265504272715199 -0.033910563621872274 0 -0.013964461227234101 -0.034183785813926969 0 -0.01702924808491128 -0.035611137205504864 0 -0.016039804359328568 -0.035824870894641779 0 -0.015953223615353597 -0.034955145129198562 0 -0.016039804359328568 -0.035824870894641779 0 -0.015022702253989091 -0.034680640457108974 0 -0.015953223615353597 -0.034955145129198562 0 -0.015022702253989091 -0.034680640457108974 0 -0.015953223615353597 -0.034955145129198562 0 -0.015506898722903522 -0.034161859961450255 0 -0.017012213135249966 -0.034873924092959377 0 -0.016134671081869282 -0.034475745105437883 0 -0.016153443642364956 -0.0339027997659802 0 -0.017012213135249966 -0.034873924092959377 0 -0.015953223615353597 -0.034955145129198562 0 -0.016134671081869282 -0.034475745105437883 0 -0.015953223615353597 -0.034955145129198562 0 -0.016134671081869282 -0.034475745105437883 0 -0.015506898722903522 -0.034161859961450255 0 -0.016134671081869282 -0.034475745105437883 0 -0.015506898722903522 -0.034161859961450255 0 -0.016153443642364956 -0.0339027997659802 0 -0.015506898722903522 -0.034161859961450255 0 -0.015410303821767519 -0.033491377932466371 0 -0.016153443642364956 -0.0339027997659802 0 -0.015410303821767519 -0.033491377932466371 0 -0.016153443642364956 -0.0339027997659802 0 -0.01578224706250806 -0.032866410964270121 0 -0.017427698018005127 -0.033844229449176283 0 -0.016153443642364956 -0.0339027997659802 0 -0.01578224706250806 -0.032866410964270121 0 -0.015022702253989091 -0.034680640457108974 0 -0.015506898722903522 -0.034161859961450255 0 -0.014740674636000074 -0.033627198406722986 0 -0.015022702253989091 -0.034680640457108974 0 -0.014265504272715199 -0.033910563621872274 0 -0.014740674636000074 -0.033627198406722986 0 -0.014265504272715199 -0.033910563621872274 0 -0.014740674636000074 -0.033627198406722986 0 -0.014205684708600449 -0.033334517334983473 0 -0.015506898722903522 -0.034161859961450255 0 -0.015410303821767519 -0.033491377932466371 0 -0.014740674636000074 -0.033627198406722986 0 -0.015410303821767519 -0.033491377932466371 0 -0.014740674636000074 -0.033627198406722986 0 -0.014887233486023842 -0.033054548973037737 0 -0.014740674636000074 -0.033627198406722986 0 -0.014205684708600449 -0.033334517334983473 0 -0.014887233486023842 -0.033054548973037737 0 -0.014205684708600449 -0.033334517334983473 0 -0.013668302658835702 -0.033149580075206395 0 -0.01355683829386105 -0.033583166770502451 0 -0.014265504272715199 -0.033910563621872274 0 -0.014205684708600449 -0.033334517334983473 0 -0.01355683829386105 -0.033583166770502451 0 -0.014265504272715199 -0.033910563621872274 0 -0.01355683829386105 -0.033583166770502451 0 -0.013964461227234101 -0.034183785813926969 0 -0.01355683829386105 -0.033583166770502451 0 -0.012984161205163833 -0.033680755276656281 0 -0.013964461227234101 -0.034183785813926969 0 -0.013355979635922131 -0.034478558977720987 0 -0.012984161205163833 -0.033680755276656281 0 -0.013964461227234101 -0.034183785813926969 0 -0.01363235681077454 -0.028734020659729156 0 -0.014164117419841872 -0.025083730204102116 0 -0.0063747842552590184 -0.026405831909296566 0 -0.011205480111385243 -0.033235954767368174 0 -0.010560852791212459 -0.015956005018795502 0 -0.011205480111385243 -0.033235954767368174 0 -0.012984161205163833 -0.033680755276656281 0 -0.012958153402010907 -0.03346434914737708 0 -0.01355683829386105 -0.033583166770502451 0 -0.012984161205163833 -0.033680755276656281 0 -0.012958153402010907 -0.03346434914737708 0 -0.013668302658835702 -0.033149580075206395 0 -0.01355683829386105 -0.033583166770502451 0 -0.012958153402010907 -0.03346434914737708 0 -0.013668302658835702 -0.033149580075206395 0 -0.012958153402010907 -0.03346434914737708 0 -0.013569718066923758 -0.032747666953180564 0 -0.012958153402010907 -0.03346434914737708 0 -0.013569718066923758 -0.032747666953180564 0 -0.013226867228151681 -0.032530528712141141 0 -0.014164117419841872 -0.025083730204102116 0 -0.016564162782302595 -0.022047202184095487 0 -0.013569718066923758 -0.032747666953180564 0 -0.013830001724358018 -0.032228988621198294 0 -0.013226867228151681 -0.032530528712141141 0 -0.013830001724358018 -0.032228988621198294 0 -0.013226867228151681 -0.032530528712141141 0 -0.013451886131950162 -0.03163680347856606 0 -0.013830001724358018 -0.032228988621198294 0 -0.014480254136219553 -0.032138274221092625 0 -0.014170878916712901 -0.031701513104845605 0 -0.013830001724358018 -0.032228988621198294 0 -0.014480254136219553 -0.032138274221092625 0 -0.014265880135250188 -0.032660423989862096 0 -0.013668302658835702 -0.033149580075206395 0 -0.013569718066923758 -0.032747666953180564 0 -0.014265880135250188 -0.032660423989862096 0 -0.013569718066923758 -0.032747666953180564 0 -0.013830001724358018 -0.032228988621198294 0 -0.014265880135250188 -0.032660423989862096 0 -0.014205684708600449 -0.033334517334983473 0 -0.013668302658835702 -0.033149580075206395 0 -0.014265880135250188 -0.032660423989862096 0 -0.014205684708600449 -0.033334517334983473 0 -0.014265880135250188 -0.032660423989862096 0 -0.014887233486023842 -0.033054548973037737 0 -0.014265880135250188 -0.032660423989862096 0 -0.014887233486023842 -0.033054548973037737 0 -0.015105419963187521 -0.032480161292591674 0 -0.014887233486023842 -0.033054548973037737 0 -0.015105419963187521 -0.032480161292591674 0 -0.01578224706250806 -0.032866410964270121 0 -0.017427698018005127 -0.033844229449176283 0 -0.01578224706250806 -0.032866410964270121 0 -0.015965548658599327 -0.031856338100541171 0 -0.015410303821767519 -0.033491377932466371 0 -0.014887233486023842 -0.033054548973037737 0 -0.01578224706250806 -0.032866410964270121 0 -0.015105419963187521 -0.032480161292591674 0 -0.01578224706250806 -0.032866410964270121 0 -0.015755414875056831 -0.032415175182488355 0 -0.037449265654732035 -0.045423836110299681 0 -0.038181231630325566 -0.04718595543097686 0 -0.041179555315325696 -0.053837717291068767 0 -0.041214782250571631 -0.053910382567734096 0 -0.041172418421564737 -0.053899663077151459 0 -0.038181231630325566 -0.04718595543097686 0 -0.041010004986671469 -0.053158353908516427 0 -0.015105419963187521 -0.032480161292591674 0 -0.015755414875056831 -0.032415175182488355 0 -0.01514178600383448 -0.031720633131883204 0 -0.040155194535568574 -0.051636391525655974 0 -0.040089582140562872 -0.052009996985829671 0 -0.039904041526049552 -0.051779003969902697 0 -0.038181231630325566 -0.04718595543097686 0 -0.043565560252268688 -0.056161869672514748 0 -0.014480254136219553 -0.032138274221092625 0 -0.015105419963187521 -0.032480161292591674 0 -0.01514178600383448 -0.031720633131883204 0 -0.014480254136219553 -0.032138274221092625 0 -0.014265880135250188 -0.032660423989862096 0 -0.015105419963187521 -0.032480161292591674 0 -0.014480254136219553 -0.032138274221092625 0 -0.01514178600383448 -0.031720633131883204 0 -0.014170878916712901 -0.031701513104845605 0 -0.051918956692714714 -0.062397401095845094 0 -0.055128275128869593 -0.067325993886285712 0 -0.056703565913483127 -0.063273013152042243 0 -0.041010004986671469 -0.053158353908516427 0 -0.034292351195295091 -0.046848983029115283 0 -0.041010004986671469 -0.053158353908516427 0 -0.052838678794377182 -0.067418272710441596 0 -0.056561107316052919 -0.068570065257265403 0 -0.055530881568042194 -0.068384038588836363 0 -0.056307418172817994 -0.069711526825840572 0 -0.043565560252268688 -0.056161869672514748 0 -0.048013323082906401 -0.066230587233019597 0 -0.055530881568042194 -0.068384038588836363 0 -0.056307418172817994 -0.069711526825840572 0 -0.055291637963159196 -0.070048659618134113 0 -0.041010004986671469 -0.053158353908516427 0 -0.043565560252268688 -0.056161869672514748 0 -0.056307418172817994 -0.069711526825840572 0 -0.055291637963159196 -0.070048659618134113 0 -0.056409942817808582 -0.071078317335514951 0 -0.056561107316052919 -0.068570065257265403 0 -0.056307418172817994 -0.069711526825840572 0 -0.057718800190893607 -0.070451854845386158 0 -0.056307418172817994 -0.069711526825840572 0 -0.057718800190893607 -0.070451854845386158 0 -0.056409942817808582 -0.071078317335514951 0 -0.055128275128869593 -0.067325993886285712 0 -0.058977179177957501 -0.06703116545907889 0 -0.056703565913483127 -0.063273013152042243 0 -0.058977179177957501 -0.06703116545907889 0 -0.061796157419228614 -0.069452054599211444 0 -0.06133584524735549 -0.064165245474298596 0 -0.034292351195295091 -0.046848983029115283 0 -0.024254515161790398 -0.039745001689748566 0 -0.013830001724358018 -0.032228988621198294 0 -0.014170878916712901 -0.031701513104845605 0 -0.013451886131950162 -0.03163680347856606 0 -0.058977179177957501 -0.06703116545907889 0 -0.056703565913483127 -0.063273013152042243 0 -0.06133584524735549 -0.064165245474298596 0 -0.038995971806869839 -0.056917894964097812 0 -0.037762033950589628 -0.061732191719821722 0 -0.038995971806869839 -0.056917894964097812 0 -0.042801582858469925 -0.057527385588575695 0 -0.020192794202506296 -0.035389372212858636 0 -0.0190393684167003 -0.035642517082151527 0 -0.020740698048263485 -0.036747980706972751 0 -0.020192794202506296 -0.035389372212858636 0 -0.0190393684167003 -0.035642517082151527 0 -0.019002384789017886 -0.035155763288323337 0 -0.0190393684167003 -0.035642517082151527 0 -0.019002384789017886 -0.035155763288323337 0 -0.018459413759338281 -0.035131277696512045 0 -0.020192794202506296 -0.035389372212858636 0 -0.019002384789017886 -0.035155763288323337 0 -0.019714297481596865 -0.033934844176192185 0 -0.019002384789017886 -0.035155763288323337 0 -0.018632755483619843 -0.034734400501107168 0 -0.019714297481596865 -0.033934844176192185 0 -0.041441166494286759 -0.056052584142401447 0 -0.037390850715427658 -0.047390793949184142 0 -0.018503686456047067 -0.034737107957748911 0 -0.018459413759338281 -0.035131277696512045 0 -0.017977300133584232 -0.035237676096245042 0 -0.018632755483619843 -0.034734400501107168 0 -0.018503686456047067 -0.034737107957748911 0 -0.018659107639483731 -0.034968338802753691 0 -0.040959594404536018 -0.055892877213246733 0 -0.041441166494286759 -0.056052584142401447 0 -0.018503686456047067 -0.034737107957748911 0 -0.018659107639483731 -0.034968338802753691 0 -0.018459413759338281 -0.035131277696512045 0 -0.019002384789017886 -0.035155763288323337 0 -0.018632755483619843 -0.034734400501107168 0 -0.018659107639483731 -0.034968338802753691 0 -0.019002384789017886 -0.035155763288323337 0 -0.018659107639483731 -0.034968338802753691 0 -0.018459413759338281 -0.035131277696512045 0 -0.0190393684167003 -0.035642517082151527 0 -0.018459413759338281 -0.035131277696512045 0 -0.018380272744144756 -0.035452979817238633 0 -0.017875051529944903 -0.035404897662543254 0 -0.018380272744144756 -0.035452979817238633 0 -0.017977300133584232 -0.035237676096245042 0 -0.018459413759338281 -0.035131277696512045 0 -0.018380272744144756 -0.035452979817238633 0 -0.017977300133584232 -0.035237676096245042 0 -0.039813334384148275 -0.051084662038576284 0 -0.039651940305719863 -0.051391113416636582 0 -0.039886594363078391 -0.051542609722724259 0 -0.039813334384148275 -0.051084662038576284 0 -0.040155194535568574 -0.051636391525655974 0 -0.039886594363078391 -0.051542609722724259 0 -0.036651659508529368 -0.043402754717058997 0 -0.038181231630325566 -0.04718595543097686 0 -0.036651659508529368 -0.043402754717058997 0 -0.037390850715427658 -0.047390793949184142 0 -0.040089582140562872 -0.052009996985829671 0 -0.039415110707922293 -0.05189833406899657 0 -0.039904041526049552 -0.051779003969902697 0 -0.040155194535568574 -0.051636391525655974 0 -0.039886594363078391 -0.051542609722724259 0 -0.039904041526049552 -0.051779003969902697 0 -0.039415110707922293 -0.05189833406899657 0 -0.039886594363078391 -0.051542609722724259 0 -0.039904041526049552 -0.051779003969902697 0 -0.043565560252268688 -0.056161869672514748 0 -0.041441166494286759 -0.056052584142401447 0 -0.039381138484107549 -0.051931019724055526 0 -0.039651940305719863 -0.051391113416636582 0 -0.039886594363078391 -0.051542609722724259 0 -0.041441166494286759 -0.056052584142401447 0 -0.041444900641526061 -0.05495092866571874 0 -0.055456907249435229 -0.069822223451920629 0 -0.055300127129794256 -0.070901705119219366 0 -0.054429779757373592 -0.070556455846382246 0 -0.055456907249435229 -0.069822223451920629 0 -0.054100098704138386 -0.069594422259836711 0 -0.054429779757373592 -0.070556455846382246 0 -0.055300127129794256 -0.070901705119219366 0 -0.054380830089349644 -0.071360516779093094 0 -0.054429779757373592 -0.070556455846382246 0 -0.054380830089349644 -0.071360516779093094 0 -0.053877740602591054 -0.07112334051615235 0 -0.054429779757373592 -0.070556455846382246 0 -0.053877740602591054 -0.07112334051615235 0 -0.054429779757373592 -0.070556455846382246 0 -0.053648114448560762 -0.070518587335911417 0 -0.041441166494286759 -0.056052584142401447 0 -0.044822067016889428 -0.064964146208281739 0 -0.054100098704138386 -0.069594422259836711 0 -0.054429779757373592 -0.070556455846382246 0 -0.053648114448560762 -0.070518587335911417 0 -0.041441166494286759 -0.056052584142401447 0 -0.037762033950589628 -0.061732191719821722 0 -0.051241231175349143 -0.075429674884251188 0 -0.051944282952976088 -0.074266664192405907 0 -0.052982566670842605 -0.074343843545961505 0 -0.018632755483619843 -0.034734400501107168 0 -0.018462034628358871 -0.034708231563715698 0 -0.019714297481596865 -0.033934844176192185 0 -0.051944282952976088 -0.074266664192405907 0 -0.052907896867470362 -0.074061013003332274 0 -0.052982566670842605 -0.074343843545961505 0 -0.053877740602591054 -0.07112334051615235 0 -0.053648114448560762 -0.070518587335911417 0 -0.053288547477556583 -0.071488161150399604 0 -0.051944282952976088 -0.074266664192405907 0 -0.052705936725668485 -0.072956488037770828 0 -0.052907896867470362 -0.074061013003332274 0 -0.044822067016889428 -0.064964146208281739 0 -0.047155868881055142 -0.068060758049952111 0 -0.037762033950589628 -0.061732191719821722 0 -0.044901789128935256 -0.063197780405849391 0 -0.053570602433914601 -0.073342087171580958 0 -0.052983014585168436 -0.074432894448693596 0 -0.05526312885951068 -0.073085332420981364 0 -0.052907896867470362 -0.074061013003332274 0 -0.053570602433914601 -0.073342087171580958 0 -0.052983014585168436 -0.074432894448693596 0 -0.052705936725668485 -0.072956488037770828 0 -0.052907896867470362 -0.074061013003332274 0 -0.053570602433914601 -0.073342087171580958 0 -0.054583211790486225 -0.076775179766907245 0 -0.053612941281644302 -0.074694262511701817 0 -0.055412075721077432 -0.075217788198624694 0 -0.037988861109315437 -0.06218128930249231 0 -0.037762033950589628 -0.061732191719821722 0 -0.053354297127273298 -0.07194246633799474 0 -0.052857871190774744 -0.072972066972547406 0 -0.053736269975710155 -0.071674990018625734 0 -0.053354297127273298 -0.07194246633799474 0 -0.053979411145359028 -0.071781946931516974 0 -0.053736269975710155 -0.071674990018625734 0 -0.053354297127273298 -0.07194246633799474 0 -0.053979411145359028 -0.071781946931516974 0 -0.054039263378028231 -0.072349670295364335 0 -0.052705936725668485 -0.072956488037770828 0 -0.053570602433914601 -0.073342087171580958 0 -0.054039263378028231 -0.072349670295364335 0 -0.047155868881055142 -0.068060758049952111 0 -0.047972826882489883 -0.068788600058450805 0 -0.053570602433914601 -0.073342087171580958 0 -0.054039263378028231 -0.072349670295364335 0 -0.05526312885951068 -0.073085332420981364 0 -0.052705936725668485 -0.072956488037770828 0 -0.053354297127273298 -0.07194246633799474 0 -0.054039263378028231 -0.072349670295364335 0 -0.053288547477556583 -0.071488161150399604 0 -0.053354297127273298 -0.07194246633799474 0 -0.053432384827101838 -0.071952580977858685 0 -0.053877740602591054 -0.07112334051615235 0 -0.053288547477556583 -0.071488161150399604 0 -0.053838181881750165 -0.071712093616206909 0 -0.053288547477556583 -0.071488161150399604 0 -0.053432384827101838 -0.071952580977858685 0 -0.053838181881750165 -0.071712093616206909 0 -0.053432384827101838 -0.071952580977858685 0 -0.053780038205276291 -0.072361570245816298 0 -0.053838181881750165 -0.071712093616206909 0 -0.053354297127273298 -0.07194246633799474 0 -0.053325131588589432 -0.072375380295796793 0 -0.052857871190774744 -0.072972066972547406 0 -0.053432384827101838 -0.071952580977858685 0 -0.053325131588589432 -0.072375380295796793 0 -0.053780038205276291 -0.072361570245816298 0 -0.053354297127273298 -0.07194246633799474 0 -0.053432384827101838 -0.071952580977858685 0 -0.053325131588589432 -0.072375380295796793 0 -0.053325131588589432 -0.072375380295796793 0 -0.053780038205276291 -0.072361570245816298 0 -0.053392281082685566 -0.073019167069880431 0 -0.054458112848163147 -0.072665096416986513 0 -0.053780038205276291 -0.072361570245816298 0 -0.05402431217385275 -0.073404909150783501 0 -0.053780038205276291 -0.072361570245816298 0 -0.05402431217385275 -0.073404909150783501 0 -0.053392281082685566 -0.073019167069880431 0 -0.054458112848163147 -0.072665096416986513 0 -0.053780038205276291 -0.072361570245816298 0 -0.054396945662226137 -0.072004722614591579 0 -0.053780038205276291 -0.072361570245816298 0 -0.053838181881750165 -0.071712093616206909 0 -0.054396945662226137 -0.072004722614591579 0 -0.054380830089349644 -0.071360516779093094 0 -0.053877740602591054 -0.07112334051615235 0 -0.053838181881750165 -0.071712093616206909 0 -0.054380830089349644 -0.071360516779093094 0 -0.053838181881750165 -0.071712093616206909 0 -0.054396945662226137 -0.072004722614591579 0 -0.054380830089349644 -0.071360516779093094 0 -0.054396945662226137 -0.072004722614591579 0 -0.055180062872574841 -0.071973833974541448 0 -0.048013323082906401 -0.066230587233019597 0 -0.050330761641412668 -0.069914476812961687 0 -0.055300127129794256 -0.070901705119219366 0 -0.054380830089349644 -0.071360516779093094 0 -0.055180062872574841 -0.071973833974541448 0 -0.054458112848163147 -0.072665096416986513 0 -0.055180062872574841 -0.071973833974541448 0 -0.055026403447765014 -0.073352181604754638 0 -0.050330761641412668 -0.069914476812961687 0 -0.051007868005426914 -0.071079754040585932 0 -0.054458112848163147 -0.072665096416986513 0 -0.054396945662226137 -0.072004722614591579 0 -0.055180062872574841 -0.071973833974541448 0 -0.055026403447765014 -0.073352181604754638 0 -0.055244561604735253 -0.074829091519394389 0 -0.054529923864588471 -0.074174382687396428 0 -0.055026403447765014 -0.073352181604754638 0 -0.055244561604735253 -0.074829091519394389 0 -0.056012948773556774 -0.074097327143580916 0 -0.055401496917014986 -0.075698565674535978 0 -0.054376245024739749 -0.075612028541389403 0 -0.055550731039905502 -0.076490126015786114 0 -0.053594745493624377 -0.075272441788177533 0 -0.054961165560943138 -0.077348626068613008 0 -0.055244561604735253 -0.074829091519394389 0 -0.053594745493624377 -0.075272441788177533 0 -0.054529923864588471 -0.074174382687396428 0 -0.053594745493624377 -0.075272441788177533 0 -0.053600478166711617 -0.076929707319774179 0 -0.054961165560943138 -0.077348626068613008 0 -0.053594745493624377 -0.075272441788177533 0 -0.05402431217385275 -0.073404909150783501 0 -0.053388786334017224 -0.073948627003852643 0 -0.054458112848163147 -0.072665096416986513 0 -0.055026403447765014 -0.073352181604754638 0 -0.05402431217385275 -0.073404909150783501 0 -0.055026403447765014 -0.073352181604754638 0 -0.054529923864588471 -0.074174382687396428 0 -0.05402431217385275 -0.073404909150783501 0 -0.053594745493624377 -0.075272441788177533 0 -0.054529923864588471 -0.074174382687396428 0 -0.05402431217385275 -0.073404909150783501 0 -0.05402431217385275 -0.073404909150783501 0 -0.053392281082685566 -0.073019167069880431 0 -0.053388786334017224 -0.073948627003852643 0 -0.053392281082685566 -0.073019167069880431 0 -0.052857871190774744 -0.072972066972547406 0 -0.052901209969082812 -0.073780891702453943 0 -0.053325131588589432 -0.072375380295796793 0 -0.053392281082685566 -0.073019167069880431 0 -0.052857871190774744 -0.072972066972547406 0 -0.052901209969082812 -0.073780891702453943 0 -0.05239533207335028 -0.074229024001773627 0 -0.053180804285082164 -0.07480650522334939 0 -0.052901209969082812 -0.073780891702453943 0 -0.05239533207335028 -0.074229024001773627 0 -0.052165135176813003 -0.073163324984875613 0 -0.052857871190774744 -0.072972066972547406 0 -0.052901209969082812 -0.073780891702453943 0 -0.052165135176813003 -0.073163324984875613 0 -0.052901209969082812 -0.073780891702453943 0 -0.053388786334017224 -0.073948627003852643 0 -0.053180804285082164 -0.07480650522334939 0 -0.053392281082685566 -0.073019167069880431 0 -0.052901209969082812 -0.073780891702453943 0 -0.053388786334017224 -0.073948627003852643 0 -0.053594745493624377 -0.075272441788177533 0 -0.053388786334017224 -0.073948627003852643 0 -0.053180804285082164 -0.07480650522334939 0 -0.053594745493624377 -0.075272441788177533 0 -0.053180804285082164 -0.07480650522334939 0 -0.053600478166711617 -0.076929707319774179 0 -0.056594275783463516 -0.074127958420693293 0 -0.056270986818826939 -0.075601264469259188 0 -0.056389936463621691 -0.076684745340628926 0 -0.05239533207335028 -0.074229024001773627 0 -0.053180804285082164 -0.07480650522334939 0 -0.053600478166711617 -0.076929707319774179 0 -0.05455843606010901 -0.07425220265169577 0 -0.055050072416824809 -0.075908838185693536 0 -0.056270986818826939 -0.075601264469259188 0 -0.056431884172396397 -0.074527266752934571 0 -0.056265712014109848 -0.075193157349250625 0 -0.056594275783463516 -0.074127958420693293 0 -0.056270986818826939 -0.075601264469259188 0 -0.056431884172396397 -0.074527266752934571 0 -0.056594275783463516 -0.074127958420693293 0 -0.056504694338592058 -0.074223983821526979 0 -0.056536663509622949 -0.074118312773358161 0 -0.056504694338592058 -0.074223983821526979 0 -0.056489800247581733 -0.074083860810376878 0 -0.056536663509622949 -0.074118312773358161 0 -0.056489800247581733 -0.074083860810376878 0 -0.056431884172396397 -0.074527266752934571 0 -0.056284868218257546 -0.074706726568723722 0 -0.056504694338592058 -0.074223983821526979 0 -0.056489800247581733 -0.074083860810376878 0 -0.056431884172396397 -0.074527266752934571 0 -0.056594275783463516 -0.074127958420693293 0 -0.056504694338592058 -0.074223983821526979 0 -0.056431884172396397 -0.074527266752934571 0 -0.056284868218257546 -0.074706726568723722 0 -0.056265712014109848 -0.075193157349250625 0 -0.056076964415407139 -0.07578512715462643 0 -0.056431884172396397 -0.074527266752934571 0 -0.056284868218257546 -0.074706726568723722 0 -0.056265712014109848 -0.075193157349250625 0 -0.056284868218257546 -0.074706726568723722 0 -0.056453423933885624 -0.073871614220926599 0 -0.05612336818918115 -0.074815308628689958 0 -0.056489800247581733 -0.074083860810376878 0 -0.056284868218257546 -0.074706726568723722 0 -0.056453423933885624 -0.073871614220926599 0 -0.056489800247581733 -0.074083860810376878 0 -0.056682004912164963 -0.073287926033970288 0 -0.056453423933885624 -0.073871614220926599 0 -0.056536663509622949 -0.074118312773358161 0 -0.056080742359475508 -0.073740758109226576 0 -0.056244795965964149 -0.073700309498267474 0 -0.056594275783463516 -0.074127958420693293 0 -0.056536663509622949 -0.074118312773358161 0 -0.056244795965964149 -0.073700309498267474 0 -0.05455843606010901 -0.07425220265169577 0 -0.054450706170195456 -0.072847072305309971 0 -0.053804600865918997 -0.072625163340402824 0 -0.054450706170195456 -0.072847072305309971 0 -0.05239533207335028 -0.074229024001773627 0 -0.052165135176813003 -0.073163324984875613 0 -0.050357225374786825 -0.071707870890858422 0 -0.056536663509622949 -0.074118312773358161 0 -0.056997938847775154 -0.072605140681369654 0 -0.056682004912164963 -0.073287926033970288 0 -0.056489800247581733 -0.074083860810376878 0 -0.056536663509622949 -0.074118312773358161 0 -0.056682004912164963 -0.073287926033970288 0 -0.056568135443653453 -0.073168239243536617 0 -0.056634449133607906 -0.072959117119698061 0 -0.052857871190774744 -0.072972066972547406 0 -0.052165135176813003 -0.073163324984875613 0 -0.050357225374786825 -0.071707870890858422 0 -0.058825086535766534 -0.071989545407450048 0 -0.057533903739782226 -0.071897985017530849 0 -0.057945232114421596 -0.074127576906874465 0 -0.058825086535766534 -0.071989545407450048 0 -0.060016468364464039 -0.074370393095832391 0 -0.061823022940741622 -0.07350598644838309 0 -0.058825086535766534 -0.071989545407450048 0 -0.061823022940741622 -0.07350598644838309 0 -0.061796157419228614 -0.069452054599211444 0 -0.058977179177957501 -0.06703116545907889 0 -0.058825086535766534 -0.071989545407450048 0 -0.061796157419228614 -0.069452054599211444 0 -0.052838678794377182 -0.067418272710441596 0 -0.0555251480172963 -0.070407306013736196 0 -0.055128275128869593 -0.067325993886285712 0 -0.058977179177957501 -0.06703116545907889 0 -0.058825086535766534 -0.071989545407450048 0 -0.057718800190893607 -0.070451854845386158 0 -0.058825086535766534 -0.071989545407450048 0 -0.057533903739782226 -0.071897985017530849 0 -0.057718800190893607 -0.070451854845386158 0 -0.056409942817808582 -0.071078317335514951 0 -0.057533903739782226 -0.071897985017530849 0 -0.056409942817808582 -0.071078317335514951 0 -0.056542982238045214 -0.07276798021315968 0 -0.057533903739782226 -0.071897985017530849 0 -0.055098287409808544 -0.071731889435506332 0 -0.056409942817808582 -0.071078317335514951 0 -0.056542982238045214 -0.07276798021315968 0 -0.055291637963159196 -0.070048659618134113 0 -0.055098287409808544 -0.071731889435506332 0 -0.056409942817808582 -0.071078317335514951 0 -0.055098287409808544 -0.071731889435506332 0 -0.055026403447765014 -0.073352181604754638 0 -0.056542982238045214 -0.07276798021315968 0 -0.056542982238045214 -0.07276798021315968 0 -0.057533903739782226 -0.071897985017530849 0 -0.057945232114421596 -0.074127576906874465 0 -0.056012948773556774 -0.074097327143580916 0 -0.056851918081378364 -0.075220590264828274 0 -0.057945232114421596 -0.074127576906874465 0 -0.056542982238045214 -0.07276798021315968 0 -0.056012948773556774 -0.074097327143580916 0 -0.057945232114421596 -0.074127576906874465 0 -0.055026403447765014 -0.073352181604754638 0 -0.056542982238045214 -0.07276798021315968 0 -0.056012948773556774 -0.074097327143580916 0 -0.055401496917014986 -0.075698565674535978 0 -0.057155591174044264 -0.075835977068828248 0 -0.055550731039905502 -0.076490126015786114 0 -0.057181255417348593 -0.076657603515057016 0 -0.056028384245764215 -0.078145629267099809 0 -0.055244561604735253 -0.074829091519394389 0 -0.056012948773556774 -0.074097327143580916 0 -0.056851918081378364 -0.075220590264828274 0 -0.057155591174044264 -0.075835977068828248 0 -0.05827997457639858 -0.075905901702348427 0 -0.057181255417348593 -0.076657603515057016 0 -0.059347184146264741 -0.076117162627222817 0 -0.058239100056473959 -0.077598031788359723 0 -0.057945232114421596 -0.074127576906874465 0 -0.059829714622958746 -0.075325940725994606 0 -0.059347184146264741 -0.076117162627222817 0 -0.056851918081378364 -0.075220590264828274 0 -0.057945232114421596 -0.074127576906874465 0 -0.059347184146264741 -0.076117162627222817 0 -0.058825086535766534 -0.071989545407450048 0 -0.057945232114421596 -0.074127576906874465 0 -0.060016468364464039 -0.074370393095832391 0 -0.060016468364464039 -0.074370393095832391 0 -0.060469533018696404 -0.076244455601482436 0 -0.061823022940741622 -0.07350598644838309 0 -0.057945232114421596 -0.074127576906874465 0 -0.060016468364464039 -0.074370393095832391 0 -0.059829714622958746 -0.075325940725994606 0 -0.060016468364464039 -0.074370393095832391 0 -0.059829714622958746 -0.075325940725994606 0 -0.060469533018696404 -0.076244455601482436 0 -0.059829714622958746 -0.075325940725994606 0 -0.059347184146264741 -0.076117162627222817 0 -0.060469533018696404 -0.076244455601482436 0 -0.033551078323812329 -0.071675936819023095 0 -0.032082668825534302 -0.069485639865831242 0 -0.032434309986750627 -0.073856396123734042 0 -0.060278930915724713 -0.076812359644223019 0 -0.061325784378538181 -0.076228578412306805 0 -0.061468762929931114 -0.077780172604966391 0 -0.042387140446683687 -0.071106276632759272 0 -0.043857145407645223 -0.07464796207315616 0 -0.032082668825534302 -0.069485639865831242 0 -0.033880853409427626 -0.070198981709477221 0 -0.034525400629944324 -0.068907971673676557 0 -0.033551078323812329 -0.071675936819023095 0 -0.032082668825534302 -0.069485639865831242 0 -0.033880853409427626 -0.070198981709477221 0 -0.028699826037063166 -0.074278181525504222 0 -0.029415796005455484 -0.07245559638838249 0 -0.030445423539391267 -0.075033424500509635 0 -0.025561907237409271 -0.065820577730039534 0 -0.026424819114159469 -0.077192652907516118 0 -0.028699826037063166 -0.074278181525504222 0 -0.030445423539391267 -0.075033424500509635 0 -0.029668294590363718 -0.076000799436935593 0 -0.032506730542808081 -0.073463156769102492 0 -0.033423480797681794 -0.079445507516463551 0 -0.033551078323812329 -0.071675936819023095 0 -0.035430814286399936 -0.070497924594918757 0 -0.033968994297450664 -0.074197910097990316 0 -0.032506730542808081 -0.073463156769102492 0 -0.040699369507156802 -0.076185404613767202 0 -0.033551078323812329 -0.071675936819023095 0 -0.033880853409427626 -0.070198981709477221 0 -0.035430814286399936 -0.070497924594918757 0 -0.034525400629944324 -0.068907971673676557 0 -0.035399998901699287 -0.070477438816092836 0 -0.036738575392937629 -0.067115093110082541 0 -0.033880853409427626 -0.070198981709477221 0 -0.034525400629944324 -0.068907971673676557 0 -0.035430814286399936 -0.070497924594918757 0 -0.032486500733685857 -0.073256086118021729 0 -0.032506730542808081 -0.073463156769102492 0 -0.032506730542808081 -0.073463156769102492 0 -0.025561907237409271 -0.065820577730039534 0 -0.034525400629944324 -0.068907971673676557 0 -0.036738575392937629 -0.067115093110082541 0 -0.03381320586605506 -0.066170844715183252 0 -0.042387140446683687 -0.071106276632759272 0 -0.039659397334315595 -0.065188235934796543 0 -0.032082668825534302 -0.069485639865831242 0 -0.031733038768573987 -0.065142451751624836 0 -0.03381320586605506 -0.066170844715183252 0 -0.060278930915724713 -0.076812359644223019 0 -0.061325784378538181 -0.076228578412306805 0 -0.061137736813533565 -0.07466249705987088 0 -0.048872828305180187 -0.071113738292322703 0 -0.039659397334315595 -0.065188235934796543 0 -0.032082668825534302 -0.069485639865831242 0 -0.034525400629944324 -0.068907971673676557 0 -0.03381320586605506 -0.066170844715183252 0 -0.032145509983397921 -0.06240876628685274 0 -0.035490353677567206 -0.055110112617636799 0 -0.031367966719803506 -0.05267678704567931 0 -0.039659397334315595 -0.065188235934796543 0 -0.026242451789716393 -0.052403226088834763 0 -0.039659397334315595 -0.065188235934796543 0 -0.035733596609279564 -0.058365238120886648 0 -0.031733038768573987 -0.065142451751624836 0 -0.03381320586605506 -0.066170844715183252 0 -0.033984053402335596 -0.060201565727887887 0 -0.036738575392937629 -0.067115093110082541 0 -0.03381320586605506 -0.066170844715183252 0 -0.033984053402335596 -0.060201565727887887 0 -0.015205803161300475 -0.056745173534380182 0 -0.012388458815726752 -0.049693150965977616 0 -0.017840409824338904 -0.050010249235368426 0 -0.025561907237409271 -0.065820577730039534 0 -0.026242451789716393 -0.052403226088834763 0 -0.020810167071966146 -0.041352124373577902 0 -0.019847921534858509 -0.038909725809615901 0 -0.021788232942087045 -0.039182509609877361 0 -0.012388458815726752 -0.049693150965977616 0 -0.017840409824338904 -0.050010249235368426 0 -0.014032258251777417 -0.04607998092526757 0 -0.026242451789716393 -0.052403226088834763 0 -0.018119169346257416 -0.041674763816186379 0 -0.035490353677567206 -0.055110112617636799 0 -0.031367966719803506 -0.05267678704567931 0 -0.033139177897450349 -0.049184940274702091 0 -0.026242451789716393 -0.052403226088834763 0 -0.025272691481586097 -0.045629188407949647 0 -0.012828653188962424 -0.059972758785367397 0 -0.012097938513095584 -0.060383152140024862 0 -0.01274902910004048 -0.06143643324097204 0 -0.012828653188962424 -0.059972758785367397 0 -0.01274902910004048 -0.06143643324097204 0 -0.013432784289985492 -0.060462967006362042 0 -0.012828653188962424 -0.059972758785367397 0 -0.012097938513095584 -0.060383152140024862 0 -0.012514826683760824 -0.059229673972289038 0 -0.014891577508909454 -0.054327844149287395 0 -0.0053092639137370971 -0.039336737541739303 0 -0.017840409824338904 -0.050010249235368426 0 -0.014032258251777417 -0.04607998092526757 0 -0.018142377611967429 -0.044436938207699415 0 -0.01167820056066924 -0.061567325248816578 0 -0.012097938513095584 -0.060383152140024862 0 -0.01274902910004048 -0.06143643324097204 0 -0.025561907237409271 -0.065820577730039534 0 -0.014891577508909454 -0.054327844149287395 0 -0.015129952632216174 -0.071354926314288233 0 -0.0082328929950533977 -0.064749144625014243 0 -0.01167820056066924 -0.061567325248816578 0 -0.01274902910004048 -0.06143643324097204 0 -0.012034063858077947 -0.062435811929690839 0 -0.015129952632216174 -0.071354926314288233 0 -0.026424819114159469 -0.077192652907516118 0 -0.010102135879888757 -0.077238720713217385 0 -0.0089467041830913023 -0.078758845418023721 0 -0.010189363445156844 -0.078854602841135699 0 -0.010102135879888757 -0.077238720713217385 0 -0.010189363445156844 -0.078854602841135699 0 -0.011463747755063793 -0.078687489947207132 0 -0.010858914346787672 -0.089115489723088373 0 -0.0067080785196920768 -0.084930722429073846 0 -0.0042299864479444539 -0.097723185162514034 0 -0.0050238602962424991 -0.097954337868260591 0 -0.0047583498424567088 -0.09611934811499398 0 -0.0074154666539228888 -0.099248268203854142 0 -0.0071895470072932382 -0.098112294425584071 0 -0.0050238602962424991 -0.097954337868260591 0 -0.0047583498424567088 -0.09611934811499398 0 -0.0062798127329322471 -0.096635235635637459 0 -0.0047583498424567088 -0.09611934811499398 0 -0.0062798127329322471 -0.096635235635637459 0 -0.005798456804261636 -0.095407171941168364 0 -0.010102135879888757 -0.077238720713217385 0 -0.011463747755063793 -0.078687489947207132 0 -0.012011995956168191 -0.07722279742368432 0 -0.0086131237267028649 -0.099903808524134372 0 -0.0096952210649294303 -0.1027727650629686 0 -0.012460712904604153 -0.10151304060065944 0 -0.0086131237267028649 -0.099903808524134372 0 -0.0072897460317172457 -0.10299442164442667 0 -0.0096952210649294303 -0.1027727650629686 0 -0.0026630983620108445 -0.10204172316613688 0 -0.0054233720892945033 -0.10183154479321201 0 -0.005535686775669668 -0.09853126979834359 0 -0.0086131237267028649 -0.099903808524134372 0 -0.0054233720892945033 -0.10183154479321201 0 -0.0072897460317172457 -0.10299442164442667 0 -0.0086131237267028649 -0.099903808524134372 0 -0.0054233720892945033 -0.10183154479321201 0 -0.005535686775669668 -0.09853126979834359 0 -0.0062798127329322471 -0.096635235635637459 0 -0.0067075665744638149 -0.094736297288880861 0 -0.005798456804261636 -0.095407171941168364 0 -0.0071895470072932382 -0.098112294425584071 0 -0.0078776018285816093 -0.096939317865269617 0 -0.005535686775669668 -0.09853126979834359 0 -0.008963785073653396 -0.097488524239737251 0 -0.0085859202367127747 -0.094875166029185887 0 -0.0086131237267028649 -0.099903808524134372 0 -0.008963785073653396 -0.097488524239737251 0 -0.011554209328496724 -0.098446203554864872 0 -0.0086131237267028649 -0.099903808524134372 0 -0.005535686775669668 -0.09853126979834359 0 -0.008963785073653396 -0.097488524239737251 0 -0.0085859202367127747 -0.094875166029185887 0 -0.0067075665744638149 -0.094736297288880861 0 -0.011231022803937755 -0.09405163603686853 0 -0.0067075665744638149 -0.094736297288880861 0 -0.0073511877369355624 -0.093806174442381249 0 -0.008290529632218822 -0.094042599374306243 0 -0.0065823661770251151 -0.088930562552763784 0 -0.0065175291698858278 -0.086803158320162124 0 -0.008963785073653396 -0.097488524239737251 0 -0.0085859202367127747 -0.094875166029185887 0 -0.010905638422668585 -0.096285026845781121 0 -0.0062798127329322471 -0.096635235635637459 0 -0.0085859202367127747 -0.094875166029185887 0 -0.0067075665744638149 -0.094736297288880861 0 -0.0067075665744638149 -0.094736297288880861 0 -0.0064677871621607172 -0.093820069401316639 0 -0.0073511877369355624 -0.093806174442381249 0 -0.0067075665744638149 -0.094736297288880861 0 -0.005798456804261636 -0.095407171941168364 0 -0.0055041546330523543 -0.094158943166669687 0 -0.0067075665744638149 -0.094736297288880861 0 -0.0064677871621607172 -0.093820069401316639 0 -0.0055041546330523543 -0.094158943166669687 0 -0.0064677871621607172 -0.093820069401316639 0 -0.0055041546330523543 -0.094158943166669687 0 -0.0062413665890535845 -0.092647602159727144 0 -0.0064677871621607172 -0.093820069401316639 0 -0.0073511877369355624 -0.093806174442381249 0 -0.0062413665890535845 -0.092647602159727144 0 -0.0073511877369355624 -0.093806174442381249 0 -0.008290529632218822 -0.094042599374306243 0 -0.008065968989641405 -0.093118220867651924 0 -0.0073511877369355624 -0.093806174442381249 0 -0.0062413665890535845 -0.092647602159727144 0 -0.008065968989641405 -0.093118220867651924 0 -0.010102135879888757 -0.077238720713217385 0 -0.012011995956168191 -0.07722279742368432 0 -0.011253958750264321 -0.075691485292518887 0 -0.0067080785196920768 -0.084930722429073846 0 -0.0024500291288753547 -0.078454876472635673 0 -0.0047583498424567088 -0.09611934811499398 0 -0.005798456804261636 -0.095407171941168364 0 -0.0055041546330523543 -0.094158943166669687 0 -0.012011995956168191 -0.07722279742368432 0 -0.011253958750264321 -0.075691485292518887 0 -0.012554135935248243 -0.075738606937430564 0 -0.012554135935248243 -0.075738606937430564 0 -0.012411357714523858 -0.074139054208528329 0 -0.013099141499117672 -0.074255659959507725 0 -0.011253958750264321 -0.075691485292518887 0 -0.012554135935248243 -0.075738606937430564 0 -0.012411357714523858 -0.074139054208528329 0 -0.0082328929950533977 -0.064749144625014243 0 0.0015749376088824527 -0.05580024518928537 0 -0.0024500291288753547 -0.078454876472635673 0 0.002239479802848512 -0.063167442597651391 0 -0.013432784289985492 -0.060462967006362042 0 -0.013322123641924649 -0.059396582618808251 0 -0.014098345993460723 -0.059539931981593637 0 -0.012828653188962424 -0.059972758785367397 0 -0.013432784289985492 -0.060462967006362042 0 -0.013322123641924649 -0.059396582618808251 0 -0.0011442991383564557 -0.047008349652353863 0 0.0015749376088824527 -0.05580024518928537 0 0.012143669048370833 -0.029302422745866731 0 0.012546703295502419 -0.029308073676290656 0 0.012586837775702478 -0.029547145755499368 0 0.0015749376088824527 -0.05580024518928537 0 0.002239479802848512 -0.063167442597651391 0 0.012546703295502419 -0.029308073676290656 0 0.012586837775702478 -0.029547145755499368 0 0.012677966365765606 -0.029552119094270458 0 0.012143669048370833 -0.029302422745866731 0 0.012586837775702478 -0.029547145755499368 0 0.012223160885914764 -0.029650931721120599 0 0.012143669048370833 -0.029302422745866731 0 0.012223160885914764 -0.029650931721120599 0 0.011947862783644073 -0.029530124316852046 0 0.012223160885914764 -0.029650931721120599 0 0.011933266306887069 -0.029836625099842418 0 0.011947862783644073 -0.029530124316852046 0 0.01953675469692509 -0.048126769927279774 0 0.019551034594253842 -0.048128540559589365 0 0.019576358755202812 -0.048185336117015462 0 0.002239479802848512 -0.063167442597651391 0 0.0049232362119486931 -0.06969591441029839 0 0.019484279728802473 -0.048135458203678094 0 0.01953675469692509 -0.048126769927279774 0 0.019576358755202812 -0.048185336117015462 0 0.019422985958231914 -0.048150173184933677 0 0.019499349711414076 -0.048131456481729409 0 0.019528690862252705 -0.048113802122012286 0 0.0015749376088824527 -0.05580024518928537 0 0.012715036076134332 -0.043128078684466824 0 0.019499349711414076 -0.048131456481729409 0 0.019484279728802473 -0.048135458203678094 0 0.01953675469692509 -0.048126769927279774 0 0.0027407263623021628 -0.061506822591270049 0 0.002239479802848512 -0.063167442597651391 0 0.019422985958231914 -0.048150173184933677 0 0.019499349711414076 -0.048131456481729409 0 0.019456279860308418 -0.048136710400554464 0 0.012586837775702478 -0.029547145755499368 0 0.012677966365765606 -0.029552119094270458 0 0.012670478389988421 -0.029499821367736847 0 0.019499349711414076 -0.048131456481729409 0 0.019528690862252705 -0.048113802122012286 0 0.01953675469692509 -0.048126769927279774 0 0.019528690862252705 -0.048113802122012286 0 0.01953675469692509 -0.048126769927279774 0 0.019538471195092187 -0.048084612600597529 0 0.01953675469692509 -0.048126769927279774 0 0.019538471195092187 -0.048084612600597529 0 0.01954056554992701 -0.048080360855549821 0 0.019538471195092187 -0.048084612600597529 0 0.01954056554992701 -0.048080360855549821 0 0.01954105232859888 -0.048058338491345165 0 0.01953675469692509 -0.048126769927279774 0 0.01954056554992701 -0.048080360855549821 0 0.019551034594253842 -0.048128540559589365 0 0.012715036076134332 -0.043128078684466824 0 0.024048684503168421 -0.035553746598529432 0 0.019538471195092187 -0.048084612600597529 0 0.01955172710755786 -0.048030736642747707 0 0.01954105232859888 -0.048058338491345165 0 0.01955172710755786 -0.048030736642747707 0 0.01954105232859888 -0.048058338491345165 0 0.019526210438339579 -0.048046280088734905 0 0.019528690862252705 -0.048113802122012286 0 0.019538471195092187 -0.048084612600597529 0 0.01955172710755786 -0.048030736642747707 0 0.012677966365765606 -0.029552119094270458 0 0.012598986438001454 -0.029458156043281829 0 0.012661855573638105 -0.02944941333491723 0 0.012677966365765606 -0.029552119094270458 0 0.012661855573638105 -0.02944941333491723 0 0.012670478389988421 -0.029499821367736847 0 0.012661855573638105 -0.02944941333491723 0 0.012670478389988421 -0.029499821367736847 0 0.012697254467448739 -0.029376072208407412 0 0.012661855573638105 -0.02944941333491723 0 0.012697295857963455 -0.029344613268354414 0 0.012697254467448739 -0.029376072208407412 0 0.012598986438001454 -0.029458156043281829 0 0.012661855573638105 -0.02944941333491723 0 0.012697295857963455 -0.029344613268354414 0 0.038206574582277338 -0.024824798485343285 0 0.042793813467509462 -0.021720063246177358 0 0.040190625987894399 -0.022866231580597973 0 0.024048684503168421 -0.035553746598529432 0 0.025260120335648149 -0.021581253316651259 0 0.038631014061423399 -0.020210119342091784 0 0.042793813467509462 -0.021720063246177358 0 0.040190625987894399 -0.022866231580597973 0 0.025260120335648149 -0.021581253316651259 0 0.024755577597751991 -0.022150059074257072 0 0.038631014061423399 -0.020210119342091784 0 0.040190625987894399 -0.022866231580597973 0 0.037527684759569961 -0.02382038147870565 0 0.030878416400088638 -0.032646413895869503 0 0.026942471150957194 -0.034642411883630785 0 0.038206574582277338 -0.024824798485343285 0 0.040190625987894399 -0.022866231580597973 0 0.037422702412446114 -0.023874215027007574 0 0.024048684503168421 -0.035553746598529432 0 0.026942471150957194 -0.034642411883630785 0 0.012223160885914764 -0.029650931721120599 0 0.01240304465854067 -0.029927271587419198 0 0.011933266306887069 -0.029836625099842418 0 0.01240304465854067 -0.029927271587419198 0 0.012264609027058341 -0.030249104381290991 0 0.011933266306887069 -0.029836625099842418 0 0.012586837775702478 -0.029547145755499368 0 0.012670478389988421 -0.029499821367736847 0 0.012806776783447542 -0.029462689093188534 0 0.012586837775702478 -0.029547145755499368 0 0.012223160885914764 -0.029650931721120599 0 0.01240304465854067 -0.029927271587419198 0 0.013420491742731242 -0.027523093571517009 0 0.014083990992523403 -0.025905453065633289 0 0.012670478389988421 -0.029499821367736847 0 0.012806776783447542 -0.029462689093188534 0 0.012697254467448739 -0.029376072208407412 0 0.012806776783447542 -0.029462689093188534 0 0.012804978483353106 -0.029250198401267653 0 0.012990569210409284 -0.029184205555201074 0 0.012806776783447542 -0.029462689093188534 0 0.012697254467448739 -0.029376072208407412 0 0.012804978483353106 -0.029250198401267653 0 0.012614190055060202 -0.029185612078232313 0 0.012697254467448739 -0.029376072208407412 0 0.012804978483353106 -0.029250198401267653 0 0.019311106214040814 -0.0069937521116980516 0 0.015438328199385577 -0.0056779653579942004 0 0.014469393622458566 -0.00032552026870882856 0 0.014083990992523403 -0.025905453065633289 0 0.017189058096641941 -0.018314598796449297 0 0.017189058096641941 -0.018314598796449297 0 0.0068901528547281477 -0.021419519110700159 0 0.015753127391242138 -0.0087613375822894711 0 0.019311106214040814 -0.0069937521116980516 0 0.015438328199385577 -0.0056779653579942004 0 0.015438328199385577 -0.0056779653579942004 0 0.012200349366301802 -0.0068344432515397976 0 0.014469393622458566 -0.00032552026870882856 0 0.015753127391242138 -0.0087613375822894711 0 0.015438328199385577 -0.0056779653579942004 0 0.012200349366301802 -0.0068344432515397976 0 0.012200349366301802 -0.0068344432515397976 0 0.014469393622458566 -0.00032552026870882856 0 0.0095220061038082202 -0.0007102512256821306 0 0.0040169294852539063 -0.0099809648720412952 0 0.012200349366301802 -0.0068344432515397976 0 0.0061794899880807524 -0.0041543886723349561 0 0.0080145755105053302 0.0023333597720788584 0 0.0061794899880807524 -0.0041543886723349561 0 0.00053886964387874371 -0.0020489179573006042 0 -0.0014145586919978215 -0.009888567838817048 0 -0.0048273452480849226 -0.01120555048863053 0 0.012200349366301802 -0.0068344432515397976 0 0.0080145755105053302 0.0023333597720788584 0 0.0061794899880807524 -0.0041543886723349561 0 -0.0049737377752462264 -0.0091614373168104248 0 0.0040169294852539063 -0.0099809648720412952 0 0.00053886964387874371 -0.0020489179573006042 0 0.0040169294852539063 -0.0099809648720412952 0 0.0061794899880807524 -0.0041543886723349561 0 0.00053886964387874371 -0.0020489179573006042 0 -0.0049737377752462264 -0.0091614373168104248 0 0.00053886964387874371 -0.0020489179573006042 0 -0.0083446215868115039 -0.0013637133591358076 0 -0.0083446215868115039 -0.0013637133591358076 0 -0.003380915947651544 0.0028802776053513776 0 -0.007203514900442378 0.0096886605109049017 0 -0.016564162782302595 -0.022047202184095487 0 -0.024254515161790398 -0.039745001689748566 0 0.00053886964387874371 -0.0020489179573006042 0 -0.0083446215868115039 -0.0013637133591358076 0 -0.003380915947651544 0.0028802776053513776 0 0.0080145755105053302 0.0023333597720788584 0 0.00053886964387874371 -0.0020489179573006042 0 0.0015992946396424469 0.0050347646744727916 0 0.00053886964387874371 -0.0020489179573006042 0 -0.003380915947651544 0.0028802776053513776 0 0.0015992946396424469 0.0050347646744727916 0 0.0015992946396424469 0.0050347646744727916 0 0.0037055671775690479 0.011549158262768068 0 -0.007203514900442378 0.0096886605109049017 0 -0.010322755763081195 -0.030134752368664083 0 -0.024254515161790398 -0.039745001689748566 0 0.0080145755105053302 0.0023333597720788584 0 0.0015992946396424469 0.0050347646744727916 0 0.0037055671775690479 0.011549158262768068 0 -0.003380915947651544 0.0028802776053513776 0 0.0015992946396424469 0.0050347646744727916 0 -0.007203514900442378 0.0096886605109049017 0 -0.024254515161790398 -0.039745001689748566 0 -0.025272691481586097 -0.045629188407949647 0 -0.022760112956779474 -0.037028169318314597 0 -0.018823143114147775 -0.036354385182677473 0 -0.019847921534858509 -0.038909725809615901 0 -0.035733596609279564 -0.058365238120886648 0 -0.024254515161790398 -0.039745001689748566 0 -0.031367966719803506 -0.05267678704567931 0 -0.030592365134821217 -0.042901668621273543 0 -0.033139177897450349 -0.049184940274702091 0 -0.022760112956779474 -0.037028169318314597 0 -0.019847921534858509 -0.038909725809615901 0 -0.021788232942087045 -0.039182509609877361 0 -0.01566823375529687 -0.042476392347849438 0 -0.014032258251777417 -0.04607998092526757 0 -0.018142377611967429 -0.044436938207699415 0 -0.010322755763081195 -0.030134752368664083 0 -0.018119169346257416 -0.041674763816186379 0 -0.017840409824338904 -0.050010249235368426 0 -0.018142377611967429 -0.044436938207699415 0 -0.020446832420926767 -0.043305101067288833 0 -0.010322755763081195 -0.030134752368664083 0 -0.0044008757434695796 -0.034391546214264004 0 -0.01566823375529687 -0.042476392347849438 0 -0.018142377611967429 -0.044436938207699415 0 -0.019019007651444569 -0.043055555185008546 0 -0.018142377611967429 -0.044436938207699415 0 -0.019012233413480663 -0.043061486306700557 0 -0.020446832420926767 -0.043305101067288833 0 -0.0044008757434695796 -0.034391546214264004 0 -0.0053092639137370971 -0.039336737541739303 0 -0.0046238415794844561 -0.034570589300343957 0 -0.0044008757434695796 -0.034391546214264004 0 -0.0011442991383564557 -0.047008349652353863 0 -0.0053092639137370971 -0.039336737541739303 0 -0.012828653188962424 -0.059972758785367397 0 -0.013322123641924649 -0.059396582618808251 0 -0.012514826683760824 -0.059229673972289038 0 0.012143669048370833 -0.029302422745866731 0 0.011678496256636686 -0.0293522151701078 0 0.011947862783644073 -0.029530124316852046 0 0.011536704039639058 -0.029386557418384307 0 0.011666893436070675 -0.02935951014468232 0 0.011743548422797382 -0.029491380290125168 0 0.011933266306887069 -0.029836625099842418 0 0.011743548422797382 -0.029491380290125168 0 0.011947862783644073 -0.029530124316852046 0 0.011678496256636686 -0.0293522151701078 0 0.011743548422797382 -0.029491380290125168 0 0.011947862783644073 -0.029530124316852046 0 0.011933266306887069 -0.029836625099842418 0 0.011536704039639058 -0.029386557418384307 0 0.011743548422797382 -0.029491380290125168 0 -0.0053092639137370971 -0.039336737541739303 0 -0.0050291767294138503 -0.038989306117725012 0 0.0068901528547281477 -0.021419519110700159 0 -0.0044008757434695796 -0.034391546214264004 0 -0.0048273452480849226 -0.01120555048863053 0 -0.010322755763081195 -0.030134752368664083 0 0.0095220061038082202 -0.0007102512256821306 0 0.0067980962742166121 0.005056260024116398 0 0.010293449205302323 0.0056906804106237191 0 0.014469393622458566 -0.00032552026870882856 0 0.0095220061038082202 -0.0007102512256821306 0 0.010293449205302323 0.0056906804106237191 0 -0.11038780532916015 -0.019417031450757762 0 -0.10499971422771469 -0.020726743546277251 0 -0.10995651014282802 -0.025829339636983167 0 -0.10499971422771469 -0.020726743546277251 0 -0.10995651014282802 -0.025829339636983167 0 -0.10499987383452491 -0.027033372716031717 0 -0.10746475673436211 -0.025552958290303681 0 -0.10751170325114688 -0.02081413833819077 0 -0.11038780532916015 -0.019417031450757762 0 -0.10995651014282802 -0.025829339636983167 0 -0.11425415212378195 -0.023652336909049946 0 -0.10746475673436211 -0.025552958290303681 0 -0.10669226829044201 -0.028228681715347887 0 -0.10736044861437503 -0.020478220367122248 0 -0.10410272147425192 -0.021853296475945052 0 -0.10311113142558054 -0.021081979051482704 0 -0.10751170325114688 -0.02081413833819077 0 -0.10543633069229888 -0.015731373211363021 0 -0.10410272147425192 -0.021853296475945052 0 -0.10311113142558054 -0.021081979051482704 0 -0.10084036793123009 -0.023221710100718933 0 -0.11425415212378195 -0.023652336909049946 0 -0.11515497881142082 -0.019559576006751525 0 -0.1187987836401348 -0.02152574794789586 0 -0.11038780532916015 -0.019417031450757762 0 -0.11425415212378195 -0.023652336909049946 0 -0.11515497881142082 -0.019559576006751525 0 -0.11038780532916015 -0.019417031450757762 0 -0.11464865398625244 -0.015038304225566037 0 -0.11076893003544544 -0.01349800837653909 0 -0.11038780532916015 -0.019417031450757762 0 -0.11515497881142082 -0.019559576006751525 0 -0.11464865398625244 -0.015038304225566037 0 -0.11515497881142082 -0.019559576006751525 0 -0.11464865398625244 -0.015038304225566037 0 -0.12008579543868246 -0.016959977561970124 0 -0.11663151850684218 -0.010683409070694743 0 -0.11598639593183355 -0.0091008410381614412 0 -0.11464865398625244 -0.015038304225566037 0 -0.1162168192654208 -0.010623791113086586 0 -0.11842870453562239 -0.012085850950282681 0 -0.11464865398625244 -0.015038304225566037 0 -0.11076893003544544 -0.01349800837653909 0 -0.11352228273860313 -0.010148774720585844 0 -0.11038780532916015 -0.019417031450757762 0 -0.11076893003544544 -0.01349800837653909 0 -0.10499978885273679 -0.014419793131199074 0 -0.11038780532916015 -0.019417031450757762 0 -0.10499971422771469 -0.020726743546277251 0 -0.10499978885273679 -0.014419793131199074 0 -0.10499978885273679 -0.014419793131199074 0 -0.1098440698177499 -0.0089024051885805509 0 -0.10499991572272531 -0.0081133435416064388 0 -0.11076893003544544 -0.01349800837653909 0 -0.10499978885273679 -0.014419793131199074 0 -0.1098440698177499 -0.0089024051885805509 0 -0.10499991572272531 -0.0081133435416064388 0 -0.10933440278300395 -0.0020945883079394822 0 -0.10499981138097655 -0.0018071089761505404 0 -0.1098440698177499 -0.0089024051885805509 0 -0.10499991572272531 -0.0081133435416064388 0 -0.10933440278300395 -0.0020945883079394822 0 -0.1098440698177499 -0.0089024051885805509 0 -0.10933440278300395 -0.0020945883079394822 0 -0.11354191769127879 -0.0059171182147548223 0 -0.11812799807727997 -0.00016712784187855115 0 -0.11448527252375192 -0.0016997595099632577 0 -0.11791713551163374 -0.0025300902115676939 0 -0.11448527252375192 -0.0016997595099632577 0 -0.11628620840816589 -0.0048955042837979541 0 -0.11791713551163374 -0.0025300902115676939 0 -0.11179353124223017 0.0010466053841224892 0 -0.10933440278300395 -0.0020945883079394822 0 -0.11448527252375192 -0.0016997595099632577 0 -0.10933440278300395 -0.0020945883079394822 0 -0.11448527252375192 -0.0016997595099632577 0 -0.11354191769127879 -0.0059171182147548223 0 -0.11354191769127879 -0.0059171182147548223 0 -0.11628620840816589 -0.0048955042837979541 0 -0.11602948759517991 -0.0075832189038669926 0 -0.11448527252375192 -0.0016997595099632577 0 -0.11354191769127879 -0.0059171182147548223 0 -0.11628620840816589 -0.0048955042837979541 0 -0.11354191769127879 -0.0059171182147548223 0 -0.11602948759517991 -0.0075832189038669926 0 -0.11352228273860313 -0.010148774720585844 0 -0.1098440698177499 -0.0089024051885805509 0 -0.11354191769127879 -0.0059171182147548223 0 -0.11352228273860313 -0.010148774720585844 0 -0.11076893003544544 -0.01349800837653909 0 -0.1098440698177499 -0.0089024051885805509 0 -0.11352228273860313 -0.010148774720585844 0 -0.11602948759517991 -0.0075832189038669926 0 -0.11352228273860313 -0.010148774720585844 0 -0.1162168192654208 -0.010623791113086586 0 -0.11464865398625244 -0.015038304225566037 0 -0.11352228273860313 -0.010148774720585844 0 -0.1162168192654208 -0.010623791113086586 0 -0.1162168192654208 -0.010623791113086586 0 -0.11833701127321854 -0.008212450388288918 0 -0.11842870453562239 -0.012085850950282681 0 -0.120086110092105 -0.0098523081253771884 0 -0.12111625261871294 -0.011826729434702745 0 -0.11842870453562239 -0.012085850950282681 0 -0.120086110092105 -0.0098523081253771884 0 -0.11833701127321854 -0.008212450388288918 0 -0.12093265743258434 -0.0076390373353238316 0 -0.120086110092105 -0.0098523081253771884 0 -0.11833701127321854 -0.008212450388288918 0 -0.11842870453562239 -0.012085850950282681 0 -0.120086110092105 -0.0098523081253771884 0 -0.12161287198736598 -0.0094828251521915652 0 -0.12111625261871294 -0.011826729434702745 0 -0.120086110092105 -0.0098523081253771884 0 -0.12093265743258434 -0.0076390373353238316 0 -0.12161287198736598 -0.0094828251521915652 0 -0.11986360745247771 -0.0055916918977776259 0 -0.11833701127321854 -0.008212450388288918 0 -0.12093265743258434 -0.0076390373353238316 0 -0.11986360745247771 -0.0055916918977776259 0 -0.11833701127321854 -0.008212450388288918 0 -0.11809792609076884 -0.005486065182396316 0 -0.11602948759517991 -0.0075832189038669926 0 -0.1162168192654208 -0.010623791113086586 0 -0.11833701127321854 -0.008212450388288918 0 -0.11602948759517991 -0.0075832189038669926 0 -0.11833701127321854 -0.008212450388288918 0 -0.11809792609076884 -0.005486065182396316 0 -0.11628620840816589 -0.0048955042837979541 0 -0.11602948759517991 -0.0075832189038669926 0 -0.11809792609076884 -0.005486065182396316 0 -0.11628620840816589 -0.0048955042837979541 0 -0.11809792609076884 -0.005486065182396316 0 -0.11791713551163374 -0.0025300902115676939 0 -0.11809792609076884 -0.005486065182396316 0 -0.11939024419499999 -0.0036064394642902932 0 -0.11791713551163374 -0.0025300902115676939 0 -0.11986360745247771 -0.0055916918977776259 0 -0.11809792609076884 -0.005486065182396316 0 -0.11939024419499999 -0.0036064394642902932 0 -0.11986360745247771 -0.0055916918977776259 0 -0.11939024419499999 -0.0036064394642902932 0 -0.1207146986634202 -0.0035429890812535905 0 -0.11939024419499999 -0.0036064394642902932 0 -0.12004953331344106 -0.0015193710279642657 0 -0.1207146986634202 -0.0035429890812535905 0 -0.11939024419499999 -0.0036064394642902932 0 -0.12004953331344106 -0.0015193710279642657 0 -0.11791713551163374 -0.0025300902115676939 0 -0.11812799807727997 -0.00016712784187855115 0 -0.12004953331344106 -0.0015193710279642657 0 -0.11791713551163374 -0.0025300902115676939 0 -0.1196993711601277 -0.0021888929813486829 0 -0.11524760979239461 0.00014919982048668056 0 -0.12062375714659516 -0.00053336020410518423 0 -0.11524760979239461 0.00014919982048668056 0 -0.12062375714659516 -0.00053336020410518423 0 -0.11547009561882568 0.0038929940148735333 0 -0.11524760979239461 0.00014919982048668056 0 -0.11547009561882568 0.0038929940148735333 0 -0.11212211809644473 0.0035291281694648934 0 -0.1196993711601277 -0.0021888929813486829 0 -0.12004953331344106 -0.0015193710279642657 0 -0.12062375714659516 -0.00053336020410518423 0 -0.12004953331344106 -0.0015193710279642657 0 -0.12062375714659516 -0.00053336020410518423 0 -0.1207146986634202 -0.0035429890812535905 0 -0.12062375714659516 -0.00053336020410518423 0 -0.1207146986634202 -0.0035429890812535905 0 -0.12253210574931986 -0.0045615190450784496 0 -0.11986360745247771 -0.0055916918977776259 0 -0.1207146986634202 -0.0035429890812535905 0 -0.12204723745395711 -0.0061215260469342442 0 -0.1207146986634202 -0.0035429890812535905 0 -0.12253210574931986 -0.0045615190450784496 0 -0.12204723745395711 -0.0061215260469342442 0 -0.12062375714659516 -0.00053336020410518423 0 -0.12253210574931986 -0.0045615190450784496 0 -0.12497565095585413 -0.0058283309445826504 0 -0.11547009561882568 0.0038929940148735333 0 -0.11825686335361271 0.010803422718923608 0 -0.11219558463282042 0.0067470288413968944 0 -0.12062375714659516 -0.00053336020410518423 0 -0.11547009561882568 0.0038929940148735333 0 -0.11825686335361271 0.010803422718923608 0 -0.11192219715183413 -0.0015516639273782955 0 -0.10774123092255952 0.00030387863674151199 0 -0.12253210574931986 -0.0045615190450784496 0 -0.12429464699921025 -0.0057466666673205175 0 -0.12497565095585413 -0.0058283309445826504 0 -0.12253210574931986 -0.0045615190450784496 0 -0.12429464699921025 -0.0057466666673205175 0 -0.12304379919621455 -0.0057263661707897349 0 -0.12477528380244318 -0.0058842693808413039 0 -0.12380716469896719 -0.0072395293300804948 0 -0.1263554474473349 -0.0098891415190134127 0 -0.10774123092255952 0.00030387863674151199 0 -0.10294444156655794 0.0018728914912265672 0 -0.10792792372818007 0.00025647458489430971 0 -0.10774123092255952 0.00030387863674151199 0 -0.12429464699921025 -0.0057466666673205175 0 -0.12380716469896719 -0.0072395293300804948 0 -0.12304379919621455 -0.0057263661707897349 0 -0.12429464699921025 -0.0057466666673205175 0 -0.12477528380244318 -0.0058842693808413039 0 -0.12380716469896719 -0.0072395293300804948 0 -0.11986360745247771 -0.0055916918977776259 0 -0.12204723745395711 -0.0061215260469342442 0 -0.12093265743258434 -0.0076390373353238316 0 -0.12380716469896719 -0.0072395293300804948 0 -0.12204723745395711 -0.0061215260469342442 0 -0.12304379919621455 -0.0057263661707897349 0 -0.12253210574931986 -0.0045615190450784496 0 -0.12204723745395711 -0.0061215260469342442 0 -0.12304379919621455 -0.0057263661707897349 0 -0.12380716469896719 -0.0072395293300804948 0 -0.12204723745395711 -0.0061215260469342442 0 -0.12237591597011487 -0.0079643811927526693 0 -0.12380716469896719 -0.0072395293300804948 0 -0.12237591597011487 -0.0079643811927526693 0 -0.12358758108160121 -0.0092409508574880783 0 -0.12237591597011487 -0.0079643811927526693 0 -0.12093265743258434 -0.0076390373353238316 0 -0.12161287198736598 -0.0094828251521915652 0 -0.12204723745395711 -0.0061215260469342442 0 -0.12237591597011487 -0.0079643811927526693 0 -0.12093265743258434 -0.0076390373353238316 0 -0.12161287198736598 -0.0094828251521915652 0 -0.1238814157039998 -0.011758463515346278 0 -0.12111625261871294 -0.011826729434702745 0 -0.12237591597011487 -0.0079643811927526693 0 -0.12161287198736598 -0.0094828251521915652 0 -0.12358758108160121 -0.0092409508574880783 0 -0.12161287198736598 -0.0094828251521915652 0 -0.12358758108160121 -0.0092409508574880783 0 -0.1238814157039998 -0.011758463515346278 0 -0.12358758108160121 -0.0092409508574880783 0 -0.1238814157039998 -0.011758463515346278 0 -0.1263554474473349 -0.0098891415190134127 0 -0.12380716469896719 -0.0072395293300804948 0 -0.12358758108160121 -0.0092409508574880783 0 -0.1263554474473349 -0.0098891415190134127 0 -0.1238814157039998 -0.011758463515346278 0 -0.12568497337565127 -0.012503543416278268 0 -0.1263554474473349 -0.0098891415190134127 0 -0.1238814157039998 -0.011758463515346278 0 -0.12568497337565127 -0.012503543416278268 0 -0.12472848160164805 -0.014851257785463005 0 -0.1238814157039998 -0.011758463515346278 0 -0.12472848160164805 -0.014851257785463005 0 -0.12246611302375771 -0.013815113830378971 0 -0.0819375190163662 0.033047352235519897 0 -0.088463414731102225 0.035778443573654048 0 -0.078938668493207909 0.038895516821336074 0 -0.0819375190163662 0.033047352235519897 0 -0.078938668493207909 0.038895516821336074 0 -0.077358989460969113 0.034891562550027795 0 -0.099200805840725298 0.0081396646797551805 0 -0.10151013616602504 0.00033524665465786289 0 -0.12472848160164805 -0.014851257785463005 0 -0.12175065443371376 -0.016153354898117471 0 -0.12246611302375771 -0.013815113830378971 0 -0.12175065443371376 -0.016153354898117471 0 -0.12246611302375771 -0.013815113830378971 0 -0.12038814416754644 -0.013869590374553278 0 -0.1238814157039998 -0.011758463515346278 0 -0.12246611302375771 -0.013815113830378971 0 -0.12111625261871294 -0.011826729434702745 0 -0.12246611302375771 -0.013815113830378971 0 -0.12111625261871294 -0.011826729434702745 0 -0.12038814416754644 -0.013869590374553278 0 -0.12111625261871294 -0.011826729434702745 0 -0.12038814416754644 -0.013869590374553278 0 -0.11842870453562239 -0.012085850950282681 0 -0.12038814416754644 -0.013869590374553278 0 -0.11842870453562239 -0.012085850950282681 0 -0.11811763610655836 -0.015183819106214318 0 -0.11464865398625244 -0.015038304225566037 0 -0.11842870453562239 -0.012085850950282681 0 -0.11811763610655836 -0.015183819106214318 0 -0.10151013616602504 0.00033524665465786289 0 -0.11598639593183355 -0.0091008410381614412 0 -0.12175065443371376 -0.016153354898117471 0 -0.12038814416754644 -0.013869590374553278 0 -0.11811763610655836 -0.015183819106214318 0 -0.12509052329332057 -0.018592513300000165 0 -0.12008579543868246 -0.016959977561970124 0 -0.12331534358303189 -0.019364812001427922 0 -0.098869458243746267 -0.0085741642304400234 0 -0.10543633069229888 -0.015731373211363021 0 -0.096805162716689458 -0.030708415584055081 0 -0.099868962593757687 -0.023547784461223263 0 -0.092129184794656843 -0.024709498842202703 0 -0.097602186631651877 -0.024588182489443347 0 -0.10084036793123009 -0.023221710100718933 0 -0.098862514446321978 -0.021697376281946363 0 -0.098869458243746267 -0.0085741642304400234 0 -0.096189108768957629 -0.035060581475935243 0 -0.12008579543868246 -0.016959977561970124 0 -0.12331534358303189 -0.019364812001427922 0 -0.1187987836401348 -0.02152574794789586 0 -0.11515497881142082 -0.019559576006751525 0 -0.12008579543868246 -0.016959977561970124 0 -0.1187987836401348 -0.02152574794789586 0 -0.10669226829044201 -0.028228681715347887 0 -0.096189108768957629 -0.035060581475935243 0 -0.10311113142558054 -0.021081979051482704 0 -0.10084036793123009 -0.023221710100718933 0 -0.098862514446321978 -0.021697376281946363 0 -0.096189108768957629 -0.035060581475935243 0 -0.08907605774414705 -0.03999009585929187 0 -0.090170161905919921 -0.090580428662302398 0 -0.08340632166158031 -0.086189135638259959 0 -0.08951033915223254 -0.085151726434584685 0 -0.098997402061837658 -0.089810629122027613 0 -0.090170161905919921 -0.090580428662302398 0 -0.08951033915223254 -0.085151726434584685 0 -0.08907605774414705 -0.03999009585929187 0 -0.08155260430017422 -0.038064228460477918 0 -0.090170161905919921 -0.090580428662302398 0 -0.081911406763615066 -0.090706762220359061 0 -0.08340632166158031 -0.086189135638259959 0 -0.088789886257139627 0.03536685842547873 0 -0.081925593312161316 0.038779370116082547 0 -0.078938668493207909 0.038895516821336074 0 -0.092129184794656843 -0.024709498842202703 0 -0.084363828536469856 -0.025882427020471294 0 -0.086668160938298294 -0.028886874867044818 0 -0.10151013616602504 0.00033524665465786289 0 -0.084145084507656301 0.014284802244320514 0 -0.088789886257139627 0.03536685842547873 0 -0.09193918248450722 0.036582666820403849 0 -0.081925593312161316 0.038779370116082547 0 -0.098869458243746267 -0.0085741642304400234 0 -0.083391251711064304 -0.011897084450048214 0 -0.096805162716689458 -0.030708415584055081 0 -0.092129184794656843 -0.024709498842202703 0 -0.086668160938298294 -0.028886874867044818 0 -0.10151013616602504 0.00033524665465786289 0 -0.098869458243746267 -0.0085741642304400234 0 -0.074895206546585269 -0.028107522552218385 0 -0.072331420386771511 -0.025680606700201412 0 -0.072188489450792301 0.040632195784624257 0 -0.070097574088822487 0.037331800622657917 0 -0.073093996034901451 0.035415863859647796 0 -0.073138859186660715 -0.026124452357093157 0 -0.071901335045986697 -0.025890177274900433 0 -0.070806538090266477 -0.026459854811555619 0 -0.072188489450792301 0.040632195784624257 0 -0.070097574088822487 0.037331800622657917 0 -0.067251721772659021 0.039678714130938673 0 -0.074895206546585269 -0.028107522552218385 0 -0.071346766744369489 -0.032098150002851704 0 -0.071346766744369489 -0.032098150002851704 0 -0.070658613580858509 -0.033088110049338613 0 -0.0745005761421485 -0.090586098350940017 0 -0.071462701935393502 -0.089815329196481983 0 -0.073123182404704376 -0.088988823528934377 0 -0.072188489450792301 0.040632195784624257 0 -0.075378413933933977 0.037476272707522872 0 -0.073093996034901451 0.035415863859647796 0 -0.08155260430017422 -0.038064228460477918 0 -0.074895206546585269 -0.028107522552218385 0 -0.084363828536469856 -0.025882427020471294 0 -0.086668160938298294 -0.028886874867044818 0 -0.076584708333232651 -0.027079565115325735 0 -0.072188489450792301 0.040632195784624257 0 -0.075378413933933977 0.037476272707522872 0 -0.078938668493207909 0.038895516821336074 0 -0.083391251711064304 -0.011897084450048214 0 -0.074895206546585269 -0.028107522552218385 0 -0.081925593312161316 0.038779370116082547 0 -0.072188489450792301 0.040632195784624257 0 -0.078938668493207909 0.038895516821336074 0 -0.075378413933933977 0.037476272707522872 0 -0.078938668493207909 0.038895516821336074 0 -0.077358989460969113 0.034891562550027795 0 -0.08340632166158031 -0.086189135638259959 0 -0.076957220933470225 -0.087304969081780801 0 -0.077680206591284412 -0.082564475416963642 0 -0.081911406763615066 -0.090706762220359061 0 -0.0745005761421485 -0.090586098350940017 0 -0.076957220933470225 -0.087304969081780801 0 -0.081911406763615066 -0.090706762220359061 0 -0.08340632166158031 -0.086189135638259959 0 -0.076957220933470225 -0.087304969081780801 0 -0.076957220933470225 -0.087304969081780801 0 -0.073382204149060257 -0.085015064994087508 0 -0.077680206591284412 -0.082564475416963642 0 -0.0745005761421485 -0.090586098350940017 0 -0.076957220933470225 -0.087304969081780801 0 -0.073123182404704376 -0.088988823528934377 0 -0.076957220933470225 -0.087304969081780801 0 -0.073382204149060257 -0.085015064994087508 0 -0.073123182404704376 -0.088988823528934377 0 -0.071660582590447872 -0.089383865324230538 0 -0.073123182404704376 -0.088988823528934377 0 -0.071150666619306177 -0.086587334699112048 0 -0.073382204149060257 -0.085015064994087508 0 -0.073123182404704376 -0.088988823528934377 0 -0.071150666619306177 -0.086587334699112048 0 -0.073382204149060257 -0.085015064994087508 0 -0.071150666619306177 -0.086587334699112048 0 -0.069469908245742909 -0.083525990114319368 0 -0.071660582590447872 -0.089383865324230538 0 -0.068752820270770967 -0.085882853755319399 0 -0.065806579283625682 -0.086790847672886584 0 -0.071346766744369489 -0.032098150002851704 0 -0.068422486297317564 -0.043230473551052209 0 -0.071150666619306177 -0.086587334699112048 0 -0.068752820270770967 -0.085882853755319399 0 -0.069469908245742909 -0.083525990114319368 0 -0.068752820270770967 -0.085882853755319399 0 -0.0657566206866185 -0.08325327941896675 0 -0.069469908245742909 -0.083525990114319368 0 -0.068752820270770967 -0.085882853755319399 0 -0.0657566206866185 -0.08325327941896675 0 -0.065806579283625682 -0.086790847672886584 0 -0.071660582590447872 -0.089383865324230538 0 -0.071150666619306177 -0.086587334699112048 0 -0.068752820270770967 -0.085882853755319399 0 -0.068422486297317564 -0.043230473551052209 0 -0.065943777923710631 -0.049615725736085164 0 -0.065361279720647439 -0.027203683103702726 0 -0.06402394384830179 -0.02753007891944681 0 -0.062222603840593645 -0.026625487158871804 0 -0.062296596622841365 -0.082614946872264602 0 -0.065806579283625682 -0.086790847672886584 0 -0.060387135433730373 -0.083486219834269487 0 -0.062296596622841365 -0.082614946872264602 0 -0.0657566206866185 -0.08325327941896675 0 -0.063203354689432598 -0.081408601199235014 0 -0.062296596622841365 -0.082614946872264602 0 -0.0657566206866185 -0.08325327941896675 0 -0.065806579283625682 -0.086790847672886584 0 -0.072331420386771511 -0.025680606700201412 0 -0.067030705361822665 -0.012367447436479264 0 -0.067062606853819207 -0.028341614047748011 0 -0.065647767225831641 -0.02851329239917778 0 -0.063283987145763304 -0.030151845372607237 0 -0.064356867422596165 -0.028469620651513719 0 -0.065647767225831641 -0.02851329239917778 0 -0.063283987145763304 -0.030151845372607237 0 -0.06402394384830179 -0.02753007891944681 0 -0.064356867422596165 -0.028469620651513719 0 -0.063521252726918942 -0.028842355277246098 0 -0.06402394384830179 -0.02753007891944681 0 -0.063521252726918942 -0.028842355277246098 0 -0.06224299962429241 -0.029198705059626701 0 -0.065361279720647439 -0.027203683103702726 0 -0.06402394384830179 -0.02753007891944681 0 -0.064356867422596165 -0.028469620651513719 0 -0.065361279720647439 -0.027203683103702726 0 -0.064356867422596165 -0.028469620651513719 0 -0.065647767225831641 -0.02851329239917778 0 -0.064356867422596165 -0.028469620651513719 0 -0.063521252726918942 -0.028842355277246098 0 -0.063283987145763304 -0.030151845372607237 0 -0.070097574088822487 0.037331800622657917 0 -0.067251721772659021 0.039678714130938673 0 -0.067716350128377401 0.034407679424459277 0 -0.06819111253267103 -0.027733569520001271 0 -0.065361279720647439 -0.027203683103702726 0 -0.06709423067739663 -0.028305199042300288 0 -0.071346766744369489 -0.032098150002851704 0 -0.072331420386771511 -0.025680606700201412 0 -0.065361279720647439 -0.027203683103702726 0 -0.06709423067739663 -0.028305199042300288 0 -0.065647767225831641 -0.02851329239917778 0 -0.072331420386771511 -0.025680606700201412 0 -0.071402891084238029 -0.025893847106475167 0 -0.067251721772659021 0.039678714130938673 0 -0.067716350128377401 0.034407679424459277 0 -0.059529576909585824 0.035848346519030419 0 -0.067716350128377401 0.034407679424459277 0 -0.059529576909585824 0.035848346519030419 0 -0.063465721713614559 0.031196534840276614 0 -0.063465721713614559 0.031196534840276614 0 -0.06292352110609338 0.027004424228717114 0 -0.05836056843844329 0.029371777751253058 0 -0.059529576909585824 0.035848346519030419 0 -0.063465721713614559 0.031196534840276614 0 -0.05836056843844329 0.029371777751253058 0 -0.08107290053448564 0.015557447754124607 0 -0.073892617657198512 0.015525703453160582 0 -0.067716350128377401 0.034407679424459277 0 -0.063465721713614559 0.031196534840276614 0 -0.068805089734986558 0.029263049004543105 0 -0.063465721713614559 0.031196534840276614 0 -0.068805089734986558 0.029263049004543105 0 -0.06292352110609338 0.027004424228717114 0 -0.068805089734986558 0.029263049004543105 0 -0.0709859245646349 0.033046124050535905 0 -0.074638842582151907 0.031597395494440836 0 -0.08107290053448564 0.015557447754124607 0 -0.090260766406472764 0.013350093259525053 0 -0.086796995540817379 0.014259922908892397 0 -0.093179586917696011 0.017023377460919104 0 -0.090988687135261578 0.011345992123430111 0 -0.067716350128377401 0.034407679424459277 0 -0.068805089734986558 0.029263049004543105 0 -0.0709859245646349 0.033046124050535905 0 -0.0709859245646349 0.033046124050535905 0 -0.073093996034901451 0.035415863859647796 0 -0.074638842582151907 0.031597395494440836 0 -0.070097574088822487 0.037331800622657917 0 -0.0709859245646349 0.033046124050535905 0 -0.073093996034901451 0.035415863859647796 0 -0.070097574088822487 0.037331800622657917 0 -0.067716350128377401 0.034407679424459277 0 -0.0709859245646349 0.033046124050535905 0 -0.0819375190163662 0.033047352235519897 0 -0.077358989460969113 0.034891562550027795 0 -0.07531135177991477 0.030171638084070973 0 -0.099200805840725298 0.0081396646797551805 0 -0.090260766406472764 0.013350093259525053 0 -0.075378413933933977 0.037476272707522872 0 -0.073093996034901451 0.035415863859647796 0 -0.077358989460969113 0.034891562550027795 0 -0.073093996034901451 0.035415863859647796 0 -0.077358989460969113 0.034891562550027795 0 -0.07531135177991477 0.030171638084070973 0 -0.086728632696782076 0.020017446212975756 0 -0.090260766406472764 0.013350093259525053 0 -0.093179586917696011 0.017023377460919104 0 -0.096169382697143299 0.010124853824932769 0 -0.090988687135261578 0.011345992123430111 0 -0.12568497337565127 -0.012503543416278268 0 -0.12472848160164805 -0.014851257785463005 0 -0.12778281416897774 -0.013478995587350516 0 -0.12568497337565127 -0.012503543416278268 0 -0.12778281416897774 -0.013478995587350516 0 -0.1263554474473349 -0.0098891415190134127 0 -0.090260766406472764 0.013350093259525053 0 -0.10294444156655794 0.0018728914912265672 0 -0.096169382697143299 0.010124853824932769 0 -0.090988687135261578 0.011345992123430111 0 -0.090770507373807097 0.0050459789928966499 0 -0.086796995540817379 0.014259922908892397 0 -0.090988687135261578 0.011345992123430111 0 -0.087232755517222677 0.008996492813859034 0 -0.090988687135261578 0.011345992123430111 0 -0.087232755517222677 0.008996492813859034 0 -0.090770507373807097 0.0050459789928966499 0 -0.10373340831894177 0.015184388390795348 0 -0.1085210610045089 0.010026090465828153 0 -0.086184144412295188 0.0050106139613664167 0 -0.087232755517222677 0.008996492813859034 0 -0.090770507373807097 0.0050459789928966499 0 -0.082375107953530369 0.0068846228424410448 0 -0.11825686335361271 0.010803422718923608 0 -0.10373340831894177 0.015184388390795348 0 -0.1085210610045089 0.010026090465828153 0 -0.099168972349608545 0.0032083297197606862 0 -0.096169382697143299 0.010124853824932769 0 -0.090770507373807097 0.0050459789928966499 0 -0.10774123092255952 0.00030387863674151199 0 -0.095512253600870456 0.0068247789043454693 0 -0.11825686335361271 0.010803422718923608 0 -0.1085210610045089 0.010026090465828153 0 -0.11219558463282042 0.0067470288413968944 0 -0.11547009561882568 0.0038929940148735333 0 -0.11219558463282042 0.0067470288413968944 0 -0.11212211809644473 0.0035291281694648934 0 -0.11219558463282042 0.0067470288413968944 0 -0.109103755798586 0.0053025464424820397 0 -0.11212211809644473 0.0035291281694648934 0 -0.1085210610045089 0.010026090465828153 0 -0.109103755798586 0.0053025464424820397 0 -0.10539244582513524 0.005464498503444536 0 -0.1085210610045089 0.010026090465828153 0 -0.11219558463282042 0.0067470288413968944 0 -0.109103755798586 0.0053025464424820397 0 -0.10004759030341269 0.0096823390833066323 0 -0.091112411833791956 0.0085699094483538477 0 -0.1085210610045089 0.010026090465828153 0 -0.10539244582513524 0.005464498503444536 0 -0.10100032160246952 0.0067669639152309249 0 -0.109103755798586 0.0053025464424820397 0 -0.10539244582513524 0.005464498503444536 0 -0.10659571280043863 0.0029549419212188733 0 -0.10659571280043863 0.0029549419212188733 0 -0.106546275089726 0.00044364316568743092 0 -0.10934459845819933 0.0012632361413796303 0 -0.10385699969586369 -0.0013748410047514936 0 -0.10331979966704108 0.0020749803348704349 0 -0.106546275089726 0.00044364316568743092 0 -0.10659571280043863 0.0029549419212188733 0 -0.10331979966704108 0.0020749803348704349 0 -0.106546275089726 0.00044364316568743092 0 -0.10539244582513524 0.005464498503444536 0 -0.10659571280043863 0.0029549419212188733 0 -0.10331979966704108 0.0020749803348704349 0 -0.10978241268563389 -0.0023492151572582208 0 -0.106546275089726 0.00044364316568743092 0 -0.10934459845819933 0.0012632361413796303 0 -0.11593980969959683 -0.0031206629700425534 0 -0.11524760979239461 0.00014919982048668056 0 -0.10934459845819933 0.0012632361413796303 0 -0.11524760979239461 0.00014919982048668056 0 -0.10934459845819933 0.0012632361413796303 0 -0.11212211809644473 0.0035291281694648934 0 -0.109103755798586 0.0053025464424820397 0 -0.10934459845819933 0.0012632361413796303 0 -0.11212211809644473 0.0035291281694648934 0 -0.109103755798586 0.0053025464424820397 0 -0.10659571280043863 0.0029549419212188733 0 -0.10934459845819933 0.0012632361413796303 0 -0.094453215019540848 -0.0020458296158799879 0 -0.098438249964653793 0.002660592731675565 0 -0.094033412247631107 0.0052854216859773368 0 -0.10164377043952076 -0.0010670850380505288 0 -0.10331979966704108 0.0020749803348704349 0 -0.098438249964653793 0.002660592731675565 0 -0.10331979966704108 0.0020749803348704349 0 -0.098438249964653793 0.002660592731675565 0 -0.10100032160246952 0.0067669639152309249 0 -0.10539244582513524 0.005464498503444536 0 -0.10331979966704108 0.0020749803348704349 0 -0.10100032160246952 0.0067669639152309249 0 -0.091112411833791956 0.0085699094483538477 0 -0.071041486775234225 0.0075191971330044842 0 -0.086184144412295188 0.0050106139613664167 0 -0.070315060738157409 0.012641040147934695 0 -0.062591372444454826 0.0010799087982080911 0 -0.098438249964653793 0.002660592731675565 0 -0.10100032160246952 0.0067669639152309249 0 -0.094033412247631107 0.0052854216859773368 0 -0.070315060738157409 0.012641040147934695 0 -0.082264521846073621 0.020412819708318181 0 -0.061242722363759397 0.024121809458747034 0 -0.086184144412295188 0.0050106139613664167 0 -0.070315060738157409 0.012641040147934695 0 -0.082264521846073621 0.020412819708318181 0 -0.10373340831894177 0.015184388390795348 0 -0.086184144412295188 0.0050106139613664167 0 -0.082264521846073621 0.020412819708318181 0 -0.095512253600870456 0.0068247789043454693 0 -0.08199951325887575 0.011321770306404874 0 -0.086796995540817379 0.014259922908892397 0 -0.087232755517222677 0.008996492813859034 0 -0.080387153165152533 0.011499943048380732 0 -0.087232755517222677 0.008996492813859034 0 -0.082375107953530369 0.0068846228424410448 0 -0.080387153165152533 0.011499943048380732 0 -0.08199951325887575 0.011321770306404874 0 -0.068483757832207628 0.014367231430383771 0 -0.082375107953530369 0.0068846228424410448 0 -0.080387153165152533 0.011499943048380732 0 -0.073963265598905731 0.0087310655898228864 0 -0.073892617657198512 0.015525703453160582 0 -0.068483757832207628 0.014367231430383771 0 -0.06292352110609338 0.027004424228717114 0 -0.057072507051682479 0.02424368665458889 0 -0.05836056843844329 0.029371777751253058 0 -0.056109364695183975 0.027170051452147587 0 -0.057072507051682479 0.02424368665458889 0 -0.05836056843844329 0.029371777751253058 0 -0.056173467813356345 0.021266014554952566 0 -0.060143512647908542 0.022986884649053883 0 -0.054255808585842391 0.0239970113735994 0 -0.056109364695183975 0.027170051452147587 0 -0.057072507051682479 0.02424368665458889 0 -0.054255808585842391 0.0239970113735994 0 -0.068483757832207628 0.014367231430383771 0 -0.066609258110272282 0.015013167264559518 0 -0.06793561086164554 0.014381334716096247 0 -0.068483757832207628 0.014367231430383771 0 -0.054255808585842391 0.0239970113735994 0 -0.047706014007856672 0.014486194333461329 0 -0.053059630745306958 0.029419384891474325 0 -0.049704925969625675 0.031162594318334274 0 -0.050751357263662901 0.030188659068538168 0 -0.053059630745306958 0.029419384891474325 0 -0.050783941095502425 0.023159089222118165 0 -0.051829270771856145 0.026393090535221129 0 -0.050751357263662901 0.030188659068538168 0 -0.050958167979661191 0.029648099748611993 0 -0.053059630745306958 0.029419384891474325 0 -0.056109364695183975 0.027170051452147587 0 -0.054255808585842391 0.0239970113735994 0 -0.053059630745306958 0.029419384891474325 0 -0.056173467813356345 0.021266014554952566 0 -0.055618613423342081 0.013769176967700096 0 -0.047706014007856672 0.014486194333461329 0 -0.056173467813356345 0.021266014554952566 0 -0.054255808585842391 0.0239970113735994 0 -0.047706014007856672 0.014486194333461329 0 -0.055618613423342081 0.013769176967700096 0 -0.047706014007856672 0.014486194333461329 0 -0.056078709575334826 0.0083094750475055483 0 -0.070315060738157409 0.012641040147934695 0 -0.061242722363759397 0.024121809458747034 0 -0.061226235966069006 0.016099845294777135 0 -0.056173467813356345 0.021266014554952566 0 -0.061242722363759397 0.024121809458747034 0 -0.061226235966069006 0.016099845294777135 0 -0.056173467813356345 0.021266014554952566 0 -0.055618613423342081 0.013769176967700096 0 -0.061226235966069006 0.016099845294777135 0 -0.055618613423342081 0.013769176967700096 0 -0.061226235966069006 0.016099845294777135 0 -0.062096965269080692 0.0083153412146015192 0 -0.070315060738157409 0.012641040147934695 0 -0.061226235966069006 0.016099845294777135 0 -0.062096965269080692 0.0083153412146015192 0 -0.070315060738157409 0.012641040147934695 0 -0.062096965269080692 0.0083153412146015192 0 -0.062591372444454826 0.0010799087982080911 0 -0.07077617478880617 0.0074370025183677505 0 -0.071041486775234225 0.0075191971330044842 0 -0.062293199548104999 0.0032625429321881711 0 -0.056078709575334826 0.0083094750475055483 0 -0.052886377912566201 0.0018948061845311243 0 -0.071041486775234225 0.0075191971330044842 0 -0.059971705536276093 0.0049001214806818315 0 -0.055618613423342081 0.013769176967700096 0 -0.062096965269080692 0.0083153412146015192 0 -0.056078709575334826 0.0083094750475055483 0 -0.062096965269080692 0.0083153412146015192 0 -0.062293199548104999 0.0032625429321881711 0 -0.056078709575334826 0.0083094750475055483 0 -0.047706014007856672 0.014486194333461329 0 -0.052886377912566201 0.0018948061845311243 0 -0.043936995299246093 0.00047857165881183989 0 -0.047706014007856672 0.014486194333461329 0 -0.056078709575334826 0.0083094750475055483 0 -0.052886377912566201 0.0018948061845311243 0 -0.050913316936763424 0.0017770809616030653 0 -0.045570970226477985 -0.0026616886569535273 0 -0.043936995299246093 0.00047857165881183989 0 -0.059971705536276093 0.0049001214806818315 0 -0.055909359249707677 0.003970404251803384 0 -0.050913316936763424 0.0017770809616030653 0 -0.048468937254849048 -0.0049809035613134723 0 -0.045570970226477985 -0.0026616886569535273 0 -0.050913316936763424 0.0017770809616030653 0 -0.048468937254849048 -0.0049809035613134723 0 -0.053528031261905896 -0.0042852207160742808 0 -0.057878011110004415 0.0031814523786304785 0 -0.050913316936763424 0.0017770809616030653 0 -0.053528031261905896 -0.0042852207160742808 0 -0.072526924988823835 0.010572143563405793 0 -0.071041486775234225 0.0075191971330044842 0 -0.058737756371260767 -0.010283803759393606 0 -0.057878011110004415 0.0031814523786304785 0 -0.053528031261905896 -0.0042852207160742808 0 -0.053964789173701067 0.036305744056710457 0 -0.053784707727241941 0.03844849603675736 0 -0.051280635870201242 0.033612778213822088 0 -0.053784707727241941 0.03844849603675736 0 -0.051619545542028113 0.036478489911268404 0 -0.052169214880430657 0.033393180901256397 0 -0.055380497252424721 0.033757626354039477 0 -0.054923582236449935 0.0301523073387619 0 -0.051619545542028113 0.036478489911268404 0 -0.050949238542527656 0.03778626589002692 0 -0.050674833860875589 0.036299087739720459 0 -0.053784707727241941 0.03844849603675736 0 -0.051619545542028113 0.036478489911268404 0 -0.051816095550661689 0.038778999437901029 0 -0.051619545542028113 0.036478489911268404 0 -0.051816095550661689 0.038778999437901029 0 -0.050949238542527656 0.03778626589002692 0 -0.051073459013736958 0.039307004489998167 0 -0.051816095550661689 0.038778999437901029 0 -0.050949238542527656 0.03778626589002692 0 -0.051073459013736958 0.039307004489998167 0 -0.050949238542527656 0.03778626589002692 0 -0.049537521780441456 0.03682382624740288 0 -0.044562666910888692 -0.0066893383850975428 0 -0.045570970226477985 -0.0026616886569535273 0 -0.04236204099127687 -0.0012490500894048889 0 -0.044562666910888692 -0.0066893383850975428 0 -0.048468937254849048 -0.0049809035613134723 0 -0.045570970226477985 -0.0026616886569535273 0 -0.045570970226477985 -0.0026616886569535273 0 -0.043936995299246093 0.00047857165881183989 0 -0.04236204099127687 -0.0012490500894048889 0 -0.049537521780441456 0.03682382624740288 0 -0.050674833860875589 0.036299087739720459 0 -0.050743509756818517 0.034377997355842356 0 -0.050949238542527656 0.03778626589002692 0 -0.049537521780441456 0.03682382624740288 0 -0.050674833860875589 0.036299087739720459 0 -0.049704925969625675 0.031162594318334274 0 -0.049537521780441456 0.03682382624740288 0 -0.050743509756818517 0.034377997355842356 0 -0.051619545542028113 0.036478489911268404 0 -0.050674833860875589 0.036299087739720459 0 -0.050743509756818517 0.034377997355842356 0 -0.047706014007856672 0.014486194333461329 0 -0.043936995299246093 0.00047857165881183989 0 -0.04236204099127687 -0.0012490500894048889 0 -0.050783941095502425 0.023159089222118165 0 -0.050735936269765386 0.019307275187590223 0 -0.049704925969625675 0.031162594318334274 0 -0.050743509756818517 0.034377997355842356 0 -0.050857130615713154 0.032430414694984054 0 -0.050743509756818517 0.034377997355842356 0 -0.052169214880430657 0.033393180901256397 0 -0.050857130615713154 0.032430414694984054 0 -0.054329345251364049 0.03525887941266645 0 -0.053964789173701067 0.036305744056710457 0 -0.051280635870201242 0.033612778213822088 0 -0.054329345251364049 0.03525887941266645 0 -0.051280635870201242 0.033612778213822088 0 -0.053047928424088002 0.033711576525675947 0 -0.051619545542028113 0.036478489911268404 0 -0.050743509756818517 0.034377997355842356 0 -0.052169214880430657 0.033393180901256397 0 -0.051280635870201242 0.033612778213822088 0 -0.053047928424088002 0.033711576525675947 0 -0.052977414726394723 0.031942696983001721 0 -0.051280635870201242 0.033612778213822088 0 -0.052977414726394723 0.031942696983001721 0 -0.048818728195111918 0.028866513355980516 0 -0.053297638275372136 0.025419166760852645 0 -0.054228445103353291 0.019072749061514734 0 -0.052169214880430657 0.033393180901256397 0 -0.05085462944552973 0.031337108450920595 0 -0.051106197059164853 0.029646826334435925 0 -0.054923582236449935 0.0301523073387619 0 -0.054228445103353291 0.019072749061514734 0 -0.049704925969625675 0.031162594318334274 0 -0.050857130615713154 0.032430414694984054 0 -0.05085462944552973 0.031337108450920595 0 -0.052169214880430657 0.033393180901256397 0 -0.050857130615713154 0.032430414694984054 0 -0.05085462944552973 0.031337108450920595 0 -0.05085462944552973 0.031337108450920595 0 -0.050751357263662901 0.030188659068538168 0 -0.051106197059164853 0.029646826334435925 0 -0.049704925969625675 0.031162594318334274 0 -0.05085462944552973 0.031337108450920595 0 -0.050751357263662901 0.030188659068538168 0 -0.039005257819495341 0.019504953296709312 0 -0.046153945571834741 0.019993474033615913 0 -0.039115103533010939 0.013228494437740657 0 -0.050687519826641589 0.02942210892936736 0 -0.050958167979661191 0.029648099748611993 0 -0.051774632810345299 0.032041000857141663 0 -0.050751357263662901 0.030188659068538168 0 -0.051106197059164853 0.029646826334435925 0 -0.050958167979661191 0.029648099748611993 0 -0.054228445103353291 0.019072749061514734 0 -0.054253297630813199 0.019149324259120207 0 -0.054312097836815884 -0.024122286112492647 0 -0.052935843937913958 -0.029092431552367959 0 -0.047118990690983117 0.025643837557969128 0 -0.039005257819495341 0.019504953296709312 0 -0.046153945571834741 0.019993474033615913 0 -0.05986006150663483 -0.06788375297728455 0 -0.059232571827804038 -0.070128940979398591 0 -0.057399912068023175 -0.07165635413314822 0 -0.05986006150663483 -0.06788375297728455 0 -0.059232571827804038 -0.070128940979398591 0 -0.060578517101587834 -0.070066569316861949 0 -0.059580352078980651 -0.071640479006806812 0 -0.059387213175452022 -0.073868800339287624 0 -0.058669182280047541 -0.071508559192365012 0 -0.060578517101587834 -0.070066569316861949 0 -0.059580352078980651 -0.071640479006806812 0 -0.060390256426898867 -0.071929530907202555 0 -0.059232571827804038 -0.070128940979398591 0 -0.060578517101587834 -0.070066569316861949 0 -0.059580352078980651 -0.071640479006806812 0 -0.059232571827804038 -0.070128940979398591 0 -0.059580352078980651 -0.071640479006806812 0 -0.058669182280047541 -0.071508559192365012 0 -0.059580352078980651 -0.071640479006806812 0 -0.060390256426898867 -0.071929530907202555 0 -0.059387213175452022 -0.073868800339287624 0 -0.062463969429576098 -0.07155000306757095 0 -0.060390256426898867 -0.071929530907202555 0 -0.059387213175452022 -0.073868800339287624 0 -0.051197781500417122 -0.063169779981351745 0 -0.054076489081228897 -0.069245998734117548 0 -0.060891104187035604 -0.077095780335755468 0 -0.057988090472039157 -0.076135182605564955 0 -0.058669182280047541 -0.071508559192365012 0 -0.057988090472039157 -0.076135182605564955 0 -0.057709159405957458 -0.072606144449860716 0 -0.056166836490243219 -0.076827430366776736 0 -0.057988090472039157 -0.076135182605564955 0 -0.05724625977728761 -0.078345792489665569 0 -0.057969475439016552 -0.078977561179964559 0 -0.060891104187035604 -0.077095780335755468 0 -0.057988090472039157 -0.076135182605564955 0 -0.057969475439016552 -0.078977561179964559 0 -0.057988090472039157 -0.076135182605564955 0 -0.058669182280047541 -0.071508559192365012 0 -0.057709159405957458 -0.072606144449860716 0 -0.039005257819495341 0.019504953296709312 0 -0.039115103533010939 0.013228494437740657 0 -0.03451083545799271 0.010672098104824317 0 -0.054228445103353291 0.019072749061514734 0 -0.057401608978618845 -0.016003165184547516 0 -0.052935843937913958 -0.029092431552367959 0 -0.057401608978618845 -0.016003165184547516 0 -0.050916129500882645 -0.033917064633975043 0 -0.052935843937913958 -0.029092431552367959 0 -0.059232571827804038 -0.070128940979398591 0 -0.058669182280047541 -0.071508559192365012 0 -0.057709159405957458 -0.072606144449860716 0 -0.052935843937913958 -0.029092431552367959 0 -0.055618748327813418 -0.031340750367062985 0 -0.055993800014798902 -0.028305698112952769 0 -0.058514657948224601 -0.02702035764494104 0 -0.05947996547878108 -0.025270720705343589 0 -0.053059630745306958 0.029419384891474325 0 -0.051774632810345299 0.032041000857141663 0 -0.05836056843844329 0.029371777751253058 0 -0.050958167979661191 0.029648099748611993 0 -0.053059630745306958 0.029419384891474325 0 -0.051774632810345299 0.032041000857141663 0 -0.059529576909585824 0.035848346519030419 0 -0.051774632810345299 0.032041000857141663 0 -0.05836056843844329 0.029371777751253058 0 -0.056109364695183975 0.027170051452147587 0 -0.053059630745306958 0.029419384891474325 0 -0.05836056843844329 0.029371777751253058 0 -0.063283987145763304 -0.030151845372607237 0 -0.059861047892844424 -0.031803842197952403 0 -0.060486295034861505 -0.030709122875845221 0 -0.067030705361822665 -0.012367447436479264 0 -0.057401608978618845 -0.016003165184547516 0 -0.063283987145763304 -0.030151845372607237 0 -0.060486295034861505 -0.030709122875845221 0 -0.06224299962429241 -0.029198705059626701 0 -0.055618748327813418 -0.031340750367062985 0 -0.059156916948990251 -0.029242232173024844 0 -0.057988090472039157 -0.076135182605564955 0 -0.056166836490243219 -0.076827430366776736 0 -0.05724625977728761 -0.078345792489665569 0 -0.057401608978618845 -0.016003165184547516 0 -0.055618748327813418 -0.031340750367062985 0 -0.056166836490243219 -0.076827430366776736 0 -0.05724625977728761 -0.078345792489665569 0 -0.057007227627368588 -0.079001215030104877 0 -0.055618748327813418 -0.031340750367062985 0 -0.059156919238007359 -0.044621622509249094 0 -0.05724625977728761 -0.078345792489665569 0 -0.05778111237422754 -0.079525925808431097 0 -0.057007227627368588 -0.079001215030104877 0 -0.05778111237422754 -0.079525925808431097 0 -0.057007227627368588 -0.079001215030104877 0 -0.057768309078481982 -0.080009387143547397 0 -0.063521252726918942 -0.028842355277246098 0 -0.063283987145763304 -0.030151845372607237 0 -0.06224299962429241 -0.029198705059626701 0 -0.05923864103356264 -0.03192998121404745 0 -0.061748081696707716 -0.029696704950539984 0 -0.060746394004011085 -0.029184321100487503 0 -0.061748081696707716 -0.029696704950539984 0 -0.060746394004011085 -0.029184321100487503 0 -0.062195993126508496 -0.02825549205257883 0 -0.057007227627368588 -0.079001215030104877 0 -0.05746182152243403 -0.080887951816948842 0 -0.057768309078481982 -0.080009387143547397 0 -0.059156919238007359 -0.044621622509249094 0 -0.065943777923710631 -0.049615725736085164 0 -0.06402394384830179 -0.02753007891944681 0 -0.061748081696707716 -0.029696704950539984 0 -0.062195993126508496 -0.02825549205257883 0 -0.060746394004011085 -0.029184321100487503 0 -0.062195993126508496 -0.02825549205257883 0 -0.062222603840593645 -0.026625487158871804 0 -0.060436646152829794 -0.028418001811049316 0 -0.059156916948990251 -0.029242232173024844 0 -0.06402394384830179 -0.02753007891944681 0 -0.062195993126508496 -0.02825549205257883 0 -0.062222603840593645 -0.026625487158871804 0 -0.060387135433730373 -0.083486219834269487 0 -0.058314859844673765 -0.081241436567496564 0 -0.059927743256867505 -0.082242684985902731 0 -0.05746182152243403 -0.080887951816948842 0 -0.057768309078481982 -0.080009387143547397 0 -0.058314859844673765 -0.081241436567496564 0 -0.057768309078481982 -0.080009387143547397 0 -0.058314859844673765 -0.081241436567496564 0 -0.05814880639879498 -0.080214069663842175 0 -0.065943777923710631 -0.049615725736085164 0 -0.065885112658235795 -0.050093387038776693 0 -0.058314859844673765 -0.081241436567496564 0 -0.058746592576648174 -0.08067094502023342 0 -0.05814880639879498 -0.080214069663842175 0 -0.058746592576648174 -0.08067094502023342 0 -0.059373215898511071 -0.081365733695009351 0 -0.059935334898339347 -0.080992897960034921 0 -0.058314859844673765 -0.081241436567496564 0 -0.058746592576648174 -0.08067094502023342 0 -0.059373215898511071 -0.081365733695009351 0 -0.058314859844673765 -0.081241436567496564 0 -0.059373215898511071 -0.081365733695009351 0 -0.059927743256867505 -0.082242684985902731 0 -0.059373215898511071 -0.081365733695009351 0 -0.059927743256867505 -0.082242684985902731 0 -0.060501554439030041 -0.081836189291383463 0 -0.060387135433730373 -0.083486219834269487 0 -0.059927743256867505 -0.082242684985902731 0 -0.060828509524038801 -0.082486603065039993 0 -0.059927743256867505 -0.082242684985902731 0 -0.060501554439030041 -0.081836189291383463 0 -0.060828509524038801 -0.082486603065039993 0 -0.059935334898339347 -0.080992897960034921 0 -0.060501554439030041 -0.081836189291383463 0 -0.060941885943049848 -0.081415296488573374 0 -0.059373215898511071 -0.081365733695009351 0 -0.059935334898339347 -0.080992897960034921 0 -0.060501554439030041 -0.081836189291383463 0 -0.062296596622841365 -0.082614946872264602 0 -0.060941885943049848 -0.081415296488573374 0 -0.061265869841790825 -0.080619443712912964 0 -0.062296596622841365 -0.082614946872264602 0 -0.060501554439030041 -0.081836189291383463 0 -0.060941885943049848 -0.081415296488573374 0 -0.062296596622841365 -0.082614946872264602 0 -0.060387135433730373 -0.083486219834269487 0 -0.060828509524038801 -0.082486603065039993 0 -0.062296596622841365 -0.082614946872264602 0 -0.060501554439030041 -0.081836189291383463 0 -0.060828509524038801 -0.082486603065039993 0 -0.05778111237422754 -0.079525925808431097 0 -0.05814880639879498 -0.080214069663842175 0 -0.057733080216718094 -0.079342586632462561 0 -0.05778111237422754 -0.079525925808431097 0 -0.057768309078481982 -0.080009387143547397 0 -0.05814880639879498 -0.080214069663842175 0 -0.058746592576648174 -0.08067094502023342 0 -0.05814880639879498 -0.080214069663842175 0 -0.058295441608824758 -0.079657899296412579 0 -0.05814880639879498 -0.080214069663842175 0 -0.057733080216718094 -0.079342586632462561 0 -0.058295441608824758 -0.079657899296412579 0 -0.05778111237422754 -0.079525925808431097 0 -0.057733080216718094 -0.079342586632462561 0 -0.057410332990152989 -0.078965411705423982 0 -0.057733080216718094 -0.079342586632462561 0 -0.057410332990152989 -0.078965411705423982 0 -0.056783944155438436 -0.078293253450201022 0 -0.057410332990152989 -0.078965411705423982 0 -0.056044039952411695 -0.078354058670165289 0 -0.057969475439016552 -0.078977561179964559 0 -0.057410332990152989 -0.078965411705423982 0 -0.056044039952411695 -0.078354058670165289 0 -0.056783944155438436 -0.078293253450201022 0 -0.051197781500417122 -0.063169779981351745 0 -0.042801582858469925 -0.057527385588575695 0 -0.057067239185602373 -0.079217022298356074 0 -0.056044039952411695 -0.078354058670165289 0 -0.057969475439016552 -0.078977561179964559 0 -0.051197781500417122 -0.063169779981351745 0 -0.051165594945792522 -0.065205678071438539 0 -0.05724625977728761 -0.078345792489665569 0 -0.05778111237422754 -0.079525925808431097 0 -0.057969475439016552 -0.078977561179964559 0 -0.05778111237422754 -0.079525925808431097 0 -0.057410332990152989 -0.078965411705423982 0 -0.057969475439016552 -0.078977561179964559 0 -0.056648587944660128 -0.076951514588676093 0 -0.057755787131359863 -0.077619842455430327 0 -0.057601027865521758 -0.078457394005650535 0 -0.056648587944660128 -0.076951514588676093 0 -0.057755787131359863 -0.077619842455430327 0 -0.057702306144929133 -0.076356443440740787 0 -0.056648587944660128 -0.076951514588676093 0 -0.057702306144929133 -0.076356443440740787 0 -0.056812038624815903 -0.07549941099017822 0 -0.054583211790486225 -0.076775179766907245 0 -0.056648587944660128 -0.076951514588676093 0 -0.055412075721077432 -0.075217788198624694 0 -0.054583211790486225 -0.076775179766907245 0 -0.056044039952411695 -0.078354058670165289 0 -0.056783944155438436 -0.078293253450201022 0 -0.054583211790486225 -0.076775179766907245 0 -0.056648587944660128 -0.076951514588676093 0 -0.056783944155438436 -0.078293253450201022 0 -0.056648587944660128 -0.076951514588676093 0 -0.056783944155438436 -0.078293253450201022 0 -0.057601027865521758 -0.078457394005650535 0 -0.057733080216718094 -0.079342586632462561 0 -0.056783944155438436 -0.078293253450201022 0 -0.057601027865521758 -0.078457394005650535 0 -0.057601027865521758 -0.078457394005650535 0 -0.058295441608824758 -0.079657899296412579 0 -0.058537679134475322 -0.078833821420136216 0 -0.057733080216718094 -0.079342586632462561 0 -0.057601027865521758 -0.078457394005650535 0 -0.058295441608824758 -0.079657899296412579 0 -0.058746592576648174 -0.08067094502023342 0 -0.058295441608824758 -0.079657899296412579 0 -0.058959468659655088 -0.079751928338199829 0 -0.058295441608824758 -0.079657899296412579 0 -0.058959468659655088 -0.079751928338199829 0 -0.058537679134475322 -0.078833821420136216 0 -0.058537679134475322 -0.078833821420136216 0 -0.059542885136483266 -0.079071680339168726 0 -0.059366176372670283 -0.078137968051845641 0 -0.058959468659655088 -0.079751928338199829 0 -0.058537679134475322 -0.078833821420136216 0 -0.059542885136483266 -0.079071680339168726 0 -0.057755787131359863 -0.077619842455430327 0 -0.057601027865521758 -0.078457394005650535 0 -0.058537679134475322 -0.078833821420136216 0 -0.059935334898339347 -0.080992897960034921 0 -0.060941885943049848 -0.081415296488573374 0 -0.061265869841790825 -0.080619443712912964 0 -0.059935334898339347 -0.080992897960034921 0 -0.061265869841790825 -0.080619443712912964 0 -0.059740995414087034 -0.080124803043184589 0 -0.061265869841790825 -0.080619443712912964 0 -0.059740995414087034 -0.080124803043184589 0 -0.060485485863575543 -0.0795251338230476 0 -0.058746592576648174 -0.08067094502023342 0 -0.059935334898339347 -0.080992897960034921 0 -0.059740995414087034 -0.080124803043184589 0 -0.058746592576648174 -0.08067094502023342 0 -0.058959468659655088 -0.079751928338199829 0 -0.059740995414087034 -0.080124803043184589 0 -0.058959468659655088 -0.079751928338199829 0 -0.059740995414087034 -0.080124803043184589 0 -0.059542885136483266 -0.079071680339168726 0 -0.059542885136483266 -0.079071680339168726 0 -0.060607488822065639 -0.078324019204970716 0 -0.059366176372670283 -0.078137968051845641 0 -0.059542885136483266 -0.079071680339168726 0 -0.060485485863575543 -0.0795251338230476 0 -0.060607488822065639 -0.078324019204970716 0 -0.059740995414087034 -0.080124803043184589 0 -0.059542885136483266 -0.079071680339168726 0 -0.060485485863575543 -0.0795251338230476 0 -0.061596852242129116 -0.079443449776535696 0 -0.062106744744675035 -0.078591912951829337 0 -0.060607488822065639 -0.078324019204970716 0 -0.061265869841790825 -0.080619443712912964 0 -0.060485485863575543 -0.0795251338230476 0 -0.061596852242129116 -0.079443449776535696 0 -0.060485485863575543 -0.0795251338230476 0 -0.061596852242129116 -0.079443449776535696 0 -0.060607488822065639 -0.078324019204970716 0 -0.061596852242129116 -0.079443449776535696 0 -0.062106744744675035 -0.078591912951829337 0 -0.062876680176546615 -0.079843977516557127 0 -0.061265869841790825 -0.080619443712912964 0 -0.061596852242129116 -0.079443449776535696 0 -0.062876680176546615 -0.079843977516557127 0 -0.062230969307100065 -0.077396718469227702 0 -0.062106744744675035 -0.078591912951829337 0 -0.060607488822065639 -0.078324019204970716 0 -0.062230969307100065 -0.077396718469227702 0 -0.060607488822065639 -0.078324019204970716 0 -0.06103364153876966 -0.07686059223583587 0 -0.060607488822065639 -0.078324019204970716 0 -0.059802370254818903 -0.07711167421767956 0 -0.06103364153876966 -0.07686059223583587 0 -0.060607488822065639 -0.078324019204970716 0 -0.059802370254818903 -0.07711167421767956 0 -0.059366176372670283 -0.078137968051845641 0 -0.06103364153876966 -0.07686059223583587 0 -0.062057786963689243 -0.075735157295820185 0 -0.060480125462615358 -0.076054822827090765 0 -0.059802370254818903 -0.07711167421767956 0 -0.06103364153876966 -0.07686059223583587 0 -0.060480125462615358 -0.076054822827090765 0 -0.062230969307100065 -0.077396718469227702 0 -0.06103364153876966 -0.07686059223583587 0 -0.062057786963689243 -0.075735157295820185 0 -0.062230969307100065 -0.077396718469227702 0 -0.062057786963689243 -0.075735157295820185 0 -0.063549677517014555 -0.076596205751291793 0 -0.057755787131359863 -0.077619842455430327 0 -0.057702306144929133 -0.076356443440740787 0 -0.058672990844441532 -0.077265149087718019 0 -0.057755787131359863 -0.077619842455430327 0 -0.058537679134475322 -0.078833821420136216 0 -0.058672990844441532 -0.077265149087718019 0 -0.059802370254818903 -0.07711167421767956 0 -0.058672990844441532 -0.077265149087718019 0 -0.059366176372670283 -0.078137968051845641 0 -0.058537679134475322 -0.078833821420136216 0 -0.058672990844441532 -0.077265149087718019 0 -0.059366176372670283 -0.078137968051845641 0 -0.059802370254818903 -0.07711167421767956 0 -0.059134084081289451 -0.075947055248322695 0 -0.060480125462615358 -0.076054822827090765 0 -0.059802370254818903 -0.07711167421767956 0 -0.058672990844441532 -0.077265149087718019 0 -0.059134084081289451 -0.075947055248322695 0 -0.057702306144929133 -0.076356443440740787 0 -0.058672990844441532 -0.077265149087718019 0 -0.059134084081289451 -0.075947055248322695 0 -0.057702306144929133 -0.076356443440740787 0 -0.059134084081289451 -0.075947055248322695 0 -0.057872664354967275 -0.075017265829040641 0 -0.059134084081289451 -0.075947055248322695 0 -0.059037837361558813 -0.074494691483889555 0 -0.057872664354967275 -0.075017265829040641 0 -0.059134084081289451 -0.075947055248322695 0 -0.059037837361558813 -0.074494691483889555 0 -0.060549960532158678 -0.074622775475718883 0 -0.059037837361558813 -0.074494691483889555 0 -0.060549960532158678 -0.074622775475718883 0 -0.059433704266349828 -0.073237199984127518 0 -0.059037837361558813 -0.074494691483889555 0 -0.058186666697572949 -0.073860670964574882 0 -0.057872664354967275 -0.075017265829040641 0 -0.059134084081289451 -0.075947055248322695 0 -0.060480125462615358 -0.076054822827090765 0 -0.060549960532158678 -0.074622775475718883 0 -0.062057786963689243 -0.075735157295820185 0 -0.060480125462615358 -0.076054822827090765 0 -0.060549960532158678 -0.074622775475718883 0 -0.060549960532158678 -0.074622775475718883 0 -0.060979386037791176 -0.073280318491200008 0 -0.062920376284473056 -0.073775295535535426 0 -0.062057786963689243 -0.075735157295820185 0 -0.060549960532158678 -0.074622775475718883 0 -0.062920376284473056 -0.073775295535535426 0 -0.060979386037791176 -0.073280318491200008 0 -0.062223957249110284 -0.072168087228834998 0 -0.062920376284473056 -0.073775295535535426 0 -0.060549960532158678 -0.074622775475718883 0 -0.060979386037791176 -0.073280318491200008 0 -0.059433704266349828 -0.073237199984127518 0 -0.060979386037791176 -0.073280318491200008 0 -0.062223957249110284 -0.072168087228834998 0 -0.060414619083684576 -0.071635272064683675 0 -0.058294596112735117 -0.073250835173783668 0 -0.05784665346092395 -0.073112926490562086 0 -0.060979386037791176 -0.073280318491200008 0 -0.059433704266349828 -0.073237199984127518 0 -0.060414619083684576 -0.071635272064683675 0 -0.058186666697572949 -0.073860670964574882 0 -0.059433704266349828 -0.073237199984127518 0 -0.057906050385447154 -0.072777751675447325 0 -0.059037837361558813 -0.074494691483889555 0 -0.058186666697572949 -0.073860670964574882 0 -0.059433704266349828 -0.073237199984127518 0 -0.059433704266349828 -0.073237199984127518 0 -0.058810944189198827 -0.072388833884222181 0 -0.060414619083684576 -0.071635272064683675 0 -0.059433704266349828 -0.073237199984127518 0 -0.058810944189198827 -0.072388833884222181 0 -0.057906050385447154 -0.072777751675447325 0 -0.057906050385447154 -0.072777751675447325 0 -0.056766098421208104 -0.073985690249244548 0 -0.056527964628798714 -0.072388511182455803 0 -0.056766098421208104 -0.073985690249244548 0 -0.05526312885951068 -0.073085332420981364 0 -0.056527964628798714 -0.072388511182455803 0 -0.058186666697572949 -0.073860670964574882 0 -0.057906050385447154 -0.072777751675447325 0 -0.056766098421208104 -0.073985690249244548 0 -0.056766098421208104 -0.073985690249244548 0 -0.057872664354967275 -0.075017265829040641 0 -0.056812038624815903 -0.07549941099017822 0 -0.058186666697572949 -0.073860670964574882 0 -0.056766098421208104 -0.073985690249244548 0 -0.057872664354967275 -0.075017265829040641 0 -0.056766098421208104 -0.073985690249244548 0 -0.056812038624815903 -0.07549941099017822 0 -0.055412075721077432 -0.075217788198624694 0 -0.057702306144929133 -0.076356443440740787 0 -0.057872664354967275 -0.075017265829040641 0 -0.056812038624815903 -0.07549941099017822 0 -0.056648587944660128 -0.076951514588676093 0 -0.056812038624815903 -0.07549941099017822 0 -0.055412075721077432 -0.075217788198624694 0 -0.053612941281644302 -0.074694262511701817 0 -0.055412075721077432 -0.075217788198624694 0 -0.05526312885951068 -0.073085332420981364 0 -0.056766098421208104 -0.073985690249244548 0 -0.055412075721077432 -0.075217788198624694 0 -0.05526312885951068 -0.073085332420981364 0 -0.054039263378028231 -0.072349670295364335 0 -0.05526312885951068 -0.073085332420981364 0 -0.054938686015390578 -0.071406426613908364 0 -0.05526312885951068 -0.073085332420981364 0 -0.056527964628798714 -0.072388511182455803 0 -0.054938686015390578 -0.071406426613908364 0 -0.053979411145359028 -0.071781946931516974 0 -0.054039263378028231 -0.072349670295364335 0 -0.054938686015390578 -0.071406426613908364 0 -0.056527964628798714 -0.072388511182455803 0 -0.056935961550972178 -0.071211891255938756 0 -0.057931678800119339 -0.072043467919077162 0 -0.057906050385447154 -0.072777751675447325 0 -0.056527964628798714 -0.072388511182455803 0 -0.057931678800119339 -0.072043467919077162 0 -0.056527964628798714 -0.072388511182455803 0 -0.056935961550972178 -0.071211891255938756 0 -0.054938686015390578 -0.071406426613908364 0 -0.058228110998321862 -0.072045243690376473 0 -0.056997938847775154 -0.072605140681369654 0 -0.05745389499360419 -0.072331291930623751 0 -0.055854659425063034 -0.073494487737590139 0 -0.056080742359475508 -0.073740758109226576 0 -0.055719159658670241 -0.073462676706760405 0 -0.056634449133607906 -0.072959117119698061 0 -0.057227581708077527 -0.072903395314636604 0 -0.058228110998321862 -0.072045243690376473 0 -0.056997938847775154 -0.072605140681369654 0 -0.059193465843872105 -0.072147059198889599 0 -0.056935961550972178 -0.071211891255938756 0 -0.054938686015390578 -0.071406426613908364 0 -0.053826428910466642 -0.070516661359805277 0 -0.055854659425063034 -0.073494487737590139 0 -0.056080742359475508 -0.073740758109226576 0 -0.056244795965964149 -0.073700309498267474 0 -0.05633244679711865 -0.07287780942087746 0 -0.054450706170195456 -0.072847072305309971 0 -0.053979411145359028 -0.071781946931516974 0 -0.054938686015390578 -0.071406426613908364 0 -0.053736269975710155 -0.071674990018625734 0 -0.054396979614959227 -0.072675222077646262 0 -0.054450706170195456 -0.072847072305309971 0 -0.056682004912164963 -0.073287926033970288 0 -0.057163269038912806 -0.072500707226399175 0 -0.056631590229191328 -0.073151599295017675 0 -0.056682004912164963 -0.073287926033970288 0 -0.057047015195747564 -0.072666002893626763 0 -0.057163269038912806 -0.072500707226399175 0 -0.056997938847775154 -0.072605140681369654 0 -0.057047015195747564 -0.072666002893626763 0 -0.05745389499360419 -0.072331291930623751 0 -0.056997938847775154 -0.072605140681369654 0 -0.056682004912164963 -0.073287926033970288 0 -0.057047015195747564 -0.072666002893626763 0 -0.05745389499360419 -0.072331291930623751 0 -0.057950652841400808 -0.071910660564996037 0 -0.057163269038912806 -0.072500707226399175 0 -0.057047015195747564 -0.072666002893626763 0 -0.05745389499360419 -0.072331291930623751 0 -0.057163269038912806 -0.072500707226399175 0 -0.058228110998321862 -0.072045243690376473 0 -0.057950652841400808 -0.071910660564996037 0 -0.059299680556020105 -0.07133281217948137 0 -0.058228110998321862 -0.072045243690376473 0 -0.05745389499360419 -0.072331291930623751 0 -0.057950652841400808 -0.071910660564996037 0 -0.057950652841400808 -0.071910660564996037 0 -0.057487147062499314 -0.072047117863281315 0 -0.058613479159214658 -0.071320590648729046 0 -0.057950652841400808 -0.071910660564996037 0 -0.057163269038912806 -0.072500707226399175 0 -0.057487147062499314 -0.072047117863281315 0 -0.057487147062499314 -0.072047117863281315 0 -0.056793962868541339 -0.07261963620999469 0 -0.056631590229191328 -0.073151599295017675 0 -0.057163269038912806 -0.072500707226399175 0 -0.057487147062499314 -0.072047117863281315 0 -0.056631590229191328 -0.073151599295017675 0 -0.056793962868541339 -0.07261963620999469 0 -0.056631590229191328 -0.073151599295017675 0 -0.056237612534190032 -0.073797561557277749 0 -0.056453423933885624 -0.073871614220926599 0 -0.056631590229191328 -0.073151599295017675 0 -0.05612336818918115 -0.074815308628689958 0 -0.056682004912164963 -0.073287926033970288 0 -0.056453423933885624 -0.073871614220926599 0 -0.056631590229191328 -0.073151599295017675 0 -0.061813005177645264 -0.069618813320633938 0 -0.058175343722959613 -0.071050205135553962 0 -0.061239179036443166 -0.069245106322384259 0 -0.061813005177645264 -0.069618813320633938 0 -0.058175343722959613 -0.071050205135553962 0 -0.060636952497920664 -0.070430035900794677 0 -0.058175343722959613 -0.071050205135553962 0 -0.058613479159214658 -0.071320590648729046 0 -0.060636952497920664 -0.070430035900794677 0 -0.057487147062499314 -0.072047117863281315 0 -0.056793962868541339 -0.07261963620999469 0 -0.058175343722959613 -0.071050205135553962 0 -0.057487147062499314 -0.072047117863281315 0 -0.058175343722959613 -0.071050205135553962 0 -0.058613479159214658 -0.071320590648729046 0 -0.057950652841400808 -0.071910660564996037 0 -0.058613479159214658 -0.071320590648729046 0 -0.059299680556020105 -0.07133281217948137 0 -0.058613479159214658 -0.071320590648729046 0 -0.059299680556020105 -0.07133281217948137 0 -0.060636952497920664 -0.070430035900794677 0 -0.060636952497920664 -0.070430035900794677 0 -0.062684629022006472 -0.069870752658107896 0 -0.06394193773879954 -0.069046425134080838 0 -0.059299680556020105 -0.07133281217948137 0 -0.060636952497920664 -0.070430035900794677 0 -0.061049891235771647 -0.070647221202406144 0 -0.061813005177645264 -0.069618813320633938 0 -0.060636952497920664 -0.070430035900794677 0 -0.06394193773879954 -0.069046425134080838 0 -0.060636952497920664 -0.070430035900794677 0 -0.062684629022006472 -0.069870752658107896 0 -0.061049891235771647 -0.070647221202406144 0 -0.062684629022006472 -0.069870752658107896 0 -0.061049891235771647 -0.070647221202406144 0 -0.061887103403108448 -0.07076161356277888 0 -0.061049891235771647 -0.070647221202406144 0 -0.061887103403108448 -0.07076161356277888 0 -0.060149146111783951 -0.071276644274875525 0 -0.061887103403108448 -0.07076161356277888 0 -0.060149146111783951 -0.071276644274875525 0 -0.0602211896997836 -0.07158115846902878 0 -0.058228110998321862 -0.072045243690376473 0 -0.059299680556020105 -0.07133281217948137 0 -0.059308156709160592 -0.07168365472500253 0 -0.059299680556020105 -0.07133281217948137 0 -0.060149146111783951 -0.071276644274875525 0 -0.059308156709160592 -0.07168365472500253 0 -0.059299680556020105 -0.07133281217948137 0 -0.061049891235771647 -0.070647221202406144 0 -0.060149146111783951 -0.071276644274875525 0 -0.060149146111783951 -0.071276644274875525 0 -0.0602211896997836 -0.07158115846902878 0 -0.059308156709160592 -0.07168365472500253 0 -0.0602211896997836 -0.07158115846902878 0 -0.059308156709160592 -0.07168365472500253 0 -0.059193465843872105 -0.072147059198889599 0 -0.058228110998321862 -0.072045243690376473 0 -0.059308156709160592 -0.07168365472500253 0 -0.059193465843872105 -0.072147059198889599 0 -0.055854659425063034 -0.073494487737590139 0 -0.055719159658670241 -0.073462676706760405 0 -0.055500419475624549 -0.073295374385924719 0 -0.058810944189198827 -0.072388833884222181 0 -0.057931678800119339 -0.072043467919077162 0 -0.060414619083684576 -0.071635272064683675 0 -0.059193465843872105 -0.072147059198889599 0 -0.061207157770732837 -0.071575395441015488 0 -0.061220714359058334 -0.0721032968561926 0 -0.0602211896997836 -0.07158115846902878 0 -0.059193465843872105 -0.072147059198889599 0 -0.061207157770732837 -0.071575395441015488 0 -0.05633244679711865 -0.07287780942087746 0 -0.05784665346092395 -0.073112926490562086 0 -0.056935961550972178 -0.071211891255938756 0 -0.057931678800119339 -0.072043467919077162 0 -0.060414619083684576 -0.071635272064683675 0 -0.057227581708077527 -0.072903395314636604 0 -0.05784665346092395 -0.073112926490562086 0 -0.058810944189198827 -0.072388833884222181 0 -0.057906050385447154 -0.072777751675447325 0 -0.057931678800119339 -0.072043467919077162 0 -0.061887103403108448 -0.07076161356277888 0 -0.062425821116219915 -0.07130793244060854 0 -0.064187423923262321 -0.070455769226785689 0 -0.061887103403108448 -0.07076161356277888 0 -0.061207157770732837 -0.071575395441015488 0 -0.062425821116219915 -0.07130793244060854 0 -0.061887103403108448 -0.07076161356277888 0 -0.0602211896997836 -0.07158115846902878 0 -0.061207157770732837 -0.071575395441015488 0 -0.062223957249110284 -0.072168087228834998 0 -0.061207157770732837 -0.071575395441015488 0 -0.061220714359058334 -0.0721032968561926 0 -0.062223957249110284 -0.072168087228834998 0 -0.062425821116219915 -0.07130793244060854 0 -0.064187423923262321 -0.070455769226785689 0 -0.062223957249110284 -0.072168087228834998 0 -0.061207157770732837 -0.071575395441015488 0 -0.062425821116219915 -0.07130793244060854 0 -0.064187423923262321 -0.070455769226785689 0 -0.067174150403120997 -0.069544712073921253 0 -0.065112796169232337 -0.068995874231992257 0 -0.064187423923262321 -0.070455769226785689 0 -0.067174150403120997 -0.069544712073921253 0 -0.065008130420425622 -0.071730174869671287 0 -0.067174150403120997 -0.069544712073921253 0 -0.069491731171911028 -0.066876278523808869 0 -0.071823307826126614 -0.068440328609310583 0 -0.067174150403120997 -0.069544712073921253 0 -0.065112796169232337 -0.068995874231992257 0 -0.069491731171911028 -0.066876278523808869 0 -0.065112796169232337 -0.068995874231992257 0 -0.067301479899627648 -0.067692226838455674 0 -0.069491731171911028 -0.066876278523808869 0 -0.061887103403108448 -0.07076161356277888 0 -0.064187423923262321 -0.070455769226785689 0 -0.065112796169232337 -0.068995874231992257 0 -0.062684629022006472 -0.069870752658107896 0 -0.061887103403108448 -0.07076161356277888 0 -0.065112796169232337 -0.068995874231992257 0 -0.065112796169232337 -0.068995874231992257 0 -0.06394193773879954 -0.069046425134080838 0 -0.067301479899627648 -0.067692226838455674 0 -0.062684629022006472 -0.069870752658107896 0 -0.065112796169232337 -0.068995874231992257 0 -0.06394193773879954 -0.069046425134080838 0 -0.06394193773879954 -0.069046425134080838 0 -0.067301479899627648 -0.067692226838455674 0 -0.06521715672863744 -0.068003612749219094 0 -0.067301479899627648 -0.067692226838455674 0 -0.06521715672863744 -0.068003612749219094 0 -0.068583203162040668 -0.066865459295410615 0 -0.061813005177645264 -0.069618813320633938 0 -0.06394193773879954 -0.069046425134080838 0 -0.06521715672863744 -0.068003612749219094 0 -0.061813005177645264 -0.069618813320633938 0 -0.06521715672863744 -0.068003612749219094 0 -0.061239179036443166 -0.069245106322384259 0 -0.069859382118205401 -0.066645051592667939 0 -0.068583203162040668 -0.066865459295410615 0 -0.070562969887911262 -0.066501927211970749 0 -0.067301479899627648 -0.067692226838455674 0 -0.068583203162040668 -0.066865459295410615 0 -0.070562969887911262 -0.066501927211970749 0 -0.067301479899627648 -0.067692226838455674 0 -0.070562969887911262 -0.066501927211970749 0 -0.069491731171911028 -0.066876278523808869 0 -0.070562969887911262 -0.066501927211970749 0 -0.075071984079022991 -0.063705588114769104 0 -0.070109514031168024 -0.06659782099346917 0 -0.069859382118205401 -0.066645051592667939 0 -0.070562969887911262 -0.066501927211970749 0 -0.070109514031168024 -0.06659782099346917 0 -0.079141949581976762 -0.063682143480279646 0 -0.081751644304538171 -0.061602236369698964 0 -0.070562969887911262 -0.066501927211970749 0 -0.069491731171911028 -0.066876278523808869 0 -0.075071984079022991 -0.063705588114769104 0 -0.069491731171911028 -0.066876278523808869 0 -0.071823307826126614 -0.068440328609310583 0 -0.075071984079022991 -0.063705588114769104 0 -0.071823307826126614 -0.068440328609310583 0 -0.075071984079022991 -0.063705588114769104 0 -0.08083135763017199 -0.069408040936091722 0 -0.071823307826126614 -0.068440328609310583 0 -0.08083135763017199 -0.069408040936091722 0 -0.073615903864032495 -0.072524397829814555 0 -0.079061859024990036 -0.074466952200595973 0 -0.073615903864032495 -0.072524397829814555 0 -0.075932149593100406 -0.077409133536680372 0 -0.08083135763017199 -0.069408040936091722 0 -0.079061859024990036 -0.074466952200595973 0 -0.073615903864032495 -0.072524397829814555 0 -0.073615903864032495 -0.072524397829814555 0 -0.068539214284030994 -0.071603388159801801 0 -0.069401025505121491 -0.074633220293922983 0 -0.073615903864032495 -0.072524397829814555 0 -0.075932149593100406 -0.077409133536680372 0 -0.072022651416720179 -0.076358063081043231 0 -0.073615903864032495 -0.072524397829814555 0 -0.069401025505121491 -0.074633220293922983 0 -0.072022651416720179 -0.076358063081043231 0 -0.071823307826126614 -0.068440328609310583 0 -0.073615903864032495 -0.072524397829814555 0 -0.068539214284030994 -0.071603388159801801 0 -0.067174150403120997 -0.069544712073921253 0 -0.068539214284030994 -0.071603388159801801 0 -0.065008130420425622 -0.071730174869671287 0 -0.067174150403120997 -0.069544712073921253 0 -0.071823307826126614 -0.068440328609310583 0 -0.068539214284030994 -0.071603388159801801 0 -0.068539214284030994 -0.071603388159801801 0 -0.065008130420425622 -0.071730174869671287 0 -0.065684695301958251 -0.074190219909787095 0 -0.065008130420425622 -0.071730174869671287 0 -0.062920376284473056 -0.073775295535535426 0 -0.065684695301958251 -0.074190219909787095 0 -0.062223957249110284 -0.072168087228834998 0 -0.064187423923262321 -0.070455769226785689 0 -0.065008130420425622 -0.071730174869671287 0 -0.062223957249110284 -0.072168087228834998 0 -0.065008130420425622 -0.071730174869671287 0 -0.062920376284473056 -0.073775295535535426 0 -0.062920376284473056 -0.073775295535535426 0 -0.065684695301958251 -0.074190219909787095 0 -0.06381291650916586 -0.07525126452063724 0 -0.065684695301958251 -0.074190219909787095 0 -0.064981078772670522 -0.07602005424190085 0 -0.06381291650916586 -0.07525126452063724 0 -0.065684695301958251 -0.074190219909787095 0 -0.064981078772670522 -0.07602005424190085 0 -0.066945397669988957 -0.076566807929458025 0 -0.062057786963689243 -0.075735157295820185 0 -0.062920376284473056 -0.073775295535535426 0 -0.06381291650916586 -0.07525126452063724 0 -0.062057786963689243 -0.075735157295820185 0 -0.06381291650916586 -0.07525126452063724 0 -0.063549677517014555 -0.076596205751291793 0 -0.064981078772670522 -0.07602005424190085 0 -0.06381291650916586 -0.07525126452063724 0 -0.063549677517014555 -0.076596205751291793 0 -0.068539214284030994 -0.071603388159801801 0 -0.065684695301958251 -0.074190219909787095 0 -0.069401025505121491 -0.074633220293922983 0 -0.065684695301958251 -0.074190219909787095 0 -0.069401025505121491 -0.074633220293922983 0 -0.066945397669988957 -0.076566807929458025 0 -0.069401025505121491 -0.074633220293922983 0 -0.069692680693344708 -0.078494269704610778 0 -0.072022651416720179 -0.076358063081043231 0 -0.069401025505121491 -0.074633220293922983 0 -0.066945397669988957 -0.076566807929458025 0 -0.069692680693344708 -0.078494269704610778 0 -0.066945397669988957 -0.076566807929458025 0 -0.067008578870500698 -0.07890577486292466 0 -0.06504929298938375 -0.077540196483812718 0 -0.066945397669988957 -0.076566807929458025 0 -0.067008578870500698 -0.07890577486292466 0 -0.069692680693344708 -0.078494269704610778 0 -0.067008578870500698 -0.07890577486292466 0 -0.069692680693344708 -0.078494269704610778 0 -0.069133024899580564 -0.08064275588867717 0 -0.062230969307100065 -0.077396718469227702 0 -0.063549677517014555 -0.076596205751291793 0 -0.063383714486842019 -0.078098870994150082 0 -0.063549677517014555 -0.076596205751291793 0 -0.06504929298938375 -0.077540196483812718 0 -0.063383714486842019 -0.078098870994150082 0 -0.064981078772670522 -0.07602005424190085 0 -0.066945397669988957 -0.076566807929458025 0 -0.06504929298938375 -0.077540196483812718 0 -0.064981078772670522 -0.07602005424190085 0 -0.063549677517014555 -0.076596205751291793 0 -0.06504929298938375 -0.077540196483812718 0 -0.067008578870500698 -0.07890577486292466 0 -0.06504929298938375 -0.077540196483812718 0 -0.064704736929786025 -0.079168853031170411 0 -0.06504929298938375 -0.077540196483812718 0 -0.063383714486842019 -0.078098870994150082 0 -0.064704736929786025 -0.079168853031170411 0 -0.062230969307100065 -0.077396718469227702 0 -0.062106744744675035 -0.078591912951829337 0 -0.063383714486842019 -0.078098870994150082 0 -0.062106744744675035 -0.078591912951829337 0 -0.063383714486842019 -0.078098870994150082 0 -0.062876680176546615 -0.079843977516557127 0 -0.063383714486842019 -0.078098870994150082 0 -0.062876680176546615 -0.079843977516557127 0 -0.064704736929786025 -0.079168853031170411 0 -0.062876680176546615 -0.079843977516557127 0 -0.064582070417397011 -0.08068202931402077 0 -0.064704736929786025 -0.079168853031170411 0 -0.064582070417397011 -0.08068202931402077 0 -0.064704736929786025 -0.079168853031170411 0 -0.066799695946055671 -0.0811370263805236 0 -0.0657566206866185 -0.08325327941896675 0 -0.064582070417397011 -0.08068202931402077 0 -0.066799695946055671 -0.0811370263805236 0 -0.0657566206866185 -0.08325327941896675 0 -0.064582070417397011 -0.08068202931402077 0 -0.063203354689432598 -0.081408601199235014 0 -0.062876680176546615 -0.079843977516557127 0 -0.064582070417397011 -0.08068202931402077 0 -0.063203354689432598 -0.081408601199235014 0 -0.062296596622841365 -0.082614946872264602 0 -0.061265869841790825 -0.080619443712912964 0 -0.063203354689432598 -0.081408601199235014 0 -0.061265869841790825 -0.080619443712912964 0 -0.062876680176546615 -0.079843977516557127 0 -0.063203354689432598 -0.081408601199235014 0 -0.069692680693344708 -0.078494269704610778 0 -0.069133024899580564 -0.08064275588867717 0 -0.072382495855109669 -0.080918560809180209 0 -0.069133024899580564 -0.08064275588867717 0 -0.069469908245742909 -0.083525990114319368 0 -0.072382495855109669 -0.080918560809180209 0 -0.067008578870500698 -0.07890577486292466 0 -0.069133024899580564 -0.08064275588867717 0 -0.066799695946055671 -0.0811370263805236 0 -0.067008578870500698 -0.07890577486292466 0 -0.064704736929786025 -0.079168853031170411 0 -0.066799695946055671 -0.0811370263805236 0 -0.0657566206866185 -0.08325327941896675 0 -0.066799695946055671 -0.0811370263805236 0 -0.069469908245742909 -0.083525990114319368 0 -0.069133024899580564 -0.08064275588867717 0 -0.066799695946055671 -0.0811370263805236 0 -0.069469908245742909 -0.083525990114319368 0 -0.073382204149060257 -0.085015064994087508 0 -0.072382495855109669 -0.080918560809180209 0 -0.077680206591284412 -0.082564475416963642 0 -0.073382204149060257 -0.085015064994087508 0 -0.069469908245742909 -0.083525990114319368 0 -0.072382495855109669 -0.080918560809180209 0 -0.072382495855109669 -0.080918560809180209 0 -0.077680206591284412 -0.082564475416963642 0 -0.075932149593100406 -0.077409133536680372 0 -0.077680206591284412 -0.082564475416963642 0 -0.080621200584504213 -0.078123103808788424 0 -0.0851772255244789 -0.080986581675010175 0 -0.077680206591284412 -0.082564475416963642 0 -0.080621200584504213 -0.078123103808788424 0 -0.075932149593100406 -0.077409133536680372 0 -0.079061859024990036 -0.074466952200595973 0 -0.080621200584504213 -0.078123103808788424 0 -0.075932149593100406 -0.077409133536680372 0 -0.069692680693344708 -0.078494269704610778 0 -0.072382495855109669 -0.080918560809180209 0 -0.072022651416720179 -0.076358063081043231 0 -0.072382495855109669 -0.080918560809180209 0 -0.075932149593100406 -0.077409133536680372 0 -0.072022651416720179 -0.076358063081043231 0 -0.089832823535429596 -0.075904271224511682 0 -0.0939538163201354 -0.080220364371763539 0 -0.094449793446126654 -0.071723945768577949 0 -0.089832823535429596 -0.075904271224511682 0 -0.0851772255244789 -0.080986581675010175 0 -0.0939538163201354 -0.080220364371763539 0 -0.089832823535429596 -0.075904271224511682 0 -0.084784135894794152 -0.074975277381055028 0 -0.0851772255244789 -0.080986581675010175 0 -0.080621200584504213 -0.078123103808788424 0 -0.084784135894794152 -0.074975277381055028 0 -0.0851772255244789 -0.080986581675010175 0 -0.079061859024990036 -0.074466952200595973 0 -0.080621200584504213 -0.078123103808788424 0 -0.084784135894794152 -0.074975277381055028 0 -0.08340632166158031 -0.086189135638259959 0 -0.077680206591284412 -0.082564475416963642 0 -0.0851772255244789 -0.080986581675010175 0 -0.08340632166158031 -0.086189135638259959 0 -0.0851772255244789 -0.080986581675010175 0 -0.08951033915223254 -0.085151726434584685 0 -0.0851772255244789 -0.080986581675010175 0 -0.08951033915223254 -0.085151726434584685 0 -0.0939538163201354 -0.080220364371763539 0 -0.098997402061837658 -0.089810629122027613 0 -0.08951033915223254 -0.085151726434584685 0 -0.0939538163201354 -0.080220364371763539 0 -0.098997402061837658 -0.089810629122027613 0 -0.0939538163201354 -0.080220364371763539 0 -0.10490681908502281 -0.078775567771474236 0 -0.096189108768957629 -0.035060581475935243 0 -0.10351290917251497 -0.048974493684856651 0 -0.11372479241144896 -0.027446918360192109 0 -0.11748601274098447 -0.02690169496576212 0 -0.1153384031691073 -0.030001359031561859 0 -0.11748601274098447 -0.02690169496576212 0 -0.1153384031691073 -0.030001359031561859 0 -0.11596783650624569 -0.0306541813118495 0 -0.0939538163201354 -0.080220364371763539 0 -0.094449793446126654 -0.071723945768577949 0 -0.10129688036392603 -0.072175274689217389 0 -0.0939538163201354 -0.080220364371763539 0 -0.10490681908502281 -0.078775567771474236 0 -0.10129688036392603 -0.072175274689217389 0 -0.094449793446126654 -0.071723945768577949 0 -0.10275061910097348 -0.063194617012721721 0 -0.095137521833518909 -0.065462229023377547 0 -0.094449793446126654 -0.071723945768577949 0 -0.10129688036392603 -0.072175274689217389 0 -0.10275061910097348 -0.063194617012721721 0 -0.10129688036392603 -0.072175274689217389 0 -0.10275061910097348 -0.063194617012721721 0 -0.11164133939941373 -0.065392075694253024 0 -0.10351290917251497 -0.048974493684856651 0 -0.10914677061508141 -0.049050816305599459 0 -0.10490681908502281 -0.078775567771474236 0 -0.10129688036392603 -0.072175274689217389 0 -0.11164133939941373 -0.065392075694253024 0 -0.10275061910097348 -0.063194617012721721 0 -0.10736694772110797 -0.056224439290993342 0 -0.10956257258741806 -0.060289069914534421 0 -0.10783249810546862 -0.050555598774745782 0 -0.10914677061508141 -0.049050816305599459 0 -0.10275061910097348 -0.063194617012721721 0 -0.098920837812617304 -0.059668481941952164 0 -0.10508907909806493 -0.056027365595289084 0 -0.10275061910097348 -0.063194617012721721 0 -0.10736694772110797 -0.056224439290993342 0 -0.10508907909806493 -0.056027365595289084 0 -0.10275061910097348 -0.063194617012721721 0 -0.095137521833518909 -0.065462229023377547 0 -0.098920837812617304 -0.059668481941952164 0 -0.095137521833518909 -0.065462229023377547 0 -0.089037612276817127 -0.069724876905074229 0 -0.090655113289263331 -0.063447603773549355 0 -0.095137521833518909 -0.065462229023377547 0 -0.090655113289263331 -0.063447603773549355 0 -0.098920837812617304 -0.059668481941952164 0 -0.089832823535429596 -0.075904271224511682 0 -0.084784135894794152 -0.074975277381055028 0 -0.089037612276817127 -0.069724876905074229 0 -0.089832823535429596 -0.075904271224511682 0 -0.094449793446126654 -0.071723945768577949 0 -0.089037612276817127 -0.069724876905074229 0 -0.094449793446126654 -0.071723945768577949 0 -0.095137521833518909 -0.065462229023377547 0 -0.089037612276817127 -0.069724876905074229 0 -0.08083135763017199 -0.069408040936091722 0 -0.079061859024990036 -0.074466952200595973 0 -0.084784135894794152 -0.074975277381055028 0 -0.08083135763017199 -0.069408040936091722 0 -0.084784135894794152 -0.074975277381055028 0 -0.089037612276817127 -0.069724876905074229 0 -0.08083135763017199 -0.069408040936091722 0 -0.089037612276817127 -0.069724876905074229 0 -0.090655113289263331 -0.063447603773549355 0 -0.075071984079022991 -0.063705588114769104 0 -0.090655113289263331 -0.063447603773549355 0 -0.09087470520741682 -0.056531483998230908 0 -0.075071984079022991 -0.063705588114769104 0 -0.08083135763017199 -0.069408040936091722 0 -0.090655113289263331 -0.063447603773549355 0 -0.090655113289263331 -0.063447603773549355 0 -0.09087470520741682 -0.056531483998230908 0 -0.097588187678043767 -0.05626852206004665 0 -0.090655113289263331 -0.063447603773549355 0 -0.097588187678043767 -0.05626852206004665 0 -0.098920837812617304 -0.059668481941952164 0 -0.09087470520741682 -0.056531483998230908 0 -0.09926872543624711 -0.051344030625609091 0 -0.097588187678043767 -0.05626852206004665 0 -0.075071984079022991 -0.063705588114769104 0 -0.09087470520741682 -0.056531483998230908 0 -0.086924019320539087 -0.049243630068231202 0 -0.09087470520741682 -0.056531483998230908 0 -0.086924019320539087 -0.049243630068231202 0 -0.09926872543624711 -0.051344030625609091 0 -0.09926872543624711 -0.051344030625609091 0 -0.106583619881016 -0.047433760581910282 0 -0.09545950503250733 -0.042169953222692458 0 -0.086924019320539087 -0.049243630068231202 0 -0.09926872543624711 -0.051344030625609091 0 -0.09545950503250733 -0.042169953222692458 0 -0.081751644304538171 -0.061602236369698964 0 -0.086402736644656669 -0.063040778245148518 0 -0.069859382118205401 -0.066645051592667939 0 -0.070109514031168024 -0.06659782099346917 0 -0.070600715164976027 -0.066177499097066939 0 -0.106583619881016 -0.047433760581910282 0 -0.10585728172579775 -0.04994978692948867 0 -0.10787941492447378 -0.05017158685177265 0 -0.09926872543624711 -0.051344030625609091 0 -0.106583619881016 -0.047433760581910282 0 -0.10585728172579775 -0.04994978692948867 0 -0.09926872543624711 -0.051344030625609091 0 -0.10585728172579775 -0.04994978692948867 0 -0.10502273309398778 -0.05290729918908707 0 -0.10585728172579775 -0.04994978692948867 0 -0.10502273309398778 -0.05290729918908707 0 -0.10763365889122152 -0.050273095346904585 0 -0.10585728172579775 -0.04994978692948867 0 -0.10763365889122152 -0.050273095346904585 0 -0.10787941492447378 -0.05017158685177265 0 -0.09926872543624711 -0.051344030625609091 0 -0.10502273309398778 -0.05290729918908707 0 -0.097588187678043767 -0.05626852206004665 0 -0.10502273309398778 -0.05290729918908707 0 -0.097588187678043767 -0.05626852206004665 0 -0.098920837812617304 -0.059668481941952164 0 -0.10502273309398778 -0.05290729918908707 0 -0.10508907909806493 -0.056027365595289084 0 -0.10873689328772052 -0.052148067158024204 0 -0.10502273309398778 -0.05290729918908707 0 -0.098920837812617304 -0.059668481941952164 0 -0.10508907909806493 -0.056027365595289084 0 -0.10736694772110797 -0.056224439290993342 0 -0.10508907909806493 -0.056027365595289084 0 -0.10873689328772052 -0.052148067158024204 0 -0.10873689328772052 -0.052148067158024204 0 -0.10954983756964469 -0.049493104864268542 0 -0.11076658702779844 -0.05167767156847302 0 -0.10873689328772052 -0.052148067158024204 0 -0.10954983756964469 -0.049493104864268542 0 -0.10893729807527582 -0.050210377300495511 0 -0.10954983756964469 -0.049493104864268542 0 -0.10893729807527582 -0.050210377300495511 0 -0.10852452776364502 -0.047251284440674689 0 -0.10954983756964469 -0.049493104864268542 0 -0.10852452776364502 -0.047251284440674689 0 -0.10868435262571811 -0.045920239287283074 0 -0.10954983756964469 -0.049493104864268542 0 -0.10868435262571811 -0.045920239287283074 0 -0.11076658702779844 -0.05167767156847302 0 -0.10893729807527582 -0.050210377300495511 0 -0.10856421560762916 -0.049922111142406723 0 -0.10852452776364502 -0.047251284440674689 0 -0.10502273309398778 -0.05290729918908707 0 -0.10873689328772052 -0.052148067158024204 0 -0.10893729807527582 -0.050210377300495511 0 -0.10502273309398778 -0.05290729918908707 0 -0.10893729807527582 -0.050210377300495511 0 -0.10763365889122152 -0.050273095346904585 0 -0.10763365889122152 -0.050273095346904585 0 -0.10856421560762916 -0.049922111142406723 0 -0.10787941492447378 -0.05017158685177265 0 -0.10893729807527582 -0.050210377300495511 0 -0.10763365889122152 -0.050273095346904585 0 -0.10856421560762916 -0.049922111142406723 0 -0.10856421560762916 -0.049922111142406723 0 -0.10804821569089988 -0.051407849276255621 0 -0.10753303343611099 -0.052327825104485394 0 -0.10856421560762916 -0.049922111142406723 0 -0.10804821569089988 -0.051407849276255621 0 -0.10787941492447378 -0.05017158685177265 0 -0.10499890850721244 -0.051783528808635119 0 -0.10743070911178942 -0.048887136015840986 0 -0.10753303343611099 -0.052327825104485394 0 -0.10856421560762916 -0.049922111142406723 0 -0.10743070911178942 -0.048887136015840986 0 -0.10753303343611099 -0.052327825104485394 0 -0.10856421560762916 -0.049922111142406723 0 -0.10743070911178942 -0.048887136015840986 0 -0.10852452776364502 -0.047251284440674689 0 -0.10499890850721244 -0.051783528808635119 0 -0.10743070911178942 -0.048887136015840986 0 -0.10499939687732415 -0.04572920776321613 0 -0.10852452776364502 -0.047251284440674689 0 -0.10499922726661928 -0.039675245768717483 0 -0.10868435262571811 -0.045920239287283074 0 -0.10499939687732415 -0.04572920776321613 0 -0.10852452776364502 -0.047251284440674689 0 -0.10499922726661928 -0.039675245768717483 0 -0.10743070911178942 -0.048887136015840986 0 -0.10499939687732415 -0.04572920776321613 0 -0.10852452776364502 -0.047251284440674689 0 -0.10499922726661928 -0.039675245768717483 0 -0.10816433899456822 -0.041142885556309357 0 -0.10868435262571811 -0.045920239287283074 0 -0.10499922726661928 -0.039675245768717483 0 -0.10499865882192713 -0.033618907744456472 0 -0.10816433899456822 -0.041142885556309357 0 -0.1049997138949167 -0.033621989965053153 0 -0.10719151900345879 -0.040206758750515874 0 -0.10500009979593621 -0.03361029119466253 0 -0.11000797779328021 -0.034080241223500236 0 -0.10885223519428187 -0.031005443795276061 0 -0.10816433899456822 -0.041142885556309357 0 -0.10868435262571811 -0.045920239287283074 0 -0.11076658702779844 -0.05167767156847302 0 -0.10816433899456822 -0.041142885556309357 0 -0.11076658702779844 -0.05167767156847302 0 -0.11250307243952798 -0.048013011224571162 0 -0.10736694772110797 -0.056224439290993342 0 -0.10873689328772052 -0.052148067158024204 0 -0.11076658702779844 -0.05167767156847302 0 -0.1090029215606786 -0.04980259204397406 0 -0.10914677061508141 -0.049050816305599459 0 -0.10736694772110797 -0.056224439290993342 0 -0.11076658702779844 -0.05167767156847302 0 -0.10956257258741806 -0.060289069914534421 0 -0.10719151900345879 -0.040206758750515874 0 -0.10914677061508141 -0.049050816305599459 0 -0.11000797779328021 -0.034080241223500236 0 -0.11431620685780998 -0.034781144895387861 0 -0.11306112510431254 -0.031653175482247511 0 -0.11000797779328021 -0.034080241223500236 0 -0.11083792088941227 -0.03147498055615526 0 -0.11306112510431254 -0.031653175482247511 0 -0.11083792088941227 -0.03147498055615526 0 -0.11306112510431254 -0.031653175482247511 0 -0.11138400418413814 -0.029196056808456845 0 -0.1153384031691073 -0.030001359031561859 0 -0.11596783650624569 -0.0306541813118495 0 -0.11306112510431254 -0.031653175482247511 0 -0.11596783650624569 -0.0306541813118495 0 -0.11431620685780998 -0.034781144895387861 0 -0.11306112510431254 -0.031653175482247511 0 -0.1153384031691073 -0.030001359031561859 0 -0.11306112510431254 -0.031653175482247511 0 -0.11138400418413814 -0.029196056808456845 0 -0.11298736121480556 -0.029171853975604789 0 -0.11081149951956761 -0.02871352030983345 0 -0.11372479241144896 -0.027446918360192109 0 -0.1153384031691073 -0.030001359031561859 0 -0.11148520969641093 -0.029499493055484778 0 -0.10979835766732816 -0.028020229068454423 0 -0.11372479241144896 -0.027446918360192109 0 -0.11148520969641093 -0.029499493055484778 0 -0.11081149951956761 -0.02871352030983345 0 -0.10635415468277845 -0.027580137611305205 0 -0.10979835766732816 -0.028020229068454423 0 -0.11148520969641093 -0.029499493055484778 0 -0.10761679762045974 -0.028964558754012229 0 -0.11138400418413814 -0.029196056808456845 0 -0.10680558175433437 -0.028086645085374288 0 -0.10885223519428187 -0.031005443795276061 0 -0.10746475673436211 -0.025552958290303681 0 -0.10635415468277845 -0.027580137611305205 0 -0.10746475673436211 -0.025552958290303681 0 -0.10500293385081845 -0.027031545628454962 0 -0.10979957807044577 -0.026311701165297061 0 -0.10685111380546418 -0.027591476342482255 0 -0.10500006304325808 -0.02703432467770682 0 -0.10635415468277845 -0.027580137611305205 0 -0.10500350088232849 -0.027363462387539849 0 -0.10703556950208158 -0.027641569378341269 0 -0.10499999813270401 -0.027362835345215622 0 -0.10499999915334694 -0.028531947948486951 0 -0.10685111380546418 -0.027591476342482255 0 -0.10500006304325808 -0.02703432467770682 0 -0.10499992835990309 -0.027362497820387157 0 -0.10680558175433437 -0.028086645085374288 0 -0.10499966122007687 -0.028533884707140158 0 -0.10665740796528156 -0.030341196997335212 0 -0.10635415468277845 -0.027580137611305205 0 -0.10500286795756944 -0.028529051780085208 0 -0.10500009979593621 -0.03361029119466253 0 -0.10499966122007687 -0.028533884707140158 0 -0.10665740796528156 -0.030341196997335212 0 -0.10500009979593621 -0.03361029119466253 0 -0.10665740796528156 -0.030341196997335212 0 -0.10885223519428187 -0.031005443795276061 0 -0.10680558175433437 -0.028086645085374288 0 -0.10665740796528156 -0.030341196997335212 0 -0.10885223519428187 -0.031005443795276061 0 -0.11000797779328021 -0.034080241223500236 0 -0.11083792088941227 -0.03147498055615526 0 -0.10885223519428187 -0.031005443795276061 0 -0.11083792088941227 -0.03147498055615526 0 -0.11138400418413814 -0.029196056808456845 0 -0.10885223519428187 -0.031005443795276061 0 -0.10631805633352195 -0.07367664027150117 0 -0.10552257925264881 -0.076778259446928052 0 -0.10633312524963037 -0.076909272820039634 0 -0.10631805633352195 -0.07367664027150117 0 -0.10544600023235022 -0.0733644340481545 0 -0.10552257925264881 -0.076778259446928052 0 -0.10544600023235022 -0.0733644340481545 0 -0.10499763279618486 -0.076014539668597003 0 -0.10552257925264881 -0.076778259446928052 0 -0.10544600023235022 -0.0733644340481545 0 -0.10499763279618486 -0.076014539668597003 0 -0.10499722452533911 -0.069954712978175362 0 -0.10499763279618486 -0.076014539668597003 0 -0.10552257925264881 -0.076778259446928052 0 -0.10510248975775546 -0.079822900216650991 0 -0.10552257925264881 -0.076778259446928052 0 -0.10513059208431115 -0.079393548196612387 0 -0.10510248975775546 -0.079822900216650991 0 -0.10552257925264881 -0.076778259446928052 0 -0.10633312524963037 -0.076909272820039634 0 -0.10513059208431115 -0.079393548196612387 0 -0.10633312524963037 -0.076909272820039634 0 -0.10545408076580752 -0.079824030207877344 0 -0.10513059208431115 -0.079393548196612387 0 -0.10633312524963037 -0.076909272820039634 0 -0.10833682944533671 -0.076182982584368716 0 -0.10545408076580752 -0.079824030207877344 0 -0.10833682944533671 -0.076182982584368716 0 -0.108028181092568 -0.077823968452710196 0 -0.10545408076580752 -0.079824030207877344 0 -0.10364159121374567 -0.073699149174435777 0 -0.10224879082276148 -0.074455591294295118 0 -0.10833682944533671 -0.076182982584368716 0 -0.10935855474801123 -0.071709145710559932 0 -0.11271605138366372 -0.071187934286101248 0 -0.10633312524963037 -0.076909272820039634 0 -0.10833682944533671 -0.076182982584368716 0 -0.10747672105779967 -0.074184730503858556 0 -0.10833682944533671 -0.076182982584368716 0 -0.10747672105779967 -0.074184730503858556 0 -0.10935855474801123 -0.071709145710559932 0 -0.10631805633352195 -0.07367664027150117 0 -0.10633312524963037 -0.076909272820039634 0 -0.10747672105779967 -0.074184730503858556 0 -0.10631805633352195 -0.07367664027150117 0 -0.10747672105779967 -0.074184730503858556 0 -0.10757724722101 -0.071089426695590374 0 -0.10757724722101 -0.071089426695590374 0 -0.10903678590168213 -0.067345651479333704 0 -0.10649301653913766 -0.068219366942341722 0 -0.10631805633352195 -0.07367664027150117 0 -0.10757724722101 -0.071089426695590374 0 -0.10649301653913766 -0.068219366942341722 0 -0.10935855474801123 -0.071709145710559932 0 -0.10903678590168213 -0.067345651479333704 0 -0.11264170745515005 -0.070387853588240484 0 -0.10421165686608982 -0.073464006790921091 0 -0.1023393575296262 -0.07359843991918899 0 -0.10935855474801123 -0.071709145710559932 0 -0.11264170745515005 -0.070387853588240484 0 -0.11271605138366372 -0.071187934286101248 0 -0.10747672105779967 -0.074184730503858556 0 -0.10757724722101 -0.071089426695590374 0 -0.10935855474801123 -0.071709145710559932 0 -0.10757724722101 -0.071089426695590374 0 -0.10935855474801123 -0.071709145710559932 0 -0.10903678590168213 -0.067345651479333704 0 -0.10903678590168213 -0.067345651479333704 0 -0.11055367120598408 -0.061361139393136636 0 -0.11316578884102813 -0.069830641149884992 0 -0.10903678590168213 -0.067345651479333704 0 -0.10846230349088322 -0.063165731402611142 0 -0.11055367120598408 -0.061361139393136636 0 -0.10903678590168213 -0.067345651479333704 0 -0.10649301653913766 -0.068219366942341722 0 -0.10846230349088322 -0.063165731402611142 0 -0.10649301653913766 -0.068219366942341722 0 -0.1070806838457333 -0.061906952946621074 0 -0.10593946094461583 -0.064999137576268615 0 -0.10631805633352195 -0.07367664027150117 0 -0.10544600023235022 -0.0733644340481545 0 -0.10649301653913766 -0.068219366942341722 0 -0.10544600023235022 -0.0733644340481545 0 -0.10649301653913766 -0.068219366942341722 0 -0.10499722452533911 -0.069954712978175362 0 -0.10649301653913766 -0.068219366942341722 0 -0.10499722452533911 -0.069954712978175362 0 -0.10593946094461583 -0.064999137576268615 0 -0.10499722452533911 -0.069954712978175362 0 -0.10499788738040654 -0.063896974370318438 0 -0.10593946094461583 -0.064999137576268615 0 -0.10499788738040654 -0.063896974370318438 0 -0.10593946094461583 -0.064999137576268615 0 -0.10597536494056205 -0.060569245628463997 0 -0.1070806838457333 -0.061906952946621074 0 -0.10593946094461583 -0.064999137576268615 0 -0.10597536494056205 -0.060569245628463997 0 -0.1070806838457333 -0.061906952946621074 0 -0.10597536494056205 -0.060569245628463997 0 -0.10697989590283766 -0.056830067547355312 0 -0.10499788738040654 -0.063896974370318438 0 -0.10597536494056205 -0.060569245628463997 0 -0.10499808372550541 -0.057839570048997022 0 -0.10499808372550541 -0.057839570048997022 0 -0.10697989590283766 -0.056830067547355312 0 -0.10617512685357491 -0.054713817533105669 0 -0.10597536494056205 -0.060569245628463997 0 -0.10499808372550541 -0.057839570048997022 0 -0.10697989590283766 -0.056830067547355312 0 -0.10697989590283766 -0.056830067547355312 0 -0.10753303343611099 -0.052327825104485394 0 -0.10617512685357491 -0.054713817533105669 0 -0.10499890850721244 -0.051783528808635119 0 -0.10753303343611099 -0.052327825104485394 0 -0.10617512685357491 -0.054713817533105669 0 -0.10499890850721244 -0.051783528808635119 0 -0.10499808372550541 -0.057839570048997022 0 -0.10617512685357491 -0.054713817533105669 0 -0.10804821569089988 -0.051407849276255621 0 -0.10787941492447378 -0.05017158685177265 0 -0.10820138565692687 -0.054106759001558778 0 -0.10787941492447378 -0.05017158685177265 0 -0.10820138565692687 -0.054106759001558778 0 -0.10833434972489502 -0.052454043540638644 0 -0.10804821569089988 -0.051407849276255621 0 -0.10753303343611099 -0.052327825104485394 0 -0.10820138565692687 -0.054106759001558778 0 -0.10697989590283766 -0.056830067547355312 0 -0.10753303343611099 -0.052327825104485394 0 -0.10820138565692687 -0.054106759001558778 0 -0.10697989590283766 -0.056830067547355312 0 -0.10820138565692687 -0.054106759001558778 0 -0.10856610050768785 -0.058637131902264002 0 -0.10820138565692687 -0.054106759001558778 0 -0.10856610050768785 -0.058637131902264002 0 -0.10968398051695023 -0.057226190776699583 0 -0.10856610050768785 -0.058637131902264002 0 -0.11055367120598408 -0.061361139393136636 0 -0.10968398051695023 -0.057226190776699583 0 -0.1070806838457333 -0.061906952946621074 0 -0.10697989590283766 -0.056830067547355312 0 -0.10856610050768785 -0.058637131902264002 0 -0.10649301653913766 -0.068219366942341722 0 -0.1070806838457333 -0.061906952946621074 0 -0.10846230349088322 -0.063165731402611142 0 -0.1070806838457333 -0.061906952946621074 0 -0.10856610050768785 -0.058637131902264002 0 -0.10846230349088322 -0.063165731402611142 0 -0.10856610050768785 -0.058637131902264002 0 -0.10846230349088322 -0.063165731402611142 0 -0.11055367120598408 -0.061361139393136636 0 -0.11055367120598408 -0.061361139393136636 0 -0.11193706572334021 -0.061168889063046211 0 -0.10968398051695023 -0.057226190776699583 0 -0.076442173642276956 -0.074980495657317556 0 -0.076748377451480179 -0.074925746677858104 0 -0.076343981696949087 -0.075108503465461718 0 -0.076550322031643872 -0.07491151632631092 0 -0.076442173642276956 -0.074980495657317556 0 -0.076309378229521496 -0.074900236814804566 0 -0.076550322031643872 -0.07491151632631092 0 -0.076442173642276956 -0.074980495657317556 0 -0.076748377451480179 -0.074925746677858104 0 -0.076748377451480179 -0.074925746677858104 0 -0.076364085095766213 -0.075326481812771018 0 -0.076343981696949087 -0.075108503465461718 0 -0.096307355112222492 -0.06918252523984908 0 -0.092442790690657223 -0.065683962750106906 0 -0.076748377451480179 -0.074925746677858104 0 -0.076416963672278196 -0.075866533696322055 0 -0.076364085095766213 -0.075326481812771018 0 -0.11193706572334021 -0.061168889063046211 0 -0.10968398051695023 -0.057226190776699583 0 -0.11232477582189303 -0.056244854452717291 0 -0.106583619881016 -0.047433760581910282 0 -0.10833434972489502 -0.052454043540638644 0 -0.11232477582189303 -0.056244854452717291 0 -0.10820138565692687 -0.054106759001558778 0 -0.10968398051695023 -0.057226190776699583 0 -0.10833434972489502 -0.052454043540638644 0 -0.10968398051695023 -0.057226190776699583 0 -0.10833434972489502 -0.052454043540638644 0 -0.11232477582189303 -0.056244854452717291 0 -0.106583619881016 -0.047433760581910282 0 -0.10787941492447378 -0.05017158685177265 0 -0.10833434972489502 -0.052454043540638644 0 -0.106583619881016 -0.047433760581910282 0 -0.1142207532667701 -0.048971580806921426 0 -0.11232477582189303 -0.056244854452717291 0 -0.086402736644656669 -0.063040778245148518 0 -0.074656976645994577 -0.067487277379164087 0 -0.075698147700290777 -0.07751233449794917 0 -0.075213288034894979 -0.07637946659586857 0 -0.074120654586701737 -0.077213400458382236 0 -0.069859382118205401 -0.066645051592667939 0 -0.070600715164976027 -0.066177499097066939 0 -0.069782503814164468 -0.06574502933910964 0 -0.095082845411240915 -0.061247370658148698 0 -0.086402736644656669 -0.063040778245148518 0 -0.075213288034894979 -0.07637946659586857 0 -0.076416963672278196 -0.075866533696322055 0 -0.075645600229854726 -0.07562488698263517 0 -0.086402736644656669 -0.063040778245148518 0 -0.092442790690657223 -0.065683962750106906 0 -0.075698147700290777 -0.07751233449794917 0 -0.075213288034894979 -0.07637946659586857 0 -0.076416963672278196 -0.075866533696322055 0 -0.075213288034894979 -0.07637946659586857 0 -0.074669874075352263 -0.075778079530720008 0 -0.074517432962840344 -0.076406006399584933 0 -0.075213288034894979 -0.07637946659586857 0 -0.074669874075352263 -0.075778079530720008 0 -0.075645600229854726 -0.07562488698263517 0 -0.074893766784691632 -0.075222923130322639 0 -0.075645600229854726 -0.07562488698263517 0 -0.0760748561794682 -0.07507208573477181 0 -0.074669874075352263 -0.075778079530720008 0 -0.074893766784691632 -0.075222923130322639 0 -0.075645600229854726 -0.07562488698263517 0 -0.076416963672278196 -0.075866533696322055 0 -0.075645600229854726 -0.07562488698263517 0 -0.07613396101856458 -0.075407672972373427 0 -0.075645600229854726 -0.07562488698263517 0 -0.07613396101856458 -0.075407672972373427 0 -0.0760748561794682 -0.07507208573477181 0 -0.076416963672278196 -0.075866533696322055 0 -0.07613396101856458 -0.075407672972373427 0 -0.076364085095766213 -0.075326481812771018 0 -0.07613396101856458 -0.075407672972373427 0 -0.076364085095766213 -0.075326481812771018 0 -0.076157818737981914 -0.075105130606451548 0 -0.076364085095766213 -0.075326481812771018 0 -0.076343981696949087 -0.075108503465461718 0 -0.076157818737981914 -0.075105130606451548 0 -0.07613396101856458 -0.075407672972373427 0 -0.076157818737981914 -0.075105130606451548 0 -0.0760748561794682 -0.07507208573477181 0 -0.073041147806372803 -0.076051308318339561 0 -0.073027806077325591 -0.076051900899165206 0 -0.073203733140101437 -0.075997716617964173 0 -0.073027806077325591 -0.076051900899165206 0 -0.076343981696949087 -0.075108503465461718 0 -0.076202428694674987 -0.075170799318341461 0 -0.076244695527567852 -0.075063825471456389 0 -0.076343981696949087 -0.075108503465461718 0 -0.076157818737981914 -0.075105130606451548 0 -0.076085381062797428 -0.075078577653900067 0 -0.073027806077325591 -0.076051900899165206 0 -0.071926064143290266 -0.076314490237785207 0 -0.076202428694674987 -0.075170799318341461 0 -0.076244695527567852 -0.075063825471456389 0 -0.075883387342251807 -0.075157065252825367 0 -0.076164714296832733 -0.075238446594928121 0 -0.076105020133181087 -0.075235480095538571 0 -0.076399801389207003 -0.074971953007470088 0 -0.074256465928657131 -0.075170345017439785 0 -0.071926064143290266 -0.076314490237785207 0 -0.071037629572252903 -0.076529950671543293 0 -0.073528263461167823 -0.075069325668374709 0 -0.076244695527567852 -0.075063825471456389 0 -0.076309378229521496 -0.074900236814804566 0 -0.075883387342251807 -0.075157065252825367 0 -0.07648378214512648 -0.075018662786540014 0 -0.076164714296832733 -0.075238446594928121 0 -0.076399801389207003 -0.074971953007470088 0 -0.076442173642276956 -0.074980495657317556 0 -0.076343981696949087 -0.075108503465461718 0 -0.076244695527567852 -0.075063825471456389 0 -0.076442173642276956 -0.074980495657317556 0 -0.076244695527567852 -0.075063825471456389 0 -0.076309378229521496 -0.074900236814804566 0 -0.071716438958073503 -0.076080653346920768 0 -0.073027806077325591 -0.076051900899165206 0 -0.071883432359943197 -0.076184297978237253 0 -0.072392636925749335 -0.076027907995257063 0 -0.07212969026337579 -0.076014524053917315 0 -0.071037629572252903 -0.076529950671543293 0 -0.059694003070445333 -0.079034179109232605 0 -0.075529566407420756 -0.075940944041689301 0 -0.075548779314599038 -0.075342777993020499 0 -0.074515520380091155 -0.075899865471330874 0 -0.065196748035215218 -0.076969915372202477 0 -0.065859784252819284 -0.076355320692456194 0 -0.064551721634950932 -0.076284934830708903 0 -0.071716438958073503 -0.076080653346920768 0 -0.071037629572252903 -0.076529950671543293 0 -0.071869628282128117 -0.075898411746685629 0 -0.070635453191841377 -0.076771175034657468 0 -0.07094516703625818 -0.076784690292390254 0 -0.071716438958073503 -0.076080653346920768 0 -0.071926064143290266 -0.076314490237785207 0 -0.071926064143290266 -0.076314490237785207 0 -0.071037629572252903 -0.076529950671543293 0 -0.075529566407420756 -0.075940944041689301 0 -0.075548779314599038 -0.075342777993020499 0 -0.076265836633111664 -0.075238497354512671 0 -0.066626493919005964 -0.079958769809075694 0 -0.059694003070445333 -0.079034179109232605 0 -0.04128510084491905 -0.082835912169332573 0 -0.043430103407189231 -0.083821120628580867 0 -0.043424301575961589 -0.081581851063454322 0 -0.066626493919005964 -0.079958769809075694 0 -0.066926619440039622 -0.079733236596057758 0 -0.04128510084491905 -0.082835912169332573 0 -0.042600105154500661 -0.086845927059894606 0 -0.043430103407189231 -0.083821120628580867 0 -0.076202073974069001 -0.075094561878523328 0 -0.076137123542097604 -0.074727878860176164 0 -0.076405782462580965 -0.07473848574223059 0 -0.076137123542097604 -0.074727878860176164 0 -0.076405782462580965 -0.07473848574223059 0 -0.076292166803909753 -0.074597468277669457 0 -0.076405782462580965 -0.07473848574223059 0 -0.076629836556576028 -0.074697394817267143 0 -0.07658085639564588 -0.074555299738001291 0 -0.076405782462580965 -0.07473848574223059 0 -0.076628874772480926 -0.074815266230535846 0 -0.076629836556576028 -0.074697394817267143 0 -0.076405782462580965 -0.07473848574223059 0 -0.076385751240749422 -0.074976191637190381 0 -0.076628874772480926 -0.074815266230535846 0 -0.076202073974069001 -0.075094561878523328 0 -0.076405782462580965 -0.07473848574223059 0 -0.076385751240749422 -0.074976191637190381 0 -0.066626493919005964 -0.079958769809075694 0 -0.069901129451141034 -0.07810494379217868 0 -0.075548779314599038 -0.075342777993020499 0 -0.076265836633111664 -0.075238497354512671 0 -0.076385751240749422 -0.074976191637190381 0 -0.073528263461167823 -0.075069325668374709 0 -0.074229304815532166 -0.074683335466986897 0 -0.07648378214512648 -0.075018662786540014 0 -0.076399801389207003 -0.074971953007470088 0 -0.076628874772480926 -0.074815266230535846 0 -0.076265836633111664 -0.075238497354512671 0 -0.076385751240749422 -0.074976191637190381 0 -0.076628874772480926 -0.074815266230535846 0 -0.07648378214512648 -0.075018662786540014 0 -0.076696478063148346 -0.074836669271781051 0 -0.076628874772480926 -0.074815266230535846 0 -0.076550322031643872 -0.07491151632631092 0 -0.076309378229521496 -0.074900236814804566 0 -0.076696478063148346 -0.074836669271781051 0 -0.076748377451480179 -0.074925746677858104 0 -0.076696478063148346 -0.074836669271781051 0 -0.076749238568134162 -0.074758219473383111 0 -0.074256465928657131 -0.075170345017439785 0 -0.074890788174653222 -0.074877100611293976 0 -0.076550322031643872 -0.07491151632631092 0 -0.076748377451480179 -0.074925746677858104 0 -0.076696478063148346 -0.074836669271781051 0 -0.076696478063148346 -0.074836669271781051 0 -0.076628874772480926 -0.074815266230535846 0 -0.076749238568134162 -0.074758219473383111 0 -0.11193706572334021 -0.061168889063046211 0 -0.11081408136965325 -0.063317603826198096 0 -0.11092984363183904 -0.063388895114975474 0 -0.096307355112222492 -0.06918252523984908 0 -0.10183692738194104 -0.073723244533371077 0 -0.11055367120598408 -0.061361139393136636 0 -0.11193706572334021 -0.061168889063046211 0 -0.11081408136965325 -0.063317603826198096 0 -0.076748377451480179 -0.074925746677858104 0 -0.076903766367828197 -0.074699849450913194 0 -0.076749238568134162 -0.074758219473383111 0 -0.10415503915453644 -0.067057081336042546 0 -0.1023393575296262 -0.07359843991918899 0 -0.10399056655995216 -0.072947740692809335 0 -0.10363252571779558 -0.072734700452020254 0 -0.10388501402809386 -0.072234083884555905 0 -0.1023393575296262 -0.07359843991918899 0 -0.10183692738194104 -0.073723244533371077 0 -0.10476189658177011 -0.0965936065878059 0 -0.10497457095423855 -0.096164134294973336 0 -0.10292869648063856 -0.093504736747977255 0 -0.10183692738194104 -0.073723244533371077 0 -0.10224879082276148 -0.074455591294295118 0 -0.1023393575296262 -0.07359843991918899 0 -0.10224879082276148 -0.074455591294295118 0 -0.076903766367828197 -0.074699849450913194 0 -0.076629836556576028 -0.074697394817267143 0 -0.07658085639564588 -0.074555299738001291 0 -0.076903766367828197 -0.074699849450913194 0 -0.076749238568134162 -0.074758219473383111 0 -0.076629836556576028 -0.074697394817267143 0 -0.10183692738194104 -0.073723244533371077 0 -0.091343754847931641 -0.079587975792479559 0 -0.076628874772480926 -0.074815266230535846 0 -0.076749238568134162 -0.074758219473383111 0 -0.076629836556576028 -0.074697394817267143 0 -0.10476189658177011 -0.0965936065878059 0 -0.099533489497306921 -0.093529823829511541 0 -0.10292869648063856 -0.093504736747977255 0 -0.099533489497306921 -0.093529823829511541 0 -0.10105050341767691 -0.091011071309686692 0 -0.097187283596120846 -0.090529641777806188 0 -0.099533489497306921 -0.093529823829511541 0 -0.10292869648063856 -0.093504736747977255 0 -0.10105050341767691 -0.091011071309686692 0 -0.10833682944533671 -0.076182982584368716 0 -0.10896200127226233 -0.075071128989491503 0 -0.108028181092568 -0.077823968452710196 0 -0.10497457095423855 -0.096164134294973336 0 -0.10292869648063856 -0.093504736747977255 0 -0.10421927104134418 -0.09018837322870632 0 -0.10224879082276148 -0.074455591294295118 0 -0.1041745825403565 -0.081858861975800695 0 -0.10292869648063856 -0.093504736747977255 0 -0.10421927104134418 -0.09018837322870632 0 -0.10105050341767691 -0.091011071309686692 0 -0.10421927104134418 -0.09018837322870632 0 -0.10105050341767691 -0.091011071309686692 0 -0.10032944695360912 -0.087449700607038758 0 -0.10105050341767691 -0.091011071309686692 0 -0.097187283596120846 -0.090529641777806188 0 -0.10032944695360912 -0.087449700607038758 0 -0.097187283596120846 -0.090529641777806188 0 -0.09604647487668444 -0.087463555725045231 0 -0.10032944695360912 -0.087449700607038758 0 -0.099533489497306921 -0.093529823829511541 0 -0.097187283596120846 -0.090529641777806188 0 -0.094351971081836725 -0.090481789923753247 0 -0.094595920338515674 -0.090724871249465669 0 -0.093003072567433037 -0.088457872274509769 0 -0.09604647487668444 -0.087463555725045231 0 -0.094595920338515674 -0.090724871249465669 0 -0.091291364021361773 -0.090825975005683776 0 -0.093003072567433037 -0.088457872274509769 0 -0.097187283596120846 -0.090529641777806188 0 -0.094595920338515674 -0.090724871249465669 0 -0.09604647487668444 -0.087463555725045231 0 -0.084888708649567698 -0.08329001565662969 0 -0.074864395611622267 -0.084315310657889775 0 -0.087574764863482146 -0.083807989483551823 0 -0.084888708649567698 -0.08329001565662969 0 -0.076137123542097604 -0.074727878860176164 0 -0.076292166803909753 -0.074597468277669457 0 -0.076051691153325537 -0.07445287943337045 0 -0.076250621684620032 -0.074440217885995641 0 -0.076292166803909753 -0.074597468277669457 0 -0.076051691153325537 -0.07445287943337045 0 -0.076405782462580965 -0.07473848574223059 0 -0.07658085639564588 -0.074555299738001291 0 -0.076292166803909753 -0.074597468277669457 0 -0.091343754847931641 -0.079587975792479559 0 -0.084888708649567698 -0.08329001565662969 0 -0.07658085639564588 -0.074555299738001291 0 -0.076250621684620032 -0.074440217885995641 0 -0.076292166803909753 -0.074597468277669457 0 -0.045639155343264029 -0.088291681235938557 0 -0.043972906471949534 -0.091041642594737515 0 -0.047202430599781832 -0.091265880898360949 0 -0.045639155343264029 -0.088291681235938557 0 -0.047202430599781832 -0.091265880898360949 0 -0.047835770599757299 -0.088468637882253398 0 -0.042600105154500661 -0.086845927059894606 0 -0.045639155343264029 -0.088291681235938557 0 -0.043972906471949534 -0.091041642594737515 0 -0.066926619440039622 -0.079733236596057758 0 -0.074864395611622267 -0.084315310657889775 0 -0.074864395611622267 -0.084315310657889775 0 -0.066108612939668313 -0.088437070309126634 0 -0.088566262536037485 -0.098188311982119469 0 -0.079601865559573756 -0.09792202855608087 0 -0.08578166294065584 -0.089812175061725716 0 -0.066108612939668313 -0.088437070309126634 0 -0.062214691701229473 -0.090244387459418055 0 -0.047202430599781832 -0.091265880898360949 0 -0.050722118526675186 -0.091716315425944758 0 -0.047835770599757299 -0.088468637882253398 0 -0.079601865559573756 -0.09792202855608087 0 -0.069034184169871074 -0.096817806349978427 0 -0.071680489513527457 -0.090734000977277102 0 -0.069034184169871074 -0.096817806349978427 0 -0.057047695956182969 -0.091971055421716658 0 -0.064383352320481785 -0.089169930552665477 0 -0.062214691701229473 -0.090244387459418055 0 -0.060827588717126055 -0.090638229369358031 0 -0.050722118526675186 -0.091716315425944758 0 -0.050379630635730435 -0.087421896921433775 0 -0.053446329083778971 -0.088937358046942194 0 -0.050722118526675186 -0.091716315425944758 0 -0.047835770599757299 -0.088468637882253398 0 -0.050379630635730435 -0.087421896921433775 0 -0.047835770599757299 -0.088468637882253398 0 -0.04757798966282787 -0.08573430267119285 0 -0.050379630635730435 -0.087421896921433775 0 -0.04757798966282787 -0.08573430267119285 0 -0.050379630635730435 -0.087421896921433775 0 -0.050328399060728578 -0.084258567658305028 0 -0.050379630635730435 -0.087421896921433775 0 -0.052513314243980549 -0.08659605747508077 0 -0.053446329083778971 -0.088937358046942194 0 -0.050379630635730435 -0.087421896921433775 0 -0.050328399060728578 -0.084258567658305028 0 -0.052513314243980549 -0.08659605747508077 0 -0.050328399060728578 -0.084258567658305028 0 -0.048031534492941758 -0.08342105176108186 0 -0.049329943271873455 -0.082019160060324031 0 -0.04757798966282787 -0.08573430267119285 0 -0.050328399060728578 -0.084258567658305028 0 -0.048031534492941758 -0.08342105176108186 0 -0.04757798966282787 -0.08573430267119285 0 -0.048031534492941758 -0.08342105176108186 0 -0.046370931450379335 -0.083636025275716661 0 -0.04757798966282787 -0.08573430267119285 0 -0.046370931450379335 -0.083636025275716661 0 -0.044957846201184391 -0.084870306487683095 0 -0.046370931450379335 -0.083636025275716661 0 -0.044957846201184391 -0.084870306487683095 0 -0.044863208042624024 -0.083011762777463305 0 -0.045639155343264029 -0.088291681235938557 0 -0.047835770599757299 -0.088468637882253398 0 -0.04757798966282787 -0.08573430267119285 0 -0.045639155343264029 -0.088291681235938557 0 -0.04757798966282787 -0.08573430267119285 0 -0.044957846201184391 -0.084870306487683095 0 -0.042600105154500661 -0.086845927059894606 0 -0.045639155343264029 -0.088291681235938557 0 -0.044957846201184391 -0.084870306487683095 0 -0.042600105154500661 -0.086845927059894606 0 -0.044957846201184391 -0.084870306487683095 0 -0.043430103407189231 -0.083821120628580867 0 -0.044957846201184391 -0.084870306487683095 0 -0.043430103407189231 -0.083821120628580867 0 -0.044863208042624024 -0.083011762777463305 0 -0.059694003070445333 -0.079034179109232605 0 -0.049354983813581846 -0.079900451224549598 0 -0.043430103407189231 -0.083821120628580867 0 -0.044863208042624024 -0.083011762777463305 0 -0.043424301575961589 -0.081581851063454322 0 -0.044863208042624024 -0.083011762777463305 0 -0.043424301575961589 -0.081581851063454322 0 -0.046474079354378098 -0.081775562432372731 0 -0.037906336102313046 -0.080851450727848384 0 -0.041820299650349578 -0.081065628217360464 0 -0.04124063757826265 -0.078797034155968892 0 -0.048031534492941758 -0.08342105176108186 0 -0.046370931450379335 -0.083636025275716661 0 -0.046474079354378098 -0.081775562432372731 0 -0.046370931450379335 -0.083636025275716661 0 -0.044863208042624024 -0.083011762777463305 0 -0.046474079354378098 -0.081775562432372731 0 -0.062935409451842658 -0.077202311465878679 0 -0.063212232306889091 -0.077557827686306285 0 -0.061322679791301932 -0.078095290925970631 0 -0.067214374525147932 -0.076069393337895988 0 -0.061216929718954503 -0.076315829794164319 0 -0.073172329868807895 -0.075293654617755695 0 -0.07200178023601933 -0.076118279820374862 0 -0.071392771362399285 -0.075774234543933269 0 -0.057107494372995574 -0.078919732025484912 0 -0.061216929718954503 -0.076315829794164319 0 -0.041820299650349578 -0.081065628217360464 0 -0.04124063757826265 -0.078797034155968892 0 -0.043973050672022784 -0.079288831702166232 0 -0.073172329868807895 -0.075293654617755695 0 -0.073726600357381683 -0.075483363594375255 0 -0.072678867778809914 -0.076213778688383818 0 -0.074797513627494094 -0.074822339375907015 0 -0.073172329868807895 -0.075293654617755695 0 -0.073726600357381683 -0.075483363594375255 0 -0.071716438958073503 -0.076080653346920768 0 -0.067214374525147932 -0.076069393337895988 0 -0.059694003070445333 -0.079034179109232605 0 -0.057107494372995574 -0.078919732025484912 0 -0.065196748035215218 -0.076969915372202477 0 -0.064551721634950932 -0.076284934830708903 0 -0.063212232306889091 -0.077557827686306285 0 -0.064551721634950932 -0.076284934830708903 0 -0.062935409451842658 -0.077202311465878679 0 -0.063212232306889091 -0.077557827686306285 0 -0.071716438958073503 -0.076080653346920768 0 -0.072700642990537787 -0.075639015083355229 0 -0.074669874075352263 -0.075778079530720008 0 -0.073979422137643219 -0.075870163646264394 0 -0.074330154181123431 -0.076065752325077715 0 -0.071716438958073503 -0.076080653346920768 0 -0.072629573924452226 -0.075723096354308114 0 -0.074669874075352263 -0.075778079530720008 0 -0.074893766784691632 -0.075222923130322639 0 -0.073979422137643219 -0.075870163646264394 0 -0.074652046454188187 -0.07492552373209467 0 -0.073688797074380724 -0.075553068069494578 0 -0.07379687066271598 -0.075766709779364436 0 -0.074669874075352263 -0.075778079530720008 0 -0.074330154181123431 -0.076065752325077715 0 -0.074517432962840344 -0.076406006399584933 0 -0.074148697321800627 -0.076209321660720114 0 -0.074517432962840344 -0.076406006399584933 0 -0.073720290478124284 -0.076567077718923696 0 -0.075213288034894979 -0.07637946659586857 0 -0.074517432962840344 -0.076406006399584933 0 -0.074120654586701737 -0.077213400458382236 0 -0.073979422137643219 -0.075870163646264394 0 -0.074330154181123431 -0.076065752325077715 0 -0.074148697321800627 -0.076209321660720114 0 -0.074330154181123431 -0.076065752325077715 0 -0.074148697321800627 -0.076209321660720114 0 -0.074517432962840344 -0.076406006399584933 0 -0.074517432962840344 -0.076406006399584933 0 -0.073720290478124284 -0.076567077718923696 0 -0.074120654586701737 -0.077213400458382236 0 -0.073720290478124284 -0.076567077718923696 0 -0.072860288528472678 -0.076720538942901179 0 -0.074120654586701737 -0.077213400458382236 0 -0.073979422137643219 -0.075870163646264394 0 -0.073720290478124284 -0.076567077718923696 0 -0.072860288528472678 -0.076720538942901179 0 -0.073979422137643219 -0.075870163646264394 0 -0.074148697321800627 -0.076209321660720114 0 -0.073720290478124284 -0.076567077718923696 0 -0.073688797074380724 -0.075553068069494578 0 -0.07379687066271598 -0.075766709779364436 0 -0.072678867778809914 -0.076213778688383818 0 -0.072629573924452226 -0.075723096354308114 0 -0.072667188459656681 -0.075838658071829976 0 -0.072700642990537787 -0.075639015083355229 0 -0.072744514580244543 -0.07566637564939728 0 -0.072860288528472678 -0.076720538942901179 0 -0.074120654586701737 -0.077213400458382236 0 -0.072089401865848612 -0.076798780956814819 0 -0.07379687066271598 -0.075766709779364436 0 -0.072678867778809914 -0.076213778688383818 0 -0.072860288528472678 -0.076720538942901179 0 -0.073172329868807895 -0.075293654617755695 0 -0.072678867778809914 -0.076213778688383818 0 -0.07200178023601933 -0.076118279820374862 0 -0.072678867778809914 -0.076213778688383818 0 -0.072089401865848612 -0.076798780956814819 0 -0.07200178023601933 -0.076118279820374862 0 -0.072678867778809914 -0.076213778688383818 0 -0.072860288528472678 -0.076720538942901179 0 -0.072089401865848612 -0.076798780956814819 0 -0.074656976645994577 -0.067487277379164087 0 -0.068985027454680395 -0.070876663968622411 0 -0.068583203162040668 -0.066865459295410615 0 -0.069782503814164468 -0.06574502933910964 0 -0.067261954678158847 -0.065345865029097575 0 -0.069859382118205401 -0.066645051592667939 0 -0.068583203162040668 -0.066865459295410615 0 -0.069782503814164468 -0.06574502933910964 0 -0.06521715672863744 -0.068003612749219094 0 -0.063846410265715525 -0.067244856763958916 0 -0.061239179036443166 -0.069245106322384259 0 -0.063846410265715525 -0.067244856763958916 0 -0.061239179036443166 -0.069245106322384259 0 -0.060856935275051212 -0.068358538529182999 0 -0.06521715672863744 -0.068003612749219094 0 -0.063846410265715525 -0.067244856763958916 0 -0.067261954678158847 -0.065345865029097575 0 -0.06521715672863744 -0.068003612749219094 0 -0.068583203162040668 -0.066865459295410615 0 -0.067261954678158847 -0.065345865029097575 0 -0.063846410265715525 -0.067244856763958916 0 -0.067261954678158847 -0.065345865029097575 0 -0.062608518047196082 -0.06479037899656262 0 -0.068985027454680395 -0.070876663968622411 0 -0.061423716686017579 -0.073735594069589974 0 -0.072089401865848612 -0.076798780956814819 0 -0.071007001296616107 -0.075982009635804926 0 -0.069871382943946569 -0.076233297335848757 0 -0.072089401865848612 -0.076798780956814819 0 -0.07200178023601933 -0.076118279820374862 0 -0.071007001296616107 -0.075982009635804926 0 -0.07200178023601933 -0.076118279820374862 0 -0.071392771362399285 -0.075774234543933269 0 -0.071007001296616107 -0.075982009635804926 0 -0.061216929718954503 -0.076315829794164319 0 -0.061519404662361853 -0.076188846587241302 0 -0.071385911562259249 -0.075757484575753917 0 -0.071007001296616107 -0.075982009635804926 0 -0.069871382943946569 -0.076233297335848757 0 -0.061216929718954503 -0.076315829794164319 0 -0.061423716686017579 -0.073735594069589974 0 -0.063846410265715525 -0.067244856763958916 0 -0.062608518047196082 -0.06479037899656262 0 -0.060856935275051212 -0.068358538529182999 0 -0.048775125562329429 -0.075186436273119522 0 -0.048237290255237361 -0.075062050544316819 0 -0.049497671174524527 -0.077120005941211586 0 -0.061260651571698382 -0.073708208797334709 0 -0.061423716686017579 -0.073735594069589974 0 -0.04484757143086076 -0.076434733389174531 0 -0.048237290255237361 -0.075062050544316819 0 -0.047086758673352526 -0.078201305008934296 0 -0.048237290255237361 -0.075062050544316819 0 -0.049497671174524527 -0.077120005941211586 0 -0.047086758673352526 -0.078201305008934296 0 -0.049497671174524527 -0.077120005941211586 0 -0.047086758673352526 -0.078201305008934296 0 -0.049149076339626098 -0.079454872230908635 0 -0.047086758673352526 -0.078201305008934296 0 -0.049149076339626098 -0.079454872230908635 0 -0.046092021617294116 -0.081482109297838515 0 -0.04124063757826265 -0.078797034155968892 0 -0.04484757143086076 -0.076434733389174531 0 -0.043973050672022784 -0.079288831702166232 0 -0.04484757143086076 -0.076434733389174531 0 -0.047086758673352526 -0.078201305008934296 0 -0.043973050672022784 -0.079288831702166232 0 -0.047086758673352526 -0.078201305008934296 0 -0.043973050672022784 -0.079288831702166232 0 -0.046092021617294116 -0.081482109297838515 0 -0.041820299650349578 -0.081065628217360464 0 -0.043973050672022784 -0.079288831702166232 0 -0.046092021617294116 -0.081482109297838515 0 -0.048031534492941758 -0.08342105176108186 0 -0.046474079354378098 -0.081775562432372731 0 -0.049329943271873455 -0.082019160060324031 0 -0.049354983813581846 -0.079900451224549598 0 -0.048628098350260204 -0.080532731567469901 0 -0.049149076339626098 -0.079454872230908635 0 -0.046092021617294116 -0.081482109297838515 0 -0.051265013273115972 -0.081888433161405705 0 -0.050328399060728578 -0.084258567658305028 0 -0.049329943271873455 -0.082019160060324031 0 -0.051265013273115972 -0.081888433161405705 0 -0.048628098350260204 -0.080532731567469901 0 -0.049405509363702783 -0.080767190520061469 0 -0.051265013273115972 -0.081888433161405705 0 -0.053113692218172852 -0.080587718002515588 0 -0.053309105469154391 -0.084146622271442068 0 -0.051265013273115972 -0.081888433161405705 0 -0.053113692218172852 -0.080587718002515588 0 -0.05165679603296016 -0.078729319132166312 0 -0.053113692218172852 -0.080587718002515588 0 -0.054352531848157325 -0.080440489885475849 0 -0.053309105469154391 -0.084146622271442068 0 -0.053113692218172852 -0.080587718002515588 0 -0.054736880781714153 -0.076495603321790326 0 -0.054352531848157325 -0.080440489885475849 0 -0.053113692218172852 -0.080587718002515588 0 -0.054736880781714153 -0.076495603321790326 0 -0.05165679603296016 -0.078729319132166312 0 -0.049149076339626098 -0.079454872230908635 0 -0.051265013273115972 -0.081888433161405705 0 -0.05165679603296016 -0.078729319132166312 0 -0.049497671174524527 -0.077120005941211586 0 -0.049149076339626098 -0.079454872230908635 0 -0.05165679603296016 -0.078729319132166312 0 -0.054736880781714153 -0.076495603321790326 0 -0.05165679603296016 -0.078729319132166312 0 -0.05202234892940618 -0.076094735332144267 0 -0.049497671174524527 -0.077120005941211586 0 -0.05165679603296016 -0.078729319132166312 0 -0.05202234892940618 -0.076094735332144267 0 -0.048775125562329429 -0.075186436273119522 0 -0.049497671174524527 -0.077120005941211586 0 -0.05202234892940618 -0.076094735332144267 0 -0.048775125562329429 -0.075186436273119522 0 -0.05202234892940618 -0.076094735332144267 0 -0.055736668856766917 -0.071770453040803012 0 -0.061423716686017579 -0.073735594069589974 0 -0.058879438123624096 -0.073453680223987405 0 -0.062608518047196082 -0.06479037899656262 0 -0.055736668856766917 -0.071770453040803012 0 -0.060856935275051212 -0.068358538529182999 0 -0.048775125562329429 -0.075186436273119522 0 -0.047914067333466127 -0.075007111965697787 0 -0.055736668856766917 -0.071770453040803012 0 -0.054736880781714153 -0.076495603321790326 0 -0.055736668856766917 -0.071770453040803012 0 -0.05611276345970647 -0.073008313945514713 0 -0.054736880781714153 -0.076495603321790326 0 -0.05202234892940618 -0.076094735332144267 0 -0.055736668856766917 -0.071770453040803012 0 -0.058175343722959613 -0.071050205135553962 0 -0.055736668856766917 -0.071770453040803012 0 -0.05611276345970647 -0.073008313945514713 0 -0.056793962868541339 -0.07261963620999469 0 -0.058175343722959613 -0.071050205135553962 0 -0.05611276345970647 -0.073008313945514713 0 -0.055736668856766917 -0.071770453040803012 0 -0.061239179036443166 -0.069245106322384259 0 -0.060856935275051212 -0.068358538529182999 0 -0.058175343722959613 -0.071050205135553962 0 -0.055736668856766917 -0.071770453040803012 0 -0.061239179036443166 -0.069245106322384259 0 -0.05612336818918115 -0.074815308628689958 0 -0.056237612534190032 -0.073797561557277749 0 -0.055792689059348935 -0.075962606392468435 0 -0.056631590229191328 -0.073151599295017675 0 -0.05612336818918115 -0.074815308628689958 0 -0.056237612534190032 -0.073797561557277749 0 -0.056237612534190032 -0.073797561557277749 0 -0.05611276345970647 -0.073008313945514713 0 -0.055792689059348935 -0.075962606392468435 0 -0.056793962868541339 -0.07261963620999469 0 -0.056237612534190032 -0.073797561557277749 0 -0.05611276345970647 -0.073008313945514713 0 -0.054736880781714153 -0.076495603321790326 0 -0.05611276345970647 -0.073008313945514713 0 -0.055792689059348935 -0.075962606392468435 0 -0.05612336818918115 -0.074815308628689958 0 -0.055792689059348935 -0.075962606392468435 0 -0.055509138878529311 -0.077594838063237956 0 -0.055792689059348935 -0.075962606392468435 0 -0.054565165459990829 -0.080751395339497919 0 -0.055509138878529311 -0.077594838063237956 0 -0.055792689059348935 -0.075962606392468435 0 -0.054352531848157325 -0.080440489885475849 0 -0.054565165459990829 -0.080751395339497919 0 -0.054736880781714153 -0.076495603321790326 0 -0.055792689059348935 -0.075962606392468435 0 -0.054352531848157325 -0.080440489885475849 0 -0.054352531848157325 -0.080440489885475849 0 -0.054565165459990829 -0.080751395339497919 0 -0.05374045285616956 -0.084409007033632286 0 -0.054565165459990829 -0.080751395339497919 0 -0.05374045285616956 -0.084409007033632286 0 -0.052638098621278544 -0.084695857056972024 0 -0.049750987952416004 -0.087305687440135255 0 -0.052638098621278544 -0.084695857056972024 0 -0.050807928760607343 -0.088034695581108532 0 -0.05374045285616956 -0.084409007033632286 0 -0.049750987952416004 -0.087305687440135255 0 -0.052638098621278544 -0.084695857056972024 0 -0.05374045285616956 -0.084409007033632286 0 -0.054960043602045219 -0.088228314647176731 0 -0.055617290585917294 -0.08845537297727156 0 -0.052255123291918837 -0.087589427185816734 0 -0.051951128619764649 -0.088560493434579599 0 -0.054352531848157325 -0.080440489885475849 0 -0.05374045285616956 -0.084409007033632286 0 -0.053309105469154391 -0.084146622271442068 0 -0.050328399060728578 -0.084258567658305028 0 -0.051265013273115972 -0.081888433161405705 0 -0.053309105469154391 -0.084146622271442068 0 -0.050328399060728578 -0.084258567658305028 0 -0.053309105469154391 -0.084146622271442068 0 -0.052513314243980549 -0.08659605747508077 0 -0.053309105469154391 -0.084146622271442068 0 -0.052513314243980549 -0.08659605747508077 0 -0.054960043602045219 -0.088228314647176731 0 -0.05374045285616956 -0.084409007033632286 0 -0.053309105469154391 -0.084146622271442068 0 -0.054960043602045219 -0.088228314647176731 0 -0.054960043602045219 -0.088228314647176731 0 -0.053446329083778971 -0.088937358046942194 0 -0.057047695956182969 -0.091971055421716658 0 -0.052513314243980549 -0.08659605747508077 0 -0.054960043602045219 -0.088228314647176731 0 -0.053446329083778971 -0.088937358046942194 0 -0.050722118526675186 -0.091716315425944758 0 -0.053446329083778971 -0.088937358046942194 0 -0.057047695956182969 -0.091971055421716658 0 -0.057047695956182969 -0.091971055421716658 0 -0.055904429509218215 -0.089860769970544652 0 -0.059024185482362421 -0.088516841764332235 0 -0.054960043602045219 -0.088228314647176731 0 -0.057047695956182969 -0.091971055421716658 0 -0.055904429509218215 -0.089860769970544652 0 -0.055904429509218215 -0.089860769970544652 0 -0.054197037990548369 -0.089086953338198605 0 -0.055617290585917294 -0.08845537297727156 0 -0.051221628972683751 -0.089673285099106936 0 -0.051951128619764649 -0.088560493434579599 0 -0.047518017708880679 -0.090768044079460861 0 -0.049750987952416004 -0.087305687440135255 0 -0.050807928760607343 -0.088034695581108532 0 -0.054960043602045219 -0.088228314647176731 0 -0.055904429509218215 -0.089860769970544652 0 -0.055617290585917294 -0.08845537297727156 0 -0.055355584449851149 -0.083901531286250178 0 -0.05201491288944099 -0.084334590641665402 0 -0.055115179618866979 -0.087045311575440432 0 -0.055355584449851149 -0.083901531286250178 0 -0.055115179618866979 -0.087045311575440432 0 -0.057390376261809976 -0.086212459482374867 0 -0.051221628972683751 -0.089673285099106936 0 -0.050696665408116147 -0.09047930045452314 0 -0.054197037990548369 -0.089086953338198605 0 -0.05201491288944099 -0.084334590641665402 0 -0.055115179618866979 -0.087045311575440432 0 -0.047518017708880679 -0.090768044079460861 0 -0.045468203026015903 -0.095034552604173664 0 -0.049090368192053473 -0.093527520779014731 0 -0.055904429509218215 -0.089860769970544652 0 -0.054197037990548369 -0.089086953338198605 0 -0.055115179618866979 -0.087045311575440432 0 -0.055904429509218215 -0.089860769970544652 0 -0.055115179618866979 -0.087045311575440432 0 -0.057390376261809976 -0.086212459482374867 0 -0.055904429509218215 -0.089860769970544652 0 -0.059024185482362421 -0.088516841764332235 0 -0.057390376261809976 -0.086212459482374867 0 -0.059024185482362421 -0.088516841764332235 0 -0.062669980664552122 -0.083385249440984799 0 -0.064383352320481785 -0.089169930552665477 0 -0.057047695956182969 -0.091971055421716658 0 -0.059024185482362421 -0.088516841764332235 0 -0.064383352320481785 -0.089169930552665477 0 -0.059024185482362421 -0.088516841764332235 0 -0.062669980664552122 -0.083385249440984799 0 -0.057390376261809976 -0.086212459482374867 0 -0.062669980664552122 -0.083385249440984799 0 -0.057390376261809976 -0.086212459482374867 0 -0.058598522032337064 -0.082056927583398914 0 -0.055355584449851149 -0.083901531286250178 0 -0.057390376261809976 -0.086212459482374867 0 -0.058598522032337064 -0.082056927583398914 0 -0.058598522032337064 -0.082056927583398914 0 -0.060689553591444616 -0.077991381791182632 0 -0.054702067124964907 -0.08061888709562591 0 -0.06192834464975399 -0.08009563693179024 0 -0.058914967542934155 -0.080322889865566599 0 -0.060689553591444616 -0.077991381791182632 0 -0.064938279795837828 -0.079549818078943429 0 -0.069593974136991907 -0.075942792308609175 0 -0.062669980664552122 -0.083385249440984799 0 -0.061796983184495807 -0.080674629704794457 0 -0.064938279795837828 -0.079549818078943429 0 -0.058598522032337064 -0.082056927583398914 0 -0.061796983184495807 -0.080674629704794457 0 -0.060689553591444616 -0.077991381791182632 0 -0.062669980664552122 -0.083385249440984799 0 -0.058598522032337064 -0.082056927583398914 0 -0.061796983184495807 -0.080674629704794457 0 -0.061796983184495807 -0.080674629704794457 0 -0.060689553591444616 -0.077991381791182632 0 -0.064938279795837828 -0.079549818078943429 0 -0.06192834464975399 -0.08009563693179024 0 -0.068465430948799477 -0.080061459365454613 0 -0.059443174357399008 -0.080387427769310585 0 -0.059749244012117717 -0.078753872721648785 0 -0.062130316099086057 -0.078508349596620314 0 -0.06410688754555241 -0.088692380354751785 0 -0.063182412157800807 -0.091698103638652009 0 -0.059749244012117717 -0.078753872721648785 0 -0.061518088953815726 -0.076324891251621563 0 -0.062130316099086057 -0.078508349596620314 0 -0.059443174357399008 -0.080387427769310585 0 -0.056862848518014618 -0.078981055861062452 0 -0.054702067124964907 -0.08061888709562591 0 -0.059749244012117717 -0.078753872721648785 0 -0.056862848518014618 -0.078981055861062452 0 -0.055983753893497051 -0.075340092247660376 0 -0.059443174357399008 -0.080387427769310585 0 -0.059749244012117717 -0.078753872721648785 0 -0.056862848518014618 -0.078981055861062452 0 -0.053923524640332905 -0.077687040580235553 0 -0.054702067124964907 -0.08061888709562591 0 -0.051346007417958986 -0.079048985550358261 0 -0.056862848518014618 -0.078981055861062452 0 -0.053923524640332905 -0.077687040580235553 0 -0.055983753893497051 -0.075340092247660376 0 -0.056862848518014618 -0.078981055861062452 0 -0.053923524640332905 -0.077687040580235553 0 -0.054702067124964907 -0.08061888709562591 0 -0.055355584449851149 -0.083901531286250178 0 -0.058598522032337064 -0.082056927583398914 0 -0.054702067124964907 -0.08061888709562591 0 -0.055355584449851149 -0.083901531286250178 0 -0.05201491288944099 -0.084334590641665402 0 -0.054702067124964907 -0.08061888709562591 0 -0.050696665408116147 -0.09047930045452314 0 -0.051364182403128983 -0.092381802552227124 0 -0.05201491288944099 -0.084334590641665402 0 -0.054702067124964907 -0.08061888709562591 0 -0.051346007417958986 -0.079048985550358261 0 -0.045468203026015903 -0.095034552604173664 0 -0.043994322508369467 -0.10290954523483552 0 -0.047072944544300777 -0.098225431839389574 0 -0.051364182403128983 -0.092381802552227124 0 -0.054716408945506778 -0.099347277479129595 0 -0.043994322508369467 -0.10290954523483552 0 -0.044775111755631924 -0.11022497735210067 0 -0.045628718349426792 -0.10755594228206103 0 -0.053923524640332905 -0.077687040580235553 0 -0.051346007417958986 -0.079048985550358261 0 -0.050799522790551187 -0.074437370563040256 0 -0.057854590528965702 -0.095466577226272192 0 -0.054716408945506778 -0.099347277479129595 0 -0.053923524640332905 -0.077687040580235553 0 -0.055983753893497051 -0.075340092247660376 0 -0.050799522790551187 -0.074437370563040256 0 -0.058873672185588477 -0.11616869926551289 0 -0.054177976607127483 -0.11150911481341023 0 -0.057637918337287444 -0.11005592846552195 0 -0.058873672185588477 -0.11616869926551289 0 -0.052115431129883087 -0.1151934671608288 0 -0.054177976607127483 -0.11150911481341023 0 -0.052115431129883087 -0.1151934671608288 0 -0.054177976607127483 -0.11150911481341023 0 -0.050830982997542774 -0.10803781677741868 0 -0.054716408945506778 -0.099347277479129595 0 -0.054096704025167391 -0.10580618470606458 0 -0.054177976607127483 -0.11150911481341023 0 -0.054687944067437225 -0.1082873843300038 0 -0.050830982997542774 -0.10803781677741868 0 -0.054177976607127483 -0.11150911481341023 0 -0.054687944067437225 -0.1082873843300038 0 -0.057637918337287444 -0.11005592846552195 0 -0.054687944067437225 -0.1082873843300038 0 -0.057637918337287444 -0.11005592846552195 0 -0.057691704169504192 -0.10719070278088437 0 -0.057691704169504192 -0.10719070278088437 0 -0.054154847050479224 -0.10499902752336436 0 -0.060447325325788427 -0.10499994324079472 0 -0.054687944067437225 -0.1082873843300038 0 -0.054154847050479224 -0.10499902752336436 0 -0.050830982997542774 -0.10803781677741868 0 -0.054687944067437225 -0.1082873843300038 0 -0.057691704169504192 -0.10719070278088437 0 -0.054154847050479224 -0.10499902752336436 0 -0.064176858051071539 -0.10563414473881538 0 -0.060447325325788427 -0.10499994324079472 0 -0.066737752939021219 -0.1049999414140536 0 -0.064900153012092412 -0.10810512291179794 0 -0.064176858051071539 -0.10563414473881538 0 -0.061648167408474563 -0.10792219362432474 0 -0.064900153012092412 -0.10810512291179794 0 -0.064176858051071539 -0.10563414473881538 0 -0.067400662821694435 -0.10724544858349104 0 -0.057691704169504192 -0.10719070278088437 0 -0.060447325325788427 -0.10499994324079472 0 -0.061648167408474563 -0.10792219362432474 0 -0.064176858051071539 -0.10563414473881538 0 -0.060447325325788427 -0.10499994324079472 0 -0.061648167408474563 -0.10792219362432474 0 -0.057637918337287444 -0.11005592846552195 0 -0.057691704169504192 -0.10719070278088437 0 -0.061648167408474563 -0.10792219362432474 0 -0.057637918337287444 -0.11005592846552195 0 -0.061648167408474563 -0.10792219362432474 0 -0.061002113361292069 -0.11165848419050395 0 -0.061648167408474563 -0.10792219362432474 0 -0.064132397071520839 -0.1108012061646548 0 -0.061002113361292069 -0.11165848419050395 0 -0.064900153012092412 -0.10810512291179794 0 -0.061648167408474563 -0.10792219362432474 0 -0.064132397071520839 -0.1108012061646548 0 -0.064900153012092412 -0.10810512291179794 0 -0.064132397071520839 -0.1108012061646548 0 -0.067006596861235987 -0.10989259889234448 0 -0.064132397071520839 -0.1108012061646548 0 -0.063353389142134259 -0.11373135688637739 0 -0.067889340487192792 -0.11302729365924423 0 -0.063353389142134259 -0.11373135688637739 0 -0.065123516083015628 -0.1171702056858001 0 -0.067889340487192792 -0.11302729365924423 0 -0.064132397071520839 -0.1108012061646548 0 -0.063353389142134259 -0.11373135688637739 0 -0.061002113361292069 -0.11165848419050395 0 -0.058873672185588477 -0.11616869926551289 0 -0.063353389142134259 -0.11373135688637739 0 -0.061002113361292069 -0.11165848419050395 0 -0.058873672185588477 -0.11616869926551289 0 -0.057637918337287444 -0.11005592846552195 0 -0.061002113361292069 -0.11165848419050395 0 -0.057854590528965702 -0.095466577226272192 0 -0.063182412157800807 -0.091698103638652009 0 -0.059749244012117717 -0.078753872721648785 0 -0.055983753893497051 -0.075340092247660376 0 -0.061381599360781795 -0.07637001056491706 0 -0.058873672185588477 -0.11616869926551289 0 -0.063353389142134259 -0.11373135688637739 0 -0.065123516083015628 -0.1171702056858001 0 -0.063182412157800807 -0.091698103638652009 0 -0.066055961630410678 -0.099277254689403183 0 -0.068486290657677598 -0.092922622328780791 0 -0.067753007615665148 -0.092780370910123144 0 -0.068003904472977092 -0.093667660043937243 0 -0.063182412157800807 -0.091698103638652009 0 -0.065310001137135448 -0.0889551866133029 0 -0.061518088953815726 -0.076324891251621563 0 -0.065333133883977781 -0.077149562690796064 0 -0.062130316099086057 -0.078508349596620314 0 -0.067753007615665148 -0.092780370910123144 0 -0.067505233269226375 -0.093279002603378902 0 -0.067006628866643395 -0.092630449781413618 0 -0.067753007615665148 -0.092780370910123144 0 -0.067505233269226375 -0.093279002603378902 0 -0.068003904472977092 -0.093667660043937243 0 -0.067505233269226375 -0.093279002603378902 0 -0.067432013352832387 -0.093792617485556257 0 -0.067023862412181834 -0.093397764011996606 0 -0.067505233269226375 -0.093279002603378902 0 -0.067432013352832387 -0.093792617485556257 0 -0.068003904472977092 -0.093667660043937243 0 -0.067006596861235987 -0.10989259889234448 0 -0.070641824238851139 -0.10891797879437498 0 -0.067400662821694435 -0.10724544858349104 0 -0.067889340487192792 -0.11302729365924423 0 -0.067006596861235987 -0.10989259889234448 0 -0.070641824238851139 -0.10891797879437498 0 -0.064132397071520839 -0.1108012061646548 0 -0.067889340487192792 -0.11302729365924423 0 -0.067006596861235987 -0.10989259889234448 0 -0.064900153012092412 -0.10810512291179794 0 -0.067006596861235987 -0.10989259889234448 0 -0.067400662821694435 -0.10724544858349104 0 -0.066055961630410678 -0.099277254689403183 0 -0.070604192402962826 -0.10120105567129874 0 -0.067432013352832387 -0.093792617485556257 0 -0.067517223373618623 -0.094424200417956544 0 -0.06704363873655475 -0.094171108660348418 0 -0.067432013352832387 -0.093792617485556257 0 -0.068003904472977092 -0.093667660043937243 0 -0.067517223373618623 -0.094424200417956544 0 -0.070604192402962826 -0.10120105567129874 0 -0.072824463686934876 -0.097248001836933204 0 -0.070604192402962826 -0.10120105567129874 0 -0.069458085489654126 -0.10262576260472854 0 -0.070604192402962826 -0.10120105567129874 0 -0.072838464954391557 -0.10436801908428886 0 -0.066737752939021219 -0.1049999414140536 0 -0.067365158230733052 -0.10731463245222507 0 -0.073033427882158192 -0.10531524153975445 0 -0.066737752939021219 -0.1049999414140536 0 -0.073033427882158192 -0.10531524153975445 0 -0.073028379571404539 -0.10500001298386441 0 -0.070544896112807426 -0.10897237152755289 0 -0.067365158230733052 -0.10731463245222507 0 -0.073033427882158192 -0.10531524153975445 0 -0.068552143009962749 -0.10277696656268899 0 -0.069458085489654126 -0.10262576260472854 0 -0.064176858051071539 -0.10563414473881538 0 -0.066737752939021219 -0.1049999414140536 0 -0.067365158230733052 -0.10731463245222507 0 -0.07806925994280875 -0.10499996872877077 0 -0.075555185004909223 -0.10771221845303716 0 -0.07302846078622155 -0.10499995949130632 0 -0.07806925994280875 -0.10499996872877077 0 -0.075555185004909223 -0.10771221845303716 0 -0.079399068717500881 -0.10877062441157151 0 -0.074291730376326456 -0.1007285770496873 0 -0.07349661653605874 -0.10191418328782421 0 -0.073468065525230858 -0.10029296837681216 0 -0.075555185004909223 -0.10771221845303716 0 -0.073038602797624336 -0.10531036561590756 0 -0.073164523332876527 -0.11024435406973161 0 -0.075555185004909223 -0.10771221845303716 0 -0.073038602797624336 -0.10531036561590756 0 -0.07302846078622155 -0.10499995949130632 0 -0.072838464954391557 -0.10436801908428886 0 -0.072824463686934876 -0.097248001836933204 0 -0.072838464954391557 -0.10436801908428886 0 -0.073022432908768725 -0.10498974851972628 0 -0.075555185004909223 -0.10771221845303716 0 -0.073164523332876527 -0.11024435406973161 0 -0.07640597748458966 -0.11192696618697413 0 -0.072824463686934876 -0.097248001836933204 0 -0.076903978839452214 -0.093145955598378738 0 -0.07640597748458966 -0.11192696618697413 0 -0.079648327547423611 -0.11360113483142883 0 -0.079399068717500881 -0.10877062441157151 0 -0.075555185004909223 -0.10771221845303716 0 -0.07640597748458966 -0.11192696618697413 0 -0.079399068717500881 -0.10877062441157151 0 -0.076903978839452214 -0.093145955598378738 0 -0.08405835552647313 -0.089616231039002459 0 -0.069574993551226705 -0.078350119588342426 0 -0.069557387492001507 -0.078478416670163711 0 -0.06979482180781392 -0.07845416740293279 0 -0.067432013352832387 -0.093792617485556257 0 -0.06704363873655475 -0.094171108660348418 0 -0.067023862412181834 -0.093397764011996606 0 -0.072824463686934876 -0.097248001836933204 0 -0.069434880205303348 -0.089551784695402009 0 -0.069378768185896958 -0.078289272626247741 0 -0.069574993551226705 -0.078350119588342426 0 -0.069346079067968344 -0.078473537999958834 0 -0.069574993551226705 -0.078350119588342426 0 -0.069557387492001507 -0.078478416670163711 0 -0.069346079067968344 -0.078473537999958834 0 -0.067505233269226375 -0.093279002603378902 0 -0.067023862412181834 -0.093397764011996606 0 -0.067006628866643395 -0.092630449781413618 0 -0.069346079067968344 -0.078473537999958834 0 -0.069395052100300531 -0.078621590278595249 0 -0.069189130622552691 -0.078807158030651581 0 -0.069434880205303348 -0.089551784695402009 0 -0.066529253593330562 -0.087438443526342738 0 -0.069557387492001507 -0.078478416670163711 0 -0.069346079067968344 -0.078473537999958834 0 -0.069395052100300531 -0.078621590278595249 0 -0.069395052100300531 -0.078621590278595249 0 -0.069632765810129157 -0.078609264933650794 0 -0.069220185231143899 -0.078818409843000009 0 -0.069395052100300531 -0.078621590278595249 0 -0.069189130622552691 -0.078807158030651581 0 -0.069220185231143899 -0.078818409843000009 0 -0.069557387492001507 -0.078478416670163711 0 -0.069632765810129157 -0.078609264933650794 0 -0.06979482180781392 -0.07845416740293279 0 -0.082296491641465588 -0.083231263841102493 0 -0.08405835552647313 -0.089616231039002459 0 -0.069557387492001507 -0.078478416670163711 0 -0.069395052100300531 -0.078621590278595249 0 -0.069632765810129157 -0.078609264933650794 0 -0.092133417403453571 -0.07881753187774812 0 -0.094278014021600576 -0.080548457801382534 0 -0.095996644437531739 -0.080486749318699216 0 -0.093131413930800822 -0.079100375191820102 0 -0.092133417403453571 -0.07881753187774812 0 -0.095996644437531739 -0.080486749318699216 0 -0.093131413930800822 -0.079100375191820102 0 -0.092133417403453571 -0.07881753187774812 0 -0.09211203659733179 -0.078787147917966163 0 -0.092133417403453571 -0.07881753187774812 0 -0.089512783122972991 -0.080342565127635254 0 -0.094278014021600576 -0.080548457801382534 0 -0.089512783122972991 -0.080342565127635254 0 -0.093257995119871331 -0.082467654414046049 0 -0.094278014021600576 -0.080548457801382534 0 -0.089512783122972991 -0.080342565127635254 0 -0.093257995119871331 -0.082467654414046049 0 -0.090257424254484631 -0.083824153961782513 0 -0.085188173531813544 -0.082593364478417114 0 -0.084945615175796491 -0.079694621621708553 0 -0.078810047602105165 -0.079354750820462755 0 -0.089512783122972991 -0.080342565127635254 0 -0.085188173531813544 -0.082593364478417114 0 -0.090257424254484631 -0.083824153961782513 0 -0.089512783122972991 -0.080342565127635254 0 -0.085188173531813544 -0.082593364478417114 0 -0.084945615175796491 -0.079694621621708553 0 -0.089512783122972991 -0.080342565127635254 0 -0.084945615175796491 -0.079694621621708553 0 -0.086092529074830448 -0.076540786569345279 0 -0.078644545049400397 -0.080876076541714359 0 -0.07671649508017675 -0.081663011869578764 0 -0.084945615175796491 -0.079694621621708553 0 -0.086092529074830448 -0.076540786569345279 0 -0.078810047602105165 -0.079354750820462755 0 -0.092133417403453571 -0.07881753187774812 0 -0.089512783122972991 -0.080342565127635254 0 -0.086092529074830448 -0.076540786569345279 0 -0.081387883830974783 -0.080478824493749185 0 -0.078644545049400397 -0.080876076541714359 0 -0.069632765810129157 -0.078609264933650794 0 -0.069298419073588663 -0.079290393464523684 0 -0.069220185231143899 -0.078818409843000009 0 -0.082296491641465588 -0.083231263841102493 0 -0.078644545049400397 -0.080876076541714359 0 -0.066544004342389759 -0.087201141541385058 0 -0.066529253593330562 -0.087438443526342738 0 -0.069298419073588663 -0.079290393464523684 0 -0.069025697888272425 -0.078826593829340943 0 -0.069220185231143899 -0.078818409843000009 0 -0.069025697888272425 -0.078826593829340943 0 -0.069142791505477585 -0.07879661274586458 0 -0.069220185231143899 -0.078818409843000009 0 -0.066529253593330562 -0.087438443526342738 0 -0.066540971735047333 -0.087421879920816403 0 -0.078644545049400397 -0.080876076541714359 0 -0.068465430948799477 -0.080061459365454613 0 -0.065310001137135448 -0.0889551866133029 0 -0.066529253593330562 -0.087438443526342738 0 -0.065333133883977781 -0.077149562690796064 0 -0.069025697888272425 -0.078826593829340943 0 -0.069016291418543513 -0.078009133826827143 0 -0.069298419073588663 -0.079290393464523684 0 -0.069025697888272425 -0.078826593829340943 0 -0.06455413197163222 -0.079953658127410357 0 -0.065333133883977781 -0.077149562690796064 0 -0.069025697888272425 -0.078826593829340943 0 -0.06455413197163222 -0.079953658127410357 0 -0.065333133883977781 -0.077149562690796064 0 -0.062130316099086057 -0.078508349596620314 0 -0.06455413197163222 -0.079953658127410357 0 -0.059443174357399008 -0.080387427769310585 0 -0.062130316099086057 -0.078508349596620314 0 -0.06455413197163222 -0.079953658127410357 0 -0.062669980664552122 -0.083385249440984799 0 -0.064938279795837828 -0.079549818078943429 0 -0.069229769899654764 -0.080207012303728384 0 -0.064938279795837828 -0.079549818078943429 0 -0.069593974136991907 -0.075942792308609175 0 -0.069229769899654764 -0.080207012303728384 0 -0.078114236093907233 -0.074945789838156029 0 -0.069593974136991907 -0.075942792308609175 0 -0.073844922770934435 -0.079559085613585392 0 -0.069593974136991907 -0.075942792308609175 0 -0.069229769899654764 -0.080207012303728384 0 -0.073844922770934435 -0.079559085613585392 0 -0.069229769899654764 -0.080207012303728384 0 -0.073844922770934435 -0.079559085613585392 0 -0.070163431991014949 -0.083955700503698785 0 -0.07671649508017675 -0.081663011869578764 0 -0.075105058849405923 -0.082877968049101636 0 -0.085188173531813544 -0.082593364478417114 0 -0.078810047602105165 -0.079354750820462755 0 -0.078753479644135538 -0.087640043982850829 0 -0.078810047602105165 -0.079354750820462755 0 -0.078753479644135538 -0.087640043982850829 0 -0.070163431991014949 -0.083955700503698785 0 -0.062669980664552122 -0.083385249440984799 0 -0.069229769899654764 -0.080207012303728384 0 -0.070163431991014949 -0.083955700503698785 0 -0.062669980664552122 -0.083385249440984799 0 -0.070163431991014949 -0.083955700503698785 0 -0.064383352320481785 -0.089169930552665477 0 -0.069034184169871074 -0.096817806349978427 0 -0.064383352320481785 -0.089169930552665477 0 -0.071680489513527457 -0.090734000977277102 0 -0.070163431991014949 -0.083955700503698785 0 -0.064383352320481785 -0.089169930552665477 0 -0.071680489513527457 -0.090734000977277102 0 -0.078753479644135538 -0.087640043982850829 0 -0.070163431991014949 -0.083955700503698785 0 -0.071680489513527457 -0.090734000977277102 0 -0.079601865559573756 -0.09792202855608087 0 -0.078753479644135538 -0.087640043982850829 0 -0.071680489513527457 -0.090734000977277102 0 -0.079601865559573756 -0.09792202855608087 0 -0.078753479644135538 -0.087640043982850829 0 -0.08578166294065584 -0.089812175061725716 0 -0.074864395611622267 -0.084315310657889775 0 -0.080171963892354856 -0.087559555529686972 0 -0.089499632844600885 -0.087471044093251502 0 -0.093011033701157167 -0.085644068752157396 0 -0.093003072567433037 -0.088457872274509769 0 -0.091291364021361773 -0.090825975005683776 0 -0.089499632844600885 -0.087471044093251502 0 -0.093003072567433037 -0.088457872274509769 0 -0.093257995119871331 -0.082467654414046049 0 -0.093011033701157167 -0.085644068752157396 0 -0.090257424254484631 -0.083824153961782513 0 -0.089499632844600885 -0.087471044093251502 0 -0.093011033701157167 -0.085644068752157396 0 -0.090257424254484631 -0.083824153961782513 0 -0.085188173531813544 -0.082593364478417114 0 -0.078753479644135538 -0.087640043982850829 0 -0.08578166294065584 -0.089812175061725716 0 -0.080878835882419439 -0.086197655682630048 0 -0.080171963892354856 -0.087559555529686972 0 -0.085188173531813544 -0.082593364478417114 0 -0.089499632844600885 -0.087471044093251502 0 -0.090257424254484631 -0.083824153961782513 0 -0.098876846922489714 -0.084581568082093231 0 -0.096256984407483037 -0.083929606338165444 0 -0.099169028209346047 -0.082040708857127345 0 -0.093257995119871331 -0.082467654414046049 0 -0.093011033701157167 -0.085644068752157396 0 -0.096256984407483037 -0.083929606338165444 0 -0.093011033701157167 -0.085644068752157396 0 -0.096256984407483037 -0.083929606338165444 0 -0.09604647487668444 -0.087463555725045231 0 -0.093011033701157167 -0.085644068752157396 0 -0.093003072567433037 -0.088457872274509769 0 -0.09604647487668444 -0.087463555725045231 0 -0.098876846922489714 -0.084581568082093231 0 -0.096256984407483037 -0.083929606338165444 0 -0.09604647487668444 -0.087463555725045231 0 -0.098876846922489714 -0.084581568082093231 0 -0.09604647487668444 -0.087463555725045231 0 -0.10032944695360912 -0.087449700607038758 0 -0.098876846922489714 -0.084581568082093231 0 -0.10032944695360912 -0.087449700607038758 0 -0.10310496758649672 -0.082875312497165524 0 -0.108028181092568 -0.077823968452710196 0 -0.10310496758649672 -0.082875312497165524 0 -0.10545408076580752 -0.079824030207877344 0 -0.10421927104134418 -0.09018837322870632 0 -0.10032944695360912 -0.087449700607038758 0 -0.10310496758649672 -0.082875312497165524 0 -0.1041745825403565 -0.081858861975800695 0 -0.1041194261509414 -0.081967331902156104 0 -0.10310496758649672 -0.082875312497165524 0 -0.10100724512290125 -0.08198247653274035 0 -0.1028971166583756 -0.082003366017179863 0 -0.10310496758649672 -0.082875312497165524 0 -0.1028971166583756 -0.082003366017179863 0 -0.10545408076580752 -0.079824030207877344 0 -0.10310496758649672 -0.082875312497165524 0 -0.099169028209346047 -0.082040708857127345 0 -0.10100724512290125 -0.08198247653274035 0 -0.098876846922489714 -0.084581568082093231 0 -0.10310496758649672 -0.082875312497165524 0 -0.099169028209346047 -0.082040708857127345 0 -0.099169028209346047 -0.082040708857127345 0 -0.10100724512290125 -0.08198247653274035 0 -0.099160712854477459 -0.081605866237164898 0 -0.10100724512290125 -0.08198247653274035 0 -0.099883089907495337 -0.081839205333197926 0 -0.099160712854477459 -0.081605866237164898 0 -0.10100724512290125 -0.08198247653274035 0 -0.099883089907495337 -0.081839205333197926 0 -0.1028971166583756 -0.082003366017179863 0 -0.097828052226653028 -0.082265705641678982 0 -0.099160712854477459 -0.081605866237164898 0 -0.097431020316625178 -0.083521612377220028 0 -0.099883089907495337 -0.081839205333197926 0 -0.097828052226653028 -0.082265705641678982 0 -0.099160712854477459 -0.081605866237164898 0 -0.099883089907495337 -0.081839205333197926 0 -0.097828052226653028 -0.082265705641678982 0 -0.098648665864822321 -0.081994786288597632 0 -0.099169028209346047 -0.082040708857127345 0 -0.099160712854477459 -0.081605866237164898 0 -0.098939664793693677 -0.081298148015889152 0 -0.099160712854477459 -0.081605866237164898 0 -0.098939664793693677 -0.081298148015889152 0 -0.097431020316625178 -0.083521612377220028 0 -0.098939664793693677 -0.081298148015889152 0 -0.096467164213757797 -0.081283413576203431 0 -0.095996644437531739 -0.080486749318699216 0 -0.099169028209346047 -0.082040708857127345 0 -0.098939664793693677 -0.081298148015889152 0 -0.096467164213757797 -0.081283413576203431 0 -0.096256984407483037 -0.083929606338165444 0 -0.099169028209346047 -0.082040708857127345 0 -0.096467164213757797 -0.081283413576203431 0 -0.093257995119871331 -0.082467654414046049 0 -0.096256984407483037 -0.083929606338165444 0 -0.096467164213757797 -0.081283413576203431 0 -0.093257995119871331 -0.082467654414046049 0 -0.096467164213757797 -0.081283413576203431 0 -0.094278014021600576 -0.080548457801382534 0 -0.096467164213757797 -0.081283413576203431 0 -0.094278014021600576 -0.080548457801382534 0 -0.095996644437531739 -0.080486749318699216 0 -0.093131413930800822 -0.079100375191820102 0 -0.095996644437531739 -0.080486749318699216 0 -0.096084478553346828 -0.078557115753245824 0 -0.095996644437531739 -0.080486749318699216 0 -0.099781696862760894 -0.082342516634113211 0 -0.096084478553346828 -0.078557115753245824 0 -0.098939664793693677 -0.081298148015889152 0 -0.095996644437531739 -0.080486749318699216 0 -0.099781696862760894 -0.082342516634113211 0 -0.098939664793693677 -0.081298148015889152 0 -0.099781696862760894 -0.082342516634113211 0 -0.096601984744751707 -0.08698477075146259 0 -0.099781696862760894 -0.082342516634113211 0 -0.10098419468023005 -0.095512354639624333 0 -0.096601984744751707 -0.08698477075146259 0 -0.099781696862760894 -0.082342516634113211 0 -0.10783074878863966 -0.086353743839726771 0 -0.10098419468023005 -0.095512354639624333 0 -0.08405835552647313 -0.089616231039002459 0 -0.087630473823898158 -0.098466168739781978 0 -0.089151888000531657 -0.090057220263822763 0 -0.08405835552647313 -0.089616231039002459 0 -0.079648327547423611 -0.11360113483142883 0 -0.079399068717500881 -0.10877062441157151 0 -0.083662299217371533 -0.10931783217191388 0 -0.083662299217371533 -0.10931783217191388 0 -0.0828905570007437 -0.10499996149611118 0 -0.087711840297947999 -0.10500000520460367 0 -0.079399068717500881 -0.10877062441157151 0 -0.083662299217371533 -0.10931783217191388 0 -0.0828905570007437 -0.10499996149611118 0 -0.07806925994280875 -0.10499996872877077 0 -0.079399068717500881 -0.10877062441157151 0 -0.0828905570007437 -0.10499996149611118 0 -0.090686137163026967 -0.10181443081254786 0 -0.087746552257656471 -0.10499592535774183 0 -0.091909755941345192 -0.097541438919723708 0 -0.090686137163026967 -0.10181443081254786 0 -0.087746552257656471 -0.10499592535774183 0 -0.0928188208907057 -0.10499541664604402 0 -0.087746552257656471 -0.10499592535774183 0 -0.094121151353011773 -0.095321430011611474 0 -0.091909755941345192 -0.097541438919723708 0 -0.10098419468023005 -0.095512354639624333 0 -0.087746552257656471 -0.10499592535774183 0 -0.094121151353011773 -0.095321430011611474 0 -0.087630473823898158 -0.098466168739781978 0 -0.087710405379639034 -0.10499165000937916 0 -0.10098419468023005 -0.095512354639624333 0 -0.094121151353011773 -0.095321430011611474 0 -0.096601984744751707 -0.08698477075146259 0 -0.094121151353011773 -0.095321430011611474 0 -0.093113120411667541 -0.092771433304015244 0 -0.091909755941345192 -0.097541438919723708 0 -0.090686137163026967 -0.10181443081254786 0 -0.091909755941345192 -0.097541438919723708 0 -0.088325880361125222 -0.097526141680867373 0 -0.093113120411667541 -0.092771433304015244 0 -0.091909755941345192 -0.097541438919723708 0 -0.088325880361125222 -0.097526141680867373 0 -0.093113120411667541 -0.092771433304015244 0 -0.094214547920475927 -0.088151520490861668 0 -0.096601984744751707 -0.08698477075146259 0 -0.093113120411667541 -0.092771433304015244 0 -0.094214547920475927 -0.088151520490861668 0 -0.088325880361125222 -0.097526141680867373 0 -0.094121151353011773 -0.095321430011611474 0 -0.093113120411667541 -0.092771433304015244 0 -0.096601984744751707 -0.08698477075146259 0 -0.098939664793693677 -0.081298148015889152 0 -0.096601984744751707 -0.08698477075146259 0 -0.097431020316625178 -0.083521612377220028 0 -0.094214547920475927 -0.088151520490861668 0 -0.096601984744751707 -0.08698477075146259 0 -0.097431020316625178 -0.083521612377220028 0 -0.094214547920475927 -0.088151520490861668 0 -0.097431020316625178 -0.083521612377220028 0 -0.096127227353911354 -0.083944111201533861 0 -0.097828052226653028 -0.082265705641678982 0 -0.097431020316625178 -0.083521612377220028 0 -0.096127227353911354 -0.083944111201533861 0 -0.096127227353911354 -0.083944111201533861 0 -0.096090808323931798 -0.082052246097356021 0 -0.093010929596208991 -0.083558081124443268 0 -0.097828052226653028 -0.082265705641678982 0 -0.096127227353911354 -0.083944111201533861 0 -0.096090808323931798 -0.082052246097356021 0 -0.099462423171554223 -0.080228568100417189 0 -0.10034224335657137 -0.081779620049805532 0 -0.098907496906316394 -0.081639626676730762 0 -0.096090808323931798 -0.082052246097356021 0 -0.098274088020927602 -0.081237904251435733 0 -0.098907496906316394 -0.081639626676730762 0 -0.098274088020927602 -0.081237904251435733 0 -0.099462423171554223 -0.080228568100417189 0 -0.098907496906316394 -0.081639626676730762 0 -0.10048120240864256 -0.096509397195906482 0 -0.10042026086151705 -0.096786980640260187 0 -0.098274088020927602 -0.081237904251435733 0 -0.098572464371556173 -0.080523479318429653 0 -0.099462423171554223 -0.080228568100417189 0 -0.096090808323931798 -0.082052246097356021 0 -0.098274088020927602 -0.081237904251435733 0 -0.098572464371556173 -0.080523479318429653 0 -0.094214547920475927 -0.088151520490861668 0 -0.096127227353911354 -0.083944111201533861 0 -0.093010929596208991 -0.083558081124443268 0 -0.099462423171554223 -0.080228568100417189 0 -0.10401878242016817 -0.080882406667522999 0 -0.10376607560498781 -0.077433657440521039 0 -0.10042026086151705 -0.096786980640260187 0 -0.10174640300319665 -0.097260590087324184 0 -0.099462423171554223 -0.080228568100417189 0 -0.10401878242016817 -0.080882406667522999 0 -0.10462791101911757 -0.084620429447547163 0 -0.098572464371556173 -0.080523479318429653 0 -0.099462423171554223 -0.080228568100417189 0 -0.10376607560498781 -0.077433657440521039 0 -0.094487541434771907 -0.11582094494378346 0 -0.097916190392902988 -0.11333925923927442 0 -0.09473394029132165 -0.11052503364829949 0 -0.10042026086151705 -0.096786980640260187 0 -0.096425539085958661 -0.10195399300340074 0 -0.093207588209327702 -0.096128341967404551 0 -0.092978828651561415 -0.099045411123988777 0 -0.094214547920475927 -0.088151520490861668 0 -0.093010929596208991 -0.083558081124443268 0 -0.090319787846317987 -0.095125305499599799 0 -0.090319787846317987 -0.095125305499599799 0 -0.094360201562959115 -0.098117974450993267 0 -0.094807237911857259 -0.10500439207952975 0 -0.094214547920475927 -0.088151520490861668 0 -0.090319787846317987 -0.095125305499599799 0 -0.094360201562959115 -0.098117974450993267 0 -0.09473394029132165 -0.11052503364829949 0 -0.098164141245056458 -0.10887186745206499 0 -0.094830158190326086 -0.10500003004407678 0 -0.097916190392902988 -0.11333925923927442 0 -0.09473394029132165 -0.11052503364829949 0 -0.098164141245056458 -0.10887186745206499 0 -0.098164141245056458 -0.10887186745206499 0 -0.098372306450112815 -0.10499988607081773 0 -0.094830158190326086 -0.10500003004407678 0 -0.092978828651561415 -0.099045411123988777 0 -0.092845032701539404 -0.10499118842119672 0 -0.094360201562959115 -0.098117974450993267 0 -0.094807237911857259 -0.10500439207952975 0 -0.092866866348932375 -0.10499317525606729 0 -0.096425539085958661 -0.10195399300340074 0 -0.094831775941396551 -0.10499638921344386 0 -0.090686137163026967 -0.10181443081254786 0 -0.088325880361125222 -0.097526141680867373 0 -0.0928188208907057 -0.10499541664604402 0 -0.104447408937219 -0.10325064307958509 0 -0.10192571380474805 -0.10499643242364917 0 -0.10611809309575872 -0.10164476870484973 0 -0.104447408937219 -0.10325064307958509 0 -0.10499661356335148 -0.10499727769335702 0 -0.10499601843788116 -0.10135489825369502 0 -0.10191694297964381 -0.10499656596996505 0 -0.10313800809348067 -0.098786698847024249 0 -0.104447408937219 -0.10325064307958509 0 -0.10499661356335148 -0.10499727769335702 0 -0.10192571380474805 -0.10499643242364917 0 -0.10191474476789664 -0.10500000357364621 0 -0.099988047812978584 -0.10743314515110861 0 -0.10147212074768265 -0.110811880046759 0 -0.098164141245056458 -0.10887186745206499 0 -0.098372306450112815 -0.10499988607081773 0 -0.099988047812978584 -0.10743314515110861 0 -0.098372306450112815 -0.10499988607081773 0 -0.10191474476789664 -0.10500000357364621 0 -0.099988047812978584 -0.10743314515110861 0 -0.097916190392902988 -0.11333925923927442 0 -0.098164141245056458 -0.10887186745206499 0 -0.10147212074768265 -0.110811880046759 0 -0.098164141245056458 -0.10887186745206499 0 -0.099988047812978584 -0.10743314515110861 0 -0.10147212074768265 -0.110811880046759 0 -0.10835271461750137 -0.098861240015939142 0 -0.10499994978084064 -0.10134581825128687 0 -0.10500009279029549 -0.096526917886977412 0 -0.104447408937219 -0.10325064307958509 0 -0.10611809309575872 -0.10164476870484973 0 -0.10499601843788116 -0.10135489825369502 0 -0.10313800809348067 -0.098786698847024249 0 -0.10499591652415501 -0.10133963762357819 0 -0.10835271461750137 -0.098861240015939142 0 -0.10500009279029549 -0.096526917886977412 0 -0.10860067071217069 -0.092881692162944854 0 -0.10174640300319665 -0.097260590087324184 0 -0.10313800809348067 -0.098786698847024249 0 -0.10313800809348067 -0.098786698847024249 0 -0.10571868275693024 -0.088869106344148144 0 -0.10376607560498781 -0.077433657440521039 0 -0.10809340569336073 -0.074310967190787808 0 -0.10776874146714813 -0.081192211094355843 0 -0.10401878242016817 -0.080882406667522999 0 -0.10776874146714813 -0.081192211094355843 0 -0.10462791101911757 -0.084620429447547163 0 -0.10401878242016817 -0.080882406667522999 0 -0.10376607560498781 -0.077433657440521039 0 -0.10776874146714813 -0.081192211094355843 0 -0.10500009279029549 -0.096526917886977412 0 -0.10860067071217069 -0.092881692162944854 0 -0.10499954755124892 -0.09170684647614355 0 -0.10860067071217069 -0.092881692162944854 0 -0.1070183282460139 -0.089634138411459952 0 -0.1076309072151713 -0.086416084095774143 0 -0.10499954755124892 -0.09170684647614355 0 -0.1070183282460139 -0.089634138411459952 0 -0.10665478842926059 -0.08771589320643379 0 -0.10860067071217069 -0.092881692162944854 0 -0.10499954755124892 -0.09170684647614355 0 -0.1070183282460139 -0.089634138411459952 0 -0.10499954755124892 -0.09170684647614355 0 -0.10500003099545466 -0.086889025422871455 0 -0.10665478842926059 -0.08771589320643379 0 -0.10500003099545466 -0.086889025422871455 0 -0.10665478842926059 -0.08771589320643379 0 -0.10813192918217709 -0.086788209414945527 0 -0.1070183282460139 -0.089634138411459952 0 -0.10665478842926059 -0.08771589320643379 0 -0.1076309072151713 -0.086416084095774143 0 -0.10665478842926059 -0.08771589320643379 0 -0.10813192918217709 -0.086788209414945527 0 -0.1076309072151713 -0.086416084095774143 0 -0.10341570833017161 -0.081490841110246862 0 -0.10416600716182318 -0.081134769077858215 0 -0.10250313559249596 -0.081530712525285168 0 -0.10501555498013779 -0.082947760861519823 0 -0.10373106305580837 -0.082370812225852658 0 -0.10813192918217709 -0.086788209414945527 0 -0.1076309072151713 -0.086416084095774143 0 -0.10462791101911757 -0.084620429447547163 0 -0.10341570833017161 -0.081490841110246862 0 -0.10416600716182318 -0.081134769077858215 0 -0.10403228340088395 -0.08127313443400376 0 -0.10571868275693024 -0.088869106344148144 0 -0.10630161688995178 -0.087493749517261243 0 -0.10776874146714813 -0.081192211094355843 0 -0.1076309072151713 -0.086416084095774143 0 -0.10462791101911757 -0.084620429447547163 0 -0.10247078337367067 -0.081378168753769367 0 -0.10373106305580837 -0.082370812225852658 0 -0.099462423171554223 -0.080228568100417189 0 -0.10034224335657137 -0.081779620049805532 0 -0.10250313559249596 -0.081530712525285168 0 -0.10034224335657137 -0.081779620049805532 0 -0.10250313559249596 -0.081530712525285168 0 -0.1023036718258583 -0.081775328301190248 0 -0.096090808323931798 -0.082052246097356021 0 -0.098648665864822321 -0.081994786288597632 0 -0.098907496906316394 -0.081639626676730762 0 -0.097828052226653028 -0.082265705641678982 0 -0.096090808323931798 -0.082052246097356021 0 -0.098648665864822321 -0.081994786288597632 0 -0.10034224335657137 -0.081779620049805532 0 -0.098648665864822321 -0.081994786288597632 0 -0.098907496906316394 -0.081639626676730762 0 -0.10034224335657137 -0.081779620049805532 0 -0.098648665864822321 -0.081994786288597632 0 -0.10141652631681741 -0.081934435231242983 0 -0.099883089907495337 -0.081839205333197926 0 -0.098648665864822321 -0.081994786288597632 0 -0.10141652631681741 -0.081934435231242983 0 -0.10141652631681741 -0.081934435231242983 0 -0.10326621303116357 -0.081585435911856394 0 -0.1028971166583756 -0.082003366017179863 0 -0.099883089907495337 -0.081839205333197926 0 -0.10141652631681741 -0.081934435231242983 0 -0.1028971166583756 -0.082003366017179863 0 -0.10341570833017161 -0.081490841110246862 0 -0.10250313559249596 -0.081530712525285168 0 -0.1023036718258583 -0.081775328301190248 0 -0.10034224335657137 -0.081779620049805532 0 -0.10141652631681741 -0.081934435231242983 0 -0.1023036718258583 -0.081775328301190248 0 -0.10141652631681741 -0.081934435231242983 0 -0.1023036718258583 -0.081775328301190248 0 -0.10326621303116357 -0.081585435911856394 0 -0.10341570833017161 -0.081490841110246862 0 -0.1023036718258583 -0.081775328301190248 0 -0.10326621303116357 -0.081585435911856394 0 -0.10341570833017161 -0.081490841110246862 0 -0.10326621303116357 -0.081585435911856394 0 -0.10429628645593449 -0.08102214468235637 0 -0.10326621303116357 -0.081585435911856394 0 -0.10435243411516856 -0.080746650802859504 0 -0.10429628645593449 -0.08102214468235637 0 -0.10326621303116357 -0.081585435911856394 0 -0.1028971166583756 -0.082003366017179863 0 -0.10435243411516856 -0.080746650802859504 0 -0.1028971166583756 -0.082003366017179863 0 -0.10545408076580752 -0.079824030207877344 0 -0.10435243411516856 -0.080746650802859504 0 -0.10545408076580752 -0.079824030207877344 0 -0.10435243411516856 -0.080746650802859504 0 -0.10513059208431115 -0.079393548196612387 0 -0.10435243411516856 -0.080746650802859504 0 -0.10513059208431115 -0.079393548196612387 0 -0.10429628645593449 -0.08102214468235637 0 -0.10513059208431115 -0.079393548196612387 0 -0.10510248975775546 -0.079822900216650991 0 -0.10429628645593449 -0.08102214468235637 0 -0.10510248975775546 -0.079822900216650991 0 -0.10429628645593449 -0.08102214468235637 0 -0.10448585330708449 -0.081277052859913504 0 -0.10499763279618486 -0.076014539668597003 0 -0.10510248975775546 -0.079822900216650991 0 -0.10499682103483945 -0.082062701074087932 0 -0.10510248975775546 -0.079822900216650991 0 -0.10499682103483945 -0.082062701074087932 0 -0.10448585330708449 -0.081277052859913504 0 -0.10501555498013779 -0.082947760861519823 0 -0.10499979771464084 -0.082070841434710981 0 -0.10416600716182318 -0.081134769077858215 0 -0.10499682103483945 -0.082062701074087932 0 -0.10448585330708449 -0.081277052859913504 0 -0.10500003099545466 -0.086889025422871455 0 -0.10813192918217709 -0.086788209414945527 0 -0.10499992164721687 -0.082069669612369514 0 -0.10416600716182318 -0.081134769077858215 0 -0.10403228340088395 -0.08127313443400376 0 -0.10448585330708449 -0.081277052859913504 0 -0.10341570833017161 -0.081490841110246862 0 -0.10403228340088395 -0.08127313443400376 0 -0.10429628645593449 -0.08102214468235637 0 -0.10403228340088395 -0.08127313443400376 0 -0.10429628645593449 -0.08102214468235637 0 -0.10448585330708449 -0.081277052859913504 0 -0.03880872730217818 -0.096619544811909666 0 -0.034816702877548206 -0.095595221010388629 0 -0.065543761900731287 -0.089975487109540883 0 -0.065521691617339978 -0.089647367512603535 0 -0.066143546174919576 -0.087498310276483152 0 -0.065521691617339978 -0.089647367512603535 0 -0.066143546174919576 -0.087498310276483152 0 -0.06521903883337242 -0.088770066455123919 0 -0.012429332810141205 -0.10400743710420343 0 -0.0090656981364028028 -0.10500414460767193 0 -0.010875911080658524 -0.10748577789319702 0 -0.0090656981364028028 -0.10500414460767193 0 -0.0091682612019924996 -0.10171937405979377 0 -0.0060225673561223316 -0.10455004313785918 0 -0.010875911080658524 -0.10748577789319702 0 -0.0073546606152469817 -0.10759975967470919 0 -0.0085311513628981012 -0.10956847114091239 0 -0.0090656981364028028 -0.10500414460767193 0 -0.0071963507733041497 -0.1059962416415909 0 -0.0073546606152469817 -0.10759975967470919 0 -0.0090656981364028028 -0.10500414460767193 0 -0.010875911080658524 -0.10748577789319702 0 -0.0073546606152469817 -0.10759975967470919 0 -0.066143546174919576 -0.087498310276483152 0 -0.064864817677464756 -0.088223802429191658 0 -0.06521903883337242 -0.088770066455123919 0 -0.066143546174919576 -0.087498310276483152 0 -0.064864817677464756 -0.088223802429191658 0 -0.065173430684411157 -0.086869550386955305 0 -0.064864817677464756 -0.088223802429191658 0 -0.063131994693829976 -0.088802007081201909 0 -0.065173430684411157 -0.086869550386955305 0 -0.058573689696697219 -0.085548666471467638 0 -0.05456227535290295 -0.082931693854411459 0 -0.063030615677204582 -0.087554131051893816 0 -0.062430148209074034 -0.084602746116853839 0 -0.065074616573642718 -0.084538891362003307 0 -0.063030615677204582 -0.087554131051893816 0 -0.062430148209074034 -0.084602746116853839 0 -0.060423622911087597 -0.086221106269033024 0 -0.063030615677204582 -0.087554131051893816 0 -0.060423622911087597 -0.086221106269033024 0 -0.060007091275452375 -0.09149512996485501 0 -0.058573689696697219 -0.085548666471467638 0 -0.058541451852205537 -0.087552878204365414 0 -0.063131994693829976 -0.088802007081201909 0 -0.064328482237578172 -0.09027120676794069 0 -0.063017158240112753 -0.091522817876462603 0 -0.065521691617339978 -0.089647367512603535 0 -0.06521903883337242 -0.088770066455123919 0 -0.064912025790269737 -0.089438378894585391 0 -0.064864817677464756 -0.088223802429191658 0 -0.064507554678235685 -0.089075513598377148 0 -0.06521903883337242 -0.088770066455123919 0 -0.064507554678235685 -0.089075513598377148 0 -0.06521903883337242 -0.088770066455123919 0 -0.064912025790269737 -0.089438378894585391 0 -0.064864817677464756 -0.088223802429191658 0 -0.063131994693829976 -0.088802007081201909 0 -0.064507554678235685 -0.089075513598377148 0 -0.063131994693829976 -0.088802007081201909 0 -0.064507554678235685 -0.089075513598377148 0 -0.064328482237578172 -0.09027120676794069 0 -0.064507554678235685 -0.089075513598377148 0 -0.064328482237578172 -0.09027120676794069 0 -0.064912025790269737 -0.089438378894585391 0 -0.065521691617339978 -0.089647367512603535 0 -0.064328482237578172 -0.09027120676794069 0 -0.064912025790269737 -0.089438378894585391 0 -0.064328482237578172 -0.09027120676794069 0 -0.063017158240112753 -0.091522817876462603 0 -0.065066058800465509 -0.093695165794447227 0 -0.065521691617339978 -0.089647367512603535 0 -0.064328482237578172 -0.09027120676794069 0 -0.065066058800465509 -0.093695165794447227 0 -0.065543761900731287 -0.089975487109540883 0 -0.065521691617339978 -0.089647367512603535 0 -0.064104797347607212 -0.092755510282132331 0 -0.050311495447641401 -0.090352168766355823 0 -0.043015776551289839 -0.09676841866125957 0 -0.03880872730217818 -0.096619544811909666 0 -0.043015776551289839 -0.09676841866125957 0 -0.063131994693829976 -0.088802007081201909 0 -0.063017158240112753 -0.091522817876462603 0 -0.060007091275452375 -0.09149512996485501 0 -0.063017158240112753 -0.091522817876462603 0 -0.062109719015070002 -0.094191850953741843 0 -0.060007091275452375 -0.09149512996485501 0 -0.063017158240112753 -0.091522817876462603 0 -0.062109719015070002 -0.094191850953741843 0 -0.065066058800465509 -0.093695165794447227 0 -0.062109719015070002 -0.094191850953741843 0 -0.059018371103954755 -0.09481595805395196 0 -0.060776844705956505 -0.097623237216471717 0 -0.062109719015070002 -0.094191850953741843 0 -0.065066058800465509 -0.093695165794447227 0 -0.064529477781396324 -0.09709973575993823 0 -0.043015776551289839 -0.09676841866125957 0 -0.036750831582791882 -0.10538605062507617 0 -0.014012781326922208 -0.10048357183851143 0 -0.01242913433565815 -0.09893680999608212 0 -0.01493017223317567 -0.098143711898432781 0 -0.01242913433565815 -0.09893680999608212 0 -0.011830187282939088 -0.10151628363639104 0 -0.0091682612019924996 -0.10171937405979377 0 -0.014012781326922208 -0.10048357183851143 0 -0.01242913433565815 -0.09893680999608212 0 -0.011830187282939088 -0.10151628363639104 0 -0.020700371545313834 -0.11565102322816392 0 -0.014892357238815768 -0.11734857633254948 0 -0.012429332810141205 -0.10400743710420343 0 -0.011830187282939088 -0.10151628363639104 0 -0.0091682612019924996 -0.10171937405979377 0 -0.012429332810141205 -0.10400743710420343 0 -0.014012781326922208 -0.10048357183851143 0 -0.011830187282939088 -0.10151628363639104 0 -0.012429332810141205 -0.10400743710420343 0 -0.0090656981364028028 -0.10500414460767193 0 -0.0091682612019924996 -0.10171937405979377 0 -0.021834518086099406 -0.12849494309979809 0 -0.017599873109129329 -0.13199007337320467 0 -0.017738096119965439 -0.12810922179799106 0 -0.017599873109129329 -0.13199007337320467 0 -0.014701292419112267 -0.12978484844253121 0 -0.017738096119965439 -0.12810922179799106 0 -0.01458585771277447 -0.12950867685360373 0 -0.01412979746792962 -0.13012834688378297 0 -0.014689588770430861 -0.12457959786970568 0 -0.0051203849088090917 -0.12019505158652122 0 -0.005952985178928916 -0.12032811235297212 0 -0.0059145062463998744 -0.12061642036096207 0 -0.005952985178928916 -0.12032811235297212 0 -0.005726835146050325 -0.11927302363960218 0 -0.0063313287932088413 -0.12107399204840158 0 -0.005726835146050325 -0.11927302363960218 0 -0.0069378518353646708 -0.11989568943107549 0 -0.0060917164656480258 -0.12181240917017518 0 -0.005726835146050325 -0.11927302363960218 0 -0.0060264618754002647 -0.12187267654224877 0 -0.0060917164656480258 -0.12181240917017518 0 -0.0052231409401948727 -0.12056271240346597 0 -0.0050143867645428379 -0.12075676377538078 0 -0.005952985178928916 -0.12032811235297212 0 -0.0060711514133785045 -0.12070464851580255 0 -0.0059145062463998744 -0.12061642036096207 0 -0.005952985178928916 -0.12032811235297212 0 -0.0061209511237491311 -0.12074932780939084 0 -0.0060711514133785045 -0.12070464851580255 0 -0.0051203849088090917 -0.12019505158652122 0 -0.005952985178928916 -0.12032811235297212 0 -0.005726835146050325 -0.11927302363960218 0 -0.005726835146050325 -0.11927302363960218 0 -0.0069378518353646708 -0.11989568943107549 0 -0.006681989639090855 -0.11736983274544403 0 -0.005726835146050325 -0.11927302363960218 0 -0.0052804998254471101 -0.11801911215906931 0 -0.006681989639090855 -0.11736983274544403 0 -0.017599873109129329 -0.13199007337320467 0 -0.014448807100707801 -0.13434383702587166 0 -0.013540475565792045 -0.13551903518193881 0 -0.01412979746792962 -0.13012834688378297 0 -0.014448807100707801 -0.13434383702587166 0 -0.013540475565792045 -0.13551903518193881 0 -0.012743756528179976 -0.12839032917615642 0 -0.013000739873612908 -0.13077978034513565 0 -0.014892357238815768 -0.11734857633254948 0 -0.011802477973313959 -0.11778106290194626 0 -0.017599873109129329 -0.13199007337320467 0 -0.014701292419112267 -0.12978484844253121 0 -0.014448807100707801 -0.13434383702587166 0 -0.011065055889536655 -0.12316372239116308 0 -0.011802477973313959 -0.11778106290194626 0 -0.0051203849088090917 -0.12019505158652122 0 -0.0052804998254471101 -0.11801911215906931 0 -0.0043736947779283684 -0.11714271794204216 0 -0.0051203849088090917 -0.12019505158652122 0 -0.005726835146050325 -0.11927302363960218 0 -0.0052804998254471101 -0.11801911215906931 0 -0.01458585771277447 -0.12950867685360373 0 -0.01412979746792962 -0.13012834688378297 0 -0.014448807100707801 -0.13434383702587166 0 -0.003346425671946829 -0.1242576404600805 0 -0.0038583450416399588 -0.12218930805161625 0 -0.0020522381557789566 -0.12279055971655675 0 -0.0049070556216758007 -0.12012039569449806 0 -0.0052279651339138559 -0.12051876289509987 0 -0.0069378518353646708 -0.11989568943107549 0 -0.0092936709136804841 -0.11938428740459274 0 -0.0060917164656480258 -0.12181240917017518 0 -0.003346425671946829 -0.1242576404600805 0 -0.0038583450416399588 -0.12218930805161625 0 -0.0060917164656480258 -0.12181240917017518 0 -0.0069378518353646708 -0.11989568943107549 0 -0.0092936709136804841 -0.11938428740459274 0 -0.0086739937469638047 -0.11735377754791163 0 -0.0069378518353646708 -0.11989568943107549 0 -0.0086739937469638047 -0.11735377754791163 0 -0.006681989639090855 -0.11736983274544403 0 -0.0092936709136804841 -0.11938428740459274 0 -0.0086739937469638047 -0.11735377754791163 0 -0.011756736542486606 -0.11657031928321586 0 -0.0049070556216758007 -0.12012039569449806 0 -0.0037949277676325994 -0.11852093017220597 0 -0.0086739937469638047 -0.11735377754791163 0 -0.0080231952627741188 -0.1149939713892409 0 -0.011756736542486606 -0.11657031928321586 0 -0.0086739937469638047 -0.11735377754791163 0 -0.0080231952627741188 -0.1149939713892409 0 -0.006681989639090855 -0.11736983274544403 0 -0.0080231952627741188 -0.1149939713892409 0 -0.006681989639090855 -0.11736983274544403 0 -0.0061873571002470738 -0.11551444415464297 0 -0.0080231952627741188 -0.1149939713892409 0 -0.0062510950499174997 -0.11356535814432539 0 -0.0074284349336963167 -0.11226317285043387 0 -0.0080231952627741188 -0.1149939713892409 0 -0.0098579435369029605 -0.11292630901320372 0 -0.0074284349336963167 -0.11226317285043387 0 -0.0080231952627741188 -0.1149939713892409 0 -0.0061873571002470738 -0.11551444415464297 0 -0.0062510950499174997 -0.11356535814432539 0 -0.0080231952627741188 -0.1149939713892409 0 -0.0098579435369029605 -0.11292630901320372 0 -0.011756736542486606 -0.11657031928321586 0 -0.0090656981364028028 -0.10500414460767193 0 -0.0071963507733041497 -0.1059962416415909 0 -0.0060225673561223316 -0.10455004313785918 0 -0.0042683438415105843 -0.11712208709170466 0 -0.004587778724197882 -0.11682274230979506 0 -0.0045943091746553479 -0.11349492940891505 0 -0.0052804998254471101 -0.11801911215906931 0 -0.0043736947779283684 -0.11714271794204216 0 -0.004587778724197882 -0.11682274230979506 0 -0.011802477973313959 -0.11778106290194626 0 -0.011742061844586586 -0.1178096866418591 0 -0.0052804998254471101 -0.11801911215906931 0 -0.0055945269099908039 -0.1167295035257957 0 -0.006681989639090855 -0.11736983274544403 0 -0.0052804998254471101 -0.11801911215906931 0 -0.004587778724197882 -0.11682274230979506 0 -0.0055945269099908039 -0.1167295035257957 0 -0.0055945269099908039 -0.1167295035257957 0 -0.006681989639090855 -0.11736983274544403 0 -0.0061873571002470738 -0.11551444415464297 0 -0.004587778724197882 -0.11682274230979506 0 -0.0055945269099908039 -0.1167295035257957 0 -0.005393351999665081 -0.11591080140400849 0 -0.004587778724197882 -0.11682274230979506 0 -0.005393351999665081 -0.11591080140400849 0 -0.0052957525612817883 -0.11482310934300069 0 -0.0055945269099908039 -0.1167295035257957 0 -0.005393351999665081 -0.11591080140400849 0 -0.0061873571002470738 -0.11551444415464297 0 -0.004587778724197882 -0.11682274230979506 0 -0.0052957525612817883 -0.11482310934300069 0 -0.0045943091746553479 -0.11349492940891505 0 -0.005393351999665081 -0.11591080140400849 0 -0.0052957525612817883 -0.11482310934300069 0 -0.0061873571002470738 -0.11551444415464297 0 -0.0052957525612817883 -0.11482310934300069 0 -0.0061873571002470738 -0.11551444415464297 0 -0.0062510950499174997 -0.11356535814432539 0 -0.0052957525612817883 -0.11482310934300069 0 -0.0062510950499174997 -0.11356535814432539 0 -0.0045943091746553479 -0.11349492940891505 0 -0.011802477973313959 -0.11778106290194626 0 -0.0094363572105566808 -0.11267001547809372 0 -0.0071963507733041497 -0.1059962416415909 0 -0.0060225673561223316 -0.10455004313785918 0 -0.0057624408771652438 -0.1079530095957186 0 -0.0071963507733041497 -0.1059962416415909 0 -0.0057624408771652438 -0.1079530095957186 0 -0.0073546606152469817 -0.10759975967470919 0 -0.0057624408771652438 -0.1079530095957186 0 -0.0073546606152469817 -0.10759975967470919 0 -0.0066810190618570402 -0.10896304167858284 0 -0.0073546606152469817 -0.10759975967470919 0 -0.0066810190618570402 -0.10896304167858284 0 -0.0075407785670078831 -0.10883984874934093 0 -0.0057624408771652438 -0.1079530095957186 0 -0.0066810190618570402 -0.10896304167858284 0 -0.0057232935489638492 -0.11018189710782146 0 -0.0066810190618570402 -0.10896304167858284 0 -0.0066338523412486422 -0.10974348402162934 0 -0.0071537955932487012 -0.10945023742740889 0 -0.0045943091746553479 -0.11349492940891505 0 -0.0062068713815272942 -0.11179347790919841 0 -0.0057232935489638492 -0.11018189710782146 0 -0.0094363572105566808 -0.11267001547809372 0 -0.008739672847863228 -0.11162201773844792 0 -0.0062068713815272942 -0.11179347790919841 0 -0.0066946676980964943 -0.11010935741424706 0 -0.0074284349336963167 -0.11226317285043387 0 -0.0062510950499174997 -0.11356535814432539 0 -0.0045943091746553479 -0.11349492940891505 0 -0.0062068713815272942 -0.11179347790919841 0 -0.0062510950499174997 -0.11356535814432539 0 -0.0062068713815272942 -0.11179347790919841 0 -0.0074284349336963167 -0.11226317285043387 0 -0.0066946676980964943 -0.11010935741424706 0 -0.0078807753911412908 -0.10958767412951424 0 -0.0060068508981155596 -0.10987179730300209 0 -0.0062068713815272942 -0.11179347790919841 0 -0.0057232935489638492 -0.11018189710782146 0 -0.0066946676980964943 -0.11010935741424706 0 -0.0066946676980964943 -0.11010935741424706 0 -0.0059747506073498605 -0.11002905282462987 0 -0.0060068508981155596 -0.10987179730300209 0 -0.0057232935489638492 -0.11018189710782146 0 -0.0066946676980964943 -0.11010935741424706 0 -0.0059747506073498605 -0.11002905282462987 0 -0.0059747506073498605 -0.11002905282462987 0 -0.0063320094453466706 -0.11018133730904787 0 -0.0060068508981155596 -0.10987179730300209 0 -0.0057232935489638492 -0.11018189710782146 0 -0.0059747506073498605 -0.11002905282462987 0 -0.0063320094453466706 -0.11018133730904787 0 -0.0057232935489638492 -0.11018189710782146 0 -0.0063320094453466706 -0.11018133730904787 0 -0.0066338523412486422 -0.10974348402162934 0 -0.0063320094453466706 -0.11018133730904787 0 -0.0068703639912696922 -0.1099889198754346 0 -0.0066338523412486422 -0.10974348402162934 0 -0.0063320094453466706 -0.11018133730904787 0 -0.0068703639912696922 -0.1099889198754346 0 -0.0066928425311466293 -0.11030636255430089 0 -0.0068703639912696922 -0.1099889198754346 0 -0.0066338523412486422 -0.10974348402162934 0 -0.0071537955932487012 -0.10945023742740889 0 -0.0066810190618570402 -0.10896304167858284 0 -0.0057232935489638492 -0.11018189710782146 0 -0.0066338523412486422 -0.10974348402162934 0 -0.0098579435369029605 -0.11292630901320372 0 -0.0085347015653048832 -0.11097380644962694 0 -0.010344750220443708 -0.10973915388022927 0 -0.0098579435369029605 -0.11292630901320372 0 -0.0074284349336963167 -0.11226317285043387 0 -0.0085347015653048832 -0.11097380644962694 0 -0.0066946676980964943 -0.11010935741424706 0 -0.0085347015653048832 -0.11097380644962694 0 -0.0078807753911412908 -0.10958767412951424 0 -0.0066946676980964943 -0.11010935741424706 0 -0.0074284349336963167 -0.11226317285043387 0 -0.0085347015653048832 -0.11097380644962694 0 -0.0085347015653048832 -0.11097380644962694 0 -0.0078807753911412908 -0.10958767412951424 0 -0.010344750220443708 -0.10973915388022927 0 -0.0064061822440269565 -0.10844477688856453 0 -0.010344750220443708 -0.10973915388022927 0 -0.0087270797689442091 -0.10706218518318651 0 -0.0096459174485913988 -0.10302667852408733 0 -0.010141297326549907 -0.10418290284581769 0 -0.010344750220443708 -0.10973915388022927 0 -0.0087270797689442091 -0.10706218518318651 0 -0.011025087647270063 -0.10551362186638848 0 -0.0087270797689442091 -0.10706218518318651 0 -0.0086748350589372757 -0.10482053222673333 0 -0.011025087647270063 -0.10551362186638848 0 -0.0087270797689442091 -0.10706218518318651 0 -0.0066189543661167409 -0.1057800079494359 0 -0.0086748350589372757 -0.10482053222673333 0 -0.0096459174485913988 -0.10302667852408733 0 -0.010336649111214621 -0.099792331353508512 0 -0.0064061822440269565 -0.10844477688856453 0 -0.0087270797689442091 -0.10706218518318651 0 -0.0066189543661167409 -0.1057800079494359 0 -0.0064061822440269565 -0.10844477688856453 0 -0.0066189543661167409 -0.1057800079494359 0 -0.0041386207198981098 -0.106494944507025 0 -0.0066189543661167409 -0.1057800079494359 0 -0.0049929479235712778 -0.10526881852655945 0 -0.0041386207198981098 -0.106494944507025 0 -0.0066189543661167409 -0.1057800079494359 0 -0.0049929479235712778 -0.10526881852655945 0 -0.0052090657880401623 -0.10398951122069157 0 -0.0049929479235712778 -0.10526881852655945 0 -0.0052090657880401623 -0.10398951122069157 0 -0.0040048511157217935 -0.1048084791202243 0 -0.0054233720892945033 -0.10183154479321201 0 -0.0052090657880401623 -0.10398951122069157 0 -0.0072897460317172457 -0.10299442164442667 0 -0.0054233720892945033 -0.10183154479321201 0 -0.0052090657880401623 -0.10398951122069157 0 -0.0037254445272809265 -0.10347554400927209 0 -0.0066189543661167409 -0.1057800079494359 0 -0.0052090657880401623 -0.10398951122069157 0 -0.0072897460317172457 -0.10299442164442667 0 -0.0066189543661167409 -0.1057800079494359 0 -0.0072897460317172457 -0.10299442164442667 0 -0.0086748350589372757 -0.10482053222673333 0 -0.0072897460317172457 -0.10299442164442667 0 -0.0086748350589372757 -0.10482053222673333 0 -0.0096952210649294303 -0.1027727650629686 0 -0.0086748350589372757 -0.10482053222673333 0 -0.0096952210649294303 -0.1027727650629686 0 -0.011025087647270063 -0.10551362186638848 0 -0.0063320094453466706 -0.11018133730904787 0 -0.0066207383076975551 -0.11061164294901611 0 -0.0060068508981155596 -0.10987179730300209 0 -0.00024125992570937039 -0.10558443370269578 0 0.00023953099736599443 -0.10615178553364485 0 -0.0029519392985725896 -0.10719354388493949 0 -0.016430703052981246 -0.094411763464837886 0 -0.010336649111214621 -0.099792331353508512 0 -0.024106180920639816 -0.091765144395062753 0 -0.015020303094162272 -0.089747297545048593 0 -0.017103511091962127 -0.100001814358399 0 -0.013820133981184674 -0.094939590837203575 0 -0.016516228430668748 -0.093250708063268309 0 -0.016516228430668748 -0.093250708063268309 0 -0.018121924674918025 -0.093556583419713263 0 -0.015020303094162272 -0.089747297545048593 0 -0.017103511091962127 -0.100001814358399 0 -0.011502593259598234 -0.098299046150046643 0 -0.016430703052981246 -0.094411763464837886 0 -0.018121924674918025 -0.093556583419713263 0 -0.013820133981184674 -0.094939590837203575 0 -0.016430703052981246 -0.094411763464837886 0 -0.0066207383076975551 -0.11061164294901611 0 -0.0066928425311466293 -0.11030636255430089 0 -0.0069565047309615158 -0.11041004011786801 0 -0.0063320094453466706 -0.11018133730904787 0 -0.0066207383076975551 -0.11061164294901611 0 -0.0066928425311466293 -0.11030636255430089 0 -0.0064061822440269565 -0.10844477688856453 0 -0.0029519392985725896 -0.10719354388493949 0 -0.0041386207198981098 -0.106494944507025 0 -0.00024125992570937039 -0.10558443370269578 0 -0.0029519392985725896 -0.10719354388493949 0 -0.0041386207198981098 -0.106494944507025 0 0.00023664911618758138 -0.10547795247915367 0 -0.0041386207198981098 -0.106494944507025 0 -0.0022356160826686286 -0.10463613187880541 0 -0.013820133981184674 -0.094939590837203575 0 -0.0084715165279355374 -0.096563553861970353 0 -0.0049929479235712778 -0.10526881852655945 0 -0.0041386207198981098 -0.106494944507025 0 -0.0040048511157217935 -0.1048084791202243 0 -0.0041386207198981098 -0.106494944507025 0 -0.0022356160826686286 -0.10463613187880541 0 -0.0040048511157217935 -0.1048084791202243 0 -0.0052090657880401623 -0.10398951122069157 0 -0.0040048511157217935 -0.1048084791202243 0 -0.0037254445272809265 -0.10347554400927209 0 -0.0022356160826686286 -0.10463613187880541 0 -0.0040048511157217935 -0.1048084791202243 0 -0.0037254445272809265 -0.10347554400927209 0 -0.0026630983620108445 -0.10204172316613688 0 -0.0054233720892945033 -0.10183154479321201 0 -0.0037254445272809265 -0.10347554400927209 0 -0.0026630983620108445 -0.10204172316613688 0 -0.0022356160826686286 -0.10463613187880541 0 -0.0037254445272809265 -0.10347554400927209 0 -0.0026630983620108445 -0.10204172316613688 0 0.00023664911618758138 -0.10547795247915367 0 -0.0022356160826686286 -0.10463613187880541 0 -0.0074154666539228888 -0.099248268203854142 0 -0.013820133981184674 -0.094939590837203575 0 -0.0042299864479444539 -0.097723185162514034 0 -0.0050238602962424991 -0.097954337868260591 0 -0.0039627127175108391 -0.099191320615998432 0 -0.010189363445156844 -0.078854602841135699 0 -0.011463747755063793 -0.078687489947207132 0 -0.010903362591992287 -0.080140028680364114 0 -0.010858914346787672 -0.089115489723088373 0 -0.016516228430668748 -0.093250708063268309 0 -0.0042299864479444539 -0.097723185162514034 0 -0.0039627127175108391 -0.099191320615998432 0 -0.0037085793690152949 -0.099131969767296713 0 -0.010189363445156844 -0.078854602841135699 0 -0.010903362591992287 -0.080140028680364114 0 -0.0093483105180184652 -0.079774752642860575 0 -0.016516228430668748 -0.093250708063268309 0 -0.027375276257521355 -0.083925074003241243 0 -0.019770807687726679 -0.088185441627751729 0 -0.025592954496420618 -0.088843675778894876 0 -0.02585966566685383 -0.08950775722698652 0 -0.0089467041830913023 -0.078758845418023721 0 -0.010189363445156844 -0.078854602841135699 0 -0.0093483105180184652 -0.079774752642860575 0 -0.026424819114159469 -0.077192652907516118 0 -0.027375276257521355 -0.083925074003241243 0 -0.026218778197029533 -0.079862267634869158 0 -0.025273687992828111 -0.084291134823409775 0 -0.024194920755904677 -0.082364405895187912 0 -0.026218778197029533 -0.079862267634869158 0 -0.028242734712740063 -0.084955150389640563 0 -0.025273687992828111 -0.084291134823409775 0 -0.026424819114159469 -0.077192652907516118 0 -0.033423480797681794 -0.079445507516463551 0 -0.028155971087039752 -0.085391759901242134 0 -0.027375276257521355 -0.083925074003241243 0 -0.027375276257521355 -0.083925074003241243 0 -0.033816065732132 -0.081993222297957233 0 -0.028155971087039752 -0.085391759901242134 0 -0.034366990311034032 -0.083141192480095633 0 -0.028930491983098192 -0.083246664927537781 0 -0.0321963799939377 -0.083276315206604973 0 -0.03263842562733666 -0.084058381508411967 0 -0.02849642949247283 -0.082164544207186482 0 -0.028930491983098192 -0.083246664927537781 0 -0.0321963799939377 -0.083276315206604973 0 -0.034366990311034032 -0.083141192480095633 0 -0.033816065732132 -0.081993222297957233 0 -0.028155971087039752 -0.085391759901242134 0 -0.029652194792700499 -0.091713906545883059 0 -0.032980948182143865 -0.083348145957676756 0 -0.032754712027803681 -0.086920264574069081 0 -0.035839100472332443 -0.090568408961585925 0 -0.065139524383523065 -0.078466946952234704 0 -0.066136783023623316 -0.080192206908601738 0 -0.064956590158938718 -0.080177559952927538 0 -0.034366990311034032 -0.083141192480095633 0 -0.03586919764162097 -0.087388647353140281 0 -0.032980948182143865 -0.083348145957676756 0 -0.030308510565843404 -0.082528046568355454 0 -0.032754712027803681 -0.086920264574069081 0 -0.066136783023623316 -0.080192206908601738 0 -0.065018953648936631 -0.08131916917465877 0 -0.064956590158938718 -0.080177559952927538 0 -0.028155971087039752 -0.085391759901242134 0 -0.018121924674918025 -0.093556583419713263 0 -0.019770807687726679 -0.088185441627751729 0 -0.025592954496420618 -0.088843675778894876 0 -0.020167443721978033 -0.087222972810207522 0 -0.026575165937788449 -0.087749198680134741 0 -0.030173190760481985 -0.088857197388103659 0 -0.029681362740865389 -0.09006456160406906 0 -0.026575165937788449 -0.087749198680134741 0 -0.029681362740865389 -0.09006456160406906 0 -0.028194096216437408 -0.091822717868990614 0 -0.022802490606945801 -0.093426405231116616 0 -0.021474201279506989 -0.093022299256539112 0 -0.019911622120437872 -0.09683187820638596 0 -0.018121924674918025 -0.093556583419713263 0 -0.020896870600029635 -0.094208893690152312 0 -0.016430703052981246 -0.094411763464837886 0 -0.020896870600029635 -0.094208893690152312 0 -0.020896870600029635 -0.094208893690152312 0 -0.029652194792700499 -0.091713906545883059 0 -0.020896870600029635 -0.094208893690152312 0 -0.028304510538377424 -0.093347747564474462 0 -0.0068703639912696922 -0.1099889198754346 0 -0.0066928425311466293 -0.11030636255430089 0 -0.0069565047309615158 -0.11041004011786801 0 -0.0068703639912696922 -0.1099889198754346 0 -0.0069565047309615158 -0.11041004011786801 0 -0.0075582128121495611 -0.10967355231941579 0 -0.0068703639912696922 -0.1099889198754346 0 -0.0075582128121495611 -0.10967355231941579 0 -0.0071537955932487012 -0.10945023742740889 0 -0.029286903106191996 -0.092478068497765548 0 -0.028304510538377424 -0.093347747564474462 0 -0.028728345735354068 -0.09685041736769176 0 -0.030245534085981008 -0.093160504387647169 0 -0.024189381730904031 -0.088769756992567991 0 -0.028304510538377424 -0.093347747564474462 0 -0.029652194792700499 -0.091713906545883059 0 -0.030245534085981008 -0.093160504387647169 0 -0.024189381730904031 -0.088769756992567991 0 -0.027120551720406869 -0.085322190933239644 0 -0.029286903106191996 -0.092478068497765548 0 -0.033251794534536083 -0.090301765079944071 0 -0.023943285096024777 -0.092444326329003373 0 -0.024549460183081913 -0.091021004970759198 0 -0.024744026235415405 -0.091520682632148853 0 -0.033251794534536083 -0.090301765079944071 0 -0.029652194792700499 -0.091713906545883059 0 -0.03586919764162097 -0.087388647353140281 0 -0.033251794534536083 -0.090301765079944071 0 -0.032754712027803681 -0.086920264574069081 0 -0.035206659589988677 -0.091312879469602398 0 -0.035839100472332443 -0.090568408961585925 0 -0.066136783023623316 -0.080192206908601738 0 -0.067096860709306538 -0.081912646535459946 0 -0.065912459628967329 -0.081748975447489644 0 -0.066136783023623316 -0.080192206908601738 0 -0.065912459628967329 -0.081748975447489644 0 -0.065018953648936631 -0.08131916917465877 0 -0.065912459628967329 -0.081748975447489644 0 -0.065018953648936631 -0.08131916917465877 0 -0.06477637765738041 -0.082204379195623817 0 -0.065912459628967329 -0.081748975447489644 0 -0.065508131325566585 -0.082773541179253715 0 -0.06477637765738041 -0.082204379195623817 0 -0.067096860709306538 -0.081912646535459946 0 -0.065912459628967329 -0.081748975447489644 0 -0.065508131325566585 -0.082773541179253715 0 -0.066658585050084818 -0.08574786730773834 0 -0.066413890944130236 -0.085343993354446993 0 -0.065173430684411157 -0.086869550386955305 0 -0.033251794534536083 -0.090301765079944071 0 -0.05456227535290295 -0.082931693854411459 0 -0.067096860709306538 -0.081912646535459946 0 -0.065508131325566585 -0.082773541179253715 0 -0.065074616573642718 -0.084538891362003307 0 -0.066143546174919576 -0.087498310276483152 0 -0.066658585050084818 -0.08574786730773834 0 -0.065173430684411157 -0.086869550386955305 0 -0.034816702877548206 -0.095595221010388629 0 -0.029286903106191996 -0.092478068497765548 0 -0.010875911080658524 -0.10748577789319702 0 -0.0093783552328852091 -0.11102337672695288 0 -0.0085311513628981012 -0.10956847114091239 0 -0.026183930537244077 -0.096135831355554188 0 -0.027593928540378627 -0.094868438242193348 0 -0.0075582128121495611 -0.10967355231941579 0 -0.0075407785670078831 -0.10883984874934093 0 -0.0071537955932487012 -0.10945023742740889 0 -0.0066810190618570402 -0.10896304167858284 0 -0.0075407785670078831 -0.10883984874934093 0 -0.0071537955932487012 -0.10945023742740889 0 -0.028304510538377424 -0.093347747564474462 0 -0.027593928540378627 -0.094868438242193348 0 -0.029286903106191996 -0.092478068497765548 0 -0.027593928540378627 -0.094868438242193348 0 -0.026767975328381342 -0.092794659269896121 0 -0.027002268454292558 -0.092223415141930276 0 -0.027960704079314665 -0.094913676452654402 0 -0.062430148209074034 -0.084602746116853839 0 -0.063404974732245781 -0.083449168573325336 0 -0.06209739240036289 -0.082012638781768066 0 -0.062430148209074034 -0.084602746116853839 0 -0.060474244967414374 -0.082585535045854738 0 -0.060423622911087597 -0.086221106269033024 0 -0.062430148209074034 -0.084602746116853839 0 -0.06209739240036289 -0.082012638781768066 0 -0.060474244967414374 -0.082585535045854738 0 -0.062430148209074034 -0.084602746116853839 0 -0.065074616573642718 -0.084538891362003307 0 -0.063404974732245781 -0.083449168573325336 0 -0.065074616573642718 -0.084538891362003307 0 -0.064527739428873396 -0.08330304927014287 0 -0.063404974732245781 -0.083449168573325336 0 -0.065508131325566585 -0.082773541179253715 0 -0.064527739428873396 -0.08330304927014287 0 -0.06477637765738041 -0.082204379195623817 0 -0.065508131325566585 -0.082773541179253715 0 -0.065074616573642718 -0.084538891362003307 0 -0.064527739428873396 -0.08330304927014287 0 -0.064527739428873396 -0.08330304927014287 0 -0.063404974732245781 -0.083449168573325336 0 -0.063592208865861158 -0.082206583397473276 0 -0.063592208865861158 -0.082206583397473276 0 -0.06477637765738041 -0.082204379195623817 0 -0.064223003951049032 -0.081524868971878287 0 -0.064527739428873396 -0.08330304927014287 0 -0.063592208865861158 -0.082206583397473276 0 -0.06477637765738041 -0.082204379195623817 0 -0.065018953648936631 -0.08131916917465877 0 -0.06477637765738041 -0.082204379195623817 0 -0.064223003951049032 -0.081524868971878287 0 -0.065018953648936631 -0.08131916917465877 0 -0.064223003951049032 -0.081524868971878287 0 -0.064232411628322938 -0.080794213171854937 0 -0.063592208865861158 -0.082206583397473276 0 -0.063484049929525804 -0.081086446698092271 0 -0.06283500718539016 -0.081454604512060463 0 -0.063592208865861158 -0.082206583397473276 0 -0.064223003951049032 -0.081524868971878287 0 -0.063484049929525804 -0.081086446698092271 0 -0.064223003951049032 -0.081524868971878287 0 -0.063484049929525804 -0.081086446698092271 0 -0.064232411628322938 -0.080794213171854937 0 -0.063484049929525804 -0.081086446698092271 0 -0.0630040570108759 -0.080823427563818384 0 -0.06283500718539016 -0.081454604512060463 0 -0.052062423391304395 -0.077236635453312649 0 -0.055514917375381466 -0.079234513528023284 0 -0.06283500718539016 -0.081454604512060463 0 -0.06209739240036289 -0.082012638781768066 0 -0.062378434826432683 -0.080379507922759816 0 -0.061737120953582747 -0.079963920811498945 0 -0.060437795665154254 -0.080191949626841535 0 -0.060538282412640317 -0.082079195698741822 0 -0.06209739240036289 -0.082012638781768066 0 -0.062378434826432683 -0.080379507922759816 0 -0.060474244967414374 -0.082585535045854738 0 -0.0630040570108759 -0.080823427563818384 0 -0.06283500718539016 -0.081454604512060463 0 -0.062378434826432683 -0.080379507922759816 0 -0.063404974732245781 -0.083449168573325336 0 -0.063592208865861158 -0.082206583397473276 0 -0.06209739240036289 -0.082012638781768066 0 -0.063592208865861158 -0.082206583397473276 0 -0.06283500718539016 -0.081454604512060463 0 -0.06209739240036289 -0.082012638781768066 0 -0.061629192586262503 -0.079761684187739712 0 -0.061701131576634684 -0.079592157534768129 0 -0.061672257271819686 -0.079376514681382807 0 -0.061737120953582747 -0.079963920811498945 0 -0.061629192586262503 -0.079761684187739712 0 -0.060437795665154254 -0.080191949626841535 0 -0.061629192586262503 -0.079761684187739712 0 -0.06056924067189659 -0.079533817731608752 0 -0.060437795665154254 -0.080191949626841535 0 -0.0630040570108759 -0.080823427563818384 0 -0.062378434826432683 -0.080379507922759816 0 -0.063362610945059863 -0.080286864891563642 0 -0.061737120953582747 -0.079963920811498945 0 -0.061629192586262503 -0.079761684187739712 0 -0.061701131576634684 -0.079592157534768129 0 -0.061629192586262503 -0.079761684187739712 0 -0.061295906388808198 -0.07920822076374158 0 -0.061767660076531547 -0.078805924199402966 0 -0.061629192586262503 -0.079761684187739712 0 -0.061295906388808198 -0.07920822076374158 0 -0.06056924067189659 -0.079533817731608752 0 -0.061295906388808198 -0.07920822076374158 0 -0.061383357669898268 -0.078832967786910221 0 -0.061767660076531547 -0.078805924199402966 0 -0.061295906388808198 -0.07920822076374158 0 -0.060776939294054123 -0.078859425794319135 0 -0.06056924067189659 -0.079533817731608752 0 -0.061295906388808198 -0.07920822076374158 0 -0.061383357669898268 -0.078832967786910221 0 -0.060776939294054123 -0.078859425794319135 0 -0.061737120953582747 -0.079963920811498945 0 -0.061701131576634684 -0.079592157534768129 0 -0.061812908310359627 -0.079361454653738978 0 -0.052062423391304395 -0.077236635453312649 0 -0.03785154824431787 -0.080283030853069495 0 -0.062378434826432683 -0.080379507922759816 0 -0.063691977210751219 -0.079619394906901245 0 -0.064222874085554993 -0.07807592947282474 0 -0.065018953648936631 -0.08131916917465877 0 -0.064956590158938718 -0.080177559952927538 0 -0.064232411628322938 -0.080794213171854937 0 -0.064956590158938718 -0.080177559952927538 0 -0.064232411628322938 -0.080794213171854937 0 -0.064165187817572716 -0.080002773648024078 0 -0.062378434826432683 -0.080379507922759816 0 -0.063362610945059863 -0.080286864891563642 0 -0.063691977210751219 -0.079619394906901245 0 -0.064165187817572716 -0.080002773648024078 0 -0.063362610945059863 -0.080286864891563642 0 -0.063691977210751219 -0.079619394906901245 0 -0.063484049929525804 -0.081086446698092271 0 -0.064232411628322938 -0.080794213171854937 0 -0.063362610945059863 -0.080286864891563642 0 -0.064232411628322938 -0.080794213171854937 0 -0.064165187817572716 -0.080002773648024078 0 -0.063362610945059863 -0.080286864891563642 0 -0.063484049929525804 -0.081086446698092271 0 -0.0630040570108759 -0.080823427563818384 0 -0.063362610945059863 -0.080286864891563642 0 -0.065139524383523065 -0.078466946952234704 0 -0.064956590158938718 -0.080177559952927538 0 -0.06440913305601989 -0.079259542829462085 0 -0.063691977210751219 -0.079619394906901245 0 -0.06440913305601989 -0.079259542829462085 0 -0.064222874085554993 -0.07807592947282474 0 -0.064165187817572716 -0.080002773648024078 0 -0.063691977210751219 -0.079619394906901245 0 -0.06440913305601989 -0.079259542829462085 0 -0.064956590158938718 -0.080177559952927538 0 -0.064165187817572716 -0.080002773648024078 0 -0.06440913305601989 -0.079259542829462085 0 -0.065139524383523065 -0.078466946952234704 0 -0.06440913305601989 -0.079259542829462085 0 -0.064222874085554993 -0.07807592947282474 0 -0.03376709538240568 -0.080023007567594603 0 -0.034127465826204816 -0.080659662041840052 0 -0.036400193399306578 -0.081154153863259401 0 -0.034366990311034032 -0.083141192480095633 0 -0.03785154824431787 -0.080283030853069495 0 -0.033816065732132 -0.081993222297957233 0 -0.03785154824431787 -0.080283030853069495 0 -0.033207521431214644 -0.085237106566314585 0 -0.028697651682703364 -0.084232776197534026 0 -0.031030290267970068 -0.081354367886053436 0 -0.061701131576634684 -0.079592157534768129 0 -0.061812908310359627 -0.079361454653738978 0 -0.06171924951329661 -0.079449199733773318 0 -0.061701131576634684 -0.079592157534768129 0 -0.06171924951329661 -0.079449199733773318 0 -0.061672257271819686 -0.079376514681382807 0 -0.061812908310359627 -0.079361454653738978 0 -0.061728111892741508 -0.07939535662383207 0 -0.06171924951329661 -0.079449199733773318 0 -0.03785154824431787 -0.080283030853069495 0 -0.038966984338967531 -0.080375104144905563 0 -0.061728111892741508 -0.07939535662383207 0 -0.06171924951329661 -0.079449199733773318 0 -0.061672257271819686 -0.079376514681382807 0 -0.03785154824431787 -0.080283030853069495 0 -0.040699369507156802 -0.076185404613767202 0 -0.035181531416709808 -0.079288929331403329 0 -0.033766851342401559 -0.078971782304005825 0 -0.035663627678274211 -0.078691547332875311 0 -0.034615067661649596 -0.076826559454885771 0 -0.033766851342401559 -0.078971782304005825 0 -0.035663627678274211 -0.078691547332875311 0 -0.061791610087212415 -0.079404269757857901 0 -0.061728111892741508 -0.07939535662383207 0 -0.061672257271819686 -0.079376514681382807 0 -0.03785154824431787 -0.080283030853069495 0 -0.033423480797681794 -0.079445507516463551 0 -0.033816065732132 -0.081993222297957233 0 -0.033423480797681794 -0.079445507516463551 0 -0.061629192586262503 -0.079761684187739712 0 -0.062320327956505286 -0.077952176963966335 0 -0.061767660076531547 -0.078805924199402966 0 -0.04398662876184424 -0.075317437079876301 0 -0.040699369507156802 -0.076185404613767202 0 -0.061284147549002632 -0.078450513244324449 0 -0.061496521953893733 -0.078130642098726472 0 -0.060714609017428325 -0.078121086178144825 0 -0.061284147549002632 -0.078450513244324449 0 -0.061496521953893733 -0.078130642098726472 0 -0.061604115404078744 -0.0783737442997713 0 -0.061284147549002632 -0.078450513244324449 0 -0.061580414153433682 -0.07861683779449688 0 -0.061604115404078744 -0.0783737442997713 0 -0.061284147549002632 -0.078450513244324449 0 -0.060714609017428325 -0.078121086178144825 0 -0.060776939294054123 -0.078859425794319135 0 -0.061284147549002632 -0.078450513244324449 0 -0.061383357669898268 -0.078832967786910221 0 -0.060776939294054123 -0.078859425794319135 0 -0.061284147549002632 -0.078450513244324449 0 -0.061383357669898268 -0.078832967786910221 0 -0.061580414153433682 -0.07861683779449688 0 -0.061767660076531547 -0.078805924199402966 0 -0.061769081887365587 -0.07849416636101901 0 -0.062026776827354413 -0.07820074673877031 0 -0.062320327956505286 -0.077952176963966335 0 -0.061767660076531547 -0.078805924199402966 0 -0.062026776827354413 -0.07820074673877031 0 -0.061383357669898268 -0.078832967786910221 0 -0.061767660076531547 -0.078805924199402966 0 -0.061580414153433682 -0.07861683779449688 0 -0.061767660076531547 -0.078805924199402966 0 -0.061769081887365587 -0.07849416636101901 0 -0.061580414153433682 -0.07861683779449688 0 -0.061769081887365587 -0.07849416636101901 0 -0.061580414153433682 -0.07861683779449688 0 -0.061604115404078744 -0.0783737442997713 0 -0.061769081887365587 -0.07849416636101901 0 -0.061604115404078744 -0.0783737442997713 0 -0.061786855322735895 -0.078322991366288189 0 -0.061769081887365587 -0.07849416636101901 0 -0.062026776827354413 -0.07820074673877031 0 -0.061786855322735895 -0.078322991366288189 0 -0.062026776827354413 -0.07820074673877031 0 -0.061786855322735895 -0.078322991366288189 0 -0.061771177482481926 -0.078081499710131883 0 -0.061496521953893733 -0.078130642098726472 0 -0.061786855322735895 -0.078322991366288189 0 -0.061771177482481926 -0.078081499710131883 0 -0.061496521953893733 -0.078130642098726472 0 -0.061604115404078744 -0.0783737442997713 0 -0.061786855322735895 -0.078322991366288189 0 -0.033551078323812329 -0.071675936819023095 0 -0.033968994297450664 -0.074197910097990316 0 -0.032434309986750627 -0.073856396123734042 0 -0.061496521953893733 -0.078130642098726472 0 -0.061771177482481926 -0.078081499710131883 0 -0.061703713816405575 -0.077819608486685024 0 -0.062026776827354413 -0.07820074673877031 0 -0.061771177482481926 -0.078081499710131883 0 -0.061703713816405575 -0.077819608486685024 0 -0.040699369507156802 -0.076185404613767202 0 -0.043857145407645223 -0.07464796207315616 0 -0.062320327956505286 -0.077952176963966335 0 -0.062026776827354413 -0.07820074673877031 0 -0.061703713816405575 -0.077819608486685024 0 -0.043857145407645223 -0.07464796207315616 0 -0.047674873661984314 -0.07544602748675118 0 -0.060278930915724713 -0.076812359644223019 0 -0.061468762929931114 -0.077780172604966391 0 -0.060413447981259853 -0.0775562677257495 0 -0.061703713816405575 -0.077819608486685024 0 -0.060413447981259853 -0.0775562677257495 0 -0.060714609017428325 -0.078121086178144825 0 -0.061496521953893733 -0.078130642098726472 0 -0.061703713816405575 -0.077819608486685024 0 -0.060714609017428325 -0.078121086178144825 0 -0.060413447981259853 -0.0775562677257495 0 -0.060714609017428325 -0.078121086178144825 0 -0.059374662389418492 -0.079033587943593372 0 -0.048872828305180187 -0.071113738292322703 0 -0.051096960555981973 -0.073485722289407251 0 -0.059347184146264741 -0.076117162627222817 0 -0.060469533018696404 -0.076244455601482436 0 -0.059374662389418492 -0.079033587943593372 0 -0.060278930915724713 -0.076812359644223019 0 -0.060413447981259853 -0.0775562677257495 0 -0.059374662389418492 -0.079033587943593372 0 -0.060714609017428325 -0.078121086178144825 0 -0.060776939294054123 -0.078859425794319135 0 -0.059374662389418492 -0.079033587943593372 0 -0.06056924067189659 -0.079533817731608752 0 -0.059374662389418492 -0.079033587943593372 0 -0.060437795665154254 -0.080191949626841535 0 -0.060776939294054123 -0.078859425794319135 0 -0.06056924067189659 -0.079533817731608752 0 -0.059374662389418492 -0.079033587943593372 0 -0.059374662389418492 -0.079033587943593372 0 -0.060437795665154254 -0.080191949626841535 0 -0.05855232598087512 -0.080723639425262644 0 -0.059374662389418492 -0.079033587943593372 0 -0.05728059024375428 -0.078704477787136962 0 -0.05855232598087512 -0.080723639425262644 0 -0.059374662389418492 -0.079033587943593372 0 -0.058239100056473959 -0.077598031788359723 0 -0.05728059024375428 -0.078704477787136962 0 -0.059347184146264741 -0.076117162627222817 0 -0.059374662389418492 -0.079033587943593372 0 -0.058239100056473959 -0.077598031788359723 0 -0.057181255417348593 -0.076657603515057016 0 -0.058239100056473959 -0.077598031788359723 0 -0.05728059024375428 -0.078704477787136962 0 -0.057181255417348593 -0.076657603515057016 0 -0.056028384245764215 -0.078145629267099809 0 -0.05728059024375428 -0.078704477787136962 0 -0.056028384245764215 -0.078145629267099809 0 -0.055997231766945196 -0.079826044616542663 0 -0.05728059024375428 -0.078704477787136962 0 -0.055997231766945196 -0.079826044616542663 0 -0.05728059024375428 -0.078704477787136962 0 -0.056659021083597619 -0.081311812131704145 0 -0.05728059024375428 -0.078704477787136962 0 -0.056659021083597619 -0.081311812131704145 0 -0.05855232598087512 -0.080723639425262644 0 -0.055997231766945196 -0.079826044616542663 0 -0.056659021083597619 -0.081311812131704145 0 -0.055280076675883812 -0.081751568835386354 0 -0.056659021083597619 -0.081311812131704145 0 -0.055280076675883812 -0.081751568835386354 0 -0.056066357541487921 -0.084301590024783463 0 -0.055280076675883812 -0.081751568835386354 0 -0.054007851215479401 -0.084687622093612719 0 -0.056066357541487921 -0.084301590024783463 0 -0.056659021083597619 -0.081311812131704145 0 -0.058013802675595971 -0.08260022206215277 0 -0.056066357541487921 -0.084301590024783463 0 -0.058013802675595971 -0.08260022206215277 0 -0.058548019396886718 -0.084784925817732407 0 -0.056066357541487921 -0.084301590024783463 0 -0.058013802675595971 -0.08260022206215277 0 -0.060538282412640317 -0.082079195698741822 0 -0.058548019396886718 -0.084784925817732407 0 -0.055514917375381466 -0.079234513528023284 0 -0.055894933107044215 -0.080569974298335581 0 -0.060474244967414374 -0.082585535045854738 0 -0.060423622911087597 -0.086221106269033024 0 -0.058548019396886718 -0.084784925817732407 0 -0.060437795665154254 -0.080191949626841535 0 -0.060538282412640317 -0.082079195698741822 0 -0.05855232598087512 -0.080723639425262644 0 -0.058013802675595971 -0.08260022206215277 0 -0.060538282412640317 -0.082079195698741822 0 -0.05855232598087512 -0.080723639425262644 0 -0.056659021083597619 -0.081311812131704145 0 -0.058013802675595971 -0.08260022206215277 0 -0.05855232598087512 -0.080723639425262644 0 -0.055509138878529311 -0.077594838063237956 0 -0.056076964415407139 -0.07578512715462643 0 -0.055846213674653263 -0.077431095976513625 0 -0.05612336818918115 -0.074815308628689958 0 -0.055509138878529311 -0.077594838063237956 0 -0.056076964415407139 -0.07578512715462643 0 -0.056284868218257546 -0.074706726568723722 0 -0.05612336818918115 -0.074815308628689958 0 -0.056076964415407139 -0.07578512715462643 0 -0.056270986818826939 -0.075601264469259188 0 -0.056265712014109848 -0.075193157349250625 0 -0.056076964415407139 -0.07578512715462643 0 -0.056270986818826939 -0.075601264469259188 0 -0.056076964415407139 -0.07578512715462643 0 -0.055846213674653263 -0.077431095976513625 0 -0.056270986818826939 -0.075601264469259188 0 -0.055846213674653263 -0.077431095976513625 0 -0.056389936463621691 -0.076684745340628926 0 -0.055509138878529311 -0.077594838063237956 0 -0.055846213674653263 -0.077431095976513625 0 -0.055125573235224448 -0.079417549936155588 0 -0.055846213674653263 -0.077431095976513625 0 -0.055125573235224448 -0.079417549936155588 0 -0.05530787583848934 -0.079220385151609535 0 -0.055846213674653263 -0.077431095976513625 0 -0.056389936463621691 -0.076684745340628926 0 -0.05530787583848934 -0.079220385151609535 0 -0.053600478166711617 -0.076929707319774179 0 -0.054961165560943138 -0.077348626068613008 0 -0.05530787583848934 -0.079220385151609535 0 -0.055050072416824809 -0.075908838185693536 0 -0.055379618586355636 -0.076815849828475238 0 -0.055550731039905502 -0.076490126015786114 0 -0.056028384245764215 -0.078145629267099809 0 -0.054961165560943138 -0.077348626068613008 0 -0.056028384245764215 -0.078145629267099809 0 -0.054961165560943138 -0.077348626068613008 0 -0.05530787583848934 -0.079220385151609535 0 -0.056028384245764215 -0.078145629267099809 0 -0.055997231766945196 -0.079826044616542663 0 -0.05530787583848934 -0.079220385151609535 0 -0.055280076675883812 -0.081751568835386354 0 -0.05530787583848934 -0.079220385151609535 0 -0.054444248821203148 -0.081769755583605705 0 -0.055997231766945196 -0.079826044616542663 0 -0.055280076675883812 -0.081751568835386354 0 -0.05530787583848934 -0.079220385151609535 0 -0.055280076675883812 -0.081751568835386354 0 -0.054444248821203148 -0.081769755583605705 0 -0.054007851215479401 -0.084687622093612719 0 -0.054444248821203148 -0.081769755583605705 0 -0.053097178259940009 -0.0845468525026421 0 -0.054007851215479401 -0.084687622093612719 0 -0.055125573235224448 -0.079417549936155588 0 -0.05530787583848934 -0.079220385151609535 0 -0.054444248821203148 -0.081769755583605705 0 -0.055125573235224448 -0.079417549936155588 0 -0.054444248821203148 -0.081769755583605705 0 -0.054331414558491539 -0.081170466668244234 0 -0.055509138878529311 -0.077594838063237956 0 -0.055125573235224448 -0.079417549936155588 0 -0.054331414558491539 -0.081170466668244234 0 -0.054444248821203148 -0.081769755583605705 0 -0.054331414558491539 -0.081170466668244234 0 -0.053097178259940009 -0.0845468525026421 0 -0.054565165459990829 -0.080751395339497919 0 -0.054331414558491539 -0.081170466668244234 0 -0.052638098621278544 -0.084695857056972024 0 -0.054565165459990829 -0.080751395339497919 0 -0.055509138878529311 -0.077594838063237956 0 -0.054331414558491539 -0.081170466668244234 0 -0.052638098621278544 -0.084695857056972024 0 -0.05184588694648852 -0.086858759526655532 0 -0.050807928760607343 -0.088034695581108532 0 -0.052638098621278544 -0.084695857056972024 0 -0.05184588694648852 -0.086858759526655532 0 -0.053097178259940009 -0.0845468525026421 0 -0.054331414558491539 -0.081170466668244234 0 -0.052638098621278544 -0.084695857056972024 0 -0.053097178259940009 -0.0845468525026421 0 -0.05184588694648852 -0.086858759526655532 0 -0.053097178259940009 -0.0845468525026421 0 -0.052070184708990774 -0.088090742474930539 0 -0.053097178259940009 -0.0845468525026421 0 -0.054007851215479401 -0.084687622093612719 0 -0.052070184708990774 -0.088090742474930539 0 -0.054007851215479401 -0.084687622093612719 0 -0.052070184708990774 -0.088090742474930539 0 -0.054215375220722763 -0.087372989627841291 0 -0.052070184708990774 -0.088090742474930539 0 -0.054215375220722763 -0.087372989627841291 0 -0.05213542213695372 -0.090832547056503829 0 -0.052070184708990774 -0.088090742474930539 0 -0.04926694745310578 -0.093071376608361164 0 -0.05213542213695372 -0.090832547056503829 0 -0.04926694745310578 -0.093071376608361164 0 -0.050943124001679482 -0.089758560391873576 0 -0.050757760911293082 -0.090791617316792542 0 -0.052070184708990774 -0.088090742474930539 0 -0.04926694745310578 -0.093071376608361164 0 -0.050943124001679482 -0.089758560391873576 0 -0.05184588694648852 -0.086858759526655532 0 -0.052070184708990774 -0.088090742474930539 0 -0.050943124001679482 -0.089758560391873576 0 -0.05184588694648852 -0.086858759526655532 0 -0.050943124001679482 -0.089758560391873576 0 -0.050807928760607343 -0.088034695581108532 0 -0.050943124001679482 -0.089758560391873576 0 -0.050757760911293082 -0.090791617316792542 0 -0.050807928760607343 -0.088034695581108532 0 -0.047518017708880679 -0.090768044079460861 0 -0.050757760911293082 -0.090791617316792542 0 -0.050807928760607343 -0.088034695581108532 0 -0.056996885952647604 -0.087915651716346674 0 -0.060423622911087597 -0.086221106269033024 0 -0.060007091275452375 -0.09149512996485501 0 -0.056996885952647604 -0.087915651716346674 0 -0.058548019396886718 -0.084784925817732407 0 -0.056066357541487921 -0.084301590024783463 0 -0.056996885952647604 -0.087915651716346674 0 -0.060423622911087597 -0.086221106269033024 0 -0.058548019396886718 -0.084784925817732407 0 -0.056996885952647604 -0.087915651716346674 0 -0.056066357541487921 -0.084301590024783463 0 -0.054215375220722763 -0.087372989627841291 0 -0.054007851215479401 -0.084687622093612719 0 -0.056066357541487921 -0.084301590024783463 0 -0.054215375220722763 -0.087372989627841291 0 -0.056996885952647604 -0.087915651716346674 0 -0.054215375220722763 -0.087372989627841291 0 -0.054631000502229708 -0.090338033208406415 0 -0.054631000502229708 -0.090338033208406415 0 -0.05213542213695372 -0.090832547056503829 0 -0.051690900858364384 -0.095441317234558343 0 -0.054215375220722763 -0.087372989627841291 0 -0.054631000502229708 -0.090338033208406415 0 -0.05213542213695372 -0.090832547056503829 0 -0.04926694745310578 -0.093071376608361164 0 -0.05213542213695372 -0.090832547056503829 0 -0.051690900858364384 -0.095441317234558343 0 -0.051690900858364384 -0.095441317234558343 0 -0.056000164622053067 -0.093340117341630446 0 -0.05280078364460964 -0.098673365957921255 0 -0.054631000502229708 -0.090338033208406415 0 -0.051690900858364384 -0.095441317234558343 0 -0.056000164622053067 -0.093340117341630446 0 -0.056000164622053067 -0.093340117341630446 0 -0.059018371103954755 -0.09481595805395196 0 -0.056440525927495031 -0.097937754534639293 0 -0.056996885952647604 -0.087915651716346674 0 -0.056000164622053067 -0.093340117341630446 0 -0.060007091275452375 -0.09149512996485501 0 -0.056996885952647604 -0.087915651716346674 0 -0.054631000502229708 -0.090338033208406415 0 -0.056000164622053067 -0.093340117341630446 0 -0.062109719015070002 -0.094191850953741843 0 -0.060007091275452375 -0.09149512996485501 0 -0.059018371103954755 -0.09481595805395196 0 -0.056000164622053067 -0.093340117341630446 0 -0.060007091275452375 -0.09149512996485501 0 -0.059018371103954755 -0.09481595805395196 0 -0.058167328943045292 -0.10116219918568112 0 -0.056440525927495031 -0.097937754534639293 0 -0.060776844705956505 -0.097623237216471717 0 -0.059018371103954755 -0.09481595805395196 0 -0.056440525927495031 -0.097937754534639293 0 -0.060776844705956505 -0.097623237216471717 0 -0.058167328943045292 -0.10116219918568112 0 -0.057342105285137154 -0.10680753044259696 0 -0.063334982414035845 -0.1010207643588458 0 -0.058167328943045292 -0.10116219918568112 0 -0.052065534351011342 -0.10323049076052776 0 -0.057342105285137154 -0.10680753044259696 0 -0.058167328943045292 -0.10116219918568112 0 -0.052065534351011342 -0.10323049076052776 0 -0.056440525927495031 -0.097937754534639293 0 -0.056000164622053067 -0.093340117341630446 0 -0.056440525927495031 -0.097937754534639293 0 -0.05280078364460964 -0.098673365957921255 0 -0.052065534351011342 -0.10323049076052776 0 -0.056440525927495031 -0.097937754534639293 0 -0.05280078364460964 -0.098673365957921255 0 -0.051690900858364384 -0.095441317234558343 0 -0.05280078364460964 -0.098673365957921255 0 -0.048085267962102517 -0.10331335740043295 0 -0.051690900858364384 -0.095441317234558343 0 -0.048085267962102517 -0.10331335740043295 0 -0.04736074099721891 -0.10069605753663531 0 -0.052065534351011342 -0.10323049076052776 0 -0.048085267962102517 -0.10331335740043295 0 -0.046963598548720717 -0.1075946332067135 0 -0.052065534351011342 -0.10323049076052776 0 -0.05280078364460964 -0.098673365957921255 0 -0.048085267962102517 -0.10331335740043295 0 -0.052065534351011342 -0.10323049076052776 0 -0.046963598548720717 -0.1075946332067135 0 -0.044191673688194079 -0.11306119831840161 0 -0.048085267962102517 -0.10331335740043295 0 -0.046963598548720717 -0.1075946332067135 0 -0.04493375524606355 -0.10940772273662124 0 -0.04493375524606355 -0.10940772273662124 0 -0.044191673688194079 -0.11306119831840161 0 -0.041750828726834548 -0.11037893397177531 0 -0.046963598548720717 -0.1075946332067135 0 -0.04493375524606355 -0.10940772273662124 0 -0.044191673688194079 -0.11306119831840161 0 -0.044191673688194079 -0.11306119831840161 0 -0.030492578571770797 -0.11575967870032444 0 -0.036978012197179548 -0.11059638647615931 0 -0.044191673688194079 -0.11306119831840161 0 -0.030492578571770797 -0.11575967870032444 0 -0.034411933852678885 -0.12345250778940353 0 -0.030492578571770797 -0.11575967870032444 0 -0.034411933852678885 -0.12345250778940353 0 -0.028088906222627247 -0.12367967442899119 0 -0.052065534351011342 -0.10323049076052776 0 -0.044191673688194079 -0.11306119831840161 0 -0.057342105285137154 -0.10680753044259696 0 -0.042605143740680571 -0.11132051433278933 0 -0.041039668681454415 -0.1113622841117996 0 -0.045468203026015903 -0.095034552604173664 0 -0.049090368192053473 -0.093527520779014731 0 -0.047072944544300777 -0.098225431839389574 0 -0.047518017708880679 -0.090768044079460861 0 -0.050757760911293082 -0.090791617316792542 0 -0.049090368192053473 -0.093527520779014731 0 -0.050757760911293082 -0.090791617316792542 0 -0.049090368192053473 -0.093527520779014731 0 -0.051675346136102737 -0.093046821749701719 0 -0.047829635421210874 -0.09869211551628676 0 -0.046636422913482613 -0.10223959455857975 0 -0.049090368192053473 -0.093527520779014731 0 -0.051675346136102737 -0.093046821749701719 0 -0.050906878569476795 -0.098931390849145706 0 -0.042567598336358439 -0.10260683440164027 0 -0.04736074099721891 -0.10069605753663531 0 -0.044405966058938033 -0.10716722584693064 0 -0.048730704795810584 -0.096534655277224227 0 -0.047829635421210874 -0.09869211551628676 0 -0.04926694745310578 -0.093071376608361164 0 -0.042567598336358439 -0.10260683440164027 0 -0.04736074099721891 -0.10069605753663531 0 -0.04926694745310578 -0.093071376608361164 0 -0.050757760911293082 -0.090791617316792542 0 -0.051675346136102737 -0.093046821749701719 0 -0.04926694745310578 -0.093071376608361164 0 -0.051690900858364384 -0.095441317234558343 0 -0.04736074099721891 -0.10069605753663531 0 -0.048085267962102517 -0.10331335740043295 0 -0.04736074099721891 -0.10069605753663531 0 -0.044405966058938033 -0.10716722584693064 0 -0.048085267962102517 -0.10331335740043295 0 -0.04493375524606355 -0.10940772273662124 0 -0.044405966058938033 -0.10716722584693064 0 -0.04493375524606355 -0.10940772273662124 0 -0.044343599715023788 -0.1094239928709127 0 -0.043551662281464176 -0.10977720784029264 0 -0.04493375524606355 -0.10940772273662124 0 -0.044405966058938033 -0.10716722584693064 0 -0.044343599715023788 -0.1094239928709127 0 -0.044405966058938033 -0.10716722584693064 0 -0.044774149968422799 -0.10868358803366901 0 -0.044343599715023788 -0.1094239928709127 0 -0.042567598336358439 -0.10260683440164027 0 -0.044405966058938033 -0.10716722584693064 0 -0.043405061693120549 -0.10755259436980295 0 -0.044405966058938033 -0.10716722584693064 0 -0.043405061693120549 -0.10755259436980295 0 -0.044774149968422799 -0.10868358803366901 0 -0.043994322508369467 -0.10290954523483552 0 -0.050906878569476795 -0.098931390849145706 0 -0.045628718349426792 -0.10755594228206103 0 -0.046636422913482613 -0.10223959455857975 0 -0.045787729072393535 -0.10436688483375549 0 -0.043405061693120549 -0.10755259436980295 0 -0.045628718349426792 -0.10755594228206103 0 -0.044774149968422799 -0.10868358803366901 0 -0.049090368192053473 -0.093527520779014731 0 -0.050906878569476795 -0.098931390849145706 0 -0.047072944544300777 -0.098225431839389574 0 -0.043994322508369467 -0.10290954523483552 0 -0.050906878569476795 -0.098931390849145706 0 -0.047072944544300777 -0.098225431839389574 0 -0.048617273269673238 -0.11017802931365231 0 -0.046681421340152969 -0.10976030024199124 0 -0.050830982997542774 -0.10803781677741868 0 -0.054716408945506778 -0.099347277479129595 0 -0.05285915180864089 -0.099953536742289031 0 -0.045628718349426792 -0.10755594228206103 0 -0.04593876834009479 -0.10868336887191268 0 -0.044774149968422799 -0.10868358803366901 0 -0.044775111755631924 -0.11022497735210067 0 -0.045628718349426792 -0.10755594228206103 0 -0.04593876834009479 -0.10868336887191268 0 -0.044775111755631924 -0.11022497735210067 0 -0.046681421340152969 -0.10976030024199124 0 -0.04593876834009479 -0.10868336887191268 0 -0.046681421340152969 -0.10976030024199124 0 -0.04593876834009479 -0.10868336887191268 0 -0.045230232166294904 -0.10944717384278267 0 -0.04593876834009479 -0.10868336887191268 0 -0.044774149968422799 -0.10868358803366901 0 -0.045230232166294904 -0.10944717384278267 0 -0.046681421340152969 -0.10976030024199124 0 -0.045230232166294904 -0.10944717384278267 0 -0.047031046073151915 -0.10852744051015466 0 -0.045230232166294904 -0.10944717384278267 0 -0.042925913769045948 -0.10940500266360619 0 -0.044162144452775602 -0.1081058302300747 0 -0.045230232166294904 -0.10944717384278267 0 -0.044343599715023788 -0.1094239928709127 0 -0.042925913769045948 -0.10940500266360619 0 -0.044774149968422799 -0.10868358803366901 0 -0.045230232166294904 -0.10944717384278267 0 -0.044343599715023788 -0.1094239928709127 0 -0.044343599715023788 -0.1094239928709127 0 -0.042925913769045948 -0.10940500266360619 0 -0.043551662281464176 -0.10977720784029264 0 -0.042925913769045948 -0.10940500266360619 0 -0.041061703658147562 -0.10770020251174096 0 -0.044162144452775602 -0.1081058302300747 0 -0.041061703658147562 -0.10770020251174096 0 -0.04157659752860314 -0.10499912622350588 0 -0.044162144452775602 -0.1081058302300747 0 -0.04157659752860314 -0.10499912622350588 0 -0.044162144452775602 -0.1081058302300747 0 -0.047864449413665057 -0.10499980014014935 0 -0.044162144452775602 -0.1081058302300747 0 -0.047031046073151915 -0.10852744051015466 0 -0.047864449413665057 -0.10499980014014935 0 -0.045230232166294904 -0.10944717384278267 0 -0.044162144452775602 -0.1081058302300747 0 -0.047031046073151915 -0.10852744051015466 0 -0.054154847050479224 -0.10499902752336436 0 -0.047864449413665057 -0.10499980014014935 0 -0.050830982997542774 -0.10803781677741868 0 -0.047031046073151915 -0.10852744051015466 0 -0.047864449413665057 -0.10499980014014935 0 -0.050830982997542774 -0.10803781677741868 0 -0.046681421340152969 -0.10976030024199124 0 -0.047031046073151915 -0.10852744051015466 0 -0.050830982997542774 -0.10803781677741868 0 -0.037087078645213691 -0.10901242980294504 0 -0.036978012197179548 -0.11059638647615931 0 -0.041750828726834548 -0.11037893397177531 0 -0.037087078645213691 -0.10901242980294504 0 -0.033194387119531675 -0.10901912156744997 0 -0.033349356129035473 -0.10732196008838858 0 -0.037087078645213691 -0.10901242980294504 0 -0.033194387119531675 -0.10901912156744997 0 -0.036978012197179548 -0.11059638647615931 0 -0.033194387119531675 -0.10901912156744997 0 -0.028604377444282982 -0.10743920495265802 0 -0.029647447502889043 -0.11044118208036297 0 -0.033194387119531675 -0.10901912156744997 0 -0.036978012197179548 -0.11059638647615931 0 -0.029647447502889043 -0.11044118208036297 0 -0.030492578571770797 -0.11575967870032444 0 -0.036978012197179548 -0.11059638647615931 0 -0.029647447502889043 -0.11044118208036297 0 -0.044191673688194079 -0.11306119831840161 0 -0.036978012197179548 -0.11059638647615931 0 -0.041750828726834548 -0.11037893397177531 0 -0.04493375524606355 -0.10940772273662124 0 -0.041750828726834548 -0.11037893397177531 0 -0.043551662281464176 -0.10977720784029264 0 -0.042925913769045948 -0.10940500266360619 0 -0.041750828726834548 -0.11037893397177531 0 -0.043551662281464176 -0.10977720784029264 0 -0.042925913769045948 -0.10940500266360619 0 -0.041750828726834548 -0.11037893397177531 0 -0.038948988782156205 -0.10833702397345939 0 -0.037087078645213691 -0.10901242980294504 0 -0.041750828726834548 -0.11037893397177531 0 -0.037448334506516946 -0.10768564587398879 0 -0.037669819565132295 -0.10901102255837343 0 -0.036870748941762642 -0.10755308145306654 0 -0.037087078645213691 -0.10901242980294504 0 -0.037448334506516946 -0.10768564587398879 0 -0.033349356129035473 -0.10732196008838858 0 -0.042925913769045948 -0.10940500266360619 0 -0.041061703658147562 -0.10770020251174096 0 -0.038948988782156205 -0.10833702397345939 0 -0.041061703658147562 -0.10770020251174096 0 -0.038948988782156205 -0.10833702397345939 0 -0.035290888298099649 -0.10499984134212215 0 -0.041061703658147562 -0.10770020251174096 0 -0.04157659752860314 -0.10499912622350588 0 -0.035290888298099649 -0.10499984134212215 0 -0.036870748941762642 -0.10755308145306654 0 -0.035288338056793829 -0.105002326943144 0 -0.037448334506516946 -0.10768564587398879 0 -0.035284725297231 -0.10499934822948917 0 -0.033349356129035473 -0.10732196008838858 0 -0.035284725297231 -0.10499934822948917 0 -0.030254488223086094 -0.10499852655259732 0 -0.033349356129035473 -0.10732196008838858 0 -0.033194387119531675 -0.10901912156744997 0 -0.033349356129035473 -0.10732196008838858 0 -0.028604377444282982 -0.10743920495265802 0 -0.030254488223086094 -0.10499852655259732 0 -0.028604377444282982 -0.10743920495265802 0 -0.02521904770601173 -0.10499880975092808 0 -0.030254488223086094 -0.10499852655259732 0 -0.033349356129035473 -0.10732196008838858 0 -0.028604377444282982 -0.10743920495265802 0 -0.028604377444282982 -0.10743920495265802 0 -0.02521904770601173 -0.10499880975092808 0 -0.023812279275882763 -0.10689050792829836 0 -0.023812279275882763 -0.10689050792829836 0 -0.020184012170408688 -0.10499891602567157 0 -0.020262521326132831 -0.10785159095277956 0 -0.02521904770601173 -0.10499880975092808 0 -0.023812279275882763 -0.10689050792829836 0 -0.020184012170408688 -0.10499891602567157 0 -0.023812279275882763 -0.10689050792829836 0 -0.020262521326132831 -0.10785159095277956 0 -0.024880600290099544 -0.10958121919193156 0 -0.028604377444282982 -0.10743920495265802 0 -0.023812279275882763 -0.10689050792829836 0 -0.024880600290099544 -0.10958121919193156 0 -0.015148805012789507 -0.10500324159853293 0 -0.014559213519184599 -0.10923127114227922 0 -0.020184012170408688 -0.10499891602567157 0 -0.015153158444954899 -0.10499929944491687 0 -0.020262521326132831 -0.10785159095277956 0 -0.015153158444954899 -0.10499929944491687 0 -0.020262521326132831 -0.10785159095277956 0 -0.016482270291704796 -0.10881754261644047 0 -0.014559213519184599 -0.10923127114227922 0 -0.013696362335206984 -0.11403744315078293 0 -0.016482270291704796 -0.10881754261644047 0 -0.02110030887619772 -0.11247550486150971 0 -0.016217010034425418 -0.11353015107863175 0 -0.020262521326132831 -0.10785159095277956 0 -0.016482270291704796 -0.10881754261644047 0 -0.02110030887619772 -0.11247550486150971 0 -0.02110030887619772 -0.11247550486150971 0 -0.016217010034425418 -0.11353015107863175 0 -0.019489449084778926 -0.11720284650592058 0 -0.029647447502889043 -0.11044118208036297 0 -0.024880600290099544 -0.10958121919193156 0 -0.025829105866688261 -0.11278980193417511 0 -0.028604377444282982 -0.10743920495265802 0 -0.029647447502889043 -0.11044118208036297 0 -0.024880600290099544 -0.10958121919193156 0 -0.02110030887619772 -0.11247550486150971 0 -0.024880600290099544 -0.10958121919193156 0 -0.025829105866688261 -0.11278980193417511 0 -0.020262521326132831 -0.10785159095277956 0 -0.02110030887619772 -0.11247550486150971 0 -0.024880600290099544 -0.10958121919193156 0 -0.02110030887619772 -0.11247550486150971 0 -0.025829105866688261 -0.11278980193417511 0 -0.024121634616273303 -0.11645805284520958 0 -0.030492578571770797 -0.11575967870032444 0 -0.029647447502889043 -0.11044118208036297 0 -0.025829105866688261 -0.11278980193417511 0 -0.030492578571770797 -0.11575967870032444 0 -0.025829105866688261 -0.11278980193417511 0 -0.024121634616273303 -0.11645805284520958 0 -0.030492578571770797 -0.11575967870032444 0 -0.025635673120262513 -0.11951090074461672 0 -0.024121634616273303 -0.11645805284520958 0 -0.030492578571770797 -0.11575967870032444 0 -0.028240778625842899 -0.12076056741184647 0 -0.025635673120262513 -0.11951090074461672 0 -0.029781039149196002 -0.1180235810356271 0 -0.029699379131473216 -0.11830281334104675 0 -0.028240778625842899 -0.12076056741184647 0 -0.025635673120262513 -0.11951090074461672 0 -0.026214245942164802 -0.12187514645021888 0 -0.034411933852678885 -0.12345250778940353 0 -0.028646006543714485 -0.12472467123023455 0 -0.028088906222627247 -0.12367967442899119 0 -0.025635673120262513 -0.11951090074461672 0 -0.024121634616273303 -0.11645805284520958 0 -0.022104771428308589 -0.12083227184512915 0 -0.025635673120262513 -0.11951090074461672 0 -0.022104771428308589 -0.12083227184512915 0 -0.024611013561751584 -0.12227325998373154 0 -0.025635673120262513 -0.11951090074461672 0 -0.026214245942164802 -0.12187514645021888 0 -0.024611013561751584 -0.12227325998373154 0 -0.02110030887619772 -0.11247550486150971 0 -0.024121634616273303 -0.11645805284520958 0 -0.019489449084778926 -0.11720284650592058 0 -0.024121634616273303 -0.11645805284520958 0 -0.019489449084778926 -0.11720284650592058 0 -0.022104771428308589 -0.12083227184512915 0 -0.016217010034425418 -0.11353015107863175 0 -0.019489449084778926 -0.11720284650592058 0 -0.015487979822644299 -0.11918465074262957 0 -0.013696362335206984 -0.11403744315078293 0 -0.01269383725548159 -0.11889821717126581 0 -0.019489449084778926 -0.11720284650592058 0 -0.018230676528970324 -0.12137424910207836 0 -0.015487979822644299 -0.11918465074262957 0 -0.019489449084778926 -0.11720284650592058 0 -0.018230676528970324 -0.12137424910207836 0 -0.022104771428308589 -0.12083227184512915 0 -0.022104771428308589 -0.12083227184512915 0 -0.019304358538288342 -0.12457777396036493 0 -0.022633297716388112 -0.12486837957561059 0 -0.018230676528970324 -0.12137424910207836 0 -0.022104771428308589 -0.12083227184512915 0 -0.019304358538288342 -0.12457777396036493 0 -0.018230676528970324 -0.12137424910207836 0 -0.014834027782366147 -0.12504104347242292 0 -0.015487979822644299 -0.11918465074262957 0 -0.018230676528970324 -0.12137424910207836 0 -0.019304358538288342 -0.12457777396036493 0 -0.014834027782366147 -0.12504104347242292 0 -0.019304358538288342 -0.12457777396036493 0 -0.017738096119965439 -0.12810922179799106 0 -0.014834027782366147 -0.12504104347242292 0 -0.021834518086099406 -0.12849494309979809 0 -0.019304358538288342 -0.12457777396036493 0 -0.022633297716388112 -0.12486837957561059 0 -0.021834518086099406 -0.12849494309979809 0 -0.019304358538288342 -0.12457777396036493 0 -0.017738096119965439 -0.12810922179799106 0 -0.021834518086099406 -0.12849494309979809 0 -0.026320304190922891 -0.12486774115020974 0 -0.022633297716388112 -0.12486837957561059 0 -0.020700371545313834 -0.11565102322816392 0 -0.031867013590950954 -0.11244730008836609 0 -0.01242913433565815 -0.09893680999608212 0 -0.01493017223317567 -0.098143711898432781 0 -0.015695435894536654 -0.096210735573203976 0 -0.036750831582791882 -0.10538605062507617 0 -0.031867013590950954 -0.11244730008836609 0 -0.064529477781396324 -0.09709973575993823 0 -0.060776844705956505 -0.097623237216471717 0 -0.063334982414035845 -0.1010207643588458 0 -0.062109719015070002 -0.094191850953741843 0 -0.064529477781396324 -0.09709973575993823 0 -0.060776844705956505 -0.097623237216471717 0 -0.058167328943045292 -0.10116219918568112 0 -0.060776844705956505 -0.097623237216471717 0 -0.063334982414035845 -0.1010207643588458 0 -0.036750831582791882 -0.10538605062507617 0 -0.03380229863272554 -0.11183674884200208 0 -0.036265898595644427 -0.10616039920853348 0 -0.034139003389100912 -0.11218616027133482 0 -0.033020798018879575 -0.11319550200533993 0 -0.028240778625842899 -0.12076056741184647 0 -0.026320304190922891 -0.12486774115020974 0 -0.026214245942164802 -0.12187514645021888 0 -0.028088906222627247 -0.12367967442899119 0 -0.025790319061628209 -0.13060911540532388 0 -0.026617233484776966 -0.12984748720176398 0 -0.029699379131473216 -0.11830281334104675 0 -0.031867013590950954 -0.11244730008836609 0 -0.034411933852678885 -0.12345250778940353 0 -0.028646006543714485 -0.12472467123023455 0 -0.026213301790414038 -0.1304263060699091 0 -0.041039668681454415 -0.1113622841117996 0 -0.03380229863272554 -0.11183674884200208 0 -0.028646006543714485 -0.12472467123023455 0 -0.028088906222627247 -0.12367967442899119 0 -0.026617233484776966 -0.12984748720176398 0 -0.031867013590950954 -0.11244730008836609 0 -0.03380229863272554 -0.11183674884200208 0 -0.031971750302963328 -0.11631731239336848 0 -0.03380229863272554 -0.11183674884200208 0 -0.026320304190922891 -0.12486774115020974 0 -0.024611013561751584 -0.12227325998373154 0 -0.022633297716388112 -0.12486837957561059 0 -0.026320304190922891 -0.12486774115020974 0 -0.026214245942164802 -0.12187514645021888 0 -0.024611013561751584 -0.12227325998373154 0 -0.022104771428308589 -0.12083227184512915 0 -0.024611013561751584 -0.12227325998373154 0 -0.022633297716388112 -0.12486837957561059 0 -0.0044680343595368552 -0.12041752362460101 0 -0.0058258330006195711 -0.12069488553869173 0 -0.0063313287932088413 -0.12107399204840158 0 -0.0044680343595368552 -0.12041752362460101 0 -0.0058258330006195711 -0.12069488553869173 0 -0.0059284718534392648 -0.11996553625832962 0 -0.0036256381182414275 -0.11958073595240611 0 -0.0050143867645428379 -0.12075676377538078 0 -0.0037158944051554326 -0.1194291655609362 0 -0.0026290950716150951 -0.12037928963011306 0 -0.0041639756513824058 -0.12094208171173525 0 -0.0037158944051554326 -0.1194291655609362 0 -0.0026290950716150951 -0.12037928963011306 0 -0.0014948305657599516 -0.11953266809095728 0 -0.0026290950716150951 -0.12037928963011306 0 -0.0024070690745561811 -0.12154422799791847 0 -0.0041639756513824058 -0.12094208171173525 0 -0.0024070690745561811 -0.12154422799791847 0 -0.0038583450416399588 -0.12218930805161625 0 -0.0020522381557789566 -0.12279055971655675 0 -0.0024070690745561811 -0.12154422799791847 0 -0.0038583450416399588 -0.12218930805161625 0 -0.0041639756513824058 -0.12094208171173525 0 -0.0050917143188587968 -0.12166962581234772 0 -0.0041639756513824058 -0.12094208171173525 0 -0.0060264618754002647 -0.12187267654224877 0 -0.0037158944051554326 -0.1194291655609362 0 -0.0041639756513824058 -0.12094208171173525 0 -0.0060264618754002647 -0.12187267654224877 0 -0.0038583450416399588 -0.12218930805161625 0 -0.0050917143188587968 -0.12166962581234772 0 -0.0060917164656480258 -0.12181240917017518 0 -0.0038583450416399588 -0.12218930805161625 0 -0.0050917143188587968 -0.12166962581234772 0 -0.0041639756513824058 -0.12094208171173525 0 -0.0058258330006195711 -0.12069488553869173 0 -0.0063313287932088413 -0.12107399204840158 0 -0.0062005065450503292 -0.12094121544405619 0 -0.0050917143188587968 -0.12166962581234772 0 -0.0060264618754002647 -0.12187267654224877 0 -0.0060917164656480258 -0.12181240917017518 0 -0.005952985178928916 -0.12032811235297212 0 -0.0063313287932088413 -0.12107399204840158 0 -0.0061209511237491311 -0.12074932780939084 0 -0.0063313287932088413 -0.12107399204840158 0 -0.0062047192404471327 -0.12092159744625991 0 -0.0061209511237491311 -0.12074932780939084 0 -0.0063313287932088413 -0.12107399204840158 0 -0.0062047192404471327 -0.12092159744625991 0 -0.0062005065450503292 -0.12094121544405619 0 -0.0062047192404471327 -0.12092159744625991 0 -0.0061756835016395263 -0.12086853709733152 0 -0.0062005065450503292 -0.12094121544405619 0 -0.0062047192404471327 -0.12092159744625991 0 -0.0061756835016395263 -0.12086853709733152 0 -0.0061209511237491311 -0.12074932780939084 0 -0.0061756835016395263 -0.12086853709733152 0 -0.0061209511237491311 -0.12074932780939084 0 -0.0060711514133785045 -0.12070464851580255 0 -0.0060711514133785045 -0.12070464851580255 0 -0.0062415922274906806 -0.12081655208552006 0 -0.0059145062463998744 -0.12061642036096207 0 -0.0061756835016395263 -0.12086853709733152 0 -0.0060711514133785045 -0.12070464851580255 0 -0.0062415922274906806 -0.12081655208552006 0 -0.0061756835016395263 -0.12086853709733152 0 -0.0062415922274906806 -0.12081655208552006 0 -0.0062521580318044322 -0.12086168228193594 0 -0.0062415922274906806 -0.12081655208552006 0 -0.0062521580318044322 -0.12086168228193594 0 -0.0064800599916178059 -0.12077312244879651 0 -0.0058258330006195711 -0.12069488553869173 0 -0.0062521580318044322 -0.12086168228193594 0 -0.0062005065450503292 -0.12094121544405619 0 -0.0061756835016395263 -0.12086853709733152 0 -0.0062521580318044322 -0.12086168228193594 0 -0.0062005065450503292 -0.12094121544405619 0 -0.012743756528179976 -0.12839032917615642 0 -0.01172127169563388 -0.12314154189324523 0 -0.0051203849088090917 -0.12019505158652122 0 -0.0059145062463998744 -0.12061642036096207 0 -0.0068670908202148086 -0.12088302429693755 0 -0.014701292419112267 -0.12978484844253121 0 -0.017738096119965439 -0.12810922179799106 0 -0.014834027782366147 -0.12504104347242292 0 -0.011065055889536655 -0.12316372239116308 0 -0.01172127169563388 -0.12314154189324523 0 -0.0062415922274906806 -0.12081655208552006 0 -0.0059145062463998744 -0.12061642036096207 0 -0.0068670908202148086 -0.12088302429693755 0 -0.0062415922274906806 -0.12081655208552006 0 -0.0068670908202148086 -0.12088302429693755 0 -0.0064800599916178059 -0.12077312244879651 0 -0.0068670908202148086 -0.12088302429693755 0 -0.0069962867618739823 -0.12048047941683003 0 -0.0082761383653398406 -0.11992489091765253 0 -0.01172127169563388 -0.12314154189324523 0 -0.011034581786789347 -0.12098830809978672 0 -0.0088876851114110932 -0.12342174090643536 0 -0.0098122713225936437 -0.1192691503461684 0 -0.009257315726221885 -0.12074062542285986 0 -0.01172127169563388 -0.12314154189324523 0 -0.01269383725548159 -0.11889821717126581 0 -0.0068670908202148086 -0.12088302429693755 0 -0.0069962867618739823 -0.12048047941683003 0 -0.0064800599916178059 -0.12077312244879651 0 -0.0069962867618739823 -0.12048047941683003 0 -0.0070513583243960549 -0.11987933321145752 0 -0.0082761383653398406 -0.11992489091765253 0 -0.0058258330006195711 -0.12069488553869173 0 -0.0062521580318044322 -0.12086168228193594 0 -0.0063923114395314637 -0.12053754712368436 0 -0.0069962867618739823 -0.12048047941683003 0 -0.0063923114395314637 -0.12053754712368436 0 -0.0064800599916178059 -0.12077312244879651 0 -0.0062521580318044322 -0.12086168228193594 0 -0.0063923114395314637 -0.12053754712368436 0 -0.0064800599916178059 -0.12077312244879651 0 -0.0069962867618739823 -0.12048047941683003 0 -0.0063923114395314637 -0.12053754712368436 0 -0.0070513583243960549 -0.11987933321145752 0 -0.0058258330006195711 -0.12069488553869173 0 -0.0063923114395314637 -0.12053754712368436 0 -0.0059284718534392648 -0.11996553625832962 0 -0.0063923114395314637 -0.12053754712368436 0 -0.0059284718534392648 -0.11996553625832962 0 -0.0070513583243960549 -0.11987933321145752 0 -0.0059284718534392648 -0.11996553625832962 0 -0.0070513583243960549 -0.11987933321145752 0 -0.006909690608319914 -0.11875109143955605 0 -0.0070513583243960549 -0.11987933321145752 0 -0.006909690608319914 -0.11875109143955605 0 -0.0080441380767732312 -0.11901479700180485 0 -0.0059284718534392648 -0.11996553625832962 0 -0.006909690608319914 -0.11875109143955605 0 -0.0052316066524450101 -0.11882038896478253 0 -0.0082761383653398406 -0.11992489091765253 0 -0.0080441380767732312 -0.11901479700180485 0 -0.0097649329472078907 -0.11805687864965131 0 -0.011034581786789347 -0.12098830809978672 0 -0.010883280122889957 -0.12006060375130181 0 -0.0098122713225936437 -0.1192691503461684 0 -0.009257315726221885 -0.12074062542285986 0 -0.0097649329472078907 -0.11805687864965131 0 -0.0070513583243960549 -0.11987933321145752 0 -0.0082761383653398406 -0.11992489091765253 0 -0.0080441380767732312 -0.11901479700180485 0 -0.006909690608319914 -0.11875109143955605 0 -0.0080441380767732312 -0.11901479700180485 0 -0.0084444202747770095 -0.11790659425961629 0 -0.011537405629325854 -0.11512649752850447 0 -0.0097649329472078907 -0.11805687864965131 0 -0.0091824053481934821 -0.11657465434812654 0 -0.011537405629325854 -0.11512649752850447 0 -0.0098122713225936437 -0.1192691503461684 0 -0.0097649329472078907 -0.11805687864965131 0 -0.0097649329472078907 -0.11805687864965131 0 -0.0084444202747770095 -0.11790659425961629 0 -0.0091824053481934821 -0.11657465434812654 0 -0.0080441380767732312 -0.11901479700180485 0 -0.0097649329472078907 -0.11805687864965131 0 -0.0084444202747770095 -0.11790659425961629 0 -0.0084444202747770095 -0.11790659425961629 0 -0.0091824053481934821 -0.11657465434812654 0 -0.0077335391276222402 -0.11684799105866099 0 -0.006909690608319914 -0.11875109143955605 0 -0.0061865780070587476 -0.11743473664776007 0 -0.0052316066524450101 -0.11882038896478253 0 -0.006909690608319914 -0.11875109143955605 0 -0.0077335391276222402 -0.11684799105866099 0 -0.0061865780070587476 -0.11743473664776007 0 -0.006909690608319914 -0.11875109143955605 0 -0.0084444202747770095 -0.11790659425961629 0 -0.0077335391276222402 -0.11684799105866099 0 -0.0077335391276222402 -0.11684799105866099 0 -0.0061865780070587476 -0.11743473664776007 0 -0.0062763788263776989 -0.1151464407363144 0 -0.0061865780070587476 -0.11743473664776007 0 -0.0044629404673615846 -0.11718328843165104 0 -0.0062763788263776989 -0.1151464407363144 0 -0.0044629404673615846 -0.11718328843165104 0 -0.0038244856711561353 -0.11838934358497742 0 -0.0031938499331225717 -0.11718687252956593 0 -0.0044629404673615846 -0.11718328843165104 0 -0.0038244856711561353 -0.11838934358497742 0 -0.0052316066524450101 -0.11882038896478253 0 -0.0061865780070587476 -0.11743473664776007 0 -0.0044629404673615846 -0.11718328843165104 0 -0.0052316066524450101 -0.11882038896478253 0 -0.0044680343595368552 -0.12041752362460101 0 -0.0038244856711561353 -0.11838934358497742 0 -0.0052316066524450101 -0.11882038896478253 0 -0.0044680343595368552 -0.12041752362460101 0 -0.0059284718534392648 -0.11996553625832962 0 -0.0052316066524450101 -0.11882038896478253 0 -0.0037158944051554326 -0.1194291655609362 0 -0.0016265695446669485 -0.11871135938693382 0 -0.0014948305657599516 -0.11953266809095728 0 -0.0036256381182414275 -0.11958073595240611 0 -0.0014154303099081372 -0.11718464668698556 0 -0.0037158944051554326 -0.1194291655609362 0 -0.0019099459949666758 -0.11838910651586484 0 -0.0016265695446669485 -0.11871135938693382 0 -0.0044680343595368552 -0.12041752362460101 0 -0.0038244856711561353 -0.11838934358497742 0 -0.0017872446057295647 -0.11786410466580434 0 -0.0037158944051554326 -0.1194291655609362 0 -0.0019099459949666758 -0.11838910651586484 0 -0.0014742889230424548 -0.1178598994479835 0 -0.0017872446057295647 -0.11786410466580434 0 -0.0031938499331225717 -0.11718687252956593 0 -0.0027155724352502068 -0.11481847277259061 0 -0.0038244856711561353 -0.11838934358497742 0 -0.0017872446057295647 -0.11786410466580434 0 -0.0031938499331225717 -0.11718687252956593 0 -0.0044629404673615846 -0.11718328843165104 0 -0.0031938499331225717 -0.11718687252956593 0 -0.0027155724352502068 -0.11481847277259061 0 -0.0017872446057295647 -0.11786410466580434 0 -0.0027155724352502068 -0.11481847277259061 0 0.0011599110283109018 -0.11413094805628554 0 -0.0044629404673615846 -0.11718328843165104 0 -0.0027155724352502068 -0.11481847277259061 0 -0.0062763788263776989 -0.1151464407363144 0 -0.0027155724352502068 -0.11481847277259061 0 -0.0062763788263776989 -0.1151464407363144 0 -0.0052975861716475156 -0.11110129153283979 0 -0.0027155724352502068 -0.11481847277259061 0 -0.00083811279776897188 -0.11010893129116527 0 -0.0052975861716475156 -0.11110129153283979 0 -0.0027155724352502068 -0.11481847277259061 0 -0.00083811279776897188 -0.11010893129116527 0 0.0011599110283109018 -0.11413094805628554 0 -0.011537405629325854 -0.11512649752850447 0 -0.0086253741695265854 -0.11500460810861776 0 -0.0091171061668331912 -0.11240582245946584 0 -0.011537405629325854 -0.11512649752850447 0 -0.0091824053481934821 -0.11657465434812654 0 -0.0086253741695265854 -0.11500460810861776 0 -0.0091824053481934821 -0.11657465434812654 0 -0.0077335391276222402 -0.11684799105866099 0 -0.0086253741695265854 -0.11500460810861776 0 -0.0086253741695265854 -0.11500460810861776 0 -0.0062763788263776989 -0.1151464407363144 0 -0.0091171061668331912 -0.11240582245946584 0 -0.0077335391276222402 -0.11684799105866099 0 -0.0086253741695265854 -0.11500460810861776 0 -0.0062763788263776989 -0.1151464407363144 0 -0.0062763788263776989 -0.1151464407363144 0 -0.0091171061668331912 -0.11240582245946584 0 -0.0052975861716475156 -0.11110129153283979 0 -0.013407541792180578 -0.11037554865324445 0 -0.011537405629325854 -0.11512649752850447 0 -0.0091171061668331912 -0.11240582245946584 0 -0.013407541792180578 -0.11037554865324445 0 -0.0091171061668331912 -0.11240582245946584 0 -0.0088032407646319345 -0.10888831970885215 0 -0.0091171061668331912 -0.11240582245946584 0 -0.0088032407646319345 -0.10888831970885215 0 -0.0052975861716475156 -0.11110129153283979 0 -0.0088032407646319345 -0.10888831970885215 0 -0.0095441863216483916 -0.1049997315599825 0 -0.0039400981916891641 -0.10500012138687129 0 -0.015147947903828153 -0.10500013469996344 0 -0.013407541792180578 -0.11037554865324445 0 -0.0088032407646319345 -0.10888831970885215 0 -0.015147947903828153 -0.10500013469996344 0 -0.0088032407646319345 -0.10888831970885215 0 -0.0095441863216483916 -0.1049997315599825 0 -0.0088032407646319345 -0.10888831970885215 0 -0.0052975861716475156 -0.11110129153283979 0 -0.0039400981916891641 -0.10500012138687129 0 -0.00083811279776897188 -0.11010893129116527 0 -0.0052975861716475156 -0.11110129153283979 0 -0.0039400981916891641 -0.10500012138687129 0 -0.00083811279776897188 -0.11010893129116527 0 -0.0039400981916891641 -0.10500012138687129 0 0.0016639478468939697 -0.10499978936310005 0 -0.00083811279776897188 -0.11010893129116527 0 0.0016639478468939697 -0.10499978936310005 0 0.0042157702921063241 -0.10976676040927376 0 0.0043724809002609888 -0.10931504724885847 0 0.0072658668754376548 -0.10500370339226908 0 0.0016639478468939697 -0.10499978936310005 0 0.0042157702921063241 -0.10976676040927376 0 0.0072685698538470693 -0.10499997834206787 0 0.004851435925510161 -0.10918864719759779 0 0.0072694580786623886 -0.10499968058023407 0 0.0088795723760313836 -0.10799223162327225 0 0.0072694580786623886 -0.10499968058023407 0 0.010981165838213089 -0.1049998092182003 0 0.0088795723760313836 -0.10799223162327225 0 0.010981165838213089 -0.1049998092182003 0 0.012451554744868492 -0.10797354561573935 0 0.014692549209959343 -0.1049998598333277 0 0.010981165838213089 -0.1049998092182003 0 0.012451554744868492 -0.10797354561573935 0 0.0088795723760313836 -0.10799223162327225 0 0.012451554744868492 -0.10797354561573935 0 0.010426785869645057 -0.11034311873389675 0 0.0088795723760313836 -0.10799223162327225 0 0.012451554744868492 -0.10797354561573935 0 0.010426785869645057 -0.11034311873389675 0 0.013182485544738262 -0.11175740352173061 0 0.004851435925510161 -0.10918864719759779 0 0.0088795723760313836 -0.10799223162327225 0 0.0070905779647220998 -0.11186954808611409 0 0.010426785869645057 -0.11034311873389675 0 0.0088795723760313836 -0.10799223162327225 0 0.0070905779647220998 -0.11186954808611409 0 0.0070905779647220998 -0.11186954808611409 0 0.010298515981643445 -0.11282930110839243 0 0.0084035447198148629 -0.11492868323709302 0 0.010426785869645057 -0.11034311873389675 0 0.0070905779647220998 -0.11186954808611409 0 0.010298515981643445 -0.11282930110839243 0 0.010298515981643445 -0.11282930110839243 0 0.012513572646986132 -0.11488334226027599 0 0.013182485544738262 -0.11175740352173061 0 0.010426785869645057 -0.11034311873389675 0 0.010298515981643445 -0.11282930110839243 0 0.013182485544738262 -0.11175740352173061 0 0.010298515981643445 -0.11282930110839243 0 0.012513572646986132 -0.11488334226027599 0 0.0084035447198148629 -0.11492868323709302 0 0.012513572646986132 -0.11488334226027599 0 0.0084035447198148629 -0.11492868323709302 0 0.010716781888152246 -0.11821004533935217 0 0.0070905779647220998 -0.11186954808611409 0 0.0084035447198148629 -0.11492868323709302 0 0.0051502864919368155 -0.11525873228612674 0 0.0084035447198148629 -0.11492868323709302 0 0.0051502864919368155 -0.11525873228612674 0 0.0065524770829444032 -0.1168922922319347 0 0.0070905779647220998 -0.11186954808611409 0 0.0051502864919368155 -0.11525873228612674 0 0.0019642621717530667 -0.11339426084491154 0 -0.0014154303099081372 -0.11718464668698556 0 0.0014111390952307591 -0.11351805650007687 0 0.0051502864919368155 -0.11525873228612674 0 0.0019642621717530667 -0.11339426084491154 0 0.0022945069790324744 -0.11656494100738189 0 -0.0014742889230424548 -0.1178598994479835 0 0.0019642621717530667 -0.11339426084491154 0 0.0022945069790324744 -0.11656494100738189 0 -0.00083811279776897188 -0.11010893129116527 0 0.0042157702921063241 -0.10976676040927376 0 0.0011599110283109018 -0.11413094805628554 0 0.0043724809002609888 -0.10931504724885847 0 0.0014111390952307591 -0.11351805650007687 0 0.004851435925510161 -0.10918864719759779 0 0.0070905779647220998 -0.11186954808611409 0 0.0019642621717530667 -0.11339426084491154 0 0.021137439356098429 -0.10954068018463588 0 0.024495735984478829 -0.11279417669164629 0 0.026457271050834411 -0.10979262803175599 0 0.024011069948874256 -0.10500022010626232 0 0.021137439356098429 -0.10954068018463588 0 0.026457271050834411 -0.10979262803175599 0 0.024021199818894754 -0.10500057006867887 0 0.030952017085655814 -0.10735687410082435 0 0.021022469508369401 -0.10500449383765942 0 0.022066044137492843 -0.10919124451433609 0 0.021019977602384901 -0.10499996761766736 0 0.020733214229262855 -0.1098137934298536 0 0.018210206015758585 -0.10748298441465332 0 0.024011069948874256 -0.10500022010626232 0 0.021021430113910593 -0.10499967837523623 0 0.021137439356098429 -0.10954068018463588 0 0.020733214229262855 -0.1098137934298536 0 0.018210206015758585 -0.10748298441465332 0 0.016348684227451678 -0.11001598426961003 0 0.020733214229262855 -0.1098137934298536 0 0.016348684227451678 -0.11001598426961003 0 0.018827009877951294 -0.11204215849899625 0 0.021019977602384901 -0.10499996761766736 0 0.018210206015758585 -0.10748298441465332 0 0.01469410300124061 -0.10499996692943887 0 0.014697093530515399 -0.1050035485664419 0 0.017220567785674882 -0.10904190597573576 0 0.018210206015758585 -0.10748298441465332 0 0.01469410300124061 -0.10499996692943887 0 0.016348684227451678 -0.11001598426961003 0 0.012451554744868492 -0.10797354561573935 0 0.014692549209959343 -0.1049998598333277 0 0.015393814027513858 -0.10951260166075751 0 0.012451554744868492 -0.10797354561573935 0 0.015393814027513858 -0.10951260166075751 0 0.013182485544738262 -0.11175740352173061 0 0.015393814027513858 -0.10951260166075751 0 0.013182485544738262 -0.11175740352173061 0 0.016552221301852889 -0.11400113426338256 0 0.012513572646986132 -0.11488334226027599 0 0.013182485544738262 -0.11175740352173061 0 0.016552221301852889 -0.11400113426338256 0 0.012513572646986132 -0.11488334226027599 0 0.016552221301852889 -0.11400113426338256 0 0.01558300920538877 -0.11739475811659179 0 0.017871321904620735 -0.11471660989102661 0 0.020506689991348796 -0.11434632912987368 0 0.020370616721330306 -0.11867290213403968 0 0.02041107476716272 -0.11231024066845273 0 0.024781118267152739 -0.11197731383234487 0 0.017220567785674882 -0.10904190597573576 0 0.02041107476716272 -0.11231024066845273 0 0.016348684227451678 -0.11001598426961003 0 0.017871321904620735 -0.11471660989102661 0 0.018827009877951294 -0.11204215849899625 0 0.017871321904620735 -0.11471660989102661 0 0.018827009877951294 -0.11204215849899625 0 0.020506689991348796 -0.11434632912987368 0 0.021137439356098429 -0.10954068018463588 0 0.021114011563887859 -0.11384758247845979 0 0.024495735984478829 -0.11279417669164629 0 0.022066044137492843 -0.10919124451433609 0 0.023691808118382202 -0.11235584376666249 0 0.020733214229262855 -0.1098137934298536 0 0.018827009877951294 -0.11204215849899625 0 0.020506689991348796 -0.11434632912987368 0 0.023691808118382202 -0.11235584376666249 0 0.026844290773343875 -0.11094566136201221 0 0.021114011563887859 -0.11384758247845979 0 0.024925207750865 -0.11628450824837998 0 0.021012356870993367 -0.1181226593727514 0 0.021114011563887859 -0.11384758247845979 0 0.024925207750865 -0.11628450824837998 0 0.024495735984478829 -0.11279417669164629 0 0.044308929430246342 -0.10405330538631655 0 0.044317091584640159 -0.10365463585794225 0 0.043836050282225897 -0.10385254122773978 0 0.044308929430246342 -0.10405330538631655 0 0.044828429841946446 -0.10368294542828074 0 0.044317091584640159 -0.10365463585794225 0 0.044236638482576772 -0.10453599374755468 0 0.044308929430246342 -0.10405330538631655 0 0.043839007004956229 -0.1043148651919239 0 0.044236638482576772 -0.10453599374755468 0 0.044308929430246342 -0.10405330538631655 0 0.044791035107274231 -0.10427344022504359 0 0.033848220657973174 -0.10899361683079518 0 0.026844290773343875 -0.11094566136201221 0 0.026844290773343875 -0.11094566136201221 0 0.024781118267152739 -0.11197731383234487 0 0.026714107961271539 -0.11320861808445236 0 0.026781318214105714 -0.11103467918484283 0 0.02732980452027935 -0.11291562150101575 0 0.044308929430246342 -0.10405330538631655 0 0.044791035107274231 -0.10427344022504359 0 0.044828429841946446 -0.10368294542828074 0 0.026844290773343875 -0.11094566136201221 0 0.027597786030622514 -0.11191889878669295 0 0.027597786030622514 -0.11191889878669295 0 0.024781118267152739 -0.11197731383234487 0 0.017988061903053944 -0.1204642712267238 0 0.016853955883350466 -0.1190322845679338 0 0.017399106741315992 -0.11812224887524252 0 0.017988061903053944 -0.1204642712267238 0 0.016295716991534658 -0.1200306860024004 0 0.016853955883350466 -0.1190322845679338 0 0.016295716991534658 -0.1200306860024004 0 0.015795300098054778 -0.11878889674819958 0 0.015124402829257505 -0.11992616814716102 0 0.016295716991534658 -0.1200306860024004 0 0.015124402829257505 -0.11992616814716102 0 0.015696630667146539 -0.12059988330609109 0 0.016295716991534658 -0.1200306860024004 0 0.015795300098054778 -0.11878889674819958 0 0.016853955883350466 -0.1190322845679338 0 0.015795300098054778 -0.11878889674819958 0 0.016853955883350466 -0.1190322845679338 0 0.016435573916650539 -0.118501723342788 0 0.016853955883350466 -0.1190322845679338 0 0.01714387002616561 -0.11826124438931244 0 0.016435573916650539 -0.118501723342788 0 0.017504044886685784 -0.1181266304806413 0 0.01714387002616561 -0.11826124438931244 0 0.01558300920538877 -0.11739475811659179 0 0.016552221301852889 -0.11400113426338256 0 0.017504044886685784 -0.1181266304806413 0 0.01558300920538877 -0.11739475811659179 0 0.017871321904620735 -0.11471660989102661 0 0.020370616721330306 -0.11867290213403968 0 0.019235629896856839 -0.11920983219919995 0 0.024781118267152739 -0.11197731383234487 0 0.024702201780207572 -0.11202130304386684 0 0.016853955883350466 -0.1190322845679338 0 0.017399106741315992 -0.11812224887524252 0 0.01714387002616561 -0.11826124438931244 0 0.015795300098054778 -0.11878889674819958 0 0.01558300920538877 -0.11739475811659179 0 0.016435573916650539 -0.118501723342788 0 0.01714387002616561 -0.11826124438931244 0 0.01558300920538877 -0.11739475811659179 0 0.016435573916650539 -0.118501723342788 0 0.01558300920538877 -0.11739475811659179 0 0.01392483541292659 -0.1186626806334304 0 0.014935951228262738 -0.11889529074463891 0 0.01558300920538877 -0.11739475811659179 0 0.01392483541292659 -0.1186626806334304 0 0.012358492321638831 -0.11781215339754807 0 0.012513572646986132 -0.11488334226027599 0 0.01558300920538877 -0.11739475811659179 0 0.010716781888152246 -0.11821004533935217 0 0.012872839119869072 -0.11735963700345821 0 0.010626908525198609 -0.11749709788709471 0 0.015795300098054778 -0.11878889674819958 0 0.01558300920538877 -0.11739475811659179 0 0.014935951228262738 -0.11889529074463891 0 0.01392483541292659 -0.1186626806334304 0 0.014935951228262738 -0.11889529074463891 0 0.014413339891792156 -0.11972548831085852 0 0.014935951228262738 -0.11889529074463891 0 0.015124402829257505 -0.11992616814716102 0 0.014413339891792156 -0.11972548831085852 0 0.015795300098054778 -0.11878889674819958 0 0.014935951228262738 -0.11889529074463891 0 0.015124402829257505 -0.11992616814716102 0 0.015124402829257505 -0.11992616814716102 0 0.014413339891792156 -0.11972548831085852 0 0.014519329750256995 -0.12063839214177229 0 0.01392483541292659 -0.1186626806334304 0 0.014413339891792156 -0.11972548831085852 0 0.013557747617145682 -0.12050402258182133 0 0.014413339891792156 -0.11972548831085852 0 0.014519329750256995 -0.12063839214177229 0 0.013557747617145682 -0.12050402258182133 0 0.014519329750256995 -0.12063839214177229 0 0.014763918565961671 -0.12241375369022098 0 0.013557747617145682 -0.12050402258182133 0 0.015124402829257505 -0.11992616814716102 0 0.01514367666536968 -0.12116911821637753 0 0.015696630667146539 -0.12059988330609109 0 0.014519329750256995 -0.12063839214177229 0 0.01514367666536968 -0.12116911821637753 0 0.014763918565961671 -0.12241375369022098 0 0.015124402829257505 -0.11992616814716102 0 0.014519329750256995 -0.12063839214177229 0 0.01514367666536968 -0.12116911821637753 0 0.01514367666536968 -0.12116911821637753 0 0.014763918565961671 -0.12241375369022098 0 0.015510901890240831 -0.12175963609156613 0 0.014763918565961671 -0.12241375369022098 0 0.015510901890240831 -0.12175963609156613 0 0.015919920676740883 -0.12219079385840385 0 0.0042499268740027619 -0.12064587120518644 0 0.0043821816829204725 -0.12136115828454075 0 0.0034203538411021854 -0.12139282783887889 0 0.0043821816829204725 -0.12136115828454075 0 0.0043526119138916994 -0.12192859671615026 0 0.0034203538411021854 -0.12139282783887889 0 0.0043526119138916994 -0.12192859671615026 0 0.0054704813155786094 -0.12148142612034267 0 0.0050041248249580988 -0.12234809403711705 0 0.0043821816829204725 -0.12136115828454075 0 0.0043526119138916994 -0.12192859671615026 0 0.0054704813155786094 -0.12148142612034267 0 0.013278485895172611 -0.11405697870399192 0 0.015327357955698645 -0.11403875848419813 0 0.0042499268740027619 -0.12064587120518644 0 0.0043821816829204725 -0.12136115828454075 0 0.0054704813155786094 -0.12148142612034267 0 0.0047523319100479019 -0.12071065724735357 0 0.0042499268740027619 -0.12064587120518644 0 0.0058128523816946102 -0.12147052264196043 0 0.016478810482250115 -0.12299453741755824 0 0.01697469710696696 -0.12214970162651653 0 0.015919920676740883 -0.12219079385840385 0 0.014763918565961671 -0.12241375369022098 0 0.016478810482250115 -0.12299453741755824 0 0.015919920676740883 -0.12219079385840385 0 0.01360318496683716 -0.11715040012821865 0 0.022113129480175357 -0.11411936701638414 0 0.014763918565961671 -0.12241375369022098 0 0.016478810482250115 -0.12299453741755824 0 0.017574323132635843 -0.12442784037699439 0 0.0047523319100479019 -0.12071065724735357 0 0.0058128523816946102 -0.12147052264196043 0 0.0074266340192960505 -0.12228360687267568 0 0.015327357955698645 -0.11403875848419813 0 0.022113129480175357 -0.11411936701638414 0 0.016478810482250115 -0.12299453741755824 0 0.017345813314496236 -0.1234213194504153 0 0.017574323132635843 -0.12442784037699439 0 0.017345813314496236 -0.1234213194504153 0 0.01697469710696696 -0.12214970162651653 0 0.017900924147779936 -0.12254623827945116 0 0.016478810482250115 -0.12299453741755824 0 0.017345813314496236 -0.1234213194504153 0 0.01697469710696696 -0.12214970162651653 0 0.01697469710696696 -0.12214970162651653 0 0.015919920676740883 -0.12219079385840385 0 0.016216952790480965 -0.1212644756071003 0 0.015510901890240831 -0.12175963609156613 0 0.015919920676740883 -0.12219079385840385 0 0.016216952790480965 -0.1212644756071003 0 0.01514367666536968 -0.12116911821637753 0 0.015696630667146539 -0.12059988330609109 0 0.016216952790480965 -0.1212644756071003 0 0.01514367666536968 -0.12116911821637753 0 0.015510901890240831 -0.12175963609156613 0 0.016216952790480965 -0.1212644756071003 0 0.016295716991534658 -0.1200306860024004 0 0.015696630667146539 -0.12059988330609109 0 0.016216952790480965 -0.1212644756071003 0 0.017988061903053944 -0.1204642712267238 0 0.01697469710696696 -0.12214970162651653 0 0.016216952790480965 -0.1212644756071003 0 0.017988061903053944 -0.1204642712267238 0 0.016295716991534658 -0.1200306860024004 0 0.016216952790480965 -0.1212644756071003 0 0.030099534932661712 -0.11223532821274734 0 0.029909747046127033 -0.11157591748301042 0 0.030116797974164247 -0.11171347181676007 0 0.027597786030622514 -0.11191889878669295 0 0.031513727285933067 -0.11013052409194005 0 0.017988061903053944 -0.1204642712267238 0 0.01697469710696696 -0.12214970162651653 0 0.017900924147779936 -0.12254623827945116 0 0.027597786030622514 -0.11191889878669295 0 0.02604690013653228 -0.11437428226148739 0 0.044828429841946446 -0.10368294542828074 0 0.044690266126063388 -0.10309045785931961 0 0.044413375543706751 -0.10332030468990161 0 0.02604690013653228 -0.11437428226148739 0 0.025051363752694244 -0.11372575699695969 0 0.029909747046127033 -0.11157591748301042 0 0.030116797974164247 -0.11171347181676007 0 0.030136253797271778 -0.11118126275242969 0 0.017345813314496236 -0.1234213194504153 0 0.017900924147779936 -0.12254623827945116 0 0.017850160364120057 -0.12463153795627809 0 0.017345813314496236 -0.1234213194504153 0 0.017574323132635843 -0.12442784037699439 0 0.017850160364120057 -0.12463153795627809 0 0.044276089728943001 -0.1028939627110627 0 0.044413375543706751 -0.10332030468990161 0 0.043946552175238997 -0.10327333191047239 0 0.044690266126063388 -0.10309045785931961 0 0.044276089728943001 -0.1028939627110627 0 0.044551748692954883 -0.10249004557859612 0 0.044690266126063388 -0.10309045785931961 0 0.044276089728943001 -0.1028939627110627 0 0.044413375543706751 -0.10332030468990161 0 0.044828429841946446 -0.10368294542828074 0 0.044413375543706751 -0.10332030468990161 0 0.044317091584640159 -0.10365463585794225 0 0.044413375543706751 -0.10332030468990161 0 0.044317091584640159 -0.10365463585794225 0 0.043946552175238997 -0.10327333191047239 0 -0.00031609444667645049 -0.11841527028235915 0 -0.0010646753281528694 -0.11804329536795581 0 0.00033415444597370921 -0.11773208904822829 0 -0.00031609444667645049 -0.11841527028235915 0 0.00065937297713884366 -0.11881189796351455 0 0.00033415444597370921 -0.11773208904822829 0 0.00065937297713884366 -0.11881189796351455 0 -0.00026145215714258569 -0.11913810948910696 0 0.00096672564919683636 -0.11988551781574205 0 -0.00031609444667645049 -0.11841527028235915 0 0.00065937297713884366 -0.11881189796351455 0 -0.00026145215714258569 -0.11913810948910696 0 -0.00031609444667645049 -0.11841527028235915 0 -0.00026145215714258569 -0.11913810948910696 0 -0.00092392565396671024 -0.11866995719498859 0 -0.00026145215714258569 -0.11913810948910696 0 -0.00092392565396671024 -0.11866995719498859 0 -0.0014948305657599516 -0.11953266809095728 0 -0.0019099459949666758 -0.11838910651586484 0 -0.0016265695446669485 -0.11871135938693382 0 -0.0010646753281528694 -0.11804329536795581 0 -0.0016265695446669485 -0.11871135938693382 0 -0.00092392565396671024 -0.11866995719498859 0 -0.0014948305657599516 -0.11953266809095728 0 -0.0016265695446669485 -0.11871135938693382 0 -0.00092392565396671024 -0.11866995719498859 0 -0.0010646753281528694 -0.11804329536795581 0 -0.00031609444667645049 -0.11841527028235915 0 -0.00092392565396671024 -0.11866995719498859 0 -0.0010646753281528694 -0.11804329536795581 0 0.0017298507839567097 -0.11914075061449506 0 0.0022945069790324744 -0.11656494100738189 0 0.0045031143325434189 -0.11823215846857883 0 0.0016515984174432033 -0.1181060715662846 0 0.002713045942822049 -0.11798092698162449 0 -0.0019099459949666758 -0.11838910651586484 0 -0.0014742889230424548 -0.1178598994479835 0 0.0017298507839567097 -0.11914075061449506 0 -0.0014742889230424548 -0.1178598994479835 0 0.0017298507839567097 -0.11914075061449506 0 0.0022945069790324744 -0.11656494100738189 0 0.002713045942822049 -0.11798092698162449 0 0.0056478029093902267 -0.11758358576581751 0 0.0017298507839567097 -0.11914075061449506 0 0.0045031143325434189 -0.11823215846857883 0 0.0054401816121551249 -0.11896203375840171 0 0.0051502864919368155 -0.11525873228612674 0 0.0022945069790324744 -0.11656494100738189 0 0.0045031143325434189 -0.11823215846857883 0 0.0045031143325434189 -0.11823215846857883 0 0.0053947166000528112 -0.11888942790741809 0 0.0065524770829444032 -0.1168922922319347 0 0.0056347474351225862 -0.11758903223166901 0 0.0056478029093902267 -0.11758358576581751 0 0.0051502864919368155 -0.11525873228612674 0 0.0045031143325434189 -0.11823215846857883 0 0.0065524770829444032 -0.1168922922319347 0 0.0053947166000528112 -0.11888942790741809 0 0.0065524770829444032 -0.1168922922319347 0 0.010716781888152246 -0.11821004533935217 0 0.0056478029093902267 -0.11758358576581751 0 0.010626908525198609 -0.11749709788709471 0 0.0084035447198148629 -0.11492868323709302 0 0.0065524770829444032 -0.1168922922319347 0 0.010716781888152246 -0.11821004533935217 0 0.01392483541292659 -0.1186626806334304 0 0.012358492321638831 -0.11781215339754807 0 0.01188948050696396 -0.12031009103256965 0 0.01392483541292659 -0.1186626806334304 0 0.01188948050696396 -0.12031009103256965 0 0.013557747617145682 -0.12050402258182133 0 0.0090451119807486539 -0.1181873751794829 0 0.012358492321638831 -0.11781215339754807 0 0.01188948050696396 -0.12031009103256965 0 0.0056478029093902267 -0.11758358576581751 0 0.0088271308072289511 -0.11786234921967727 0 0.00065937297713884366 -0.11881189796351455 0 0.00033415444597370921 -0.11773208904822829 0 0.0024537984450287071 -0.119152514094285 0 0.00065937297713884366 -0.11881189796351455 0 0.0024537984450287071 -0.119152514094285 0 0.00096672564919683636 -0.11988551781574205 0 0.0024537984450287071 -0.119152514094285 0 0.00096672564919683636 -0.11988551781574205 0 0.0023536708633073345 -0.12070591151147984 0 0.00096672564919683636 -0.11988551781574205 0 0.0023536708633073345 -0.12070591151147984 0 0.00091594716867668413 -0.12125161107162932 0 0.014763918565961671 -0.12241375369022098 0 0.01188948050696396 -0.12031009103256965 0 0.013557747617145682 -0.12050402258182133 0 0.0047523319100479019 -0.12071065724735357 0 0.0042499268740027619 -0.12064587120518644 0 0.0024537984450287071 -0.119152514094285 0 0.0042499268740027619 -0.12064587120518644 0 0.0024537984450287071 -0.119152514094285 0 0.0023536708633073345 -0.12070591151147984 0 0.01360318496683716 -0.11715040012821865 0 0.0088271308072289511 -0.11786234921967727 0 0.0023536708633073345 -0.12070591151147984 0 0.0034203538411021854 -0.12139282783887889 0 0.0022162680795042118 -0.12222530861516108 0 0.0042499268740027619 -0.12064587120518644 0 0.0023536708633073345 -0.12070591151147984 0 0.0034203538411021854 -0.12139282783887889 0 0.0034203538411021854 -0.12139282783887889 0 0.0022162680795042118 -0.12222530861516108 0 0.0034827311915341689 -0.12251366925293861 0 0.0043526119138916994 -0.12192859671615026 0 0.0034203538411021854 -0.12139282783887889 0 0.0034827311915341689 -0.12251366925293861 0 0.0023536708633073345 -0.12070591151147984 0 0.00091594716867668413 -0.12125161107162932 0 0.0022162680795042118 -0.12222530861516108 0 0.00091594716867668413 -0.12125161107162932 0 0.0022162680795042118 -0.12222530861516108 0 0.00070945434919016863 -0.12284308485892792 0 0.00091594716867668413 -0.12125161107162932 0 -0.00066622218010453085 -0.12184316887523439 0 0.00070945434919016863 -0.12284308485892792 0 0.00091594716867668413 -0.12125161107162932 0 -0.00066622218010453085 -0.12184316887523439 0 -0.00026218445444968849 -0.12030695077458382 0 0.00096672564919683636 -0.11988551781574205 0 0.00091594716867668413 -0.12125161107162932 0 -0.00026218445444968849 -0.12030695077458382 0 -0.00026145215714258569 -0.11913810948910696 0 0.00096672564919683636 -0.11988551781574205 0 -0.00026218445444968849 -0.12030695077458382 0 -0.00026145215714258569 -0.11913810948910696 0 -0.00026218445444968849 -0.12030695077458382 0 -0.0014948305657599516 -0.11953266809095728 0 -0.00026218445444968849 -0.12030695077458382 0 -0.0014948305657599516 -0.11953266809095728 0 -0.0014608676209256271 -0.12062051600609892 0 -0.0026290950716150951 -0.12037928963011306 0 -0.0014948305657599516 -0.11953266809095728 0 -0.0014608676209256271 -0.12062051600609892 0 -0.0024070690745561811 -0.12154422799791847 0 -0.00066622218010453085 -0.12184316887523439 0 -0.0014608676209256271 -0.12062051600609892 0 -0.0024070690745561811 -0.12154422799791847 0 -0.00066622218010453085 -0.12184316887523439 0 -0.0020522381557789566 -0.12279055971655675 0 -0.00066622218010453085 -0.12184316887523439 0 -0.00026218445444968849 -0.12030695077458382 0 -0.0014608676209256271 -0.12062051600609892 0 -0.0026290950716150951 -0.12037928963011306 0 -0.0024070690745561811 -0.12154422799791847 0 -0.0014608676209256271 -0.12062051600609892 0 -0.003346425671946829 -0.1242576404600805 0 -0.0020522381557789566 -0.12279055971655675 0 -0.00093489863211829898 -0.12401057714895759 0 -0.00066622218010453085 -0.12184316887523439 0 -0.0020522381557789566 -0.12279055971655675 0 -0.00093489863211829898 -0.12401057714895759 0 0.00070945434919016863 -0.12284308485892792 0 -0.00093489863211829898 -0.12401057714895759 0 0.00086571462386443132 -0.12439340053066139 0 -0.00066622218010453085 -0.12184316887523439 0 0.00070945434919016863 -0.12284308485892792 0 -0.00093489863211829898 -0.12401057714895759 0 -0.00093489863211829898 -0.12401057714895759 0 -6.0871215582832294e-06 -0.12565393698432042 0 0.00086571462386443132 -0.12439340053066139 0 -0.00093489863211829898 -0.12401057714895759 0 -0.0014832489581120378 -0.12597538840107003 0 -6.0871215582832294e-06 -0.12565393698432042 0 -0.003346425671946829 -0.1242576404600805 0 -0.00093489863211829898 -0.12401057714895759 0 -0.0014832489581120378 -0.12597538840107003 0 -0.0014832489581120378 -0.12597538840107003 0 -6.0871215582832294e-06 -0.12565393698432042 0 0.00020104985633362363 -0.12773361778677605 0 -6.0871215582832294e-06 -0.12565393698432042 0 0.00020104985633362363 -0.12773361778677605 0 0.0013202034548465576 -0.12607676028589423 0 -6.0871215582832294e-06 -0.12565393698432042 0 0.0013202034548465576 -0.12607676028589423 0 0.00086571462386443132 -0.12439340053066139 0 -0.0098579435369029605 -0.11292630901320372 0 -0.011756736542486606 -0.11657031928321586 0 -0.0121027419211469 -0.11363062540709946 0 -0.011756736542486606 -0.11657031928321586 0 -0.014406770444635095 -0.11360425818779404 0 -0.0121027419211469 -0.11363062540709946 0 -0.0037949277676325994 -0.11852093017220597 0 -0.0012527445875264327 -0.11463241112891243 0 0.0029067952751993193 -0.12712264443424737 0 0.0047680741770177509 -0.1271065180649501 0 0.003145155343136064 -0.1284467990384825 0 0.0029067952751993193 -0.12712264443424737 0 0.0018039810079337369 -0.12795275688133836 0 0.003145155343136064 -0.1284467990384825 0 0.00020104985633362363 -0.12773361778677605 0 0.0013202034548465576 -0.12607676028589423 0 0.0018039810079337369 -0.12795275688133836 0 0.0029067952751993193 -0.12712264443424737 0 0.0013202034548465576 -0.12607676028589423 0 0.0018039810079337369 -0.12795275688133836 0 0.0013202034548465576 -0.12607676028589423 0 0.0027012327806507606 -0.12577762312251445 0 0.0024864371972967382 -0.12444502074253394 0 0.0029067952751993193 -0.12712264443424737 0 0.0013202034548465576 -0.12607676028589423 0 0.0027012327806507606 -0.12577762312251445 0 0.0029067952751993193 -0.12712264443424737 0 0.0027012327806507606 -0.12577762312251445 0 0.0040009945233804786 -0.12596753506349262 0 0.0027012327806507606 -0.12577762312251445 0 0.0039249967461125555 -0.12470630878349345 0 0.0040009945233804786 -0.12596753506349262 0 0.0027012327806507606 -0.12577762312251445 0 0.0024864371972967382 -0.12444502074253394 0 0.0039249967461125555 -0.12470630878349345 0 0.0024864371972967382 -0.12444502074253394 0 0.0035955066166536926 -0.12369054924577506 0 0.0027635166736093906 -0.12326445541054927 0 0.0024864371972967382 -0.12444502074253394 0 0.0018283389085601727 -0.12342122102968502 0 0.0027635166736093906 -0.12326445541054927 0 0.0024864371972967382 -0.12444502074253394 0 0.0035955066166536926 -0.12369054924577506 0 0.0039249967461125555 -0.12470630878349345 0 0.0024864371972967382 -0.12444502074253394 0 0.00086571462386443132 -0.12439340053066139 0 0.0018283389085601727 -0.12342122102968502 0 0.0013202034548465576 -0.12607676028589423 0 0.0024864371972967382 -0.12444502074253394 0 0.00086571462386443132 -0.12439340053066139 0 0.0022162680795042118 -0.12222530861516108 0 0.00070945434919016863 -0.12284308485892792 0 0.0018283389085601727 -0.12342122102968502 0 0.00070945434919016863 -0.12284308485892792 0 0.00086571462386443132 -0.12439340053066139 0 0.0018283389085601727 -0.12342122102968502 0 0.0022162680795042118 -0.12222530861516108 0 0.0018283389085601727 -0.12342122102968502 0 0.0027635166736093906 -0.12326445541054927 0 0.0035955066166536926 -0.12369054924577506 0 0.0027635166736093906 -0.12326445541054927 0 0.0034827311915341689 -0.12251366925293861 0 0.0022162680795042118 -0.12222530861516108 0 0.0027635166736093906 -0.12326445541054927 0 0.0034827311915341689 -0.12251366925293861 0 0.0043526119138916994 -0.12192859671615026 0 0.0034827311915341689 -0.12251366925293861 0 0.0044797622000576545 -0.12285632613590214 0 0.0035955066166536926 -0.12369054924577506 0 0.0034827311915341689 -0.12251366925293861 0 0.0044797622000576545 -0.12285632613590214 0 0.0035955066166536926 -0.12369054924577506 0 0.0044797622000576545 -0.12285632613590214 0 0.0046751351004084866 -0.12374327694517533 0 0.0044797622000576545 -0.12285632613590214 0 0.005712038295998186 -0.12312763808000522 0 0.0046751351004084866 -0.12374327694517533 0 0.0044797622000576545 -0.12285632613590214 0 0.0050041248249580988 -0.12234809403711705 0 0.005712038295998186 -0.12312763808000522 0 0.0043526119138916994 -0.12192859671615026 0 0.0044797622000576545 -0.12285632613590214 0 0.0050041248249580988 -0.12234809403711705 0 0.0054704813155786094 -0.12148142612034267 0 0.0050041248249580988 -0.12234809403711705 0 0.005712038295998186 -0.12312763808000522 0 0.005712038295998186 -0.12312763808000522 0 0.0069208697896885035 -0.12244470950142874 0 0.0068054415391034856 -0.12516287829694336 0 0.0054704813155786094 -0.12148142612034267 0 0.005712038295998186 -0.12312763808000522 0 0.0067133512112802383 -0.12229054183858758 0 0.005712038295998186 -0.12312763808000522 0 0.0067133512112802383 -0.12229054183858758 0 0.0069208697896885035 -0.12244470950142874 0 0.005712038295998186 -0.12312763808000522 0 0.005124145200426364 -0.12495945540873063 0 0.0068054415391034856 -0.12516287829694336 0 0.005712038295998186 -0.12312763808000522 0 0.005124145200426364 -0.12495945540873063 0 0.0046751351004084866 -0.12374327694517533 0 0.005124145200426364 -0.12495945540873063 0 0.0039249967461125555 -0.12470630878349345 0 0.0046751351004084866 -0.12374327694517533 0 0.0035955066166536926 -0.12369054924577506 0 0.0039249967461125555 -0.12470630878349345 0 0.0046751351004084866 -0.12374327694517533 0 0.044551748692954883 -0.10249004557859612 0 0.043987440024220309 -0.10223804483971288 0 0.044072580901576217 -0.10258068299896998 0 0.044276089728943001 -0.1028939627110627 0 0.044551748692954883 -0.10249004557859612 0 0.044072580901576217 -0.10258068299896998 0 0.046048175348228859 -0.10348550747410439 0 0.047366594248438434 -0.10436519265455556 0 0.047497785471895621 -0.10134892025521748 0 0.029909747046127033 -0.11157591748301042 0 0.029726524325785403 -0.11091274125131956 0 0.030136253797271778 -0.11118126275242969 0 0.031513727285933067 -0.11013052409194005 0 0.033479544598764968 -0.11134724910698798 0 0.033479544598764968 -0.11134724910698798 0 0.025051363752694244 -0.11372575699695969 0 0.022113129480175357 -0.11411936701638414 0 0.025051363752694244 -0.11372575699695969 0 0.046048175348228859 -0.10348550747410439 0 0.04684556861650243 -0.10144150572152168 0 0.047497785471895621 -0.10134892025521748 0 0.046048175348228859 -0.10348550747410439 0 0.045808864228394343 -0.10212908765416498 0 0.04684556861650243 -0.10144150572152168 0 0.025051363752694244 -0.11372575699695969 0 0.02637650346055451 -0.11307948916858565 0 0.045808864228394343 -0.10212908765416498 0 0.045300716522236585 -0.10123305401567539 0 0.04684556861650243 -0.10144150572152168 0 0.045901239792177334 -0.10336845382280162 0 0.044970023856133343 -0.10246362781808113 0 0.043907417914960091 -0.1019391962314407 0 0.044551748692954883 -0.10249004557859612 0 0.043987440024220309 -0.10223804483971288 0 0.043907417914960091 -0.1019391962314407 0 0.033479544598764968 -0.11134724910698798 0 0.037984113613305504 -0.10982346375003264 0 0.046048175348228859 -0.10348550747410439 0 0.045808864228394343 -0.10212908765416498 0 0.044970023856133343 -0.10246362781808113 0 0.033479544598764968 -0.11134724910698798 0 0.035025176709288598 -0.11103590777791258 0 0.045808864228394343 -0.10212908765416498 0 0.044970023856133343 -0.10246362781808113 0 0.045300716522236585 -0.10123305401567539 0 0.044970023856133343 -0.10246362781808113 0 0.045300716522236585 -0.10123305401567539 0 0.044366094546229022 -0.10159357029481159 0 0.045659378830636643 -0.10032195091284639 0 0.045643140974764136 -0.099273399245753832 0 0.044346794338338116 -0.10083469556453466 0 0.045642797859004852 -0.10109246230980613 0 0.046365518980729298 -0.10058278469765274 0 0.04684556861650243 -0.10144150572152168 0 0.045659378830636643 -0.10032195091284639 0 0.045642797859004852 -0.10109246230980613 0 0.044346794338338116 -0.10083469556453466 0 0.049448100469941303 -0.095913271414152346 0 0.04874252648198385 -0.096355652409890469 0 0.045659378830636643 -0.10032195091284639 0 0.046365518980729298 -0.10058278469765274 0 0.046251203281582796 -0.099828879553240421 0 0.045659378830636643 -0.10032195091284639 0 0.045642797859004852 -0.10109246230980613 0 0.046365518980729298 -0.10058278469765274 0 0.046365518980729298 -0.10058278469765274 0 0.047007918587396037 -0.1000411052853198 0 0.046251203281582796 -0.099828879553240421 0 0.046365518980729298 -0.10058278469765274 0 0.046924088799758075 -0.10084756841602714 0 0.047007918587396037 -0.1000411052853198 0 0.046365518980729298 -0.10058278469765274 0 0.04684556861650243 -0.10144150572152168 0 0.046924088799758075 -0.10084756841602714 0 0.04684556861650243 -0.10144150572152168 0 0.046924088799758075 -0.10084756841602714 0 0.047497785471895621 -0.10134892025521748 0 0.046924088799758075 -0.10084756841602714 0 0.047497785471895621 -0.10134892025521748 0 0.047007918587396037 -0.1000411052853198 0 0.02637650346055451 -0.11307948916858565 0 0.027104099732737461 -0.11139114031355139 0 0.047497785471895621 -0.10134892025521748 0 0.047007918587396037 -0.1000411052853198 0 0.047494951784899431 -0.098799559205035872 0 0.047007918587396037 -0.1000411052853198 0 0.046620794170403185 -0.099187359578359904 0 0.047494951784899431 -0.098799559205035872 0 0.047007918587396037 -0.1000411052853198 0 0.046620794170403185 -0.099187359578359904 0 0.046251203281582796 -0.099828879553240421 0 0.045659378830636643 -0.10032195091284639 0 0.046251203281582796 -0.099828879553240421 0 0.045643140974764136 -0.099273399245753832 0 0.046620794170403185 -0.099187359578359904 0 0.046251203281582796 -0.099828879553240421 0 0.045643140974764136 -0.099273399245753832 0 0.046620794170403185 -0.099187359578359904 0 0.045643140974764136 -0.099273399245753832 0 0.046502969835585752 -0.098249947771625004 0 0.005124145200426364 -0.12495945540873063 0 0.0040009945233804786 -0.12596753506349262 0 0.0047680741770177509 -0.1271065180649501 0 0.005124145200426364 -0.12495945540873063 0 0.0039249967461125555 -0.12470630878349345 0 0.0040009945233804786 -0.12596753506349262 0 0.005124145200426364 -0.12495945540873063 0 0.0068054415391034856 -0.12516287829694336 0 0.0047680741770177509 -0.1271065180649501 0 0.0068054415391034856 -0.12516287829694336 0 0.0047680741770177509 -0.1271065180649501 0 0.0067041837762140009 -0.12781738161148859 0 0.0029067952751993193 -0.12712264443424737 0 0.0040009945233804786 -0.12596753506349262 0 0.0047680741770177509 -0.1271065180649501 0 0.0047680741770177509 -0.1271065180649501 0 0.0042402096850156605 -0.12999011506610894 0 0.0067041837762140009 -0.12781738161148859 0 0.0047680741770177509 -0.1271065180649501 0 0.0042402096850156605 -0.12999011506610894 0 0.003145155343136064 -0.1284467990384825 0 0.0066449538144281849 -0.130429636204383 0 0.0042402096850156605 -0.12999011506610894 0 0.0067041837762140009 -0.12781738161148859 0 0.028115527048646394 -0.098926147308582693 0 0.013723305288793747 -0.10400635925971606 0 0.018691037318339824 -0.093498137200113032 0 0.018395578338182002 -0.093377368547328116 0 0.018538455855257461 -0.093511913867272617 0 0.046502969835585752 -0.098249947771625004 0 0.045615914357594552 -0.0972558622652894 0 0.044568082066498101 -0.098008710716515374 0 0.045643140974764136 -0.099273399245753832 0 0.046502969835585752 -0.098249947771625004 0 0.044424444881653306 -0.098137451062935685 0 0.049580259475727063 -0.092812479434752487 0 0.057325221782795928 -0.091326989601059075 0 0.046502969835585752 -0.098249947771625004 0 0.047494951784899431 -0.098799559205035872 0 0.046588269298032323 -0.097217484995601261 0 0.028115527048646394 -0.098926147308582693 0 0.027104099732737461 -0.11139114031355139 0 0.046620794170403185 -0.099187359578359904 0 0.046502969835585752 -0.098249947771625004 0 0.047494951784899431 -0.098799559205035872 0 0.047502728724267959 -0.096572926765235739 0 0.047494951784899431 -0.098799559205035872 0 0.046588269298032323 -0.097217484995601261 0 0.047502728724267959 -0.096572926765235739 0 0.046588269298032323 -0.097217484995601261 0 0.046023204260804723 -0.096255653172391611 0 0.046502969835585752 -0.098249947771625004 0 0.046588269298032323 -0.097217484995601261 0 0.045615914357594552 -0.0972558622652894 0 0.046588269298032323 -0.097217484995601261 0 0.045615914357594552 -0.0972558622652894 0 0.046023204260804723 -0.096255653172391611 0 0.045547570883228812 -0.083130918444078605 0 0.045161280032504372 -0.081002012503337342 0 0.043218796117069178 -0.082603194595351037 0 0.045615914357594552 -0.0972558622652894 0 0.046023204260804723 -0.096255653172391611 0 0.044591194845605073 -0.095924969861455101 0 0.047879440075340417 -0.083665844416936863 0 0.045547570883228812 -0.083130918444078605 0 0.047995388260564015 -0.080735963829257434 0 0.028115527048646394 -0.098926147308582693 0 0.044928499333682419 -0.090583263510049902 0 0.045161280032504372 -0.081002012503337342 0 0.047995388260564015 -0.080735963829257434 0 0.045491110792889859 -0.078644065858573114 0 0.045547570883228812 -0.083130918444078605 0 0.045161280032504372 -0.081002012503337342 0 0.047995388260564015 -0.080735963829257434 0 0.018395578338182002 -0.093377368547328116 0 0.018437346069796107 -0.093613696635740956 0 0.018058705252401743 -0.093605207751756972 0 0.018424617736237141 -0.093752930306977705 0 0.018437346069796107 -0.093613696635740956 0 0.018058705252401743 -0.093605207751756972 0 0.018424617736237141 -0.093752930306977705 0 0.018341777236225952 -0.093900104252092512 0 0.018058705252401743 -0.093605207751756972 0 0.018601256701111249 -0.093498138664616051 0 0.018632853978961066 -0.093490635475871789 0 0.018632516175143988 -0.093466412089512299 0 0.018601256701111249 -0.093498138664616051 0 0.018632853978961066 -0.093490635475871789 0 0.018538455855257461 -0.093511913867272617 0 0.0149493300667283 -0.091117307146340434 0 0.014997989882647559 -0.091259385358791439 0 0.018395578338182002 -0.093377368547328116 0 0.018538455855257461 -0.093511913867272617 0 0.018437346069796107 -0.093613696635740956 0 0.0149493300667283 -0.091117307146340434 0 0.015093830298217297 -0.091284012009298338 0 0.018436904766802261 -0.09376201230598416 0 0.018538455855257461 -0.093511913867272617 0 0.018437346069796107 -0.093613696635740956 0 0.028115527048646394 -0.098926147308582693 0 0.030813385534749854 -0.087783303687597597 0 0.018691037318339824 -0.093498137200113032 0 0.018616288898409512 -0.093500400326005373 0 0.018600005551254691 -0.093453110487906929 0 0.018691037318339824 -0.093498137200113032 0 0.018538455855257461 -0.093511913867272617 0 0.018616288898409512 -0.093500400326005373 0 0.018601256701111249 -0.093498138664616051 0 0.018616288898409512 -0.093500400326005373 0 0.018632516175143988 -0.093466412089512299 0 0.018601256701111249 -0.093498138664616051 0 0.018538455855257461 -0.093511913867272617 0 0.018616288898409512 -0.093500400326005373 0 0.018632516175143988 -0.093466412089512299 0 0.018600005551254691 -0.093453110487906929 0 0.018667939947840502 -0.093355463670452735 0 0.018616288898409512 -0.093500400326005373 0 0.018632516175143988 -0.093466412089512299 0 0.018600005551254691 -0.093453110487906929 0 0.010167265572109232 -0.088354144846499547 0 0.0096580440396560659 -0.087724508015000133 0 0.011764463107204989 -0.08523913103835748 0 0.018632516175143988 -0.093466412089512299 0 0.018668277754847151 -0.093444367526050606 0 0.018667939947840502 -0.093355463670452735 0 0.01611858886324407 -0.089406118490784017 0 0.023699160128205644 -0.084666049741105767 0 0.018632853978961066 -0.093490635475871789 0 0.018632516175143988 -0.093466412089512299 0 0.018668277754847151 -0.093444367526050606 0 0.017142162645489949 -0.091987913228356422 0 0.017700907165451987 -0.090918248037802948 0 0.017199600216812154 -0.090298397400520147 0 0.0149493300667283 -0.091117307146340434 0 0.01611858886324407 -0.089406118490784017 0 0.0149493300667283 -0.091117307146340434 0 0.013355565369935396 -0.091695861589982594 0 0.013355565369935396 -0.091695861589982594 0 0.01611858886324407 -0.089406118490784017 0 -0.022270378907131978 -0.10433086380706083 0 -0.019054935780549644 -0.10407379173875675 0 -0.02034579428252967 -0.10055577090846181 0 0.013355565369935396 -0.091695861589982594 0 0.0038029502753999596 -0.09323958892101826 0 -0.022270378907131978 -0.10433086380706083 0 -0.019054935780549644 -0.10407379173875675 0 -0.019914181565108938 -0.10728508294192231 0 0.013355565369935396 -0.091695861589982594 0 0.0061098596418179925 -0.097526929489612141 0 -0.019054935780549644 -0.10407379173875675 0 -0.019914181565108938 -0.10728508294192231 0 -0.016315757706132177 -0.1059470057716706 0 -0.019914181565108938 -0.10728508294192231 0 -0.016315757706132177 -0.1059470057716706 0 -0.016250569219543921 -0.10851492077353631 0 -0.019054935780549644 -0.10407379173875675 0 -0.016315757706132177 -0.1059470057716706 0 -0.016417163575533834 -0.10224202026423954 0 -0.019054935780549644 -0.10407379173875675 0 -0.016417163575533834 -0.10224202026423954 0 -0.02034579428252967 -0.10055577090846181 0 -0.016417163575533834 -0.10224202026423954 0 -0.013865887215349556 -0.10460996009390508 0 -0.012460712904604153 -0.10151304060065944 0 -0.016315757706132177 -0.1059470057716706 0 -0.016417163575533834 -0.10224202026423954 0 -0.013865887215349556 -0.10460996009390508 0 -0.0096952210649294303 -0.1027727650629686 0 -0.011025087647270063 -0.10551362186638848 0 -0.012460712904604153 -0.10151304060065944 0 -0.013865887215349556 -0.10460996009390508 0 -0.011025087647270063 -0.10551362186638848 0 -0.012460712904604153 -0.10151304060065944 0 -0.013865887215349556 -0.10460996009390508 0 -0.011025087647270063 -0.10551362186638848 0 -0.013634187067923813 -0.10822968115470689 0 -0.010344750220443708 -0.10973915388022927 0 -0.011025087647270063 -0.10551362186638848 0 -0.013634187067923813 -0.10822968115470689 0 -0.016315757706132177 -0.1059470057716706 0 -0.013865887215349556 -0.10460996009390508 0 -0.013634187067923813 -0.10822968115470689 0 -0.016315757706132177 -0.1059470057716706 0 -0.013634187067923813 -0.10822968115470689 0 -0.016250569219543921 -0.10851492077353631 0 -0.013634187067923813 -0.10822968115470689 0 -0.015696175039138196 -0.1105858829782609 0 -0.016250569219543921 -0.10851492077353631 0 -0.013634187067923813 -0.10822968115470689 0 -0.015696175039138196 -0.1105858829782609 0 -0.012585868251342463 -0.11151452321130643 0 -0.010344750220443708 -0.10973915388022927 0 -0.013634187067923813 -0.10822968115470689 0 -0.012585868251342463 -0.11151452321130643 0 -0.0098579435369029605 -0.11292630901320372 0 -0.010344750220443708 -0.10973915388022927 0 -0.012585868251342463 -0.11151452321130643 0 -0.0098579435369029605 -0.11292630901320372 0 -0.0121027419211469 -0.11363062540709946 0 -0.012585868251342463 -0.11151452321130643 0 -0.014406770444635095 -0.11360425818779404 0 -0.0121027419211469 -0.11363062540709946 0 -0.012585868251342463 -0.11151452321130643 0 -0.014406770444635095 -0.11360425818779404 0 -0.015696175039138196 -0.1105858829782609 0 -0.012585868251342463 -0.11151452321130643 0 0.00020104985633362363 -0.12773361778677605 0 0.0018039810079337369 -0.12795275688133836 0 0.0018049317689452994 -0.12953181470467262 0 -0.014406770444635095 -0.11360425818779404 0 -0.015696175039138196 -0.1105858829782609 0 -0.017299358075632074 -0.11024575335025129 0 -0.0012527445875264327 -0.11463241112891243 0 0.0033295238631148652 -0.10468271236302015 0 0.0018039810079337369 -0.12795275688133836 0 0.003145155343136064 -0.1284467990384825 0 0.0018049317689452994 -0.12953181470467262 0 0.018395578338182002 -0.093377368547328116 0 0.018058705252401743 -0.093605207751756972 0 0.017699277035743373 -0.093253582961353401 0 0.013723305288793747 -0.10400635925971606 0 0.0033295238631148652 -0.10468271236302015 0 0.0061098596418179925 -0.097526929489612141 0 0.0033295238631148652 -0.10468271236302015 0 0.0042402096850156605 -0.12999011506610894 0 0.003145155343136064 -0.1284467990384825 0 0.0018049317689452994 -0.12953181470467262 0 -0.019914181565108938 -0.10728508294192231 0 -0.016250569219543921 -0.10851492077353631 0 -0.017525489613941989 -0.11021870241094382 0 -0.015696175039138196 -0.1105858829782609 0 -0.016250569219543921 -0.10851492077353631 0 -0.017525489613941989 -0.11021870241094382 0 0.00066906032120767338 -0.10450577585651494 0 0.0033295238631148652 -0.10468271236302015 0 0.072803204067505831 -0.088318584643276382 0 0.0724291607516412 -0.087973126700413962 0 0.072400271899222837 -0.088652561604535218 0 0.072803204067505831 -0.088318584643276382 0 0.073165245466920867 -0.088525228997969885 0 0.072400271899222837 -0.088652561604535218 0 0.072803204067505831 -0.088318584643276382 0 0.0724291607516412 -0.087973126700413962 0 0.07316339663857073 -0.08813477591305445 0 0.071962689228372498 -0.088202570194948676 0 0.0724291607516412 -0.087973126700413962 0 0.071615733870499812 -0.087812070914062124 0 0.071962689228372498 -0.088202570194948676 0 0.072400271899222837 -0.088652561604535218 0 0.071401769831506645 -0.088370093830110824 0 0.071962689228372498 -0.088202570194948676 0 0.0724291607516412 -0.087973126700413962 0 0.072400271899222837 -0.088652561604535218 0 0.070331122982644254 -0.087558192950845881 0 0.07121216003740001 -0.088358530481417688 0 0.069387365564444026 -0.088299772817063041 0 0.071293585288190617 -0.088841044220093007 0 0.069692691663708423 -0.089201533503016184 0 0.070331122982644254 -0.087558192950845881 0 0.071493679632998269 -0.087519506689656135 0 0.07121216003740001 -0.088358530481417688 0 0.071293585288190617 -0.088841044220093007 0 0.071968098951528697 -0.088744071577616421 0 0.072373333725909955 -0.087761329731750673 0 0.073165249658794757 -0.087195299606802071 0 0.071806262765159806 -0.086692441449173596 0 0.07121216003740001 -0.088358530481417688 0 0.072373333725909955 -0.087761329731750673 0 0.07316339663857073 -0.08813477591305445 0 0.071493679632998269 -0.087519506689656135 0 0.07121216003740001 -0.088358530481417688 0 0.072373333725909955 -0.087761329731750673 0 0.071493679632998269 -0.087519506689656135 0 0.072373333725909955 -0.087761329731750673 0 0.071584294522806624 -0.086741429754118443 0 0.070874579109973052 -0.089173757091679282 0 0.070893715019830314 -0.089720691395855451 0 0.073165249658794757 -0.087195299606802071 0 0.07417361948395923 -0.087598336401886079 0 0.07316339663857073 -0.08813477591305445 0 0.072373333725909955 -0.087761329731750673 0 0.073165249658794757 -0.087195299606802071 0 0.07316339663857073 -0.08813477591305445 0 0.073485382580431732 -0.089025451116627199 0 0.079990040113171942 -0.087391423435135063 0 0.07417361948395923 -0.087598336401886079 0 0.07395220184981402 -0.088411134248106107 0 0.07316339663857073 -0.08813477591305445 0 0.07395220184981402 -0.088411134248106107 0 0.07316339663857073 -0.08813477591305445 0 0.073165245466920867 -0.088525228997969885 0 0.07395220184981402 -0.088411134248106107 0 0.073165245466920867 -0.088525228997969885 0 0.073451023290535253 -0.08898766195619634 0 0.072803204067505831 -0.088318584643276382 0 0.07316339663857073 -0.08813477591305445 0 0.073165245466920867 -0.088525228997969885 0 0.073165245466920867 -0.088525228997969885 0 0.073451023290535253 -0.08898766195619634 0 0.072400271899222837 -0.088652561604535218 0 0.098630044728369198 -0.052262825074105512 0 0.098925558383719081 -0.052680765725209112 0 0.099320680704475195 -0.052451343760200213 0 0.07395220184981402 -0.088411134248106107 0 0.073451023290535253 -0.08898766195619634 0 0.074790382862020652 -0.08923814420559785 0 0.087335018854232463 -0.069382541124215741 0 0.094628379263168652 -0.068015099076563848 0 0.098630044728369198 -0.052262825074105512 0 0.098925558383719081 -0.052680765725209112 0 0.098595045028796555 -0.052900037335728248 0 0.098630044728369198 -0.052262825074105512 0 0.098088235377741251 -0.052631380755810218 0 0.098595045028796555 -0.052900037335728248 0 0.087335018854232463 -0.069382541124215741 0 0.085024037020969723 -0.070564023674587847 0 0.098630044728369198 -0.052262825074105512 0 0.098088235377741251 -0.052631380755810218 0 0.097913123534042495 -0.051997978867615285 0 0.097913123534042495 -0.051997978867615285 0 0.097406320548250824 -0.052559367513876638 0 0.096821498988161517 -0.052213246397255234 0 0.098088235377741251 -0.052631380755810218 0 0.097913123534042495 -0.051997978867615285 0 0.097406320548250824 -0.052559367513876638 0 0.085024037020969723 -0.070564023674587847 0 0.082824206999790997 -0.071973924156093022 0 0.098088235377741251 -0.052631380755810218 0 0.097406320548250824 -0.052559367513876638 0 0.097616051029771791 -0.052947785636009825 0 0.097406320548250824 -0.052559367513876638 0 0.097112502333997403 -0.052827392202567484 0 0.097616051029771791 -0.052947785636009825 0 0.097012147378636171 -0.052580746500029946 0 0.096808889611279939 -0.052682352297244037 0 0.096821498988161517 -0.052213246397255234 0 0.097406320548250824 -0.052559367513876638 0 0.097112502333997403 -0.052827392202567484 0 0.097012147378636171 -0.052580746500029946 0 0.097112502333997403 -0.052827392202567484 0 0.097012147378636171 -0.052580746500029946 0 0.096808889611279939 -0.052682352297244037 0 0.096808889611279939 -0.052682352297244037 0 0.096461345038192689 -0.052709709237939995 0 0.096821498988161517 -0.052213246397255234 0 0.097406320548250824 -0.052559367513876638 0 0.097012147378636171 -0.052580746500029946 0 0.096821498988161517 -0.052213246397255234 0 0.094015230796517496 -0.055471907089190892 0 0.095053152274445094 -0.052618398628596526 0 0.093880968008530713 -0.053156090870304935 0 0.094015230796517496 -0.055471907089190892 0 0.093880968008530713 -0.053156090870304935 0 0.092964046101748937 -0.054026760542897415 0 0.090823847964964843 -0.052944522629126953 0 0.093654294966772134 -0.051723810983049338 0 0.095053152274445094 -0.052618398628596526 0 0.093074634278245097 -0.051753422261174971 0 0.096151636595669498 -0.051260456750799439 0 0.094015230796517496 -0.055471907089190892 0 0.095053152274445094 -0.052618398628596526 0 0.096821498988161517 -0.052213246397255234 0 0.095053152274445094 -0.052618398628596526 0 0.093880968008530713 -0.053156090870304935 0 0.093074634278245097 -0.051753422261174971 0 0.095053152274445094 -0.052618398628596526 0 0.096821498988161517 -0.052213246397255234 0 0.096151636595669498 -0.051260456750799439 0 0.097913123534042495 -0.051997978867615285 0 0.096821498988161517 -0.052213246397255234 0 0.096151636595669498 -0.051260456750799439 0 0.045161280032504372 -0.081002012503337342 0 0.043227593927922192 -0.080105606315671055 0 0.043218796117069178 -0.082603194595351037 0 0.063468653421005078 -0.074434612682880347 0 0.06036548684958188 -0.082373633600786852 0 0.06878652037335975 -0.071288222102420654 0 0.065465033637105693 -0.071677034823752067 0 0.068719298607543722 -0.082785481607550546 0 0.092047566822834048 -0.053665259836705954 0 0.091107572890092636 -0.055653511966599581 0 0.091636662649970904 -0.052823838729124134 0 0.074870369968740677 -0.066571108850308799 0 0.071147651600674724 -0.077663891679572605 0 0.094015230796517496 -0.055471907089190892 0 0.091107572890092636 -0.055653511966599581 0 0.092964046101748937 -0.054026760542897415 0 0.092047566822834048 -0.053665259836705954 0 0.091107572890092636 -0.055653511966599581 0 0.092964046101748937 -0.054026760542897415 0 0.093074634278245097 -0.051753422261174971 0 0.091636662649970904 -0.052823838729124134 0 0.092025242207638164 -0.050375244141430332 0 0.065465033637105693 -0.071677034823752067 0 0.063996249084558698 -0.081761714406053038 0 0.068719298607543722 -0.082785481607550546 0 0.071147651600674724 -0.077663891679572605 0 0.078841520413278104 -0.074767127836120897 0 0.070330049171476491 -0.088012316932739365 0 0.070220258179835932 -0.08800506605839685 0 0.070301989938479983 -0.087803464248555618 0 0.093880968008530713 -0.053156090870304935 0 0.092811087532439357 -0.052998908790950178 0 0.093074634278245097 -0.051753422261174971 0 0.092047566822834048 -0.053665259836705954 0 0.092811087532439357 -0.052998908790950178 0 0.091636662649970904 -0.052823838729124134 0 0.093880968008530713 -0.053156090870304935 0 0.092964046101748937 -0.054026760542897415 0 0.092811087532439357 -0.052998908790950178 0 0.092047566822834048 -0.053665259836705954 0 0.092964046101748937 -0.054026760542897415 0 0.092811087532439357 -0.052998908790950178 0 0.092811087532439357 -0.052998908790950178 0 0.093074634278245097 -0.051753422261174971 0 0.091636662649970904 -0.052823838729124134 0 0.044928499333682419 -0.090583263510049902 0 0.06036548684958188 -0.082373633600786852 0 0.071147651600674724 -0.077663891679572605 0 0.06036548684958188 -0.082373633600786852 0 0.06036548684958188 -0.082373633600786852 0 0.057325221782795928 -0.091326989601059075 0 0.045615914357594552 -0.0972558622652894 0 0.044591194845605073 -0.095924969861455101 0 0.044568082066498101 -0.098008710716515374 0 0.070220258179835932 -0.08800506605839685 0 0.070301989938479983 -0.087803464248555618 0 0.070158803197013064 -0.087604265114927166 0 0.070330049171476491 -0.088012316932739365 0 0.070301989938479983 -0.087803464248555618 0 0.070365729544976677 -0.087808468421976649 0 0.078841520413278104 -0.074767127836120897 0 0.078121097207153753 -0.077367731683836274 0 0.070301989938479983 -0.087803464248555618 0 0.070403424604628742 -0.087821577994982192 0 0.070489983021210775 -0.08768485090763134 0 0.078544698384823558 -0.074880815740577117 0 0.078841520413278104 -0.074767127836120897 0 0.070404490598553998 -0.088090371875830548 0 0.070489983021210775 -0.08768485090763134 0 0.070838299775098451 -0.087947635636552904 0 0.057325221782795928 -0.091326989601059075 0 0.066481683760334823 -0.089984545369910782 0 0.070489983021210775 -0.08768485090763134 0 0.070158803197013064 -0.087604265114927166 0 0.070762871442142938 -0.08767019060960056 0 0.065739936890326756 -0.088121291240418703 0 0.067591022757853891 -0.088235496364047594 0 0.066700749672493009 -0.087366951965995948 0 0.070489983021210775 -0.08768485090763134 0 0.070838299775098451 -0.087947635636552904 0 0.070762871442142938 -0.08767019060960056 0 0.067591022757853891 -0.088235496364047594 0 0.067610556690267276 -0.087119513283572036 0 0.066700749672493009 -0.087366951965995948 0 0.070301989938479983 -0.087803464248555618 0 0.070489983021210775 -0.08768485090763134 0 0.070158803197013064 -0.087604265114927166 0 0.065739936890326756 -0.088121291240418703 0 0.065751342302470567 -0.086789420647540153 0 0.066700749672493009 -0.087366951965995948 0 0.057325221782795928 -0.091326989601059075 0 0.055958821409891855 -0.092839215742356124 0 0.071962689228372498 -0.088202570194948676 0 0.071401769831506645 -0.088370093830110824 0 0.071615733870499812 -0.087812070914062124 0 0.071401769831506645 -0.088370093830110824 0 0.071181491797043306 -0.087942914489326049 0 0.071615733870499812 -0.087812070914062124 0 0.093074634278245097 -0.051753422261174971 0 0.092025242207638164 -0.050375244141430332 0 0.096151636595669498 -0.051260456750799439 0 0.078841520413278104 -0.074767127836120897 0 0.082824206999790997 -0.071973924156093022 0 0.070404490598553998 -0.088090371875830548 0 0.071401769831506645 -0.088370093830110824 0 0.070838299775098451 -0.087947635636552904 0 0.070838299775098451 -0.087947635636552904 0 0.071181491797043306 -0.087942914489326049 0 0.070762871442142938 -0.08767019060960056 0 0.071401769831506645 -0.088370093830110824 0 0.070838299775098451 -0.087947635636552904 0 0.071181491797043306 -0.087942914489326049 0 0.066481683760334823 -0.089984545369910782 0 0.069692691663708423 -0.089201533503016184 0 0.067591022757853891 -0.088235496364047594 0 0.068327025429725546 -0.087693987638650259 0 0.069387365564444026 -0.088299772817063041 0 0.071181491797043306 -0.087942914489326049 0 0.070762871442142938 -0.08767019060960056 0 0.071615733870499812 -0.087812070914062124 0 0.067591022757853891 -0.088235496364047594 0 0.068327025429725546 -0.087693987638650259 0 0.067610556690267276 -0.087119513283572036 0 0.069387365564444026 -0.088299772817063041 0 0.069652190626551189 -0.087121756385409518 0 0.068699291740645915 -0.087103887151576867 0 0.068327025429725546 -0.087693987638650259 0 0.069387365564444026 -0.088299772817063041 0 0.068699291740645915 -0.087103887151576867 0 0.070331122982644254 -0.087558192950845881 0 0.069387365564444026 -0.088299772817063041 0 0.069652190626551189 -0.087121756385409518 0 0.069637583883139606 -0.086255454891815908 0 0.068699291740645915 -0.087103887151576867 0 0.067702213781784093 -0.085829776570259905 0 0.069652190626551189 -0.087121756385409518 0 0.069637583883139606 -0.086255454891815908 0 0.068699291740645915 -0.087103887151576867 0 0.068699291740645915 -0.087103887151576867 0 0.067610556690267276 -0.087119513283572036 0 0.067702213781784093 -0.085829776570259905 0 0.068327025429725546 -0.087693987638650259 0 0.068699291740645915 -0.087103887151576867 0 0.067610556690267276 -0.087119513283572036 0 0.069637583883139606 -0.086255454891815908 0 0.069188688656617314 -0.085263502962584947 0 0.070460769012371527 -0.085458169559992081 0 0.069637583883139606 -0.086255454891815908 0 0.068241167581302442 -0.086058405709854874 0 0.069188688656617314 -0.085263502962584947 0 0.06670619541014243 -0.090601627240285143 0 0.064428804690355487 -0.091451248418839864 0 0.045643140974764136 -0.099273399245753832 0 0.044424444881653306 -0.098137451062935685 0 0.044448322815324355 -0.099338170596241657 0 0.065751342302470567 -0.086789420647540153 0 0.066703081612401197 -0.086514991441786787 0 0.065747584325358946 -0.085464571177793977 0 0.045643140974764136 -0.099273399245753832 0 0.044448322815324355 -0.099338170596241657 0 0.044632502458236065 -0.10048742169527676 0 0.049428507560464449 -0.098280712018136498 0 0.053044480726556348 -0.094751201670800062 0 0.067610556690267276 -0.087119513283572036 0 0.067702213781784093 -0.085829776570259905 0 0.066703081612401197 -0.086514991441786787 0 0.065751342302470567 -0.086789420647540153 0 0.066703081612401197 -0.086514991441786787 0 0.066700749672493009 -0.087366951965995948 0 0.067610556690267276 -0.087119513283572036 0 0.066703081612401197 -0.086514991441786787 0 0.066700749672493009 -0.087366951965995948 0 0.068241167581302442 -0.086058405709854874 0 0.066837604985070256 -0.08561944090265218 0 0.066834627250125664 -0.085823945473311625 0 0.067702213781784093 -0.085829776570259905 0 0.066703081612401197 -0.086514991441786787 0 0.065747584325358946 -0.085464571177793977 0 0.064428804690355487 -0.091451248418839864 0 0.054794538790289671 -0.094129102140609336 0 0.055958821409891855 -0.092839215742356124 0 0.054794538790289671 -0.094129102140609336 0 0.044448322815324355 -0.099338170596241657 0 0.044468134469537755 -0.10045396737451488 0 0.044632502458236065 -0.10048742169527676 0 0.045300716522236585 -0.10123305401567539 0 0.043944155776815277 -0.10103811971944887 0 0.044366094546229022 -0.10159357029481159 0 0.049448100469941303 -0.095913271414152346 0 0.053044480726556348 -0.094751201670800062 0 0.05436891715481483 -0.09726393542812152 0 0.054408132517768652 -0.08993083244344284 0 0.059517486750594026 -0.090927044984299765 0 0.054148854318267409 -0.094306067100218258 0 0.053044480726556348 -0.094751201670800062 0 0.054148854318267409 -0.094306067100218258 0 0.054794538790289671 -0.094129102140609336 0 0.054794538790289671 -0.094129102140609336 0 0.053044480726556348 -0.094751201670800062 0 0.043737036285045681 -0.10131186575683342 0 0.043944155776815277 -0.10103811971944887 0 0.044366094546229022 -0.10159357029481159 0 0.068241167581302442 -0.086058405709854874 0 0.066837604985070256 -0.08561944090265218 0 0.067949846727773933 -0.084301772698140306 0 0.044970023856133343 -0.10246362781808113 0 0.044366094546229022 -0.10159357029481159 0 0.043907417914960091 -0.1019391962314407 0 0.054148854318267409 -0.094306067100218258 0 0.05384693201252673 -0.095126725306500834 0 0.043987440024220309 -0.10223804483971288 0 0.043907417914960091 -0.1019391962314407 0 0.043812588790307215 -0.10199823926617269 0 0.043737036285045681 -0.10131186575683342 0 0.043907417914960091 -0.1019391962314407 0 0.043812588790307215 -0.10199823926617269 0 0.043737036285045681 -0.10131186575683342 0 0.044366094546229022 -0.10159357029481159 0 0.043907417914960091 -0.1019391962314407 0 0.043987440024220309 -0.10223804483971288 0 0.043812588790307215 -0.10199823926617269 0 0.043774868747076708 -0.10245344229499805 0 0.043812588790307215 -0.10199823926617269 0 0.043326032555438772 -0.10245043471677162 0 0.043774868747076708 -0.10245344229499805 0 0.054148854318267409 -0.094306067100218258 0 0.057184511898322028 -0.095224782933081509 0 0.043812272267015631 -0.10174281310809281 0 0.043812588790307215 -0.10199823926617269 0 0.043326032555438772 -0.10245043471677162 0 0.043326032555438772 -0.10245043471677162 0 0.043774868747076708 -0.10245344229499805 0 0.043768249673007464 -0.10282542908615572 0 0.044276089728943001 -0.1028939627110627 0 0.044072580901576217 -0.10258068299896998 0 0.043768249673007464 -0.10282542908615572 0 0.043774868747076708 -0.10245344229499805 0 0.044072580901576217 -0.10258068299896998 0 0.043768249673007464 -0.10282542908615572 0 0.043987440024220309 -0.10223804483971288 0 0.043774868747076708 -0.10245344229499805 0 0.044072580901576217 -0.10258068299896998 0 0.068241167581302442 -0.086058405709854874 0 0.067949846727773933 -0.084301772698140306 0 0.069188688656617314 -0.085263502962584947 0 0.069188688656617314 -0.085263502962584947 0 0.0696844622421047 -0.08426065290542116 0 0.070460769012371527 -0.085458169559992081 0 0.067949846727773933 -0.084301772698140306 0 0.069188688656617314 -0.085263502962584947 0 0.0696844622421047 -0.08426065290542116 0 0.067949846727773933 -0.084301772698140306 0 0.0696844622421047 -0.08426065290542116 0 0.068993826090828089 -0.083070237409889669 0 0.064270908289527237 -0.10090566399930542 0 0.064502624567871425 -0.10072814227925621 0 0.064288728022370178 -0.10058088267295115 0 0.064270908289527237 -0.10090566399930542 0 0.064502624567871425 -0.10072814227925621 0 0.064645115838045109 -0.10108786169116363 0 0.064502624567871425 -0.10072814227925621 0 0.06507629549942906 -0.10108689840955902 0 0.064645115838045109 -0.10108786169116363 0 0.064834623977574848 -0.10101474195136012 0 0.06508890033072226 -0.10122862294280205 0 0.064763050742516121 -0.10073687185938611 0 0.064880536495790189 -0.10113872195163132 0 0.065050580134048852 -0.10073265777663831 0 0.064502624567871425 -0.10072814227925621 0 0.064763050742516121 -0.10073687185938611 0 0.064880536495790189 -0.10113872195163132 0 0.064832864638756926 -0.10128490523179622 0 0.064622408069247808 -0.1014724520618452 0 0.065004770346009294 -0.10150192817852698 0 0.06507629549942906 -0.10108689840955902 0 0.064832864638756926 -0.10128490523179622 0 0.064645115838045109 -0.10108786169116363 0 0.06507629549942906 -0.10108689840955902 0 0.064832864638756926 -0.10128490523179622 0 0.065004770346009294 -0.10150192817852698 0 0.064270908289527237 -0.10090566399930542 0 0.064645115838045109 -0.10108786169116363 0 0.064622408069247808 -0.1014724520618452 0 0.064325468579220002 -0.094741826789570327 0 0.067794311742487415 -0.092884555642734151 0 0.064832864638756926 -0.10128490523179622 0 0.064645115838045109 -0.10108786169116363 0 0.064622408069247808 -0.1014724520618452 0 0.069637583883139606 -0.086255454891815908 0 0.070460769012371527 -0.085458169559992081 0 0.070632718914112838 -0.086513616259272522 0 0.067794311742487415 -0.092884555642734151 0 0.070893715019830314 -0.089720691395855451 0 0.064622408069247808 -0.1014724520618452 0 0.065004770346009294 -0.10150192817852698 0 0.064954677543759387 -0.10189987838972613 0 0.065004770346009294 -0.10150192817852698 0 0.064954677543759387 -0.10189987838972613 0 0.065392777340150518 -0.10178195403733567 0 0.070893715019830314 -0.089720691395855451 0 0.070763228439690865 -0.08950410925611843 0 0.071493679632998269 -0.087519506689656135 0 0.071584294522806624 -0.086741429754118443 0 0.070632718914112838 -0.086513616259272522 0 0.070331122982644254 -0.087558192950845881 0 0.071493679632998269 -0.087519506689656135 0 0.070632718914112838 -0.086513616259272522 0 0.070460769012371527 -0.085458169559992081 0 0.071297112066819976 -0.086748561673868699 0 0.070632718914112838 -0.086513616259272522 0 0.070331122982644254 -0.087558192950845881 0 0.069652190626551189 -0.087121756385409518 0 0.070632718914112838 -0.086513616259272522 0 0.069652190626551189 -0.087121756385409518 0 0.069637583883139606 -0.086255454891815908 0 0.070632718914112838 -0.086513616259272522 0 0.079990040113171942 -0.087391423435135063 0 0.074067356845347501 -0.09383303043042511 0 0.066193334152045299 -0.10304732549922152 0 0.06555583390209542 -0.10228685739248863 0 0.066504036522192583 -0.1024045267408815 0 0.06536437815311831 -0.10200527787242793 0 0.065820188578148822 -0.10209878953876474 0 0.065392777340150518 -0.10178195403733567 0 0.073485382580431732 -0.089025451116627199 0 0.070893715019830314 -0.089720691395855451 0 0.06536437815311831 -0.10200527787242793 0 0.064954677543759387 -0.10189987838972613 0 0.065392777340150518 -0.10178195403733567 0 0.072175526285209707 -0.095427648213933569 0 0.074067356845347501 -0.09383303043042511 0 0.065004770346009294 -0.10150192817852698 0 0.06555583390209542 -0.10228685739248863 0 0.065772866336608865 -0.10166243384464674 0 0.065582265387288563 -0.10164644923715305 0 0.065938954429599808 -0.10194238166202747 0 0.06555583390209542 -0.10228685739248863 0 0.065772866336608865 -0.10166243384464674 0 0.066504036522192583 -0.1024045267408815 0 0.065379550421304236 -0.10168654474732265 0 0.065772826672710075 -0.1012794519186474 0 0.066248841208518941 -0.10180732269483089 0 0.065379550421304236 -0.10168654474732265 0 0.066504036522192583 -0.1024045267408815 0 0.066248841208518941 -0.10180732269483089 0 0.065379550421304236 -0.10168654474732265 0 0.065772826672710075 -0.1012794519186474 0 0.065277428561809625 -0.10118544466907591 0 0.065772826672710075 -0.1012794519186474 0 0.065277428561809625 -0.10118544466907591 0 0.065543007542521139 -0.10101642380518931 0 0.065772826672710075 -0.1012794519186474 0 0.065543007542521139 -0.10101642380518931 0 0.065951637158152027 -0.10088223981688639 0 0.06508890033072226 -0.10122862294280205 0 0.065582265387288563 -0.10164644923715305 0 0.064880536495790189 -0.10113872195163132 0 0.065379550421304236 -0.10168654474732265 0 0.065277428561809625 -0.10118544466907591 0 0.06507629549942906 -0.10108689840955902 0 0.065004770346009294 -0.10150192817852698 0 0.065772866336608865 -0.10166243384464674 0 0.065277428561809625 -0.10118544466907591 0 0.065050580134048852 -0.10073265777663831 0 0.065543007542521139 -0.10101642380518931 0 0.064880536495790189 -0.10113872195163132 0 0.065277428561809625 -0.10118544466907591 0 0.065050580134048852 -0.10073265777663831 0 0.064931149340286626 -0.10159650111442781 0 0.0650945167160462 -0.10151983338744895 0 0.066052505676120185 -0.10176640210267741 0 0.065543007542521139 -0.10101642380518931 0 0.065391275730186965 -0.10196749288710252 0 0.065543007542521139 -0.10101642380518931 0 0.065391275730186965 -0.10196749288710252 0 0.065322208495463649 -0.1012288985955115 0 0.065391275730186965 -0.10196749288710252 0 0.064383674569005192 -0.10263938971873139 0 0.065322208495463649 -0.1012288985955115 0 0.064383674569005192 -0.10263938971873139 0 0.065519412355203435 -0.1038140766338725 0 0.062187611681159882 -0.10672894686634474 0 0.064383674569005192 -0.10263938971873139 0 0.062187611681159882 -0.10672894686634474 0 0.063476455963835832 -0.10469624313461098 0 0.065391275730186965 -0.10196749288710252 0 0.064383674569005192 -0.10263938971873139 0 0.065519412355203435 -0.1038140766338725 0 0.065519412355203435 -0.1038140766338725 0 0.066290313936134021 -0.10351774056000788 0 0.066373377109072859 -0.10459158547443871 0 0.065519412355203435 -0.1038140766338725 0 0.065953850666060479 -0.10253947504475862 0 0.066290313936134021 -0.10351774056000788 0 0.065391275730186965 -0.10196749288710252 0 0.065519412355203435 -0.1038140766338725 0 0.065953850666060479 -0.10253947504475862 0 0.066052505676120185 -0.10176640210267741 0 0.065391275730186965 -0.10196749288710252 0 0.065953850666060479 -0.10253947504475862 0 0.064931149340286626 -0.10159650111442781 0 0.064013190067289075 -0.10160384981165919 0 0.064763050742516121 -0.10073687185938611 0 0.065050580134048852 -0.10073265777663831 0 0.064607757094525473 -0.10048370217696395 0 0.066052505676120185 -0.10176640210267741 0 0.066576390512678427 -0.10258114360087912 0 0.06659338951512897 -0.10264960126257625 0 0.066052505676120185 -0.10176640210267741 0 0.065953850666060479 -0.10253947504475862 0 0.066576390512678427 -0.10258114360087912 0 0.066576390512678427 -0.10258114360087912 0 0.06659338951512897 -0.10264960126257625 0 0.066447424264167568 -0.10230858830746258 0 0.064607757094525473 -0.10048370217696395 0 0.064323509010433752 -0.10048204505585449 0 0.064146197242855682 -0.10023060646138182 0 0.064013190067289075 -0.10160384981165919 0 0.060492618129923514 -0.10068667873984471 0 0.064468798533762736 -0.10056526265878345 0 0.064323509010433752 -0.10048204505585449 0 0.064288728022370178 -0.10058088267295115 0 0.064468798533762736 -0.10056526265878345 0 0.064607757094525473 -0.10048370217696395 0 0.064323509010433752 -0.10048204505585449 0 0.064502624567871425 -0.10072814227925621 0 0.064468798533762736 -0.10056526265878345 0 0.064288728022370178 -0.10058088267295115 0 0.064502624567871425 -0.10072814227925621 0 0.064763050742516121 -0.10073687185938611 0 0.064607757094525473 -0.10048370217696395 0 0.064502624567871425 -0.10072814227925621 0 0.064468798533762736 -0.10056526265878345 0 0.064607757094525473 -0.10048370217696395 0 0.06659338951512897 -0.10264960126257625 0 0.065598679190886661 -0.10214316252466496 0 0.065019612367724341 -0.1023259957001172 0 0.065598679190886661 -0.10214316252466496 0 0.066132484085509147 -0.10211679499394979 0 0.065801859880816188 -0.10189783364346314 0 0.06659338951512897 -0.10264960126257625 0 0.065598679190886661 -0.10214316252466496 0 0.066132484085509147 -0.10211679499394979 0 0.06659338951512897 -0.10264960126257625 0 0.066132484085509147 -0.10211679499394979 0 0.066447424264167568 -0.10230858830746258 0 0.066132484085509147 -0.10211679499394979 0 0.066309782361738109 -0.10192061112462446 0 0.066447424264167568 -0.10230858830746258 0 0.066132484085509147 -0.10211679499394979 0 0.066000795118647662 -0.10161219340301093 0 0.066309782361738109 -0.10192061112462446 0 0.066000795118647662 -0.10161219340301093 0 0.066309782361738109 -0.10192061112462446 0 0.066632889397261141 -0.10161377729750087 0 0.066132484085509147 -0.10211679499394979 0 0.066000795118647662 -0.10161219340301093 0 0.065801859880816188 -0.10189783364346314 0 0.066000795118647662 -0.10161219340301093 0 0.065801859880816188 -0.10189783364346314 0 0.065465021213868824 -0.10171553269316497 0 0.065598679190886661 -0.10214316252466496 0 0.065801859880816188 -0.10189783364346314 0 0.065465021213868824 -0.10171553269316497 0 0.062070616286338691 -0.10413430486305607 0 0.061355879748217122 -0.10482715425182802 0 0.066576390512678427 -0.10258114360087912 0 0.066290313936134021 -0.10351774056000788 0 0.06699790004169881 -0.10406055030291754 0 0.066576390512678427 -0.10258114360087912 0 0.066447424264167568 -0.10230858830746258 0 0.066632889397261141 -0.10161377729750087 0 0.065953850666060479 -0.10253947504475862 0 0.066576390512678427 -0.10258114360087912 0 0.066290313936134021 -0.10351774056000788 0 0.066309782361738109 -0.10192061112462446 0 0.066447424264167568 -0.10230858830746258 0 0.066632889397261141 -0.10161377729750087 0 0.066373377109072859 -0.10459158547443871 0 0.06699790004169881 -0.10406055030291754 0 0.067222162176311495 -0.10549676735121548 0 0.061355879748217122 -0.10482715425182802 0 0.059015473126708733 -0.10762033578031389 0 0.066290313936134021 -0.10351774056000788 0 0.066373377109072859 -0.10459158547443871 0 0.06699790004169881 -0.10406055030291754 0 0.061995789701551361 -0.10787322961638021 0 0.059015473126708733 -0.10762033578031389 0 0.066632889397261141 -0.10161377729750087 0 0.065980651452517122 -0.10094604454518261 0 0.06641512009685846 -0.10026892645844986 0 0.066000795118647662 -0.10161219340301093 0 0.065980651452517122 -0.10094604454518261 0 0.065348266127976853 -0.10105567737212229 0 0.066000795118647662 -0.10161219340301093 0 0.065465021213868824 -0.10171553269316497 0 0.065348266127976853 -0.10105567737212229 0 0.066000795118647662 -0.10161219340301093 0 0.066632889397261141 -0.10161377729750087 0 0.065980651452517122 -0.10094604454518261 0 0.065980651452517122 -0.10094604454518261 0 0.065456673686596009 -0.10031091120211014 0 0.065348266127976853 -0.10105567737212229 0 0.059015473126708733 -0.10762033578031389 0 0.054480345843769297 -0.10702317285282109 0 0.065456673686596009 -0.10031091120211014 0 0.06641512009685846 -0.10026892645844986 0 0.065216042266273311 -0.099064902489439208 0 0.065980651452517122 -0.10094604454518261 0 0.065456673686596009 -0.10031091120211014 0 0.06641512009685846 -0.10026892645844986 0 0.070234968063262959 -0.10912296990714079 0 0.066853766574298104 -0.11030573568866948 0 0.070979053330761391 -0.1136792505681332 0 0.067854982666247232 -0.10653936354007577 0 0.070234968063262959 -0.10912296990714079 0 0.066853766574298104 -0.11030573568866948 0 0.053853366605759026 -0.10996294834696954 0 0.058310710404787337 -0.10822260829983812 0 0.062187611681159882 -0.10672894686634474 0 0.057598832535635115 -0.109830488061908 0 0.05825852088046047 -0.10904202565185737 0 0.058310710404787337 -0.10822260829983812 0 0.062187611681159882 -0.10672894686634474 0 0.061460598290735531 -0.10708107671864864 0 0.058310710404787337 -0.10822260829983812 0 0.058005473436561088 -0.1078498755878044 0 0.061460598290735531 -0.10708107671864864 0 0.066853766574298104 -0.11030573568866948 0 0.062187611681159882 -0.10672894686634474 0 0.065618683061331007 -0.1068593165965662 0 0.067854982666247232 -0.10653936354007577 0 0.066853766574298104 -0.11030573568866948 0 0.065618683061331007 -0.1068593165965662 0 0.065519412355203435 -0.1038140766338725 0 0.062187611681159882 -0.10672894686634474 0 0.065618683061331007 -0.1068593165965662 0 0.062489142050475656 -0.10751087317330535 0 0.061995789701551361 -0.10787322961638021 0 0.065519412355203435 -0.1038140766338725 0 0.067854982666247232 -0.10653936354007577 0 0.065618683061331007 -0.1068593165965662 0 0.043946552175238997 -0.10327333191047239 0 0.043620538912287656 -0.10347410251145894 0 0.043836050282225897 -0.10385254122773978 0 0.044317091584640159 -0.10365463585794225 0 0.043946552175238997 -0.10327333191047239 0 0.043836050282225897 -0.10385254122773978 0 0.043946552175238997 -0.10327333191047239 0 0.043768249673007464 -0.10282542908615572 0 0.043466804524118746 -0.10308770646883218 0 0.044276089728943001 -0.1028939627110627 0 0.043946552175238997 -0.10327333191047239 0 0.043768249673007464 -0.10282542908615572 0 0.043326032555438772 -0.10245043471677162 0 0.043768249673007464 -0.10282542908615572 0 0.043466804524118746 -0.10308770646883218 0 0.043946552175238997 -0.10327333191047239 0 0.043466804524118746 -0.10308770646883218 0 0.043620538912287656 -0.10347410251145894 0 0.043466804524118746 -0.10308770646883218 0 0.043620538912287656 -0.10347410251145894 0 0.043297026049488832 -0.10338810090555905 0 0.043620538912287656 -0.10347410251145894 0 0.043297026049488832 -0.10338810090555905 0 0.043309379736002213 -0.10368446637071348 0 0.043068358065925141 -0.1035464419215847 0 0.043297026049488832 -0.10338810090555905 0 0.042848937366237738 -0.10310565579222916 0 0.055774479009288842 -0.10093223623312404 0 0.060116432413337841 -0.09935569742576851 0 0.043068358065925141 -0.1035464419215847 0 0.043297026049488832 -0.10338810090555905 0 0.043309379736002213 -0.10368446637071348 0 0.055774479009288842 -0.10093223623312404 0 0.054273370634638926 -0.10053588429295626 0 0.043466804524118746 -0.10308770646883218 0 0.043297026049488832 -0.10338810090555905 0 0.042848937366237738 -0.10310565579222916 0 0.057184511898322028 -0.095224782933081509 0 0.060116432413337841 -0.09935569742576851 0 0.043326032555438772 -0.10245043471677162 0 0.043466804524118746 -0.10308770646883218 0 0.042848937366237738 -0.10310565579222916 0 0.064270908289527237 -0.10090566399930542 0 0.063997387681735199 -0.1004094158878279 0 0.064288728022370178 -0.10058088267295115 0 0.064325468579220002 -0.094741826789570327 0 0.060116432413337841 -0.09935569742576851 0 0.063997387681735199 -0.1004094158878279 0 0.06416794514184318 -0.10039691059180718 0 0.064146197242855682 -0.10023060646138182 0 0.064323509010433752 -0.10048204505585449 0 0.06416794514184318 -0.10039691059180718 0 0.064146197242855682 -0.10023060646138182 0 0.063997387681735199 -0.1004094158878279 0 0.064288728022370178 -0.10058088267295115 0 0.06416794514184318 -0.10039691059180718 0 0.064323509010433752 -0.10048204505585449 0 0.064288728022370178 -0.10058088267295115 0 0.06416794514184318 -0.10039691059180718 0 0.058063226928829162 -0.10137844878545976 0 0.05820943724028569 -0.10164100682722557 0 0.05831875246432585 -0.10150728342513538 0 0.065598679190886661 -0.10214316252466496 0 0.065291826893321386 -0.10219527303929407 0 0.065019612367724341 -0.1023259957001172 0 0.065598679190886661 -0.10214316252466496 0 0.065291826893321386 -0.10219527303929407 0 0.065233523374244623 -0.10197043909755454 0 0.065291826893321386 -0.10219527303929407 0 0.065019612367724341 -0.1023259957001172 0 0.065233523374244623 -0.10197043909755454 0 0.060116432413337841 -0.09935569742576851 0 0.060492618129923514 -0.10068667873984471 0 0.063925183316393533 -0.10183273557559579 0 0.065019612367724341 -0.1023259957001172 0 0.064765629868118985 -0.10164297537400339 0 0.055774479009288842 -0.10093223623312404 0 0.060492618129923514 -0.10068667873984471 0 0.064765629868118985 -0.10164297537400339 0 0.065465021213868824 -0.10171553269316497 0 0.065233523374244623 -0.10197043909755454 0 0.065019612367724341 -0.1023259957001172 0 0.064765629868118985 -0.10164297537400339 0 0.065233523374244623 -0.10197043909755454 0 0.065598679190886661 -0.10214316252466496 0 0.065465021213868824 -0.10171553269316497 0 0.065233523374244623 -0.10197043909755454 0 0.065456673686596009 -0.10031091120211014 0 0.065348266127976853 -0.10105567737212229 0 0.064236998694961106 -0.10053839693484352 0 0.064765629868118985 -0.10164297537400339 0 0.065348266127976853 -0.10105567737212229 0 0.064236998694961106 -0.10053839693484352 0 0.064765629868118985 -0.10164297537400339 0 0.065465021213868824 -0.10171553269316497 0 0.065348266127976853 -0.10105567737212229 0 0.064236998694961106 -0.10053839693484352 0 0.063813096517169696 -0.099268808098222985 0 0.065216042266273311 -0.099064902489439208 0 0.065456673686596009 -0.10031091120211014 0 0.064236998694961106 -0.10053839693484352 0 0.065216042266273311 -0.099064902489439208 0 0.064236998694961106 -0.10053839693484352 0 0.063026249736409037 -0.10030070558577976 0 0.063813096517169696 -0.099268808098222985 0 0.043090205260296457 -0.1035555642592014 0 0.043309379736002213 -0.10368446637071348 0 0.043371364052078074 -0.1041774080158432 0 0.055774479009288842 -0.10093223623312404 0 0.049467220899037115 -0.10373063066533296 0 0.063925183316393533 -0.10183273557559579 0 0.064236998694961106 -0.10053839693484352 0 0.063026249736409037 -0.10030070558577976 0 0.063925183316393533 -0.10183273557559579 0 0.064765629868118985 -0.10164297537400339 0 0.064236998694961106 -0.10053839693484352 0 0.04353386533526514 -0.10379754469834521 0 0.043371364052078074 -0.1041774080158432 0 0.043836050282225897 -0.10385254122773978 0 0.043309379736002213 -0.10368446637071348 0 0.04353386533526514 -0.10379754469834521 0 0.043371364052078074 -0.1041774080158432 0 0.043620538912287656 -0.10347410251145894 0 0.043309379736002213 -0.10368446637071348 0 0.04353386533526514 -0.10379754469834521 0 0.043620538912287656 -0.10347410251145894 0 0.04353386533526514 -0.10379754469834521 0 0.043836050282225897 -0.10385254122773978 0 0.043371364052078074 -0.1041774080158432 0 0.043839007004956229 -0.1043148651919239 0 0.04367552705085305 -0.1048051277714187 0 0.043371364052078074 -0.1041774080158432 0 0.043839007004956229 -0.1043148651919239 0 0.043836050282225897 -0.10385254122773978 0 0.044308929430246342 -0.10405330538631655 0 0.043839007004956229 -0.1043148651919239 0 0.043836050282225897 -0.10385254122773978 0 0.024495735984478829 -0.11279417669164629 0 0.028890019935714221 -0.1144200152417653 0 0.026457271050834411 -0.10979262803175599 0 0.040363658477652255 -0.10639800049559406 0 0.030952017085655814 -0.10735687410082435 0 0.029758979350762396 -0.11574323409929245 0 0.03000053387103473 -0.11124906018819944 0 0.026874365406733738 -0.11035177721155738 0 0.044236638482576772 -0.10453599374755468 0 0.043839007004956229 -0.1043148651919239 0 0.04367552705085305 -0.1048051277714187 0 0.024925207750865 -0.11628450824837998 0 0.024495735984478829 -0.11279417669164629 0 0.028890019935714221 -0.1144200152417653 0 0.033848220657973174 -0.10899361683079518 0 0.040363658477652255 -0.10639800049559406 0 0.063026249736409037 -0.10030070558577976 0 0.062133113172820151 -0.098738382977031913 0 0.063813096517169696 -0.099268808098222985 0 0.049467220899037115 -0.10373063066533296 0 0.040363658477652255 -0.10639800049559406 0 0.040363658477652255 -0.10639800049559406 0 0.047118502176672454 -0.10756404710315642 0 0.029758979350762396 -0.11574323409929245 0 0.035507548109030861 -0.11301957878541689 0 0.03000053387103473 -0.11124906018819944 0 0.062133113172820151 -0.098738382977031913 0 0.063998055209927143 -0.097858825645694661 0 0.063813096517169696 -0.099268808098222985 0 0.063998055209927143 -0.097858825645694661 0 0.063813096517169696 -0.099268808098222985 0 0.065216042266273311 -0.099064902489439208 0 0.047118502176672454 -0.10756404710315642 0 0.054480345843769297 -0.10702317285282109 0 0.037765184651501991 -0.11267219134260814 0 0.039779521240342883 -0.11171467776903592 0 0.043600657241079241 -0.11746404905277431 0 0.051902607824215553 -0.10816967885526942 0 0.050923923604911984 -0.10522125064418436 0 0.053620298087132562 -0.10742825914860923 0 0.049621928010786083 -0.10583938685865897 0 0.051902607824215553 -0.10816967885526942 0 0.050923923604911984 -0.10522125064418436 0 0.047118502176672454 -0.10756404710315642 0 0.044819448927783626 -0.10914978332904517 0 0.044819448927783626 -0.10914978332904517 0 0.044297319125697197 -0.10940177580002897 0 0.037853125475187724 -0.11248005171712222 0 0.036831858361349577 -0.10824520288834046 0 0.039428301444958687 -0.10925817253454266 0 0.037853125475187724 -0.11248005171712222 0 0.039779521240342883 -0.11171467776903592 0 0.039428301444958687 -0.10925817253454266 0 0.036831858361349577 -0.10824520288834046 0 0.039428301444958687 -0.10925817253454266 0 0.038553236305293184 -0.10674998117280743 0 0.038553236305293184 -0.10674998117280743 0 0.034633771178449832 -0.10499974623925015 0 0.040376907657038864 -0.10499885870312362 0 0.036831858361349577 -0.10824520288834046 0 0.038553236305293184 -0.10674998117280743 0 0.034633771178449832 -0.10499974623925015 0 0.039428301444958687 -0.10925817253454266 0 0.038553236305293184 -0.10674998117280743 0 0.041936388159441278 -0.10725225463119632 0 0.036831858361349577 -0.10824520288834046 0 0.034633771178449832 -0.10499974623925015 0 0.033121378052912195 -0.10842026594326497 0 0.037853125475187724 -0.11248005171712222 0 0.036831858361349577 -0.10824520288834046 0 0.033121378052912195 -0.10842026594326497 0 0.03565867149337603 -0.11319894628186959 0 0.037876816949676699 -0.11214736288339552 0 0.033315955832998713 -0.10845801290198326 0 0.03565867149337603 -0.11319894628186959 0 0.033315955832998713 -0.10845801290198326 0 0.032366081218180597 -0.1098283467805122 0 0.044819448927783626 -0.10914978332904517 0 0.035471811656176529 -0.10694672232283321 0 0.047118502176672454 -0.10756404710315642 0 0.04335939253749263 -0.10645009873366677 0 0.035507548109030861 -0.11301957878541689 0 0.03000053387103473 -0.11124906018819944 0 0.032366081218180597 -0.1098283467805122 0 0.033315955832998713 -0.10845801290198326 0 0.032366081218180597 -0.1098283467805122 0 0.029397205719020762 -0.10824571575688277 0 0.03000053387103473 -0.11124906018819944 0 0.032366081218180597 -0.1098283467805122 0 0.029397205719020762 -0.10824571575688277 0 0.033315955832998713 -0.10845801290198326 0 0.028894590923794754 -0.10499991721728756 0 0.029397205719020762 -0.10824571575688277 0 0.034633771178449832 -0.10499974623925015 0 0.033121378052912195 -0.10842026594326497 0 0.028894492201822577 -0.10500009633263134 0 0.035471811656176529 -0.10694672232283321 0 0.028901757927528488 -0.10500007387340546 0 0.024011979414007532 -0.10500002424395737 0 0.028894590923794754 -0.10499991721728756 0 0.029397205719020762 -0.10824571575688277 0 0.024011979414007532 -0.10500002424395737 0 0.029397205719020762 -0.10824571575688277 0 0.026874365406733738 -0.11035177721155738 0 0.03000053387103473 -0.11124906018819944 0 0.029397205719020762 -0.10824571575688277 0 0.026874365406733738 -0.11035177721155738 0 0.051195666119603883 -0.10745662534036635 0 0.053460880054530265 -0.10831513351105272 0 0.048375145971824601 -0.10785745489732076 0 0.051195666119603883 -0.10745662534036635 0 0.055350843053350009 -0.10744182790370811 0 0.053460880054530265 -0.10831513351105272 0 0.055350843053350009 -0.10744182790370811 0 0.058005473436561088 -0.1078498755878044 0 0.053460880054530265 -0.10831513351105272 0 0.058310710404787337 -0.10822260829983812 0 0.058005473436561088 -0.1078498755878044 0 0.053460880054530265 -0.10831513351105272 0 0.055350843053350009 -0.10744182790370811 0 0.058005473436561088 -0.1078498755878044 0 0.059031355452655615 -0.10747534503211226 0 0.053853366605759026 -0.10996294834696954 0 0.058310710404787337 -0.10822260829983812 0 0.053460880054530265 -0.10831513351105272 0 0.053853366605759026 -0.10996294834696954 0 0.053460880054530265 -0.10831513351105272 0 0.047692849558965071 -0.10938824310098837 0 0.057598832535635115 -0.109830488061908 0 0.053220230947716551 -0.10919852338565318 0 0.05418012620993206 -0.11048870414337994 0 0.051902607824215553 -0.10816967885526942 0 0.053620298087132562 -0.10742825914860923 0 0.059015473126708733 -0.10762033578031389 0 0.053220230947716551 -0.10919852338565318 0 0.044819448927783626 -0.10914978332904517 0 0.053220230947716551 -0.10919852338565318 0 0.053220230947716551 -0.10919852338565318 0 0.050353889213655995 -0.10837282830296602 0 0.039779521240342883 -0.11171467776903592 0 0.043600657241079241 -0.11746404905277431 0 0.042682705148101574 -0.11242366952690401 0 0.047692849558965071 -0.10938824310098837 0 0.045736319066800771 -0.10798289783643128 0 0.048375145971824601 -0.10785745489732076 0 0.053460880054530265 -0.10831513351105272 0 0.047692849558965071 -0.10938824310098837 0 0.048375145971824601 -0.10785745489732076 0 0.051195666119603883 -0.10745662534036635 0 0.048375145971824601 -0.10785745489732076 0 0.04774197019143521 -0.10679985677398922 0 0.048375145971824601 -0.10785745489732076 0 0.045598109845486332 -0.10731940491736355 0 0.04774197019143521 -0.10679985677398922 0 0.045598109845486332 -0.10731940491736355 0 0.04774197019143521 -0.10679985677398922 0 0.044469114676234843 -0.10630138554152488 0 0.045736319066800771 -0.10798289783643128 0 0.045598109845486332 -0.10731940491736355 0 0.041936388159441278 -0.10725225463119632 0 0.039428301444958687 -0.10925817253454266 0 0.042682705148101574 -0.11242366952690401 0 0.041936388159441278 -0.10725225463119632 0 0.050353889213655995 -0.10837282830296602 0 0.049278259340111909 -0.10747141313563133 0 0.039779521240342883 -0.11171467776903592 0 0.039428301444958687 -0.10925817253454266 0 0.042682705148101574 -0.11242366952690401 0 0.045736319066800771 -0.10798289783643128 0 0.048375145971824601 -0.10785745489732076 0 0.045598109845486332 -0.10731940491736355 0 0.045598109845486332 -0.10731940491736355 0 0.041936388159441278 -0.10725225463119632 0 0.044469114676234843 -0.10630138554152488 0 0.038553236305293184 -0.10674998117280743 0 0.041936388159441278 -0.10725225463119632 0 0.040376907657038864 -0.10499885870312362 0 0.041936388159441278 -0.10725225463119632 0 0.040376907657038864 -0.10499885870312362 0 0.044469114676234843 -0.10630138554152488 0 0.040376907657038864 -0.10499885870312362 0 0.044469114676234843 -0.10630138554152488 0 0.046116980025604493 -0.10499835793642233 0 0.04774197019143521 -0.10679985677398922 0 0.044469114676234843 -0.10630138554152488 0 0.046116980025604493 -0.10499835793642233 0 0.046116980025604493 -0.10499835793642233 0 0.051716571092568463 -0.1065054196197425 0 0.051856098955816679 -0.1049989640385216 0 0.04774197019143521 -0.10679985677398922 0 0.046116980025604493 -0.10499835793642233 0 0.051716571092568463 -0.1065054196197425 0 0.051195666119603883 -0.10745662534036635 0 0.055350843053350009 -0.10744182790370811 0 0.051716571092568463 -0.1065054196197425 0 0.051195666119603883 -0.10745662534036635 0 0.04774197019143521 -0.10679985677398922 0 0.051716571092568463 -0.1065054196197425 0 0.055350843053350009 -0.10744182790370811 0 0.051716571092568463 -0.1065054196197425 0 0.056766898308064195 -0.10659687428925632 0 0.051716571092568463 -0.1065054196197425 0 0.051856098955816679 -0.1049989640385216 0 0.056766898308064195 -0.10659687428925632 0 0.051856098955816679 -0.1049989640385216 0 0.057593375519739885 -0.10499554053368568 0 0.056766898308064195 -0.10659687428925632 0 0.057593375519739885 -0.10499554053368568 0 0.059683212813486722 -0.10598032203556429 0 0.056766898308064195 -0.10659687428925632 0 0.059683212813486722 -0.10598032203556429 0 0.056766898308064195 -0.10659687428925632 0 0.06041487707908752 -0.10700465389468621 0 0.055350843053350009 -0.10744182790370811 0 0.056766898308064195 -0.10659687428925632 0 0.059031355452655615 -0.10747534503211226 0 0.056766898308064195 -0.10659687428925632 0 0.06041487707908752 -0.10700465389468621 0 0.059031355452655615 -0.10747534503211226 0 0.06041487707908752 -0.10700465389468621 0 0.061466866841320605 -0.10732093518414706 0 0.059031355452655615 -0.10747534503211226 0 0.058005473436561088 -0.1078498755878044 0 0.059031355452655615 -0.10747534503211226 0 0.061460598290735531 -0.10708107671864864 0 0.061466866841320605 -0.10732093518414706 0 0.059031355452655615 -0.10747534503211226 0 0.061460598290735531 -0.10708107671864864 0 0.062535291849255936 -0.1074480354292868 0 0.065099143183289965 -0.10763248232634634 0 0.063884311884279274 -0.10772488283716303 0 0.065099143183289965 -0.10763248232634634 0 0.064775041897267113 -0.10829766817545457 0 0.063884311884279274 -0.10772488283716303 0 0.06041487707908752 -0.10700465389468621 0 0.061466866841320605 -0.10732093518414706 0 0.062535291849255936 -0.1074480354292868 0 0.061466866841320605 -0.10732093518414706 0 0.062535291849255936 -0.1074480354292868 0 0.063841335918077835 -0.10672595239979091 0 0.059683212813486722 -0.10598032203556429 0 0.06041487707908752 -0.10700465389468621 0 0.062261916814498511 -0.10637199432179972 0 0.06041487707908752 -0.10700465389468621 0 0.062535291849255936 -0.1074480354292868 0 0.062261916814498511 -0.10637199432179972 0 0.062535291849255936 -0.1074480354292868 0 0.062261916814498511 -0.10637199432179972 0 0.065099143183289965 -0.10763248232634634 0 0.062261916814498511 -0.10637199432179972 0 0.064967174148328394 -0.10504757709686537 0 0.065099143183289965 -0.10763248232634634 0 0.061640381922312408 -0.10627885464083968 0 0.064851507208820519 -0.10725345347748161 0 0.057592072404616279 -0.10500007662714023 0 0.062301344643024378 -0.10739477860265384 0 0.064504338874661268 -0.10499915538630936 0 0.062261916814498511 -0.10637199432179972 0 0.061556634621330451 -0.10464278364856863 0 0.064967174148328394 -0.10504757709686537 0 0.059683212813486722 -0.10598032203556429 0 0.062261916814498511 -0.10637199432179972 0 0.061556634621330451 -0.10464278364856863 0 0.057593375519739885 -0.10499554053368568 0 0.059683212813486722 -0.10598032203556429 0 0.061556634621330451 -0.10464278364856863 0 0.057597683911315679 -0.10500052560722607 0 0.061640381922312408 -0.10627885464083968 0 0.062301344643024378 -0.10739477860265384 0 0.064504338874661268 -0.10499915538630936 0 0.067026362472742976 -0.1087099894374219 0 0.064504338874661268 -0.10499915538630936 0 0.070292570829085674 -0.10784897401304551 0 0.073994631133784586 -0.10499804550763153 0 0.064504338874661268 -0.10499915538630936 0 0.070292570829085674 -0.10784897401304551 0 0.067026362472742976 -0.1087099894374219 0 0.070292570829085674 -0.10784897401304551 0 0.073994631133784586 -0.10499804550763153 0 0.075955607333771338 -0.11001090249856341 0 0.073994631133784586 -0.10499804550763153 0 0.075955607333771338 -0.11001090249856341 0 0.082466747991270198 -0.10901216918604864 0 0.077247378130726282 -0.10302222115232186 0 0.079525238521475625 -0.10857109310554749 0 0.083223685908606862 -0.10554746603522283 0 0.077247378130726282 -0.10302222115232186 0 0.073502538731517464 -0.10745309243654558 0 0.07032640080188407 -0.10769734484522796 0 0.070292570829085674 -0.10784897401304551 0 0.075955607333771338 -0.11001090249856341 0 0.07032640080188407 -0.10769734484522796 0 0.078421566733767434 -0.10661669391710897 0 0.075684858498853591 -0.10707071100097791 0 0.073502538731517464 -0.10745309243654558 0 0.079525238521475625 -0.10857109310554749 0 0.073706285182885259 -0.11021879042390263 0 0.071588090964476422 -0.10842027195675397 0 0.073502538731517464 -0.10745309243654558 0 0.070933004746292674 -0.10784480190722595 0 0.073502538731517464 -0.10745309243654558 0 0.07032640080188407 -0.10769734484522796 0 0.070933004746292674 -0.10784480190722595 0 0.071588090964476422 -0.10842027195675397 0 0.073502538731517464 -0.10745309243654558 0 0.073706285182885259 -0.11021879042390263 0 0.071588090964476422 -0.10842027195675397 0 0.069441356873983978 -0.1090256066502574 0 0.073706285182885259 -0.11021879042390263 0 0.077247378130726282 -0.10302222115232186 0 0.073502538731517464 -0.10745309243654558 0 0.079525238521475625 -0.10857109310554749 0 0.064967174148328394 -0.10504757709686537 0 0.067057556046805716 -0.10707077974859026 0 0.065099143183289965 -0.10763248232634634 0 0.064967174148328394 -0.10504757709686537 0 0.067057556046805716 -0.10707077974859026 0 0.070029519620254679 -0.10764075214604232 0 0.064851507208820519 -0.10725345347748161 0 0.066498567053006316 -0.107824341163047 0 0.067057556046805716 -0.10707077974859026 0 0.068671969450837478 -0.10761352483420726 0 0.066752283408453503 -0.10801334387818673 0 0.070292570829085674 -0.10784897401304551 0 0.07032640080188407 -0.10769734484522796 0 0.070029519620254679 -0.10764075214604232 0 0.070292570829085674 -0.10784897401304551 0 0.067026362472742976 -0.1087099894374219 0 0.070029519620254679 -0.10764075214604232 0 0.07032640080188407 -0.10769734484522796 0 0.069800544419570953 -0.10770186364846965 0 0.070933004746292674 -0.10784480190722595 0 0.07032640080188407 -0.10769734484522796 0 0.070029519620254679 -0.10764075214604232 0 0.069800544419570953 -0.10770186364846965 0 0.067057556046805716 -0.10707077974859026 0 0.070029519620254679 -0.10764075214604232 0 0.068671969450837478 -0.10761352483420726 0 0.069800544419570953 -0.10770186364846965 0 0.068671969450837478 -0.10761352483420726 0 0.069498739191162021 -0.10782284842825507 0 0.070029519620254679 -0.10764075214604232 0 0.069800544419570953 -0.10770186364846965 0 0.068671969450837478 -0.10761352483420726 0 0.068671969450837478 -0.10761352483420726 0 0.068588874268143946 -0.10810262378201543 0 0.066752283408453503 -0.10801334387818673 0 0.068671969450837478 -0.10761352483420726 0 0.068588874268143946 -0.10810262378201543 0 0.069498739191162021 -0.10782284842825507 0 0.069800544419570953 -0.10770186364846965 0 0.070933004746292674 -0.10784480190722595 0 0.069498739191162021 -0.10782284842825507 0 0.070933004746292674 -0.10784480190722595 0 0.069498739191162021 -0.10782284842825507 0 0.069890153631475868 -0.10817948539954216 0 0.068588874268143946 -0.10810262378201543 0 0.069498739191162021 -0.10782284842825507 0 0.069890153631475868 -0.10817948539954216 0 0.071588090964476422 -0.10842027195675397 0 0.070933004746292674 -0.10784480190722595 0 0.069890153631475868 -0.10817948539954216 0 0.071588090964476422 -0.10842027195675397 0 0.069890153631475868 -0.10817948539954216 0 0.069441356873983978 -0.1090256066502574 0 0.068588874268143946 -0.10810262378201543 0 0.069890153631475868 -0.10817948539954216 0 0.069441356873983978 -0.1090256066502574 0 0.068588874268143946 -0.10810262378201543 0 0.069441356873983978 -0.1090256066502574 0 0.066941812114961197 -0.1087897145746812 0 0.068588874268143946 -0.10810262378201543 0 0.066941812114961197 -0.1087897145746812 0 0.066752283408453503 -0.10801334387818673 0 0.066941812114961197 -0.1087897145746812 0 0.066752283408453503 -0.10801334387818673 0 0.064775041897267113 -0.10829766817545457 0 0.067057556046805716 -0.10707077974859026 0 0.066752283408453503 -0.10801334387818673 0 0.065099143183289965 -0.10763248232634634 0 0.066752283408453503 -0.10801334387818673 0 0.065099143183289965 -0.10763248232634634 0 0.064775041897267113 -0.10829766817545457 0 0.066941812114961197 -0.1087897145746812 0 0.06829568119040455 -0.110539446716725 0 0.063485457850287225 -0.10829709171404293 0 0.066941812114961197 -0.1087897145746812 0 0.064775041897267113 -0.10829766817545457 0 0.063485457850287225 -0.10829709171404293 0 0.069441356873983978 -0.1090256066502574 0 0.066941812114961197 -0.1087897145746812 0 0.06829568119040455 -0.110539446716725 0 0.069441356873983978 -0.1090256066502574 0 0.06829568119040455 -0.110539446716725 0 0.073706285182885259 -0.11021879042390263 0 0.05700488457539786 -0.10658975608846086 0 0.063485457850287225 -0.10829709171404293 0 0.058255786174809497 -0.10236018331789598 0 0.070152742952156288 -0.10303387105516824 0 0.06794151203370509 -0.10384412329315336 0 0.06829568119040455 -0.110539446716725 0 0.069586991589416156 -0.11461318833449047 0 0.063485457850287225 -0.10829709171404293 0 0.06829568119040455 -0.110539446716725 0 0.069586991589416156 -0.11461318833449047 0 0.073512007018937078 -0.11344500800091713 0 0.073706285182885259 -0.11021879042390263 0 0.073512007018937078 -0.11344500800091713 0 0.080448898468898564 -0.11325965574352176 0 0.079525238521475625 -0.10857109310554749 0 0.073706285182885259 -0.11021879042390263 0 0.080448898468898564 -0.11325965574352176 0 0.06829568119040455 -0.110539446716725 0 0.073706285182885259 -0.11021879042390263 0 0.073512007018937078 -0.11344500800091713 0 0.069586991589416156 -0.11461318833449047 0 0.073512007018937078 -0.11344500800091713 0 0.07589022193644164 -0.11722514968816436 0 0.070152742952156288 -0.10303387105516824 0 0.081794979050701169 -0.10070667150804359 0 0.0985276614236517 -0.096607933519760561 0 0.097505535650436306 -0.098028046797554197 0 0.096826708644370749 -0.096192008410073665 0 0.081794979050701169 -0.10070667150804359 0 0.085955552633738802 -0.10241447003554534 0 0.073512007018937078 -0.11344500800091713 0 0.07589022193644164 -0.11722514968816436 0 0.080448898468898564 -0.11325965574352176 0 0.095394029413216994 -0.095857830746034572 0 0.095400302805202467 -0.095820656331777623 0 0.095357012748256906 -0.095875776992683764 0 0.081794979050701169 -0.10070667150804359 0 0.091550157517171465 -0.099987042675130616 0 0.095400302805202467 -0.095820656331777623 0 0.09540944298585885 -0.095759362544827156 0 0.095357012748256906 -0.095875776992683764 0 0.050918489364498096 -0.10502145250031727 0 0.055383208023098783 -0.09926875134339587 0 0.058255786174809497 -0.10236018331789598 0 0.095394029413216994 -0.095857830746034572 0 0.095400302805202467 -0.095820656331777623 0 0.09540975647232651 -0.095801281720417783 0 0.081794979050701169 -0.10070667150804359 0 0.079264790920888506 -0.098012863828922187 0 0.05700488457539786 -0.10658975608846086 0 0.050918489364498096 -0.10502145250031727 0 0.058255786174809497 -0.10236018331789598 0 0.079264790920888506 -0.098012863828922187 0 0.092295870370659464 -0.095560240629121079 0 0.08992217049108589 -0.088806860351900718 0 0.086058129762512023 -0.087678042943021575 0 0.086533176505141821 -0.092061799301538433 0 0.095400302805202467 -0.095820656331777623 0 0.09540975647232651 -0.095801281720417783 0 0.09540944298585885 -0.095759362544827156 0 0.087042690909497622 -0.08635246034672428 0 0.08992217049108589 -0.088806860351900718 0 0.096525371946505414 -0.085640284211810219 0 0.079264790920888506 -0.098012863828922187 0 0.079372147051025327 -0.097869687184902895 0 0.087042690909497622 -0.08635246034672428 0 0.08992217049108589 -0.088806860351900718 0 0.086058129762512023 -0.087678042943021575 0 0.063485457850287225 -0.10829709171404293 0 0.062334826955589638 -0.10115061442123942 0 0.058255786174809497 -0.10236018331789598 0 0.055383208023098783 -0.09926875134339587 0 0.062334826955589638 -0.10115061442123942 0 0.058255786174809497 -0.10236018331789598 0 0.079264790920888506 -0.098012863828922187 0 0.073027070130020785 -0.097222580697812269 0 0.086058129762512023 -0.087678042943021575 0 0.079653174812055222 -0.092237190020008866 0 0.086533176505141821 -0.092061799301538433 0 0.086740702270042436 -0.086702861582369797 0 0.075867253649365723 -0.091196260284191838 0 0.086058129762512023 -0.087678042943021575 0 0.075867253649365723 -0.091196260284191838 0 0.086058129762512023 -0.087678042943021575 0 0.079653174812055222 -0.092237190020008866 0 0.075867253649365723 -0.091196260284191838 0 0.079653174812055222 -0.092237190020008866 0 0.072135633183210326 -0.095896358841383894 0 0.063485457850287225 -0.10829709171404293 0 0.062334826955589638 -0.10115061442123942 0 0.066784598511471838 -0.10067638373787066 0 0.075867253649365723 -0.091196260284191838 0 0.072135633183210326 -0.095896358841383894 0 0.066784598511471838 -0.10067638373787066 0 0.073027070130020785 -0.097222580697812269 0 0.071894567869495649 -0.097698321125411963 0 0.066784598511471838 -0.10067638373787066 0 0.067696137629011152 -0.099231114306558552 0 0.065354478318090617 -0.10193927292109659 0 0.067696137629011152 -0.099231114306558552 0 0.066149154529083667 -0.10043448785428895 0 0.068857005450292094 -0.098875640836555201 0 0.072135633183210326 -0.095896358841383894 0 0.066784598511471838 -0.10067638373787066 0 0.067696137629011152 -0.099231114306558552 0 0.072135633183210326 -0.095896358841383894 0 0.067696137629011152 -0.099231114306558552 0 0.068857005450292094 -0.098875640836555201 0 0.067696137629011152 -0.099231114306558552 0 0.066149154529083667 -0.10043448785428895 0 0.065354478318090617 -0.10193927292109659 0 0.064383674569005192 -0.10263938971873139 0 0.066149154529083667 -0.10043448785428895 0 0.065354478318090617 -0.10193927292109659 0 0.064383674569005192 -0.10263938971873139 0 0.066149154529083667 -0.10043448785428895 0 0.065322208495463649 -0.1012288985955115 0 0.064383674569005192 -0.10263938971873139 0 0.065354478318090617 -0.10193927292109659 0 0.063476455963835832 -0.10469624313461098 0 0.066784598511471838 -0.10067638373787066 0 0.065354478318090617 -0.10193927292109659 0 0.064180882825626534 -0.10464192925181205 0 0.065354478318090617 -0.10193927292109659 0 0.064180882825626534 -0.10464192925181205 0 0.063476455963835832 -0.10469624313461098 0 0.062187611681159882 -0.10672894686634474 0 0.063476455963835832 -0.10469624313461098 0 0.061460598290735531 -0.10708107671864864 0 0.064180882825626534 -0.10464192925181205 0 0.063476455963835832 -0.10469624313461098 0 0.061460598290735531 -0.10708107671864864 0 0.064180882825626534 -0.10464192925181205 0 0.061460598290735531 -0.10708107671864864 0 0.063841335918077835 -0.10672595239979091 0 0.061466866841320605 -0.10732093518414706 0 0.061460598290735531 -0.10708107671864864 0 0.063841335918077835 -0.10672595239979091 0 0.062535291849255936 -0.1074480354292868 0 0.063841335918077835 -0.10672595239979091 0 0.063884311884279274 -0.10772488283716303 0 0.064775041897267113 -0.10829766817545457 0 0.063485457850287225 -0.10829709171404293 0 0.064322981214123942 -0.10690883533853812 0 0.063841335918077835 -0.10672595239979091 0 0.063884311884279274 -0.10772488283716303 0 0.064322981214123942 -0.10690883533853812 0 0.064775041897267113 -0.10829766817545457 0 0.063884311884279274 -0.10772488283716303 0 0.064322981214123942 -0.10690883533853812 0 0.063485457850287225 -0.10829709171404293 0 0.066784598511471838 -0.10067638373787066 0 0.064322981214123942 -0.10690883533853812 0 0.066784598511471838 -0.10067638373787066 0 0.064180882825626534 -0.10464192925181205 0 0.063841335918077835 -0.10672595239979091 0 0.066784598511471838 -0.10067638373787066 0 0.063841335918077835 -0.10672595239979091 0 0.064322981214123942 -0.10690883533853812 0 0.10499298635371314 -0.10499520074884063 0 0.096606537393940539 -0.10530055066908925 0 0.087063343557277337 -0.10499282383749244 0 0.10499298635371314 -0.10499520074884063 0 0.10487060685534003 -0.1013235846698374 0 0.104993892437847 -0.084040111059277681 0 0.10716531169102052 -0.093918338596036863 0 0.10487060685534003 -0.1013235846698374 0 0.104993892437847 -0.084040111059277681 0 0.10716531169102052 -0.093918338596036863 0 0.10669660007803451 -0.097177831401545275 0 0.10487060685534003 -0.1013235846698374 0 0.10499298635371314 -0.10499520074884063 0 0.10487060685534003 -0.1013235846698374 0 0.096606537393940539 -0.10530055066908925 0 0.098691115134645374 -0.10668223258441016 0 0.10487060685534003 -0.1013235846698374 0 0.096606537393940539 -0.10530055066908925 0 0.10114222844647863 -0.10081797582925799 0 0.10204975473371607 -0.10087573210250214 0 0.096606537393940539 -0.10530055066908925 0 0.092623660656969545 -0.10602576214423715 0 0.091634348060503037 -0.10602667511391432 0 0.10114222844647863 -0.10081797582925799 0 0.099593772247240003 -0.10030829574014274 0 0.098691115134645374 -0.10668223258441016 0 0.096606537393940539 -0.10530055066908925 0 0.092623660656969545 -0.10602576214423715 0 0.10716531169102052 -0.093918338596036863 0 0.10669660007803451 -0.097177831401545275 0 0.10429383509298522 -0.093564742860310982 0 0.10716531169102052 -0.093918338596036863 0 0.10429383509298522 -0.093564742860310982 0 0.10330420322687793 -0.095495150430754377 0 0.10429383509298522 -0.093564742860310982 0 0.098963547322495043 -0.097254496559420964 0 0.10330420322687793 -0.095495150430754377 0 0.099593772247240003 -0.10030829574014274 0 0.098716233135816095 -0.10000770607836605 0 0.10429383509298522 -0.093564742860310982 0 0.095062171438994467 -0.09836182765932848 0 0.098963547322495043 -0.097254496559420964 0 0.092623660656969545 -0.10602576214423715 0 0.095062171438994467 -0.09836182765932848 0 0.092635059185502536 -0.10392397617986857 0 0.095062171438994467 -0.09836182765932848 0 0.093590016447952992 -0.10153311731931136 0 0.092635059185502536 -0.10392397617986857 0 0.095062171438994467 -0.09836182765932848 0 0.093590016447952992 -0.10153311731931136 0 0.094846299719625243 -0.099320220846737362 0 0.095062171438994467 -0.09836182765932848 0 0.094846299719625243 -0.099320220846737362 0 0.09612410001565333 -0.098195670916951305 0 0.093590016447952992 -0.10153311731931136 0 0.092635059185502536 -0.10392397617986857 0 0.091898176916105745 -0.10378280043954609 0 0.092635059185502536 -0.10392397617986857 0 0.090285092221886659 -0.10641475084219065 0 0.091898176916105745 -0.10378280043954609 0 0.092635059185502536 -0.10392397617986857 0 0.091634348060503037 -0.10602667511391432 0 0.090285092221886659 -0.10641475084219065 0 0.092623660656969545 -0.10602576214423715 0 0.092635059185502536 -0.10392397617986857 0 0.091634348060503037 -0.10602667511391432 0 0.087063343557277337 -0.10499282383749244 0 0.090285092221886659 -0.10641475084219065 0 0.082466747991270198 -0.10901216918604864 0 0.096606537393940539 -0.10530055066908925 0 0.091634348060503037 -0.10602667511391432 0 0.087063343557277337 -0.10499282383749244 0 0.091634348060503037 -0.10602667511391432 0 0.087063343557277337 -0.10499282383749244 0 0.090285092221886659 -0.10641475084219065 0 0.073994631133784586 -0.10499804550763153 0 0.087063343557277337 -0.10499282383749244 0 0.082466747991270198 -0.10901216918604864 0 0.085682752012354133 -0.10570995038470582 0 0.083268334308192318 -0.10593747199974908 0 0.077247378130726282 -0.10302222115232186 0 0.083223685908606862 -0.10554746603522283 0 0.088466186115588721 -0.10173160469504751 0 0.083223685908606862 -0.10554746603522283 0 0.088466186115588721 -0.10173160469504751 0 0.086618562446840158 -0.1088484039829906 0 0.078421566733767434 -0.10661669391710897 0 0.083268334308192318 -0.10593747199974908 0 0.090285092221886659 -0.10641475084219065 0 0.088466186115588721 -0.10173160469504751 0 0.091898176916105745 -0.10378280043954609 0 0.088466186115588721 -0.10173160469504751 0 0.091898176916105745 -0.10378280043954609 0 0.086618562446840158 -0.1088484039829906 0 0.089693715444350841 -0.10224235590598089 0 0.088756183550781811 -0.10238500778686557 0 0.093590016447952992 -0.10153311731931136 0 0.094846299719625243 -0.099320220846737362 0 0.096592588826605971 -0.099811057425322966 0 0.093590016447952992 -0.10153311731931136 0 0.091898176916105745 -0.10378280043954609 0 0.096592588826605971 -0.099811057425322966 0 0.079525238521475625 -0.10857109310554749 0 0.086618562446840158 -0.1088484039829906 0 0.080448898468898564 -0.11325965574352176 0 0.079525238521475625 -0.10857109310554749 0 0.083223685908606862 -0.10554746603522283 0 0.086618562446840158 -0.1088484039829906 0 0.096592588826605971 -0.099811057425322966 0 0.097505535650436306 -0.098028046797554197 0 0.095942092047670569 -0.098034974417557735 0 0.088756183550781811 -0.10238500778686557 0 0.085955552633738802 -0.10241447003554534 0 0.094846299719625243 -0.099320220846737362 0 0.096592588826605971 -0.099811057425322966 0 0.095942092047670569 -0.098034974417557735 0 0.094846299719625243 -0.099320220846737362 0 0.095942092047670569 -0.098034974417557735 0 0.094875108429937266 -0.096983650108441316 0 0.096025897919995218 -0.097002096121302006 0 0.09514647944837043 -0.095993338886546889 0 0.094875108429937266 -0.096983650108441316 0 0.095942092047670569 -0.098034974417557735 0 0.096025897919995218 -0.097002096121302006 0 0.094875108429937266 -0.096983650108441316 0 0.097505535650436306 -0.098028046797554197 0 0.096025897919995218 -0.097002096121302006 0 0.096826708644370749 -0.096192008410073665 0 0.097505535650436306 -0.098028046797554197 0 0.095942092047670569 -0.098034974417557735 0 0.096025897919995218 -0.097002096121302006 0 0.096525371946505414 -0.085640284211810219 0 0.10391849425694429 -0.086473613078322381 0 0.10329400205366772 -0.086841409265561706 0 0.09540944298585885 -0.095759362544827156 0 0.095311872719110638 -0.095790474549226234 0 0.09532860713046952 -0.095637585475110254 0 0.092295870370659464 -0.095560240629121079 0 0.09875891319719235 -0.093810643847713662 0 0.09540944298585885 -0.095759362544827156 0 0.095357012748256906 -0.095875776992683764 0 0.095311872719110638 -0.095790474549226234 0 0.10080352174384007 -0.09432055767170916 0 0.09875891319719235 -0.093810643847713662 0 0.095311872719110638 -0.095790474549226234 0 0.09514647944837043 -0.095993338886546889 0 0.094917966617866473 -0.095557892573836956 0 0.10147435862910713 -0.092732518993850321 0 0.10155613952700626 -0.093419178810343437 0 0.10061164568960571 -0.093155812872690424 0 0.095311872719110638 -0.095790474549226234 0 0.094917966617866473 -0.095557892573836956 0 0.09532860713046952 -0.095637585475110254 0 0.095357012748256906 -0.095875776992683764 0 0.095311872719110638 -0.095790474549226234 0 0.09514647944837043 -0.095993338886546889 0 0.096025897919995218 -0.097002096121302006 0 0.096826708644370749 -0.096192008410073665 0 0.09514647944837043 -0.095993338886546889 0 0.091550157517171465 -0.099987042675130616 0 0.093228889915951338 -0.099509169004956433 0 0.10080352174384007 -0.09432055767170916 0 0.098265260124638237 -0.097214500136794529 0 0.09514647944837043 -0.095993338886546889 0 0.094917966617866473 -0.095557892573836956 0 0.094875108429937266 -0.096983650108441316 0 0.097776925127269002 -0.099773999115248646 0 0.096605924393341869 -0.10188048734392835 0 0.096326104113834382 -0.098310846337402641 0 0.10080352174384007 -0.09432055767170916 0 0.10273952713678204 -0.092433252349048894 0 0.10926215666120657 -0.092161840397540246 0 0.10737348415472552 -0.091400154463891881 0 0.10909380820388936 -0.090223513037390096 0 0.10926215666120657 -0.092161840397540246 0 0.10737348415472552 -0.091400154463891881 0 0.1073794089663599 -0.093256493521220785 0 0.10737348415472552 -0.091400154463891881 0 0.1073794089663599 -0.093256493521220785 0 0.10668844257196457 -0.091866688145875591 0 0.10080352174384007 -0.09432055767170916 0 0.10244717768394081 -0.095075776235198112 0 0.097776925127269002 -0.099773999115248646 0 0.096605924393341869 -0.10188048734392835 0 0.10007036892197271 -0.1004636079958522 0 0.097776925127269002 -0.099773999115248646 0 0.10007036892197271 -0.1004636079958522 0 0.09875901419465602 -0.098468939175644948 0 0.10007036892197271 -0.1004636079958522 0 0.09875901419465602 -0.098468939175644948 0 0.1016895289145784 -0.096784450565562452 0 0.09875901419465602 -0.098468939175644948 0 0.098206138207756602 -0.097782568883255885 0 0.1016895289145784 -0.096784450565562452 0 0.097776925127269002 -0.099773999115248646 0 0.09875901419465602 -0.098468939175644948 0 0.096326104113834382 -0.098310846337402641 0 0.09875901419465602 -0.098468939175644948 0 0.096326104113834382 -0.098310846337402641 0 0.098206138207756602 -0.097782568883255885 0 0.094846299719625243 -0.099320220846737362 0 0.096326104113834382 -0.098310846337402641 0 0.09612410001565333 -0.098195670916951305 0 0.097478639546019513 -0.097913676225616988 0 0.098265260124638237 -0.097214500136794529 0 0.096326104113834382 -0.098310846337402641 0 0.09612410001565333 -0.098195670916951305 0 0.098206138207756602 -0.097782568883255885 0 0.098963547322495043 -0.097254496559420964 0 0.098206138207756602 -0.097782568883255885 0 0.10330420322687793 -0.095495150430754377 0 0.095062171438994467 -0.09836182765932848 0 0.09612410001565333 -0.098195670916951305 0 0.098963547322495043 -0.097254496559420964 0 0.09612410001565333 -0.098195670916951305 0 0.098963547322495043 -0.097254496559420964 0 0.098206138207756602 -0.097782568883255885 0 0.098206138207756602 -0.097782568883255885 0 0.10330420322687793 -0.095495150430754377 0 0.1016895289145784 -0.096784450565562452 0 0.10716531169102052 -0.093918338596036863 0 0.10570777946584863 -0.093956404802380461 0 0.10733190631451049 -0.092048630303442416 0 0.10716531169102052 -0.093918338596036863 0 0.10330420322687793 -0.095495150430754377 0 0.10570777946584863 -0.093956404802380461 0 0.10330420322687793 -0.095495150430754377 0 0.10570777946584863 -0.093956404802380461 0 0.10471056519227523 -0.094522597987010848 0 0.10471056519227523 -0.094522597987010848 0 0.10733190631451049 -0.092048630303442416 0 0.10512541529553669 -0.095008439429651662 0 0.10570777946584863 -0.093956404802380461 0 0.10471056519227523 -0.094522597987010848 0 0.10733190631451049 -0.092048630303442416 0 0.10733190631451049 -0.092048630303442416 0 0.10512541529553669 -0.095008439429651662 0 0.10399083439076526 -0.094426814781309418 0 0.10330420322687793 -0.095495150430754377 0 0.10471056519227523 -0.094522597987010848 0 0.1016895289145784 -0.096784450565562452 0 0.10471056519227523 -0.094522597987010848 0 0.10512541529553669 -0.095008439429651662 0 0.1016895289145784 -0.096784450565562452 0 0.10007036892197271 -0.1004636079958522 0 0.10512541529553669 -0.095008439429651662 0 0.1016895289145784 -0.096784450565562452 0 0.1073794089663599 -0.093256493521220785 0 0.10610493017374761 -0.093219319508724738 0 0.10668844257196457 -0.091866688145875591 0 0.1073794089663599 -0.093256493521220785 0 0.10512541529553669 -0.095008439429651662 0 0.10610493017374761 -0.093219319508724738 0 0.10244717768394081 -0.095075776235198112 0 0.10309885179617681 -0.09511022073202044 0 0.10610493017374761 -0.093219319508724738 0 0.10668844257196457 -0.091866688145875591 0 0.10650608773794794 -0.091248803619072991 0 0.10668844257196457 -0.091866688145875591 0 0.10650608773794794 -0.091248803619072991 0 0.10607035772896277 -0.09067534846606265 0 0.10737348415472552 -0.091400154463891881 0 0.10668844257196457 -0.091866688145875591 0 0.10607035772896277 -0.09067534846606265 0 0.10650608773794794 -0.091248803619072991 0 0.10399083439076526 -0.094426814781309418 0 0.10224757670475246 -0.086830230221183066 0 0.10610493017374761 -0.093219319508724738 0 0.10650608773794794 -0.091248803619072991 0 0.10399083439076526 -0.094426814781309418 0 0.10689585294368341 -0.086315673864583345 0 0.10681570366527653 -0.082016481725835033 0 0.10512541529553669 -0.095008439429651662 0 0.10610493017374761 -0.093219319508724738 0 0.10399083439076526 -0.094426814781309418 0 0.10695904325450453 -0.087992601503583553 0 0.10689585294368341 -0.086315673864583345 0 0.10733190631451049 -0.092048630303442416 0 0.1099370716806559 -0.083928575786013523 0 0.104993892437847 -0.084040111059277681 0 0.1099370716806559 -0.083928575786013523 0 0.104993892437847 -0.084040111059277681 0 0.11026710255162639 -0.078333634677267436 0 0.10716531169102052 -0.093918338596036863 0 0.10733190631451049 -0.092048630303442416 0 0.104993892437847 -0.084040111059277681 0 0.104993892437847 -0.084040111059277681 0 0.10499887957644277 -0.068344969692960042 0 0.10765692429078713 -0.072551787099373113 0 0.10499887957644277 -0.068344969692960042 0 0.10765692429078713 -0.072551787099373113 0 0.10684054907964492 -0.065580108063415493 0 0.10765692429078713 -0.072551787099373113 0 0.10768493918031483 -0.068878339654551826 0 0.10684054907964492 -0.065580108063415493 0 0.10765692429078713 -0.072551787099373113 0 0.10991635876522771 -0.073098895828884819 0 0.10768493918031483 -0.068878339654551826 0 0.104993892437847 -0.084040111059277681 0 0.10765692429078713 -0.072551787099373113 0 0.11026710255162639 -0.078333634677267436 0 0.10765692429078713 -0.072551787099373113 0 0.10991635876522771 -0.073098895828884819 0 0.11026710255162639 -0.078333634677267436 0 0.10374967991081446 -0.07580656156467834 0 0.10224757670475246 -0.086830230221183066 0 0.11052778417093441 -0.077839808963862001 0 0.10374967991081446 -0.07580656156467834 0 0.11052778417093441 -0.077839808963862001 0 0.1078036725542003 -0.072205040731146503 0 0.10650608773794794 -0.091248803619072991 0 0.10224757670475246 -0.086830230221183066 0 0.11052778417093441 -0.077839808963862001 0 0.1068862261984448 -0.077057950556747828 0 0.10681570366527653 -0.082016481725835033 0 0.10570884620897912 -0.089599088955782114 0 0.10607035772896277 -0.09067534846606265 0 0.10399579949981844 -0.089100384634212756 0 0.10628740588704229 -0.085941709429399563 0 0.10638101561791997 -0.082401739028442597 0 0.10737348415472552 -0.091400154463891881 0 0.10570884620897912 -0.089599088955782114 0 0.10607035772896277 -0.09067534846606265 0 0.10650608773794794 -0.091248803619072991 0 0.10607035772896277 -0.09067534846606265 0 0.10399579949981844 -0.089100384634212756 0 0.10570884620897912 -0.089599088955782114 0 0.10399579949981844 -0.089100384634212756 0 0.10531147395854502 -0.087655757705525209 0 0.10144245430572364 -0.083783790805281921 0 0.10560593716138 -0.084493541424703889 0 0.10531147395854502 -0.087655757705525209 0 0.11052778417093441 -0.077839808963862001 0 0.1078036725542003 -0.072205040731146503 0 0.10958993451151783 -0.068041478408973052 0 0.10399579949981844 -0.089100384634212756 0 0.10144245430572364 -0.083783790805281921 0 0.10531147395854502 -0.087655757705525209 0 0.10638101561791997 -0.082401739028442597 0 0.10622198854990825 -0.077174931812716702 0 0.1068862261984448 -0.077057950556747828 0 0.10697086062935338 -0.074578869019414754 0 0.10374967991081446 -0.07580656156467834 0 0.1078036725542003 -0.072205040731146503 0 0.10768493918031483 -0.068878339654551826 0 0.1078036725542003 -0.072205040731146503 0 0.10768493918031483 -0.068878339654551826 0 0.10958993451151783 -0.068041478408973052 0 0.10768493918031483 -0.068878339654551826 0 0.10825208914765025 -0.067242798507151355 0 0.10684054907964492 -0.065580108063415493 0 0.10768493918031483 -0.068878339654551826 0 0.10958993451151783 -0.068041478408973052 0 0.10825208914765025 -0.067242798507151355 0 0.10144245430572364 -0.083783790805281921 0 0.105176282396854 -0.080853385337571332 0 0.10577566133938242 -0.075846637121589996 0 0.10144245430572364 -0.083783790805281921 0 0.10560593716138 -0.084493541424703889 0 0.105176282396854 -0.080853385337571332 0 0.10560593716138 -0.084493541424703889 0 0.10751829666014313 -0.084376979181004355 0 0.10676556766110501 -0.079382064201636404 0 0.10560593716138 -0.084493541424703889 0 0.105176282396854 -0.080853385337571332 0 0.10676556766110501 -0.079382064201636404 0 0.105176282396854 -0.080853385337571332 0 0.10676556766110501 -0.079382064201636404 0 0.10577566133938242 -0.075846637121589996 0 0.10751829666014313 -0.084376979181004355 0 0.10824818620321509 -0.080633429160497302 0 0.10676556766110501 -0.079382064201636404 0 0.10751829666014313 -0.084376979181004355 0 0.10902176559340454 -0.085249176145704195 0 0.10824818620321509 -0.080633429160497302 0 0.10902176559340454 -0.085249176145704195 0 0.10963982384426477 -0.081270622632369019 0 0.10824818620321509 -0.080633429160497302 0 0.10751829666014313 -0.084376979181004355 0 0.10740678704272352 -0.087431151986660932 0 0.10902176559340454 -0.085249176145704195 0 0.10560593716138 -0.084493541424703889 0 0.10751829666014313 -0.084376979181004355 0 0.10699344053765879 -0.087556093669281992 0 0.10751829666014313 -0.084376979181004355 0 0.10740678704272352 -0.087431151986660932 0 0.10699344053765879 -0.087556093669281992 0 0.10740678704272352 -0.087431151986660932 0 0.10699344053765879 -0.087556093669281992 0 0.10640691778289796 -0.0886442898493736 0 0.10560593716138 -0.084493541424703889 0 0.10699344053765879 -0.087556093669281992 0 0.10531147395854502 -0.087655757705525209 0 0.10699344053765879 -0.087556093669281992 0 0.10531147395854502 -0.087655757705525209 0 0.10636594796968145 -0.088741363199768442 0 0.10570884620897912 -0.089599088955782114 0 0.10531147395854502 -0.087655757705525209 0 0.10636594796968145 -0.088741363199768442 0 0.10737348415472552 -0.091400154463891881 0 0.10570884620897912 -0.089599088955782114 0 0.10909380820388936 -0.090223513037390096 0 0.10570884620897912 -0.089599088955782114 0 0.10636594796968145 -0.088741363199768442 0 0.10725374184234773 -0.08988647556512197 0 0.10471882283055757 -0.092154027770736585 0 0.10273952713678204 -0.092433252349048894 0 0.10699344053765879 -0.087556093669281992 0 0.10636594796968145 -0.088741363199768442 0 0.10725374184234773 -0.08988647556512197 0 0.10699344053765879 -0.087556093669281992 0 0.1065783680468497 -0.088195435101220396 0 0.10640691778289796 -0.0886442898493736 0 0.10376395546533436 -0.089549690726101125 0 0.10273952713678204 -0.092433252349048894 0 0.1065783680468497 -0.088195435101220396 0 0.10640691778289796 -0.0886442898493736 0 0.10532910500901196 -0.088882210054099867 0 0.10640691778289796 -0.0886442898493736 0 0.10545101359232643 -0.089411992612076038 0 0.10532910500901196 -0.088882210054099867 0 0.10545101359232643 -0.089411992612076038 0 0.10365401997889095 -0.090481835902483085 0 0.10614256831857476 -0.089337841620751632 0 0.10545101359232643 -0.089411992612076038 0 0.10532910500901196 -0.088882210054099867 0 0.10365401997889095 -0.090481835902483085 0 0.1065783680468497 -0.088195435101220396 0 0.10532910500901196 -0.088882210054099867 0 0.1041543575927177 -0.087936626917906727 0 0.10273952713678204 -0.092433252349048894 0 0.09875891319719235 -0.093810643847713662 0 0.1065783680468497 -0.088195435101220396 0 0.1041543575927177 -0.087936626917906727 0 0.10373955946314177 -0.086786629816251987 0 0.10532910500901196 -0.088882210054099867 0 0.1041543575927177 -0.087936626917906727 0 0.1028631779803322 -0.089382047880845056 0 0.096525371946505414 -0.085640284211810219 0 0.099541783464514241 -0.088513154174310049 0 0.10329400205366772 -0.086841409265561706 0 0.099541783464514241 -0.088513154174310049 0 0.10329400205366772 -0.086841409265561706 0 0.1022686136522671 -0.088501873570867057 0 0.1041543575927177 -0.087936626917906727 0 0.10329400205366772 -0.086841409265561706 0 0.1022686136522671 -0.088501873570867057 0 0.1041543575927177 -0.087936626917906727 0 0.10373955946314177 -0.086786629816251987 0 0.10329400205366772 -0.086841409265561706 0 0.09875891319719235 -0.093810643847713662 0 0.098798041379326976 -0.093783002688561393 0 0.1041543575927177 -0.087936626917906727 0 0.1022686136522671 -0.088501873570867057 0 0.1028631779803322 -0.089382047880845056 0 0.1022686136522671 -0.088501873570867057 0 0.10115303061611802 -0.089412944218732221 0 0.1028631779803322 -0.089382047880845056 0 0.099541783464514241 -0.088513154174310049 0 0.1022686136522671 -0.088501873570867057 0 0.10115303061611802 -0.089412944218732221 0 0.099541783464514241 -0.088513154174310049 0 0.10115303061611802 -0.089412944218732221 0 0.10002052223743436 -0.090966910367782608 0 0.10115303061611802 -0.089412944218732221 0 0.1028631779803322 -0.089382047880845056 0 0.10002052223743436 -0.090966910367782608 0 0.1028631779803322 -0.089382047880845056 0 0.10365401997889095 -0.090481835902483085 0 0.10002052223743436 -0.090966910367782608 0 0.10532910500901196 -0.088882210054099867 0 0.1028631779803322 -0.089382047880845056 0 0.10365401997889095 -0.090481835902483085 0 0.10365401997889095 -0.090481835902483085 0 0.10015896431471454 -0.092522555945300733 0 0.10002052223743436 -0.090966910367782608 0 0.10365401997889095 -0.090481835902483085 0 0.10248079088838558 -0.093190434972314745 0 0.10015896431471454 -0.092522555945300733 0 0.10365401997889095 -0.090481835902483085 0 0.10248079088838558 -0.093190434972314745 0 0.10614256831857476 -0.089337841620751632 0 0.10248079088838558 -0.093190434972314745 0 0.10614256831857476 -0.089337841620751632 0 0.10902176559340454 -0.085249176145704195 0 0.10740678704272352 -0.087431151986660932 0 0.10614256831857476 -0.089337841620751632 0 0.10902176559340454 -0.085249176145704195 0 0.10740678704272352 -0.087431151986660932 0 0.10640691778289796 -0.0886442898493736 0 0.10614256831857476 -0.089337841620751632 0 0.10640691778289796 -0.0886442898493736 0 0.10545101359232643 -0.089411992612076038 0 0.10614256831857476 -0.089337841620751632 0 0.10510615777985692 -0.091600786780605806 0 0.10902176559340454 -0.085249176145704195 0 0.11023990691328568 -0.084970638896594702 0 0.10902176559340454 -0.085249176145704195 0 0.11023990691328568 -0.084970638896594702 0 0.10963982384426477 -0.081270622632369019 0 0.10079847320227228 -0.092650834517986572 0 0.1035451193622579 -0.091764531762079007 0 0.11023990691328568 -0.084970638896594702 0 0.11588287493283976 -0.079294940674460968 0 0.11850852564498196 -0.080969972982356406 0 0.10510615777985692 -0.091600786780605806 0 0.11023990691328568 -0.084970638896594702 0 0.10084904561922975 -0.097063235136617923 0 0.10527124206464238 -0.087598829529372424 0 0.10509292622755072 -0.088344862508873745 0 0.11588287493283976 -0.079294940674460968 0 0.11182892483799772 -0.077587459121582603 0 0.11481976177641355 -0.07507867866192193 0 0.11023990691328568 -0.084970638896594702 0 0.11588287493283976 -0.079294940674460968 0 0.11182892483799772 -0.077587459121582603 0 0.11023990691328568 -0.084970638896594702 0 0.10963982384426477 -0.081270622632369019 0 0.11182892483799772 -0.077587459121582603 0 0.10963982384426477 -0.081270622632369019 0 0.11182892483799772 -0.077587459121582603 0 0.10933744602705289 -0.076503681764738249 0 0.11352848906246077 -0.07021380604697855 0 0.10861694256310889 -0.067118364551555385 0 0.11182892483799772 -0.077587459121582603 0 0.1099742159901128 -0.070052115654875999 0 0.10933744602705289 -0.076503681764738249 0 0.11182892483799772 -0.077587459121582603 0 0.11481976177641355 -0.07507867866192193 0 0.1099742159901128 -0.070052115654875999 0 0.11158516991756821 -0.06628446545822976 0 0.11216274119035922 -0.061334064720727895 0 0.10904048594689511 -0.060110776401961538 0 0.11158516991756821 -0.06628446545822976 0 0.11216274119035922 -0.061334064720727895 0 0.11519686213180948 -0.064320218997700934 0 0.11216274119035922 -0.061334064720727895 0 0.11521179178890407 -0.058758324780520656 0 0.10972753110364356 -0.056210134552460586 0 0.11216274119035922 -0.061334064720727895 0 0.10904048594689511 -0.060110776401961538 0 0.10972753110364356 -0.056210134552460586 0 0.11158516991756821 -0.06628446545822976 0 0.10904048594689511 -0.060110776401961538 0 0.1078634894468308 -0.062921085214625264 0 0.10904048594689511 -0.060110776401961538 0 0.10723654298664696 -0.059722000068525072 0 0.10832899411107404 -0.055062203748130679 0 0.10904048594689511 -0.060110776401961538 0 0.1078634894468308 -0.062921085214625264 0 0.10723654298664696 -0.059722000068525072 0 0.10723654298664696 -0.059722000068525072 0 0.10542707005710708 -0.062986634180141263 0 0.10501805815398099 -0.059038966690532012 0 0.1099742159901128 -0.070052115654875999 0 0.10542707005710708 -0.062986634180141263 0 0.10706023032407015 -0.068591048305081379 0 0.10861694256310889 -0.067118364551555385 0 0.10601311881609217 -0.065477415304678016 0 0.1078634894468308 -0.062921085214625264 0 0.10723654298664696 -0.059722000068525072 0 0.10542707005710708 -0.062986634180141263 0 0.10542707005710708 -0.062986634180141263 0 0.10706023032407015 -0.068591048305081379 0 0.10560934588294253 -0.066255840624650106 0 0.10706023032407015 -0.068591048305081379 0 0.10652793276340905 -0.070021770521392357 0 0.10560934588294253 -0.066255840624650106 0 0.10652793276340905 -0.070021770521392357 0 0.10641274049909338 -0.068630356454426278 0 0.10560934588294253 -0.066255840624650106 0 0.10652793276340905 -0.070021770521392357 0 0.10624835898212694 -0.070907298192143725 0 0.10689051365380263 -0.073558133420115412 0 0.10652793276340905 -0.070021770521392357 0 0.10624835898212694 -0.070907298192143725 0 0.10641274049909338 -0.068630356454426278 0 0.10652793276340905 -0.070021770521392357 0 0.10784534464720238 -0.072444568949711852 0 0.10689051365380263 -0.073558133420115412 0 0.10706023032407015 -0.068591048305081379 0 0.10652793276340905 -0.070021770521392357 0 0.10784534464720238 -0.072444568949711852 0 0.1099742159901128 -0.070052115654875999 0 0.10706023032407015 -0.068591048305081379 0 0.10784534464720238 -0.072444568949711852 0 0.1099742159901128 -0.070052115654875999 0 0.10784534464720238 -0.072444568949711852 0 0.10933744602705289 -0.076503681764738249 0 0.10784534464720238 -0.072444568949711852 0 0.10765756724151612 -0.076814355870396353 0 0.10933744602705289 -0.076503681764738249 0 0.10765756724151612 -0.076814355870396353 0 0.10933744602705289 -0.076503681764738249 0 0.10824818620321509 -0.080633429160497302 0 0.10963982384426477 -0.081270622632369019 0 0.10933744602705289 -0.076503681764738249 0 0.10824818620321509 -0.080633429160497302 0 0.10765756724151612 -0.076814355870396353 0 0.10824818620321509 -0.080633429160497302 0 0.10676556766110501 -0.079382064201636404 0 0.10765756724151612 -0.076814355870396353 0 0.10676556766110501 -0.079382064201636404 0 0.10689051365380263 -0.073558133420115412 0 0.10676556766110501 -0.079382064201636404 0 0.10577566133938242 -0.075846637121589996 0 0.10689051365380263 -0.073558133420115412 0 0.10624835898212694 -0.070907298192143725 0 0.10577566133938242 -0.075846637121589996 0 0.10689051365380263 -0.073558133420115412 0 0.10784534464720238 -0.072444568949711852 0 0.10765756724151612 -0.076814355870396353 0 0.10689051365380263 -0.073558133420115412 0 0.10958993451151783 -0.068041478408973052 0 0.10825208914765025 -0.067242798507151355 0 0.10563274133196188 -0.069312214048547691 0 0.10622198854990825 -0.077174931812716702 0 0.10620138733520539 -0.074231429368232182 0 0.10144245430572364 -0.083783790805281921 0 0.10577566133938242 -0.075846637121589996 0 0.10563274133196188 -0.069312214048547691 0 0.10825208914765025 -0.067242798507151355 0 0.10745401180247477 -0.067277961403749711 0 0.10563274133196188 -0.069312214048547691 0 0.10624835898212694 -0.070907298192143725 0 0.10577566133938242 -0.075846637121589996 0 0.10563274133196188 -0.069312214048547691 0 0.10825208914765025 -0.067242798507151355 0 0.10763379978587682 -0.065627240832534961 0 0.10684054907964492 -0.065580108063415493 0 0.10825208914765025 -0.067242798507151355 0 0.10763379978587682 -0.065627240832534961 0 0.10745401180247477 -0.067277961403749711 0 0.10741455561420324 -0.066333130461011816 0 0.10817979454957821 -0.063061791426709021 0 0.10720145720590897 -0.061819550723259037 0 0.10763379978587682 -0.065627240832534961 0 0.10741455561420324 -0.066333130461011816 0 0.10720145720590897 -0.061819550723259037 0 0.10763379978587682 -0.065627240832534961 0 0.10745401180247477 -0.067277961403749711 0 0.10741455561420324 -0.066333130461011816 0 0.10741455561420324 -0.066333130461011816 0 0.10641274049909338 -0.068630356454426278 0 0.10817979454957821 -0.063061791426709021 0 0.10745401180247477 -0.067277961403749711 0 0.10741455561420324 -0.066333130461011816 0 0.10563274133196188 -0.069312214048547691 0 0.10741455561420324 -0.066333130461011816 0 0.10563274133196188 -0.069312214048547691 0 0.10641274049909338 -0.068630356454426278 0 0.10624835898212694 -0.070907298192143725 0 0.10563274133196188 -0.069312214048547691 0 0.10641274049909338 -0.068630356454426278 0 0.10707931029768623 -0.062121561546368054 0 0.10685120192690339 -0.058963705081287565 0 0.10542707005710708 -0.062986634180141263 0 0.10560934588294253 -0.066255840624650106 0 0.10251579568572596 -0.061655100846395069 0 0.10641274049909338 -0.068630356454426278 0 0.1115288448000579 -0.057933390996208305 0 0.10817979454957821 -0.063061791426709021 0 0.10641274049909338 -0.068630356454426278 0 0.10560934588294253 -0.066255840624650106 0 0.10251579568572596 -0.061655100846395069 0 0.10542707005710708 -0.062986634180141263 0 0.10251579568572596 -0.061655100846395069 0 0.10501805815398099 -0.059038966690532012 0 0.1115288448000579 -0.057933390996208305 0 0.10833098909271713 -0.058025936144766199 0 0.10990398639265894 -0.050458678820360522 0 0.1115288448000579 -0.057933390996208305 0 0.10833098909271713 -0.058025936144766199 0 0.10817979454957821 -0.063061791426709021 0 0.10833098909271713 -0.058025936144766199 0 0.10817979454957821 -0.063061791426709021 0 0.10720145720590897 -0.061819550723259037 0 0.10720145720590897 -0.061819550723259037 0 0.10713725324350788 -0.054733624450684151 0 0.10499472437741367 -0.056714399396595984 0 0.10833098909271713 -0.058025936144766199 0 0.10720145720590897 -0.061819550723259037 0 0.10713725324350788 -0.054733624450684151 0 0.10499887957644277 -0.068344969692960042 0 0.10499472437741367 -0.056714399396595984 0 0.10684054907964492 -0.065580108063415493 0 0.10720145720590897 -0.061819550723259037 0 0.10499472437741367 -0.056714399396595984 0 0.10684054907964492 -0.065580108063415493 0 0.10763379978587682 -0.065627240832534961 0 0.10720145720590897 -0.061819550723259037 0 0.10684054907964492 -0.065580108063415493 0 0.068628975962416378 -0.10228134961592429 0 0.067743598344373587 -0.10194211025248251 0 0.068005102550615343 -0.10112742217568761 0 0.097150618017685611 -0.087688441420778196 0 0.095400766676497176 -0.087671788506589285 0 0.097150618017685611 -0.087688441420778196 0 0.10107915468973194 -0.089224425975659022 0 0.06950624686206118 -0.10289044430354469 0 0.076627654346141771 -0.10283474039161565 0 0.072941597088974006 -0.10124317165568057 0 0.13192241051895409 -0.080791712478440234 0 0.12620992268579703 -0.079693409964110631 0 0.1298942688226892 -0.077853189654081972 0 0.12620992268579703 -0.079693409964110631 0 0.1298942688226892 -0.077853189654081972 0 0.1282664828644221 -0.074769894411345281 0 0.13070481905157125 -0.075462868888794568 0 0.1298942688226892 -0.077853189654081972 0 0.1282664828644221 -0.074769894411345281 0 0.13070481905157125 -0.075462868888794568 0 0.1298942688226892 -0.077853189654081972 0 0.13324332776536249 -0.076076960350463602 0 0.13192241051895409 -0.080791712478440234 0 0.1298942688226892 -0.077853189654081972 0 0.13324332776536249 -0.076076960350463602 0 0.097150618017685611 -0.087688441420778196 0 0.098906354702590751 -0.086932031413981981 0 0.067897462700089825 -0.10196218162300109 0 0.067570566709014124 -0.10265949193861221 0 0.067532494469670065 -0.10225275117774962 0 0.067570566709014124 -0.10265949193861221 0 0.067307687632836136 -0.10273620499821151 0 0.067345504708452977 -0.1025083792741351 0 0.067307687632836136 -0.10273620499821151 0 0.067024632627821726 -0.10251173047011668 0 0.066794618988195026 -0.10285824349732924 0 0.067307687632836136 -0.10273620499821151 0 0.067024632627821726 -0.10251173047011668 0 0.067345504708452977 -0.1025083792741351 0 0.067024632627821726 -0.10251173047011668 0 0.067255824693455854 -0.10231590665038255 0 0.067345504708452977 -0.1025083792741351 0 0.067024632627821726 -0.10251173047011668 0 0.067255824693455854 -0.10231590665038255 0 0.066833286418311363 -0.1022033258442181 0 0.067255824693455854 -0.10231590665038255 0 0.067345504708452977 -0.1025083792741351 0 0.067532494469670065 -0.10225275117774962 0 0.067570566709014124 -0.10265949193861221 0 0.067345504708452977 -0.1025083792741351 0 0.067532494469670065 -0.10225275117774962 0 0.066193334152045299 -0.10304732549922152 0 0.066504036522192583 -0.1024045267408815 0 0.066794618988195026 -0.10285824349732924 0 0.067024632627821726 -0.10251173047011668 0 0.066504036522192583 -0.1024045267408815 0 0.066794618988195026 -0.10285824349732924 0 0.067024632627821726 -0.10251173047011668 0 0.066504036522192583 -0.1024045267408815 0 0.066833286418311363 -0.1022033258442181 0 0.066504036522192583 -0.1024045267408815 0 0.066833286418311363 -0.1022033258442181 0 0.066248841208518941 -0.10180732269483089 0 0.066833286418311363 -0.1022033258442181 0 0.066248841208518941 -0.10180732269483089 0 0.066828844053574255 -0.10185221452814412 0 0.066248841208518941 -0.10180732269483089 0 0.066828844053574255 -0.10185221452814412 0 0.066424585246433174 -0.10139091672967722 0 0.067532494469670065 -0.10225275117774962 0 0.06729399507045164 -0.10207420281119542 0 0.067743598344373587 -0.10194211025248251 0 0.067897462700089825 -0.10196218162300109 0 0.067532494469670065 -0.10225275117774962 0 0.067743598344373587 -0.10194211025248251 0 0.067255824693455854 -0.10231590665038255 0 0.067532494469670065 -0.10225275117774962 0 0.06729399507045164 -0.10207420281119542 0 0.067255824693455854 -0.10231590665038255 0 0.066833286418311363 -0.1022033258442181 0 0.06729399507045164 -0.10207420281119542 0 0.066833286418311363 -0.1022033258442181 0 0.06729399507045164 -0.10207420281119542 0 0.066828844053574255 -0.10185221452814412 0 0.067196577515458822 -0.10150782783994425 0 0.066828844053574255 -0.10185221452814412 0 0.066424585246433174 -0.10139091672967722 0 0.06729399507045164 -0.10207420281119542 0 0.067196577515458822 -0.10150782783994425 0 0.066828844053574255 -0.10185221452814412 0 0.06729399507045164 -0.10207420281119542 0 0.067196577515458822 -0.10150782783994425 0 0.067743598344373587 -0.10194211025248251 0 0.067196577515458822 -0.10150782783994425 0 0.067743598344373587 -0.10194211025248251 0 0.068005102550615343 -0.10112742217568761 0 0.067196577515458822 -0.10150782783994425 0 0.068005102550615343 -0.10112742217568761 0 0.067115545084303563 -0.10050097242548905 0 0.067196577515458822 -0.10150782783994425 0 0.067115545084303563 -0.10050097242548905 0 0.066424585246433174 -0.10139091672967722 0 0.068005102550615343 -0.10112742217568761 0 0.067115545084303563 -0.10050097242548905 0 0.069414341727559323 -0.10008268389976148 0 0.065772826672710075 -0.1012794519186474 0 0.066248841208518941 -0.10180732269483089 0 0.066424585246433174 -0.10139091672967722 0 0.067115545084303563 -0.10050097242548905 0 0.066424585246433174 -0.10139091672967722 0 0.065951637158152027 -0.10088223981688639 0 0.065772826672710075 -0.1012794519186474 0 0.066424585246433174 -0.10139091672967722 0 0.065951637158152027 -0.10088223981688639 0 0.066149154529083667 -0.10043448785428895 0 0.065322208495463649 -0.1012288985955115 0 0.065951637158152027 -0.10088223981688639 0 0.065543007542521139 -0.10101642380518931 0 0.065322208495463649 -0.1012288985955115 0 0.065951637158152027 -0.10088223981688639 0 0.066149154529083667 -0.10043448785428895 0 0.067115545084303563 -0.10050097242548905 0 0.065951637158152027 -0.10088223981688639 0 0.066149154529083667 -0.10043448785428895 0 0.067115545084303563 -0.10050097242548905 0 0.068857005450292094 -0.098875640836555201 0 0.068857005450292094 -0.098875640836555201 0 0.069414341727559323 -0.10008268389976148 0 0.072383427304275619 -0.098124783969673765 0 0.067115545084303563 -0.10050097242548905 0 0.068857005450292094 -0.098875640836555201 0 0.069414341727559323 -0.10008268389976148 0 0.097150618017685611 -0.087688441420778196 0 0.093670839786011872 -0.092988866595155123 0 0.068628975962416378 -0.10228134961592429 0 0.068005102550615343 -0.10112742217568761 0 0.069414341727559323 -0.10008268389976148 0 0.06950624686206118 -0.10289044430354469 0 0.072941597088974006 -0.10124317165568057 0 0.069414341727559323 -0.10008268389976148 0 0.072941597088974006 -0.10124317165568057 0 0.072383427304275619 -0.098124783969673765 0 0.080127359291887523 -0.095424960015751556 0 0.072941597088974006 -0.10124317165568057 0 0.069414341727559323 -0.10008268389976148 0 0.072383427304275619 -0.098124783969673765 0 0.072135633183210326 -0.095896358841383894 0 0.068857005450292094 -0.098875640836555201 0 0.072383427304275619 -0.098124783969673765 0 0.072135633183210326 -0.095896358841383894 0 0.072383427304275619 -0.098124783969673765 0 0.080127359291887523 -0.095424960015751556 0 0.079653174812055222 -0.092237190020008866 0 0.072135633183210326 -0.095896358841383894 0 0.080127359291887523 -0.095424960015751556 0 0.079653174812055222 -0.092237190020008866 0 0.080127359291887523 -0.095424960015751556 0 0.086533176505141821 -0.092061799301538433 0 0.088483626035911006 -0.092131063318854359 0 0.093521165410517818 -0.092739757560368841 0 0.080127359291887523 -0.095424960015751556 0 0.092150750015431812 -0.09317334557177559 0 0.084467783987249273 -0.097611033595494348 0 0.080127359291887523 -0.095424960015751556 0 0.086533176505141821 -0.092061799301538433 0 0.091781199054782756 -0.096038075751492605 0 0.076627654346141771 -0.10283474039161565 0 0.072941597088974006 -0.10124317165568057 0 0.080127359291887523 -0.095424960015751556 0 0.076627654346141771 -0.10283474039161565 0 0.080127359291887523 -0.095424960015751556 0 0.084467783987249273 -0.097611033595494348 0 0.08992217049108589 -0.088806860351900718 0 0.096525371946505414 -0.085640284211810219 0 0.094194994107500929 -0.09050056354920033 0 0.099541783464514241 -0.088513154174310049 0 0.094194994107500929 -0.09050056354920033 0 0.10002052223743436 -0.090966910367782608 0 0.096525371946505414 -0.085640284211810219 0 0.099541783464514241 -0.088513154174310049 0 0.094194994107500929 -0.09050056354920033 0 0.086533176505141821 -0.092061799301538433 0 0.094194994107500929 -0.09050056354920033 0 0.091781199054782756 -0.096038075751492605 0 0.08992217049108589 -0.088806860351900718 0 0.086533176505141821 -0.092061799301538433 0 0.094194994107500929 -0.09050056354920033 0 0.094194994107500929 -0.09050056354920033 0 0.091781199054782756 -0.096038075751492605 0 0.10002052223743436 -0.090966910367782608 0 0.091781199054782756 -0.096038075751492605 0 0.10015896431471454 -0.092522555945300733 0 0.10002052223743436 -0.090966910367782608 0 0.10510615777985692 -0.091600786780605806 0 0.094260799109626342 -0.096668503230862776 0 0.10084904561922975 -0.097063235136617923 0 0.10079847320227228 -0.092650834517986572 0 0.093521165410517818 -0.092739757560368841 0 0.10248079088838558 -0.093190434972314745 0 0.091781199054782756 -0.096038075751492605 0 0.10015896431471454 -0.092522555945300733 0 0.10510615777985692 -0.091600786780605806 0 0.092150750015431812 -0.09317334557177559 0 0.094260799109626342 -0.096668503230862776 0 0.092150750015431812 -0.09317334557177559 0 0.094260799109626342 -0.096668503230862776 0 0.084467783987249273 -0.097611033595494348 0 0.094260799109626342 -0.096668503230862776 0 0.10084904561922975 -0.097063235136617923 0 0.087016703819493862 -0.10182072008609336 0 0.10509292622755072 -0.088344862508873745 0 0.10323729196466522 -0.089123372602697801 0 0.12024693060377162 -0.078806111229923176 0 0.11850852564498196 -0.080969972982356406 0 0.12141291908052544 -0.079027333702695921 0 0.10107915468973194 -0.089224425975659022 0 0.10323729196466522 -0.089123372602697801 0 0.076627654346141771 -0.10283474039161565 0 0.084467783987249273 -0.097611033595494348 0 0.087016703819493862 -0.10182072008609336 0 0.094260799109626342 -0.096668503230862776 0 0.084467783987249273 -0.097611033595494348 0 0.087016703819493862 -0.10182072008609336 0 0.12024693060377162 -0.078806111229923176 0 0.12141291908052544 -0.079027333702695921 0 0.12299483917718079 -0.07571512522201676 0 0.12620992268579703 -0.079693409964110631 0 0.12141291908052544 -0.079027333702695921 0 0.12299483917718079 -0.07571512522201676 0 0.12620992268579703 -0.079693409964110631 0 0.12299483917718079 -0.07571512522201676 0 0.1282664828644221 -0.074769894411345281 0 0.12299483917718079 -0.07571512522201676 0 0.12602237404469913 -0.071225992968545745 0 0.1282664828644221 -0.074769894411345281 0 0.12299483917718079 -0.07571512522201676 0 0.12193747080745711 -0.069419378541841339 0 0.12602237404469913 -0.071225992968545745 0 0.12299483917718079 -0.07571512522201676 0 0.12193747080745711 -0.069419378541841339 0 0.11630597997881105 -0.070375094898044471 0 0.12145144532645971 -0.074468972892432317 0 0.11859959070743316 -0.073075547139919372 0 0.12193747080745711 -0.069419378541841339 0 0.11835591781895219 -0.066297746775896518 0 0.12074540189816715 -0.063973912349002293 0 0.12193747080745711 -0.069419378541841339 0 0.12602237404469913 -0.071225992968545745 0 0.12588299352060439 -0.066798012207782712 0 0.12193747080745711 -0.069419378541841339 0 0.12588299352060439 -0.066798012207782712 0 0.12074540189816715 -0.063973912349002293 0 0.11588287493283976 -0.079294940674460968 0 0.11481976177641355 -0.07507867866192193 0 0.11998408246453317 -0.077348624384161582 0 0.11588287493283976 -0.079294940674460968 0 0.11850852564498196 -0.080969972982356406 0 0.11998408246453317 -0.077348624384161582 0 0.12024693060377162 -0.078806111229923176 0 0.11850852564498196 -0.080969972982356406 0 0.11998408246453317 -0.077348624384161582 0 0.12024693060377162 -0.078806111229923176 0 0.12299483917718079 -0.07571512522201676 0 0.11998408246453317 -0.077348624384161582 0 0.11630597997881105 -0.070375094898044471 0 0.11835591781895219 -0.066297746775896518 0 0.11519686213180948 -0.064320218997700934 0 0.12193747080745711 -0.069419378541841339 0 0.11630597997881105 -0.070375094898044471 0 0.11835591781895219 -0.066297746775896518 0 0.11158516991756821 -0.06628446545822976 0 0.11630597997881105 -0.070375094898044471 0 0.11519686213180948 -0.064320218997700934 0 0.11352848906246077 -0.07021380604697855 0 0.11859959070743316 -0.073075547139919372 0 0.11835591781895219 -0.066297746775896518 0 0.11519686213180948 -0.064320218997700934 0 0.11798578430664852 -0.062824125867786781 0 0.11835591781895219 -0.066297746775896518 0 0.11798578430664852 -0.062824125867786781 0 0.12074540189816715 -0.063973912349002293 0 0.11798578430664852 -0.062824125867786781 0 0.12003391893243309 -0.061118369538553381 0 0.11521179178890407 -0.058758324780520656 0 0.11103533709001838 -0.057911225781215721 0 0.1101671945214886 -0.056906909687207297 0 0.11216274119035922 -0.061334064720727895 0 0.11519686213180948 -0.064320218997700934 0 0.11521179178890407 -0.058758324780520656 0 0.11519686213180948 -0.064320218997700934 0 0.11798578430664852 -0.062824125867786781 0 0.11521179178890407 -0.058758324780520656 0 0.11895003722258685 -0.073423871516511724 0 0.11907848692416811 -0.071955964527478905 0 0.12192541053880775 -0.063911471223592003 0 0.12074540189816715 -0.063973912349002293 0 0.12226827707136957 -0.0629366179185675 0 0.11798578430664852 -0.062824125867786781 0 0.12074540189816715 -0.063973912349002293 0 0.12003391893243309 -0.061118369538553381 0 0.12074540189816715 -0.063973912349002293 0 0.12003391893243309 -0.061118369538553381 0 0.12226827707136957 -0.0629366179185675 0 0.10431155505204064 -0.051796236585295113 0 0.10232194873713499 -0.051381009318876757 0 0.10326834856843378 -0.05262915328935034 0 0.11103533709001838 -0.057911225781215721 0 0.11072979221624889 -0.05971895448648612 0 0.12226827707136957 -0.0629366179185675 0 0.12207453458239989 -0.06373948719152342 0 0.12220397097451917 -0.063596628939988117 0 0.10232194873713499 -0.051381009318876757 0 0.10080061012459401 -0.051222239271940341 0 0.10127634299585757 -0.052016851622975938 0 0.11072979221624889 -0.05971895448648612 0 0.10770691997867241 -0.062849837807117448 0 0.10080061012459401 -0.051222239271940341 0 0.10032111267173933 -0.052033550704936579 0 0.10127634299585757 -0.052016851622975938 0 0.12207453458239989 -0.06373948719152342 0 0.12199419496336143 -0.063680607599168701 0 0.12175393606043235 -0.063741872422396761 0 0.12207453458239989 -0.06373948719152342 0 0.12199419496336143 -0.063680607599168701 0 0.12220397097451917 -0.063596628939988117 0 0.12204295874789702 -0.06362225389895633 0 0.12220397097451917 -0.063596628939988117 0 0.122151695675887 -0.063651192841956444 0 0.12199419496336143 -0.063680607599168701 0 0.12204295874789702 -0.06362225389895633 0 0.12220397097451917 -0.063596628939988117 0 0.12199419496336143 -0.063680607599168701 0 0.12204295874789702 -0.06362225389895633 0 0.12192487200640241 -0.063630466060017085 0 0.12192541053880775 -0.063911471223592003 0 0.12226827707136957 -0.0629366179185675 0 0.12220397097451917 -0.063596628939988117 0 0.12192541053880775 -0.063911471223592003 0 0.12220397097451917 -0.063596628939988117 0 0.122151695675887 -0.063651192841956444 0 0.11895003722258685 -0.073423871516511724 0 0.1155021398814066 -0.077190732920498439 0 0.12602237404469913 -0.071225992968545745 0 0.12588299352060439 -0.066798012207782712 0 0.1301691605451003 -0.069201775976237306 0 0.1301691605451003 -0.069201775976237306 0 0.13147745630681479 -0.073132928208055656 0 0.13432589716369625 -0.071055315510602679 0 0.12204295874789702 -0.06362225389895633 0 0.122151695675887 -0.063651192841956444 0 0.12189597664637392 -0.063457417259260226 0 0.1155021398814066 -0.077190732920498439 0 0.1005910913507217 -0.081985466420319106 0 0.12204295874789702 -0.06362225389895633 0 0.12189597664637392 -0.063457417259260226 0 0.12192487200640241 -0.063630466060017085 0 0.13324332776536249 -0.076076960350463602 0 0.13147745630681479 -0.073132928208055656 0 0.13432589716369625 -0.071055315510602679 0 0.13070481905157125 -0.075462868888794568 0 0.13324332776536249 -0.076076960350463602 0 0.13147745630681479 -0.073132928208055656 0 0.13070481905157125 -0.075462868888794568 0 0.13147745630681479 -0.073132928208055656 0 0.1282664828644221 -0.074769894411345281 0 0.1301691605451003 -0.069201775976237306 0 0.13147745630681479 -0.073132928208055656 0 0.1282664828644221 -0.074769894411345281 0 0.12602237404469913 -0.071225992968545745 0 0.1301691605451003 -0.069201775976237306 0 0.1282664828644221 -0.074769894411345281 0 0.066193334152045299 -0.10304732549922152 0 0.066794618988195026 -0.10285824349732924 0 0.067112211873171596 -0.10340250171510142 0 0.079990040113171942 -0.087391423435135063 0 0.092660205599603182 -0.08420240650241563 0 0.067307687632836136 -0.10273620499821151 0 0.067352735258652763 -0.10290736010272118 0 0.067499554400058615 -0.10297002067751593 0 0.088991704881150574 -0.091066616065347897 0 0.092660205599603182 -0.08420240650241563 0 0.067307687632836136 -0.10273620499821151 0 0.066794618988195026 -0.10285824349732924 0 0.067112211873171596 -0.10340250171510142 0 0.098906354702590751 -0.086932031413981981 0 0.1005910913507217 -0.081985466420319106 0 0.067570566709014124 -0.10265949193861221 0 0.067307687632836136 -0.10273620499821151 0 0.067499554400058615 -0.10297002067751593 0 0.092660205599603182 -0.08420240650241563 0 0.093110239448950402 -0.079867193574678239 0 0.092660205599603182 -0.08420240650241563 0 0.1005910913507217 -0.081985466420319106 0 0.12189597664637392 -0.063457417259260226 0 0.12192487200640241 -0.063630466060017085 0 0.12175393606043235 -0.063741872422396761 0 0.12148297217595823 -0.064304311881194981 0 0.12186932958336751 -0.064097336074718611 0 0.12172688701142763 -0.06382732211479783 0 0.12175436269974871 -0.064437738163021022 0 0.12148297217595823 -0.064304311881194981 0 0.12186932958336751 -0.064097336074718611 0 0.1005910913507217 -0.081985466420319106 0 0.10540553010930961 -0.071792603537519081 0 0.093110239448950402 -0.079867193574678239 0 0.095711791920008643 -0.079746942262219053 0 0.079990040113171942 -0.087391423435135063 0 0.093110239448950402 -0.079867193574678239 0 0.086303780256547877 -0.084607874351384588 0 0.089452303371197375 -0.085741346894202514 0 0.088997299563530904 -0.087500714885168446 0 0.07417361948395923 -0.087598336401886079 0 0.07395220184981402 -0.088411134248106107 0 0.074999898216269081 -0.088456705380905706 0 0.093110239448950402 -0.079867193574678239 0 0.094628379263168652 -0.068015099076563848 0 0.07395220184981402 -0.088411134248106107 0 0.074999898216269081 -0.088456705380905706 0 0.074790382862020652 -0.08923814420559785 0 0.12207453458239989 -0.06373948719152342 0 0.1214654075385237 -0.063900940640344933 0 0.12175393606043235 -0.063741872422396761 0 0.12153017353258623 -0.06367566645141863 0 0.1214654075385237 -0.063900940640344933 0 0.12172688701142763 -0.06382732211479783 0 0.10770691997867241 -0.062849837807117448 0 0.094628379263168652 -0.068015099076563848 0 0.12148297217595823 -0.064304311881194981 0 0.12172688701142763 -0.06382732211479783 0 0.12175393606043235 -0.063741872422396761 0 0.12199419496336143 -0.063680607599168701 0 0.12192487200640241 -0.063630466060017085 0 0.12175393606043235 -0.063741872422396761 0 0.1214654075385237 -0.063900940640344933 0 0.12172688701142763 -0.06382732211479783 0 0.12175393606043235 -0.063741872422396761 0 0.10080061012459401 -0.051222239271940341 0 0.099496401143557803 -0.051070132624572988 0 0.10032111267173933 -0.052033550704936579 0 0.094628379263168652 -0.068015099076563848 0 0.098248180305932048 -0.055205104187054238 0 0.099496401143557803 -0.051070132624572988 0 0.099190407194542043 -0.052383292448342965 0 0.10032111267173933 -0.052033550704936579 0 0.098925558383719081 -0.052680765725209112 0 0.099320680704475195 -0.052451343760200213 0 0.099143138884042914 -0.053092773161790952 0 0.099190407194542043 -0.052383292448342965 0 0.10032111267173933 -0.052033550704936579 0 0.10026806156647669 -0.052794743503783041 0 0.10026806156647669 -0.052794743503783041 0 0.099777028448386623 -0.053391665918316483 0 0.1007329705699181 -0.053418761563688751 0 0.099190407194542043 -0.052383292448342965 0 0.10026806156647669 -0.052794743503783041 0 0.099777028448386623 -0.053391665918316483 0 0.099190407194542043 -0.052383292448342965 0 0.099777028448386623 -0.053391665918316483 0 0.098975621724501542 -0.053634583593985312 0 0.099777028448386623 -0.053391665918316483 0 0.0993770431779675 -0.053931687908032974 0 0.098975621724501542 -0.053634583593985312 0 0.099777028448386623 -0.053391665918316483 0 0.10022274810476003 -0.053784055234803022 0 0.0993770431779675 -0.053931687908032974 0 0.099777028448386623 -0.053391665918316483 0 0.10022274810476003 -0.053784055234803022 0 0.1007329705699181 -0.053418761563688751 0 0.10022274810476003 -0.053784055234803022 0 0.0993770431779675 -0.053931687908032974 0 0.10044686728468394 -0.054207178694077193 0 0.0993770431779675 -0.053931687908032974 0 0.098975621724501542 -0.053634583593985312 0 0.098864409032747375 -0.054015888153083259 0 0.0993770431779675 -0.053931687908032974 0 0.098864409032747375 -0.054015888153083259 0 0.098662922866151137 -0.054055009627585332 0 0.10154848755762259 -0.054353264033992911 0 0.10091705947279524 -0.053917323925030548 0 0.10171144436456861 -0.053598595165879032 0 0.10022274810476003 -0.053784055234803022 0 0.10091705947279524 -0.053917323925030548 0 0.10044686728468394 -0.054207178694077193 0 0.10154848755762259 -0.054353264033992911 0 0.10091705947279524 -0.053917323925030548 0 0.10044686728468394 -0.054207178694077193 0 0.10091705947279524 -0.053917323925030548 0 0.1007329705699181 -0.053418761563688751 0 0.10171144436456861 -0.053598595165879032 0 0.10022274810476003 -0.053784055234803022 0 0.10091705947279524 -0.053917323925030548 0 0.1007329705699181 -0.053418761563688751 0 0.10154848755762259 -0.054353264033992911 0 0.10171144436456861 -0.053598595165879032 0 0.10278354195950483 -0.054160710728865823 0 0.10171144436456861 -0.053598595165879032 0 0.10101993913451912 -0.052744229388863619 0 0.10207644196698483 -0.052685737966615104 0 0.10171144436456861 -0.053598595165879032 0 0.10207644196698483 -0.052685737966615104 0 0.10299944613316325 -0.053547201996168074 0 0.1007329705699181 -0.053418761563688751 0 0.10171144436456861 -0.053598595165879032 0 0.10101993913451912 -0.052744229388863619 0 0.10026806156647669 -0.052794743503783041 0 0.1007329705699181 -0.053418761563688751 0 0.10101993913451912 -0.052744229388863619 0 0.10032111267173933 -0.052033550704936579 0 0.10101993913451912 -0.052744229388863619 0 0.10127634299585757 -0.052016851622975938 0 0.10032111267173933 -0.052033550704936579 0 0.10026806156647669 -0.052794743503783041 0 0.10101993913451912 -0.052744229388863619 0 0.10101993913451912 -0.052744229388863619 0 0.10127634299585757 -0.052016851622975938 0 0.10207644196698483 -0.052685737966615104 0 0.10232194873713499 -0.051381009318876757 0 0.10127634299585757 -0.052016851622975938 0 0.10207644196698483 -0.052685737966615104 0 0.10232194873713499 -0.051381009318876757 0 0.10207644196698483 -0.052685737966615104 0 0.10326834856843378 -0.05262915328935034 0 0.10431155505204064 -0.051796236585295113 0 0.10326834856843378 -0.05262915328935034 0 0.1049643040303013 -0.053726746188860849 0 0.10326834856843378 -0.05262915328935034 0 0.10299944613316325 -0.053547201996168074 0 0.1049643040303013 -0.053726746188860849 0 0.10299944613316325 -0.053547201996168074 0 0.1049643040303013 -0.053726746188860849 0 0.10396340835982244 -0.054195658053892773 0 0.10207644196698483 -0.052685737966615104 0 0.10326834856843378 -0.05262915328935034 0 0.10299944613316325 -0.053547201996168074 0 0.10686356567141694 -0.052956854110206258 0 0.1049643040303013 -0.053726746188860849 0 0.10733883397650257 -0.054641598373907543 0 0.10431155505204064 -0.051796236585295113 0 0.10686356567141694 -0.052956854110206258 0 0.1049643040303013 -0.053726746188860849 0 0.10733883397650257 -0.054641598373907543 0 0.10641518861092548 -0.055391873673183961 0 0.10881693057577804 -0.055243911810849797 0 0.1049643040303013 -0.053726746188860849 0 0.10733883397650257 -0.054641598373907543 0 0.10641518861092548 -0.055391873673183961 0 0.1049643040303013 -0.053726746188860849 0 0.10641518861092548 -0.055391873673183961 0 0.10396340835982244 -0.054195658053892773 0 0.10641518861092548 -0.055391873673183961 0 0.10396340835982244 -0.054195658053892773 0 0.10400687678592067 -0.054407883979839443 0 0.10681679477659196 -0.052369296918987736 0 0.10400687678592067 -0.054407883979839443 0 0.10600350185275623 -0.055049462508071169 0 0.10691571069243648 -0.054103978523617188 0 0.10609110043313238 -0.054321670065576477 0 0.10681679477659196 -0.052369296918987736 0 0.10740640129443733 -0.053420415622915683 0 0.10600350185275623 -0.055049462508071169 0 0.10299944613316325 -0.053547201996168074 0 0.10278354195950483 -0.054160710728865823 0 0.10396340835982244 -0.054195658053892773 0 0.10171144436456861 -0.053598595165879032 0 0.10299944613316325 -0.053547201996168074 0 0.10278354195950483 -0.054160710728865823 0 0.10278354195950483 -0.054160710728865823 0 0.10396340835982244 -0.054195658053892773 0 0.10400687678592067 -0.054407883979839443 0 0.10278354195950483 -0.054160710728865823 0 0.10400687678592067 -0.054407883979839443 0 0.10244866549217099 -0.054785276384965838 0 0.10154848755762259 -0.054353264033992911 0 0.10278354195950483 -0.054160710728865823 0 0.10244866549217099 -0.054785276384965838 0 0.10244866549217099 -0.054785276384965838 0 0.10312641209895723 -0.055267798784780525 0 0.10260953578767711 -0.055381767223464919 0 0.10400687678592067 -0.054407883979839443 0 0.10244866549217099 -0.054785276384965838 0 0.10312641209895723 -0.055267798784780525 0 0.1000599824713401 -0.055307697007970939 0 0.099275642289551574 -0.055345319951529581 0 0.10312641209895723 -0.055267798784780525 0 0.10260953578767711 -0.055381767223464919 0 0.10238895145555187 -0.054845015687385985 0 0.10244866549217099 -0.054785276384965838 0 0.10260953578767711 -0.055381767223464919 0 0.10124914048119095 -0.054788700424542647 0 0.10163664515631429 -0.055779129954215537 0 0.098962566739027175 -0.055782874461758863 0 0.099906703157399593 -0.055042101374082469 0 0.10163664515631429 -0.055779129954215537 0 0.10238895145555187 -0.054845015687385985 0 0.099906703157399593 -0.055042101374082469 0 0.10328333883304977 -0.053761927970767773 0 0.10306334510005478 -0.052628954661251587 0 0.10740640129443733 -0.053420415622915683 0 0.10600350185275623 -0.055049462508071169 0 0.10826659380952007 -0.053520717315901155 0 0.10312641209895723 -0.055267798784780525 0 0.10163664515631429 -0.055779129954215537 0 0.10238895145555187 -0.054845015687385985 0 0.10322713540593316 -0.054099819548879283 0 0.10328333883304977 -0.053761927970767773 0 0.10400687678592067 -0.054407883979839443 0 0.10312641209895723 -0.055267798784780525 0 0.10600350185275623 -0.055049462508071169 0 0.096348038724439367 -0.055665176244767529 0 0.096501163425599376 -0.055438033660958369 0 0.096397403391675823 -0.055359830125371018 0 0.099275642289551574 -0.055345319951529581 0 0.098356200100297206 -0.055440465283052832 0 0.096348038724439367 -0.055665176244767529 0 0.096501163425599376 -0.055438033660958369 0 0.096661600122472394 -0.055223622864371776 0 0.096501163425599376 -0.055438033660958369 0 0.096583636522765359 -0.055428282316069999 0 0.096397403391675823 -0.055359830125371018 0 0.096348038724439367 -0.055665176244767529 0 0.096397403391675823 -0.055359830125371018 0 0.096281582327409909 -0.055205148928779993 0 0.096397403391675823 -0.055359830125371018 0 0.096281582327409909 -0.055205148928779993 0 0.096500146771161768 -0.055579803658209706 0 0.098079852618780258 -0.051991460285203434 0 0.097986733219913094 -0.04998756556088662 0 0.096281582327409909 -0.055205148928779993 0 0.093789954172222675 -0.052787108152161484 0 0.09599231042810033 -0.051971231791242821 0 0.096662423977279435 -0.055521226786267225 0 0.09665514677599174 -0.055594249435406355 0 0.096500146771161768 -0.055579803658209706 0 0.096583636522765359 -0.055428282316069999 0 0.096397403391675823 -0.055359830125371018 0 0.096500146771161768 -0.055579803658209706 0 0.096583636522765359 -0.055428282316069999 0 0.096662423977279435 -0.055521226786267225 0 0.096500146771161768 -0.055579803658209706 0 0.097718236919455109 -0.056066690852744509 0 0.097714386144110515 -0.054597496926769844 0 0.10067092531714213 -0.055319293741855069 0 0.1000599824713401 -0.055307697007970939 0 0.10043837673418256 -0.055242725586028558 0 0.097718236919455109 -0.056066690852744509 0 0.096281582327409909 -0.055205148928779993 0 0.097714386144110515 -0.054597496926769844 0 0.097718236919455109 -0.056066690852744509 0 0.096348038724439367 -0.055665176244767529 0 0.096281582327409909 -0.055205148928779993 0 0.097714386144110515 -0.054597496926769844 0 0.098532266991943118 -0.053129121144121903 0 0.09599231042810033 -0.051971231791242821 0 0.096281582327409909 -0.055205148928779993 0 0.097714386144110515 -0.054597496926769844 0 0.09599231042810033 -0.051971231791242821 0 0.097714386144110515 -0.054597496926769844 0 0.10067092531714213 -0.055319293741855069 0 0.098532266991943118 -0.053129121144121903 0 0.10067092531714213 -0.055319293741855069 0 0.10086442544234851 -0.054475070269340065 0 0.1002979582371238 -0.053059872751199152 0 0.10067092531714213 -0.055319293741855069 0 0.1002979582371238 -0.053059872751199152 0 0.098532266991943118 -0.053129121144121903 0 0.10067092531714213 -0.055319293741855069 0 0.10059945452009418 -0.054860717605261053 0 0.10043110603588562 -0.054609331183111086 0 0.10067092531714213 -0.055319293741855069 0 0.10086442544234851 -0.054475070269340065 0 0.10059945452009418 -0.054860717605261053 0 0.10083100476952123 -0.054524834813801937 0 0.10086442544234851 -0.054475070269340065 0 0.10059945452009418 -0.054860717605261053 0 0.10083100476952123 -0.054524834813801937 0 0.10086442544234851 -0.054475070269340065 0 0.10163583735701856 -0.053083806527352347 0 0.093486844474537034 -0.050403457433579761 0 0.093187403900024154 -0.050696088704633067 0 0.090290415664225021 -0.047687645583778984 0 0.10083100476952123 -0.054524834813801937 0 0.10031102521988433 -0.055057242411042186 0 0.10163583735701856 -0.053083806527352347 0 0.096592528668914324 -0.051564468471206527 0 0.095658425833910279 -0.04962683664247744 0 0.094431898755625437 -0.049251247752207405 0 0.095626131595108771 -0.048129601481117001 0 0.093486844474537034 -0.050403457433579761 0 0.097004107480517854 -0.048450456936353269 0 0.097479544222608169 -0.051182474257618293 0 0.093486844474537034 -0.050403457433579761 0 0.098001079684817111 -0.053985380227669459 0 0.097479544222608169 -0.051182474257618293 0 0.093486844474537034 -0.050403457433579761 0 0.093187403900024154 -0.050696088704633067 0 0.098001079684817111 -0.053985380227669459 0 0.096592528668914324 -0.051564468471206527 0 0.097082252441620678 -0.052406207708473075 0 0.10031102521988433 -0.055057242411042186 0 0.10059945452009418 -0.054860717605261053 0 0.098001079684817111 -0.053985380227669459 0 0.10083100476952123 -0.054524834813801937 0 0.10031102521988433 -0.055057242411042186 0 0.10059945452009418 -0.054860717605261053 0 0.10059945452009418 -0.054860717605261053 0 0.098001079684817111 -0.053985380227669459 0 0.10043110603588562 -0.054609331183111086 0 0.098001079684817111 -0.053985380227669459 0 0.099266692255398636 -0.054087092225828526 0 0.10043110603588562 -0.054609331183111086 0 0.098001079684817111 -0.053985380227669459 0 0.099266692255398636 -0.054087092225828526 0 0.098662922866151137 -0.054055009627585332 0 0.0993770431779675 -0.053931687908032974 0 0.099266692255398636 -0.054087092225828526 0 0.098662922866151137 -0.054055009627585332 0 0.0993770431779675 -0.053931687908032974 0 0.099266692255398636 -0.054087092225828526 0 0.10044686728468394 -0.054207178694077193 0 0.099266692255398636 -0.054087092225828526 0 0.10044686728468394 -0.054207178694077193 0 0.10043110603588562 -0.054609331183111086 0 0.10044686728468394 -0.054207178694077193 0 0.10124914048119095 -0.054788700424542647 0 0.10043110603588562 -0.054609331183111086 0 0.10154848755762259 -0.054353264033992911 0 0.10244866549217099 -0.054785276384965838 0 0.10124914048119095 -0.054788700424542647 0 0.10154848755762259 -0.054353264033992911 0 0.10044686728468394 -0.054207178694077193 0 0.10124914048119095 -0.054788700424542647 0 0.10067092531714213 -0.055319293741855069 0 0.10124914048119095 -0.054788700424542647 0 0.10043110603588562 -0.054609331183111086 0 0.10260953578767711 -0.055381767223464919 0 0.10067092531714213 -0.055319293741855069 0 0.10124914048119095 -0.054788700424542647 0 0.10499472437741367 -0.056714399396595984 0 0.10499823364743309 -0.04167663327902079 0 0.10713486196823861 -0.048774381371012088 0 0.10500085104764363 -0.041667595863493619 0 0.10625976838605485 -0.043000149035132669 0 0.10500005687358052 -0.041663134276437246 0 0.10887856498802069 -0.040267071285858234 0 0.10704018443115627 -0.038821782313137571 0 0.10656809743050857 -0.045572803051935853 0 0.10713486196823861 -0.048774381371012088 0 0.10666729530182198 -0.048384594243245281 0 0.10499823364743309 -0.04167663327902079 0 0.10656809743050857 -0.045572803051935853 0 0.10713486196823861 -0.048774381371012088 0 0.10713725324350788 -0.054733624450684151 0 0.10499472437741367 -0.056714399396595984 0 0.10713486196823861 -0.048774381371012088 0 0.10713725324350788 -0.054733624450684151 0 0.10713486196823861 -0.048774381371012088 0 0.10990398639265894 -0.050458678820360522 0 0.10713486196823861 -0.048774381371012088 0 0.10990398639265894 -0.050458678820360522 0 0.10666729530182198 -0.048384594243245281 0 0.10653729878270998 -0.054571497045692294 0 0.10636857738549138 -0.052379642038636536 0 0.10833098909271713 -0.058025936144766199 0 0.10713725324350788 -0.054733624450684151 0 0.10990398639265894 -0.050458678820360522 0 0.10251579568572596 -0.061655100846395069 0 0.10501805815398099 -0.059038966690532012 0 0.10319622642304642 -0.054509486478328824 0 0.10685120192690339 -0.058963705081287565 0 0.10653729878270998 -0.054571497045692294 0 0.10501805815398099 -0.059038966690532012 0 0.10319622642304642 -0.054509486478328824 0 0.10635646910424099 -0.056729624839260279 0 0.10319622642304642 -0.054509486478328824 0 0.10600436686813898 -0.050908533027346922 0 0.10663616376692442 -0.053658329047082107 0 0.10319622642304642 -0.054509486478328824 0 0.10663616376692442 -0.053658329047082107 0 0.10635646910424099 -0.056729624839260279 0 0.10650858208421303 -0.050822803976715882 0 0.10600436686813898 -0.050908533027346922 0 0.10685835626628884 -0.05175063027101591 0 0.10650858208421303 -0.050822803976715882 0 0.10639949331057565 -0.050055300978296094 0 0.10676853328456472 -0.050692271681531426 0 0.10650858208421303 -0.050822803976715882 0 0.10600436686813898 -0.050908533027346922 0 0.10639949331057565 -0.050055300978296094 0 0.10600436686813898 -0.050908533027346922 0 0.10639949331057565 -0.050055300978296094 0 0.10638386526741267 -0.049365504455258939 0 0.10600436686813898 -0.050908533027346922 0 0.10666729530182198 -0.048384594243245281 0 0.10638386526741267 -0.049365504455258939 0 0.10319622642304642 -0.054509486478328824 0 0.10600436686813898 -0.050908533027346922 0 0.10666729530182198 -0.048384594243245281 0 0.10656809743050857 -0.045572803051935853 0 0.10666729530182198 -0.048384594243245281 0 0.10648618209461276 -0.048892382835664182 0 0.10625976838605485 -0.043000149035132669 0 0.10750496146928012 -0.044304780684609829 0 0.10887856498802069 -0.040267071285858234 0 0.11133744862211137 -0.039061570320306632 0 0.11196010310586756 -0.039305954243641548 0 0.10666729530182198 -0.048384594243245281 0 0.10648618209461276 -0.048892382835664182 0 0.10638386526741267 -0.049365504455258939 0 0.11133744862211137 -0.039061570320306632 0 0.11196010310586756 -0.039305954243641548 0 0.11198021932893057 -0.038478065341995091 0 0.11196010310586756 -0.039305954243641548 0 0.11198021932893057 -0.038478065341995091 0 0.11307673942561478 -0.038430264938910691 0 0.10648618209461276 -0.048892382835664182 0 0.10654983458464509 -0.049773725302167289 0 0.10673969139317527 -0.05040123193211532 0 0.10750496146928012 -0.044304780684609829 0 0.10666909024470925 -0.04591917640887816 0 0.11196010310586756 -0.039305954243641548 0 0.11307673942561478 -0.038430264938910691 0 0.11548809465760336 -0.038722748293804059 0 0.10668933748668133 -0.050247756517444703 0 0.10654983458464509 -0.049773725302167289 0 0.10673305879449797 -0.050341328229999822 0 0.10654983458464509 -0.049773725302167289 0 0.10673305879449797 -0.050341328229999822 0 0.10673969139317527 -0.05040123193211532 0 0.10668933748668133 -0.050247756517444703 0 0.10661172494859958 -0.050179957289721661 0 0.10654983458464509 -0.049773725302167289 0 0.10661172494859958 -0.050179957289721661 0 0.10639949331057565 -0.050055300978296094 0 0.10654983458464509 -0.049773725302167289 0 0.10661172494859958 -0.050179957289721661 0 0.10639949331057565 -0.050055300978296094 0 0.10676853328456472 -0.050692271681531426 0 0.10668933748668133 -0.050247756517444703 0 0.10661172494859958 -0.050179957289721661 0 0.10681589874127914 -0.050515321150060861 0 0.10639949331057565 -0.050055300978296094 0 0.10638386526741267 -0.049365504455258939 0 0.10654983458464509 -0.049773725302167289 0 0.10648618209461276 -0.048892382835664182 0 0.10638386526741267 -0.049365504455258939 0 0.10654983458464509 -0.049773725302167289 0 0.10684178985771953 -0.050303007954233439 0 0.10752804654804442 -0.051119112614849443 0 0.10831168747369736 -0.051717722173125993 0 0.10666909024470925 -0.04591917640887816 0 0.10308944048088983 -0.050374203868803868 0 0.10731630980383336 -0.051077205042621372 0 0.10752804654804442 -0.051119112614849443 0 0.10770975760870789 -0.051479811614970936 0 0.10731630980383336 -0.051077205042621372 0 0.10770975760870789 -0.051479811614970936 0 0.10727305280449015 -0.051332272643788777 0 0.10731630980383336 -0.051077205042621372 0 0.10703351671631608 -0.050835010759478029 0 0.10727305280449015 -0.051332272643788777 0 0.10676853328456472 -0.050692271681531426 0 0.10703351671631608 -0.050835010759478029 0 0.10727305280449015 -0.051332272643788777 0 0.10661172494859958 -0.050179957289721661 0 0.10676853328456472 -0.050692271681531426 0 0.10681589874127914 -0.050515321150060861 0 0.10676853328456472 -0.050692271681531426 0 0.10681589874127914 -0.050515321150060861 0 0.10703351671631608 -0.050835010759478029 0 0.10681589874127914 -0.050515321150060861 0 0.10703351671631608 -0.050835010759478029 0 0.10701070376366763 -0.050601212325230141 0 0.10731630980383336 -0.051077205042621372 0 0.10703351671631608 -0.050835010759478029 0 0.10701070376366763 -0.050601212325230141 0 0.10701070376366763 -0.050601212325230141 0 0.10684178985771953 -0.050303007954233439 0 0.10752804654804442 -0.051119112614849443 0 0.10668933748668133 -0.050247756517444703 0 0.10681589874127914 -0.050515321150060861 0 0.1068120286671795 -0.050441621724378861 0 0.10668933748668133 -0.050247756517444703 0 0.1068120286671795 -0.050441621724378861 0 0.10673305879449797 -0.050341328229999822 0 0.10681589874127914 -0.050515321150060861 0 0.10701070376366763 -0.050601212325230141 0 0.1068120286671795 -0.050441621724378861 0 0.10701070376366763 -0.050601212325230141 0 0.10685302064528349 -0.050429025234501483 0 0.10684178985771953 -0.050303007954233439 0 0.1068120286671795 -0.050441621724378861 0 0.10685302064528349 -0.050429025234501483 0 0.10673305879449797 -0.050341328229999822 0 0.10701070376366763 -0.050601212325230141 0 0.1068120286671795 -0.050441621724378861 0 0.10685302064528349 -0.050429025234501483 0 0.10665857058062288 -0.045944518653295963 0 0.10666909024470925 -0.04591917640887816 0 0.10685302064528349 -0.050429025234501483 0 0.10673305879449797 -0.050341328229999822 0 0.10684178985771953 -0.050303007954233439 0 0.10731630980383336 -0.051077205042621372 0 0.10701070376366763 -0.050601212325230141 0 0.10752804654804442 -0.051119112614849443 0 0.10752804654804442 -0.051119112614849443 0 0.1079496243939275 -0.051558118613970104 0 0.10831168747369736 -0.051717722173125993 0 0.10752804654804442 -0.051119112614849443 0 0.1079496243939275 -0.051558118613970104 0 0.10770975760870789 -0.051479811614970936 0 0.10817752009910525 -0.051868844650020493 0 0.10834702019076052 -0.052121736838709777 0 0.10831168747369736 -0.051717722173125993 0 0.1079496243939275 -0.051558118613970104 0 0.10817752009910525 -0.051868844650020493 0 0.10831168747369736 -0.051717722173125993 0 0.10817752009910525 -0.051868844650020493 0 0.10801629989480216 -0.052001332423691482 0 0.10848658910046179 -0.052327294325690145 0 0.10770975760870789 -0.051479811614970936 0 0.10801629989480216 -0.052001332423691482 0 0.10727305280449015 -0.051332272643788777 0 0.1079496243939275 -0.051558118613970104 0 0.10817752009910525 -0.051868844650020493 0 0.10770975760870789 -0.051479811614970936 0 0.10817752009910525 -0.051868844650020493 0 0.10770975760870789 -0.051479811614970936 0 0.10801629989480216 -0.052001332423691482 0 0.10801629989480216 -0.052001332423691482 0 0.1080336870434547 -0.052776787492649704 0 0.10727305280449015 -0.051332272643788777 0 0.10801629989480216 -0.052001332423691482 0 0.1080336870434547 -0.052776787492649704 0 0.10848658910046179 -0.052327294325690145 0 0.1080336870434547 -0.052776787492649704 0 0.10727305280449015 -0.051332272643788777 0 0.10685835626628884 -0.05175063027101591 0 0.1080336870434547 -0.052776787492649704 0 0.10685835626628884 -0.05175063027101591 0 0.10663616376692442 -0.053658329047082107 0 0.10650858208421303 -0.050822803976715882 0 0.10676853328456472 -0.050692271681531426 0 0.10685835626628884 -0.05175063027101591 0 0.10676853328456472 -0.050692271681531426 0 0.10727305280449015 -0.051332272643788777 0 0.10685835626628884 -0.05175063027101591 0 0.10600436686813898 -0.050908533027346922 0 0.10685835626628884 -0.05175063027101591 0 0.10663616376692442 -0.053658329047082107 0 0.10663616376692442 -0.053658329047082107 0 0.10635646910424099 -0.056729624839260279 0 0.10832899411107404 -0.055062203748130679 0 0.10723654298664696 -0.059722000068525072 0 0.10501805815398099 -0.059038966690532012 0 0.10635646910424099 -0.056729624839260279 0 0.10723654298664696 -0.059722000068525072 0 0.10635646910424099 -0.056729624839260279 0 0.10832899411107404 -0.055062203748130679 0 0.1080336870434547 -0.052776787492649704 0 0.10663616376692442 -0.053658329047082107 0 0.10832899411107404 -0.055062203748130679 0 0.10832899411107404 -0.055062203748130679 0 0.10972753110364356 -0.056210134552460586 0 0.10881693057577804 -0.055243911810849797 0 0.1080336870434547 -0.052776787492649704 0 0.10832899411107404 -0.055062203748130679 0 0.10883652668263125 -0.052550034685450289 0 0.10775744219622052 -0.054329716180632821 0 0.1077706737643478 -0.054082930761499053 0 0.10904048594689511 -0.060110776401961538 0 0.10832899411107404 -0.055062203748130679 0 0.10972753110364356 -0.056210134552460586 0 0.1101671945214886 -0.056906909687207297 0 0.10947405453864477 -0.056588545292593488 0 0.10686356567141694 -0.052956854110206258 0 0.10733883397650257 -0.054641598373907543 0 0.10972753110364356 -0.056210134552460586 0 0.10733883397650257 -0.054641598373907543 0 0.10972753110364356 -0.056210134552460586 0 0.10881693057577804 -0.055243911810849797 0 0.10681679477659196 -0.052369296918987736 0 0.10883652668263125 -0.052550034685450289 0 0.10824329292176535 -0.052755056187753835 0 0.10691571069243648 -0.054103978523617188 0 0.1077706737643478 -0.054082930761499053 0 0.1080336870434547 -0.052776787492649704 0 0.10883652668263125 -0.052550034685450289 0 0.10848658910046179 -0.052327294325690145 0 0.10883652668263125 -0.052550034685450289 0 0.10848658910046179 -0.052327294325690145 0 0.10824329292176535 -0.052755056187753835 0 0.10848658910046179 -0.052327294325690145 0 0.10838290860647494 -0.052547003108178204 0 0.10824329292176535 -0.052755056187753835 0 0.10817752009910525 -0.051868844650020493 0 0.10848658910046179 -0.052327294325690145 0 0.10834702019076052 -0.052121736838709777 0 0.10848658910046179 -0.052327294325690145 0 0.10834702019076052 -0.052121736838709777 0 0.10838290860647494 -0.052547003108178204 0 0.10834702019076052 -0.052121736838709777 0 0.10838290860647494 -0.052547003108178204 0 0.10831168747369736 -0.051717722173125993 0 0.10681679477659196 -0.052369296918987736 0 0.10740640129443733 -0.053420415622915683 0 0.10824329292176535 -0.052755056187753835 0 0.10740640129443733 -0.053420415622915683 0 0.10824329292176535 -0.052755056187753835 0 0.10826659380952007 -0.053520717315901155 0 0.10838290860647494 -0.052547003108178204 0 0.10824329292176535 -0.052755056187753835 0 0.10826659380952007 -0.053520717315901155 0 0.098356200100297206 -0.055440465283052832 0 0.097840183553606311 -0.055542397830251257 0 0.098962566739027175 -0.055782874461758863 0 0.099906703157399593 -0.055042101374082469 0 0.097358218526028911 -0.055428419912714202 0 0.096661600122472394 -0.055223622864371776 0 0.097358218526028911 -0.055428419912714202 0 0.096972525737916135 -0.055343883448722153 0 0.10838290860647494 -0.052547003108178204 0 0.10826659380952007 -0.053520717315901155 0 0.10831168747369736 -0.051717722173125993 0 0.10306334510005478 -0.052628954661251587 0 0.10308944048088983 -0.050374203868803868 0 0.098962566739027175 -0.055782874461758863 0 0.097358218526028911 -0.055428419912714202 0 0.096669098079710192 -0.055565647499279884 0 0.097358218526028911 -0.055428419912714202 0 0.096972525737916135 -0.055343883448722153 0 0.097002157375136636 -0.055307210472582372 0 0.097358218526028911 -0.055428419912714202 0 0.097002157375136636 -0.055307210472582372 0 0.096948886595742717 -0.05542075542797132 0 0.096972525737916135 -0.055343883448722153 0 0.097002157375136636 -0.055307210472582372 0 0.096908219212521629 -0.055361228226549652 0 0.097002157375136636 -0.055307210472582372 0 0.096908219212521629 -0.055361228226549652 0 0.096938764745174655 -0.055378925983535547 0 0.096972525737916135 -0.055343883448722153 0 0.096908219212521629 -0.055361228226549652 0 0.096745193915772326 -0.0554005210039882 0 0.096661600122472394 -0.055223622864371776 0 0.096972525737916135 -0.055343883448722153 0 0.096745193915772326 -0.0554005210039882 0 0.096501163425599376 -0.055438033660958369 0 0.096661600122472394 -0.055223622864371776 0 0.096745193915772326 -0.0554005210039882 0 0.096501163425599376 -0.055438033660958369 0 0.096583636522765359 -0.055428282316069999 0 0.096745193915772326 -0.0554005210039882 0 0.096583636522765359 -0.055428282316069999 0 0.096745193915772326 -0.0554005210039882 0 0.09678980314985941 -0.055429129230557657 0 0.096583636522765359 -0.055428282316069999 0 0.09678980314985941 -0.055429129230557657 0 0.096662423977279435 -0.055521226786267225 0 0.096908219212521629 -0.055361228226549652 0 0.096745193915772326 -0.0554005210039882 0 0.09678980314985941 -0.055429129230557657 0 0.09678980314985941 -0.055429129230557657 0 0.096662423977279435 -0.055521226786267225 0 0.096794499893153446 -0.05556540140042087 0 0.096662423977279435 -0.055521226786267225 0 0.096794499893153446 -0.05556540140042087 0 0.09665514677599174 -0.055594249435406355 0 0.09678980314985941 -0.055429129230557657 0 0.096938764745174655 -0.055378925983535547 0 0.096794499893153446 -0.05556540140042087 0 0.10491407899552407 -0.025677313567814188 0 0.10511918522182642 -0.028259110445055174 0 0.10359396391193786 -0.027756580536646803 0 0.10197364732934215 -0.041386091716786998 0 0.099578843930045791 -0.041369685363706866 0 0.096908219212521629 -0.055361228226549652 0 0.09678980314985941 -0.055429129230557657 0 0.096938764745174655 -0.055378925983535547 0 0.10491407899552407 -0.025677313567814188 0 0.10647884954590746 -0.027221688980390464 0 0.10511918522182642 -0.028259110445055174 0 0.10647884954590746 -0.027221688980390464 0 0.10740117163110173 -0.025131856252579011 0 0.10866561074447728 -0.026595154109076705 0 0.10491407899552407 -0.025677313567814188 0 0.10647884954590746 -0.027221688980390464 0 0.10740117163110173 -0.025131856252579011 0 0.10491407899552407 -0.025677313567814188 0 0.10740117163110173 -0.025131856252579011 0 0.10618439745833862 -0.023664945066847173 0 0.10625507436262535 -0.035021921297344875 0 0.10479481514920928 -0.042253744727226802 0 0.1153194621381001 -0.032317854932201552 0 0.11761927570351016 -0.035137215096327452 0 0.11474043975690185 -0.034619775442173921 0 0.11761927570351016 -0.035137215096327452 0 0.11529333917738209 -0.036501310745736475 0 0.11474043975690185 -0.034619775442173921 0 0.097002157375136636 -0.055307210472582372 0 0.096938764745174655 -0.055378925983535547 0 0.096898552533854557 -0.055316542374741706 0 0.10197364732934215 -0.041386091716786998 0 0.10479481514920928 -0.042253744727226802 0 0.096938764745174655 -0.055378925983535547 0 0.096890346008009179 -0.05530260575179672 0 0.096898552533854557 -0.055316542374741706 0 0.10479481514920928 -0.042253744727226802 0 0.10481920950682344 -0.044030783350010268 0 0.096722250183677083 -0.055446082789588506 0 0.096767639154875087 -0.05543637245784723 0 0.096669098079710192 -0.055565647499279884 0 0.096890346008009179 -0.05530260575179672 0 0.096898552533854557 -0.055316542374741706 0 0.096767639154875087 -0.05543637245784723 0 0.097002157375136636 -0.055307210472582372 0 0.096898552533854557 -0.055316542374741706 0 0.096767639154875087 -0.05543637245784723 0 0.097002157375136636 -0.055307210472582372 0 0.096767639154875087 -0.05543637245784723 0 0.096948886595742717 -0.05542075542797132 0 0.097358218526028911 -0.055428419912714202 0 0.096948886595742717 -0.05542075542797132 0 0.096669098079710192 -0.055565647499279884 0 0.096767639154875087 -0.05543637245784723 0 0.096948886595742717 -0.05542075542797132 0 0.096669098079710192 -0.055565647499279884 0 0.10666909024470925 -0.04591917640887816 0 0.10479481514920928 -0.042253744727226802 0 0.096722250183677083 -0.055446082789588506 0 0.096756956905297439 -0.055385968355930036 0 0.096767639154875087 -0.05543637245784723 0 0.11548809465760336 -0.038722748293804059 0 0.11761927570351016 -0.035137215096327452 0 0.11529333917738209 -0.036501310745736475 0 0.11548809465760336 -0.038722748293804059 0 0.11529333917738209 -0.036501310745736475 0 0.1146362771382831 -0.037418598192380165 0 0.11289500180232467 -0.036815186233391493 0 0.11403461099867136 -0.036407998931728511 0 0.11372178083210203 -0.0377649439098224 0 0.11289500180232467 -0.036815186233391493 0 0.11197078690832615 -0.036665063827791923 0 0.11278026660547232 -0.035529922046659293 0 0.11289500180232467 -0.036815186233391493 0 0.11403461099867136 -0.036407998931728511 0 0.11278026660547232 -0.035529922046659293 0 0.11529333917738209 -0.036501310745736475 0 0.11403461099867136 -0.036407998931728511 0 0.11474043975690185 -0.034619775442173921 0 0.11529333917738209 -0.036501310745736475 0 0.11403461099867136 -0.036407998931728511 0 0.1146362771382831 -0.037418598192380165 0 0.11548809465760336 -0.038722748293804059 0 0.1146362771382831 -0.037418598192380165 0 0.11372178083210203 -0.0377649439098224 0 0.11307673942561478 -0.038430264938910691 0 0.11548809465760336 -0.038722748293804059 0 0.11372178083210203 -0.0377649439098224 0 0.11403461099867136 -0.036407998931728511 0 0.1146362771382831 -0.037418598192380165 0 0.11372178083210203 -0.0377649439098224 0 0.11307673942561478 -0.038430264938910691 0 0.11372178083210203 -0.0377649439098224 0 0.11233182258036416 -0.037770378690814628 0 0.11289500180232467 -0.036815186233391493 0 0.11372178083210203 -0.0377649439098224 0 0.11233182258036416 -0.037770378690814628 0 0.11133744862211137 -0.039061570320306632 0 0.11198021932893057 -0.038478065341995091 0 0.11106927920698108 -0.037201672426869316 0 0.11198021932893057 -0.038478065341995091 0 0.11307673942561478 -0.038430264938910691 0 0.11233182258036416 -0.037770378690814628 0 0.11133744862211137 -0.039061570320306632 0 0.11106927920698108 -0.037201672426869316 0 0.10806804488620231 -0.0356797290578292 0 0.11198021932893057 -0.038478065341995091 0 0.11233182258036416 -0.037770378690814628 0 0.11106927920698108 -0.037201672426869316 0 0.11233182258036416 -0.037770378690814628 0 0.11106927920698108 -0.037201672426869316 0 0.11197078690832615 -0.036665063827791923 0 0.11289500180232467 -0.036815186233391493 0 0.11233182258036416 -0.037770378690814628 0 0.11197078690832615 -0.036665063827791923 0 0.11106927920698108 -0.037201672426869316 0 0.11197078690832615 -0.036665063827791923 0 0.11065565744671771 -0.035504095834541595 0 0.11197078690832615 -0.036665063827791923 0 0.11065565744671771 -0.035504095834541595 0 0.11278026660547232 -0.035529922046659293 0 0.11065565744671771 -0.035504095834541595 0 0.1126762799320338 -0.033181167267995554 0 0.1104492154849358 -0.031672329262077706 0 0.11065565744671771 -0.035504095834541595 0 0.1126762799320338 -0.033181167267995554 0 0.11278026660547232 -0.035529922046659293 0 0.1153194621381001 -0.032317854932201552 0 0.1126762799320338 -0.033181167267995554 0 0.11474043975690185 -0.034619775442173921 0 0.1126762799320338 -0.033181167267995554 0 0.11278026660547232 -0.035529922046659293 0 0.11474043975690185 -0.034619775442173921 0 0.11403461099867136 -0.036407998931728511 0 0.11278026660547232 -0.035529922046659293 0 0.11474043975690185 -0.034619775442173921 0 0.1153194621381001 -0.032317854932201552 0 0.1126762799320338 -0.033181167267995554 0 0.112742180203632 -0.029637135542803641 0 0.10625507436262535 -0.035021921297344875 0 0.1073266087755638 -0.032086092168267681 0 0.10866561074447728 -0.026595154109076705 0 0.11010331932715439 -0.028161699235861051 0 0.10783760500464487 -0.027885719019501248 0 0.10647884954590746 -0.027221688980390464 0 0.10866561074447728 -0.026595154109076705 0 0.10783760500464487 -0.027885719019501248 0 0.1073266087755638 -0.032086092168267681 0 0.10766712563160162 -0.031294797574094486 0 0.112742180203632 -0.029637135542803641 0 0.11034064191782736 -0.029519148425173676 0 0.11010331932715439 -0.028161699235861051 0 0.112742180203632 -0.029637135542803641 0 0.11034064191782736 -0.029519148425173676 0 0.1104492154849358 -0.031672329262077706 0 0.1126762799320338 -0.033181167267995554 0 0.112742180203632 -0.029637135542803641 0 0.1104492154849358 -0.031672329262077706 0 0.1104492154849358 -0.031672329262077706 0 0.10786407326914678 -0.032745233713691167 0 0.10850273060871757 -0.029810227021515628 0 0.11034064191782736 -0.029519148425173676 0 0.1104492154849358 -0.031672329262077706 0 0.10850273060871757 -0.029810227021515628 0 0.11034064191782736 -0.029519148425173676 0 0.10850273060871757 -0.029810227021515628 0 0.1089576844681005 -0.027662144040191895 0 0.10850273060871757 -0.029810227021515628 0 0.10500190178316356 -0.028526625348399705 0 0.1089576844681005 -0.027662144040191895 0 0.10500298956716696 -0.028521066768825536 0 0.10781335048377533 -0.026763750538174653 0 0.10786407326914678 -0.032745233713691167 0 0.10850273060871757 -0.029810227021515628 0 0.10500190178316356 -0.028526625348399705 0 0.10786407326914678 -0.032745233713691167 0 0.10500190178316356 -0.028526625348399705 0 0.10499836187522345 -0.03264887480151174 0 0.10786407326914678 -0.032745233713691167 0 0.10499836187522345 -0.03264887480151174 0 0.10806804488620231 -0.0356797290578292 0 0.1050000422887095 -0.032651893786007899 0 0.10866122474573324 -0.036523187238501793 0 0.10499977104031065 -0.037158030216588325 0 0.10500284644372318 -0.032654559124142508 0 0.10798448347926365 -0.035541584955317146 0 0.11065565744671771 -0.035504095834541595 0 0.10786407326914678 -0.032745233713691167 0 0.10806804488620231 -0.0356797290578292 0 0.11065565744671771 -0.035504095834541595 0 0.1104492154849358 -0.031672329262077706 0 0.10786407326914678 -0.032745233713691167 0 0.10959302068393763 -0.037079662021564583 0 0.10798448347926365 -0.035541584955317146 0 0.11106927920698108 -0.037201672426869316 0 0.11065565744671771 -0.035504095834541595 0 0.10806804488620231 -0.0356797290578292 0 0.10887856498802069 -0.040267071285858234 0 0.11133744862211137 -0.039061570320306632 0 0.10866122474573324 -0.036523187238501793 0 0.10887856498802069 -0.040267071285858234 0 0.10866122474573324 -0.036523187238501793 0 0.10704018443115627 -0.038821782313137571 0 0.10500005687358052 -0.041663134276437246 0 0.10704018443115627 -0.038821782313137571 0 0.10499977104031065 -0.037158030216588325 0 0.10866122474573324 -0.036523187238501793 0 0.10704018443115627 -0.038821782313137571 0 0.10499977104031065 -0.037158030216588325 0 0.10798764884970043 -0.01577298516835169 0 0.10500019992580552 -0.014920579975086121 0 0.10900645165985061 -0.013193347012032961 0 0.10500411348012891 -0.014917924907906206 0 0.10883655308980161 -0.012939382351971646 0 0.10798764884970043 -0.01577298516835169 0 0.11079971764218675 -0.013064955690880444 0 0.10900645165985061 -0.013193347012032961 0 0.10797798149715952 -0.016117541003929162 0 0.1109844580825549 -0.015641369403213944 0 0.11079971764218675 -0.013064955690880444 0 0.10797798149715952 -0.016117541003929162 0 0.1109844580825549 -0.015641369403213944 0 0.10997770304591527 -0.017645043051090537 0 0.10742853203612282 -0.016561018042268456 0 0.10870623607583557 -0.015175775609482009 0 0.10797798149715952 -0.016117541003929162 0 0.10997770304591527 -0.017645043051090537 0 0.10871268341691462 -0.019942892168786554 0 0.10997770304591527 -0.017645043051090537 0 0.10871268341691462 -0.019942892168786554 0 0.11247039974059016 -0.020938061605056311 0 0.10797798149715952 -0.016117541003929162 0 0.10499998806756142 -0.019206123220946777 0 0.10871268341691462 -0.019942892168786554 0 0.10742853203612282 -0.016561018042268456 0 0.10500284004509419 -0.019202494606776081 0 0.10798764884970043 -0.01577298516835169 0 0.10500019992580552 -0.014920579975086121 0 0.10499986168698044 -0.019205057594768541 0 0.10499987227283084 -0.023863546810570079 0 0.10887380554870058 -0.024665649508924133 0 0.10871268341691462 -0.019942892168786554 0 0.10499998806756142 -0.019206123220946777 0 0.10499987227283084 -0.023863546810570079 0 0.10871268341691462 -0.019942892168786554 0 0.10500002529072262 -0.028522142182440761 0 0.10499987227283084 -0.023863546810570079 0 0.10887380554870058 -0.024665649508924133 0 0.10887380554870058 -0.024665649508924133 0 0.10871268341691462 -0.019942892168786554 0 0.11247039974059016 -0.020938061605056311 0 0.10781335048377533 -0.026763750538174653 0 0.10978109523955376 -0.025507912824111814 0 0.11028138871631428 -0.029738293929999059 0 0.11010331932715439 -0.028161699235861051 0 0.10828115830127738 -0.02912181337071372 0 0.1089576844681005 -0.027662144040191895 0 0.11028138871631428 -0.029738293929999059 0 0.11010331932715439 -0.028161699235861051 0 0.11034064191782736 -0.029519148425173676 0 0.1089576844681005 -0.027662144040191895 0 0.11010331932715439 -0.028161699235861051 0 0.11010331932715439 -0.028161699235861051 0 0.10783760500464487 -0.027885719019501248 0 0.10828115830127738 -0.02912181337071372 0 0.11028138871631428 -0.029738293929999059 0 0.10828115830127738 -0.02912181337071372 0 0.10779845096361328 -0.033642450221851077 0 0.10978109523955376 -0.025507912824111814 0 0.11030842546187036 -0.024865564693393863 0 0.10997770304591527 -0.017645043051090537 0 0.11247039974059016 -0.020938061605056311 0 0.11242684161428546 -0.017111277663820451 0 0.11247039974059016 -0.020938061605056311 0 0.1157947917449732 -0.017520626674907346 0 0.11242684161428546 -0.017111277663820451 0 0.1109844580825549 -0.015641369403213944 0 0.10997770304591527 -0.017645043051090537 0 0.11242684161428546 -0.017111277663820451 0 0.1109844580825549 -0.015641369403213944 0 0.11242684161428546 -0.017111277663820451 0 0.11382194250893048 -0.014407298404445983 0 0.1109844580825549 -0.015641369403213944 0 0.11382194250893048 -0.014407298404445983 0 0.11079971764218675 -0.013064955690880444 0 0.1157947917449732 -0.017520626674907346 0 0.11242684161428546 -0.017111277663820451 0 0.11382194250893048 -0.014407298404445983 0 0.1157947917449732 -0.017520626674907346 0 0.11382194250893048 -0.014407298404445983 0 0.1190240434522721 -0.014371829664973893 0 0.10779845096361328 -0.033642450221851077 0 0.10430008260612697 -0.03738381114870281 0 0.10306464561305016 -0.033527645027289381 0 0.11030842546187036 -0.024865564693393863 0 0.10944416228856192 -0.024275399274533004 0 0.10430008260612697 -0.03738381114870281 0 0.10306464561305016 -0.033527645027289381 0 0.10125974728125836 -0.036288529984158012 0 0.10779845096361328 -0.033642450221851077 0 0.10306464561305016 -0.033527645027289381 0 0.10462747680609163 -0.029737122870490667 0 0.10627496655966705 -0.032880375257266427 0 0.10496121183527832 -0.033689255603748046 0 0.10828115830127738 -0.02912181337071372 0 0.10779845096361328 -0.033642450221851077 0 0.10462747680609163 -0.029737122870490667 0 0.10783760500464487 -0.027885719019501248 0 0.10828115830127738 -0.02912181337071372 0 0.10636462839221515 -0.029451709668312558 0 0.10647884954590746 -0.027221688980390464 0 0.10783760500464487 -0.027885719019501248 0 0.10636462839221515 -0.029451709668312558 0 0.10647884954590746 -0.027221688980390464 0 0.10636462839221515 -0.029451709668312558 0 0.10511918522182642 -0.028259110445055174 0 0.10496121183527832 -0.033689255603748046 0 0.10193212612688687 -0.036211546085718464 0 0.10636462839221515 -0.029451709668312558 0 0.10511918522182642 -0.028259110445055174 0 0.1043838650337179 -0.029761138992571597 0 0.10306464561305016 -0.033527645027289381 0 0.10462747680609163 -0.029737122870490667 0 0.10084940894838362 -0.030367485840312458 0 0.1043838650337179 -0.029761138992571597 0 0.10329300811770431 -0.029185326191471912 0 0.10226191490088037 -0.029905748057315249 0 0.10084940894838362 -0.030367485840312458 0 0.096616045545251966 -0.030646409474756851 0 0.099323989834066359 -0.03396244584814645 0 0.10193212612688687 -0.036211546085718464 0 0.096718118809121414 -0.041337967399050615 0 0.10511918522182642 -0.028259110445055174 0 0.1043838650337179 -0.029761138992571597 0 0.10329300811770431 -0.029185326191471912 0 0.10511918522182642 -0.028259110445055174 0 0.10329300811770431 -0.029185326191471912 0 0.10359396391193786 -0.027756580536646803 0 0.096794499893153446 -0.05556540140042087 0 0.09665514677599174 -0.055594249435406355 0 0.096664551447251543 -0.055724101650768229 0 0.10329300811770431 -0.029185326191471912 0 0.10359396391193786 -0.027756580536646803 0 0.10226191490088037 -0.029905748057315249 0 0.099578843930045791 -0.041369685363706866 0 0.096718118809121414 -0.041337967399050615 0 0.09665514677599174 -0.055594249435406355 0 0.096664551447251543 -0.055724101650768229 0 0.096500146771161768 -0.055579803658209706 0 0.091789322498428805 -0.050349912016275908 0 0.091907967954092215 -0.050160540108375992 0 0.093301772073575984 -0.051141381206212463 0 0.096825860936322505 -0.030982792107548625 0 0.096632001785745394 -0.031273197670865262 0 0.096919800795943784 -0.032682645172792339 0 0.096718118809121414 -0.041337967399050615 0 0.096023755494389212 -0.042007532294609344 0 0.096632001785745394 -0.031273197670865262 0 0.096919800795943784 -0.032682645172792339 0 0.094158973805514301 -0.035509522835825327 0 0.096718118809121414 -0.041337967399050615 0 0.095860220115317474 -0.038475776098753016 0 0.096825860936322505 -0.030982792107548625 0 0.096919800795943784 -0.032682645172792339 0 0.099323989834066359 -0.03396244584814645 0 0.096899035801716743 -0.034413111306140699 0 0.097035997583346273 -0.035825149497963581 0 0.094158973805514301 -0.035509522835825327 0 0.096919800795943784 -0.032682645172792339 0 0.096899035801716743 -0.034413111306140699 0 0.094158973805514301 -0.035509522835825327 0 0.099323989834066359 -0.03396244584814645 0 0.099125279674885658 -0.036052233600638035 0 0.097035997583346273 -0.035825149497963581 0 0.096899035801716743 -0.034413111306140699 0 0.099323989834066359 -0.03396244584814645 0 0.097035997583346273 -0.035825149497963581 0 0.096919800795943784 -0.032682645172792339 0 0.096899035801716743 -0.034413111306140699 0 0.099323989834066359 -0.03396244584814645 0 0.10306464561305016 -0.033527645027289381 0 0.10084940894838362 -0.030367485840312458 0 0.099323989834066359 -0.03396244584814645 0 0.10306464561305016 -0.033527645027289381 0 0.099323989834066359 -0.03396244584814645 0 0.10125974728125836 -0.036288529984158012 0 0.099323989834066359 -0.03396244584814645 0 0.099125279674885658 -0.036052233600638035 0 0.10125974728125836 -0.036288529984158012 0 0.099125279674885658 -0.036052233600638035 0 0.10125974728125836 -0.036288529984158012 0 0.09891790709939316 -0.038034309299119051 0 0.10464266979449849 -0.030766884347437667 0 0.10543407370742205 -0.029715817017574777 0 0.097035997583346273 -0.035825149497963581 0 0.098766997259858533 -0.038872192860860799 0 0.095164919590426639 -0.039010863448355797 0 0.099125279674885658 -0.036052233600638035 0 0.097035997583346273 -0.035825149497963581 0 0.09891790709939316 -0.038034309299119051 0 0.095848848057656422 -0.04069389922971877 0 0.097459299599693169 -0.041543003278348672 0 0.094546789705489742 -0.041851014482295112 0 0.095848848057656422 -0.04069389922971877 0 0.098766997259858533 -0.038872192860860799 0 0.097459299599693169 -0.041543003278348672 0 0.095848848057656422 -0.04069389922971877 0 0.098766997259858533 -0.038872192860860799 0 0.095164919590426639 -0.039010863448355797 0 0.10125974728125836 -0.036288529984158012 0 0.09891790709939316 -0.038034309299119051 0 0.10077652486445025 -0.040641535447745042 0 0.098766997259858533 -0.038872192860860799 0 0.10038099543566646 -0.041358011283749253 0 0.097459299599693169 -0.041543003278348672 0 0.10543407370742205 -0.029715817017574777 0 0.10620572938199509 -0.023662863195575874 0 0.10620572938199509 -0.023662863195575874 0 0.099126634910340586 -0.025349919839194567 0 0.10586904607521841 -0.01351609789734882 0 0.10373455001601993 -0.015440027633770514 0 0.10564441241141805 -0.015457326488501141 0 0.097459299599693169 -0.041543003278348672 0 0.096933590217909343 -0.044334870425507676 0 0.094546789705489742 -0.041851014482295112 0 0.10038099543566646 -0.041358011283749253 0 0.097459299599693169 -0.041543003278348672 0 0.096933590217909343 -0.044334870425507676 0 0.10373455001601993 -0.015440027633770514 0 0.10329756848026408 -0.017125315292353793 0 0.10502384723609255 -0.017238387846251309 0 0.10251388053440637 -0.01864630215111571 0 0.10329756848026408 -0.017125315292353793 0 0.10502384723609255 -0.017238387846251309 0 0.10026421031456546 -0.0055452445797289137 0 0.11109292680274874 -0.0075653819427005222 0 0.12967461183544929 0.00025325461645758215 0 0.12590513523568767 0.0011368733984723988 0 0.12519777624069747 -0.0023364067559941506 0 0.12315482973312247 0.0001362901272008099 0 0.12519777624069747 -0.0023364067559941506 0 0.12153776786535016 -0.0018052525970041579 0 0.12590513523568767 0.0011368733984723988 0 0.12315482973312247 0.0001362901272008099 0 0.12519777624069747 -0.0023364067559941506 0 0.10502384723609255 -0.017238387846251309 0 0.10564441241141805 -0.015457326488501141 0 0.10750982417942291 -0.015833301095488594 0 0.10373455001601993 -0.015440027633770514 0 0.10502384723609255 -0.017238387846251309 0 0.10564441241141805 -0.015457326488501141 0 0.11109292680274874 -0.0075653819427005222 0 0.11271481108535859 -0.01191660178281435 0 0.12519777624069747 -0.0023364067559941506 0 0.12080201785975392 -0.0048779757610569021 0 0.12153776786535016 -0.0018052525970041579 0 0.12080201785975392 -0.0048779757610569021 0 0.12153776786535016 -0.0018052525970041579 0 0.11900025872980727 -0.0022779686099738071 0 0.11957920735697558 0.0015514288178006051 0 0.12153776786535016 -0.0018052525970041579 0 0.11900025872980727 -0.0022779686099738071 0 0.11271481108535859 -0.01191660178281435 0 0.11491146380301316 -0.010047665033017168 0 0.1209846728152764 -0.0051111893486859962 0 0.11706243002597283 -0.0074226678410405549 0 0.11679964784512158 -0.0043545587981340221 0 0.1209846728152764 -0.0051111893486859962 0 0.11900025872980727 -0.0022779686099738071 0 0.11679964784512158 -0.0043545587981340221 0 0.11271481108535859 -0.01191660178281435 0 0.11302234076548144 -0.01028536165626485 0 0.11961464144426612 -0.0076439625400095169 0 0.1188955398747195 -0.010870644210700961 0 0.11621164443395117 -0.0095420107948352619 0 0.1188955398747195 -0.010870644210700961 0 0.11619783894550892 -0.012089565112757114 0 0.11621164443395117 -0.0095420107948352619 0 0.10620572938199509 -0.023662863195575874 0 0.11271481108535859 -0.01191660178281435 0 0.10586904607521841 -0.01351609789734882 0 0.10564441241141805 -0.015457326488501141 0 0.10750982417942291 -0.015833301095488594 0 0.12220382155133312 -0.01137103241514531 0 0.11961464144426612 -0.0076439625400095169 0 0.1188955398747195 -0.010870644210700961 0 0.10430008260612697 -0.03738381114870281 0 0.10125974728125836 -0.036288529984158012 0 0.10077652486445025 -0.040641535447745042 0 0.10944416228856192 -0.024275399274533004 0 0.10620572938199509 -0.023662863195575874 0 0.1190240434522721 -0.014371829664973893 0 0.12220382155133312 -0.01137103241514531 0 0.1188955398747195 -0.010870644210700961 0 0.1190240434522721 -0.014371829664973893 0 0.1188955398747195 -0.010870644210700961 0 0.11619783894550892 -0.012089565112757114 0 0.11382194250893048 -0.014407298404445983 0 0.1190240434522721 -0.014371829664973893 0 0.11619783894550892 -0.012089565112757114 0 0.11382194250893048 -0.014407298404445983 0 0.11619783894550892 -0.012089565112757114 0 0.11270439096140855 -0.011400361540859409 0 0.11382194250893048 -0.014407298404445983 0 0.11270439096140855 -0.011400361540859409 0 0.11079971764218675 -0.013064955690880444 0 0.11316400019003836 -0.009832436690544611 0 0.11364527577128127 -0.0049828541165620474 0 0.10949835923398848 -0.0066870212157923593 0 0.11244299704934758 -0.011114643650371682 0 0.11491146380301316 -0.010047665033017168 0 0.11619783894550892 -0.012089565112757114 0 0.11270439096140855 -0.011400361540859409 0 0.11621164443395117 -0.0095420107948352619 0 0.11316400019003836 -0.009832436690544611 0 0.11706243002597283 -0.0074226678410405549 0 0.11364527577128127 -0.0049828541165620474 0 0.11706243002597283 -0.0074226678410405549 0 0.11679964784512158 -0.0043545587981340221 0 0.11364527577128127 -0.0049828541165620474 0 0.11499665645737653 -5.8610094149336395e-05 0 0.11900025872980727 -0.0022779686099738071 0 0.11679964784512158 -0.0043545587981340221 0 0.11499665645737653 -5.8610094149336395e-05 0 0.11679964784512158 -0.0043545587981340221 0 0.11364527577128127 -0.0049828541165620474 0 0.11498650428929996 0.00016351378710806224 0 0.11077717901502154 -0.0012813760668704799 0 0.11499665645737653 -5.8610094149336395e-05 0 0.11364527577128127 -0.0049828541165620474 0 0.11025919268361385 -0.001640113228809378 0 0.11364527577128127 -0.0049828541165620474 0 0.11025919268361385 -0.001640113228809378 0 0.10949835923398848 -0.0066870212157923593 0 0.11025919268361385 -0.001640113228809378 0 0.10537149443041119 -0.0031687184694889265 0 0.10949835923398848 -0.0066870212157923593 0 0.10500000465905937 0.0031957668345583578 0 0.1072850625187151 -0.00046615409457961799 0 0.10499996362453215 -0.0028428257360717957 0 0.11035316825407983 -0.0013046482887458641 0 0.1072850625187151 -0.00046615409457961799 0 0.10537149443041119 -0.0031687184694889265 0 0.11077717901502154 -0.0012813760668704799 0 0.10839601288231991 -0.0020952256909359227 0 0.1072850625187151 -0.00046615409457961799 0 0.10537149443041119 -0.0031687184694889265 0 0.10499996362453215 -0.0028428257360717957 0 0.10537149443041119 -0.0031687184694889265 0 0.10499996362453215 -0.0028428257360717957 0 0.10499991609510567 -0.008881188994702062 0 0.10537149443041119 -0.0031687184694889265 0 0.10499991609510567 -0.008881188994702062 0 0.10949835923398848 -0.0066870212157923593 0 0.10499991609510567 -0.008881188994702062 0 0.10949835923398848 -0.0066870212157923593 0 0.10914760247897137 -0.012350216982630507 0 0.11316400019003836 -0.009832436690544611 0 0.10949835923398848 -0.0066870212157923593 0 0.10914760247897137 -0.012350216982630507 0 0.11270439096140855 -0.011400361540859409 0 0.11079971764218675 -0.013064955690880444 0 0.10900645165985061 -0.013193347012032961 0 0.11244299704934758 -0.011114643650371682 0 0.10883655308980161 -0.012939382351971646 0 0.1049999575816481 -0.014919624118116937 0 0.10499991609510567 -0.008881188994702062 0 0.10914760247897137 -0.012350216982630507 0 0.090105308778572354 -0.043230488235344915 0 0.088552759022268557 -0.042940065401539225 0 0.088473880167887473 -0.04511466541793175 0 0.090105308778572354 -0.043230488235344915 0 0.091286495248064065 -0.045102542924543958 0 0.088473880167887473 -0.04511466541793175 0 0.088552759022268557 -0.042940065401539225 0 0.088473880167887473 -0.04511466541793175 0 0.086955923931140724 -0.042834424024116843 0 0.09440235153048647 -0.047021543541067509 0 0.092696839645383305 -0.043857505436400983 0 0.088552759022268557 -0.042940065401539225 0 0.086955923931140724 -0.042834424024116843 0 0.087792834744090512 -0.041255612660615976 0 0.088552759022268557 -0.042940065401539225 0 0.089157223478539521 -0.04232130129632608 0 0.087792834744090512 -0.041255612660615976 0 0.089157223478539521 -0.04232130129632608 0 0.090179705285561004 -0.041850352650989991 0 0.087792834744090512 -0.041255612660615976 0 0.090105308778572354 -0.043230488235344915 0 0.088552759022268557 -0.042940065401539225 0 0.089157223478539521 -0.04232130129632608 0 0.090105308778572354 -0.043230488235344915 0 0.089157223478539521 -0.04232130129632608 0 0.090179705285561004 -0.041850352650989991 0 0.089498137720688847 -0.041010128122482725 0 0.090636211611754405 -0.041396961123941374 0 0.090105308778572354 -0.043230488235344915 0 0.090179705285561004 -0.041850352650989991 0 0.092254215266323839 -0.042196595064384015 0 0.092254215266323839 -0.042196595064384015 0 0.091286495248064065 -0.045102542924543958 0 0.093760017000800611 -0.04530614737730914 0 0.090105308778572354 -0.043230488235344915 0 0.092254215266323839 -0.042196595064384015 0 0.091286495248064065 -0.045102542924543958 0 0.091286495248064065 -0.045102542924543958 0 0.092758947252138249 -0.047371997328177894 0 0.090290415664225021 -0.047687645583778984 0 0.091286495248064065 -0.045102542924543958 0 0.093760017000800611 -0.04530614737730914 0 0.092758947252138249 -0.047371997328177894 0 0.093486844474537034 -0.050403457433579761 0 0.092758947252138249 -0.047371997328177894 0 0.094547483876655083 -0.047905880486968047 0 0.093760017000800611 -0.04530614737730914 0 0.092758947252138249 -0.047371997328177894 0 0.094547483876655083 -0.047905880486968047 0 0.093486844474537034 -0.050403457433579761 0 0.092758947252138249 -0.047371997328177894 0 0.090290415664225021 -0.047687645583778984 0 0.10086442544234851 -0.054475070269340065 0 0.10163583735701856 -0.053083806527352347 0 0.1002979582371238 -0.053059872751199152 0 0.10163583735701856 -0.053083806527352347 0 0.10114171015905772 -0.049803414912324276 0 0.1002979582371238 -0.053059872751199152 0 0.095658425833910279 -0.04962683664247744 0 0.09440235153048647 -0.047021543541067509 0 0.091286495248064065 -0.045102542924543958 0 0.090290415664225021 -0.047687645583778984 0 0.088473880167887473 -0.04511466541793175 0 0.10114171015905772 -0.049803414912324276 0 0.1002979582371238 -0.053059872751199152 0 0.098676475057755841 -0.05082696263423539 0 0.1002979582371238 -0.053059872751199152 0 0.098532266991943118 -0.053129121144121903 0 0.098676475057755841 -0.05082696263423539 0 0.098532266991943118 -0.053129121144121903 0 0.098676475057755841 -0.05082696263423539 0 0.09599231042810033 -0.051971231791242821 0 0.096429886589669611 -0.049359110918999159 0 0.098676475057755841 -0.05082696263423539 0 0.09599231042810033 -0.051971231791242821 0 0.096429886589669611 -0.049359110918999159 0 0.098676475057755841 -0.05082696263423539 0 0.097784826168844013 -0.047783771708706152 0 0.10114171015905772 -0.049803414912324276 0 0.098676475057755841 -0.05082696263423539 0 0.097784826168844013 -0.047783771708706152 0 0.096718118809121414 -0.041337967399050615 0 0.097986733219913094 -0.04998756556088662 0 0.091789322498428805 -0.050349912016275908 0 0.093789954172222675 -0.052787108152161484 0 0.093301772073575984 -0.051141381206212463 0 0.093789954172222675 -0.052787108152161484 0 0.09599231042810033 -0.051971231791242821 0 0.093301772073575984 -0.051141381206212463 0 0.09599231042810033 -0.051971231791242821 0 0.094352043197462682 -0.049852050010905521 0 0.093301772073575984 -0.051141381206212463 0 0.096429886589669611 -0.049359110918999159 0 0.09599231042810033 -0.051971231791242821 0 0.094352043197462682 -0.049852050010905521 0 0.094358890476231624 -0.04586786362324792 0 0.093740656569839403 -0.045127495110529686 0 0.096023755494389212 -0.042007532294609344 0 0.093740656569839403 -0.045127495110529686 0 0.091907967954092215 -0.050160540108375992 0 0.094352043197462682 -0.049852050010905521 0 0.093301772073575984 -0.051141381206212463 0 0.086465177313017991 -0.05062283869956876 0 0.091399595887558277 -0.050029874446376146 0 0.089281353132223851 -0.045916186150304419 0 0.096023755494389212 -0.042007532294609344 0 0.094147799712479774 -0.041667167868957133 0 0.096429886589669611 -0.049359110918999159 0 0.091399595887558277 -0.050029874446376146 0 0.093910359333889512 -0.047194246847509447 0 0.089281353132223851 -0.045916186150304419 0 0.093910359333889512 -0.047194246847509447 0 0.092407681385197185 -0.044414811546337175 0 0.091399595887558277 -0.050029874446376146 0 0.089281353132223851 -0.045916186150304419 0 0.093910359333889512 -0.047194246847509447 0 0.089281353132223851 -0.045916186150304419 0 0.092407681385197185 -0.044414811546337175 0 0.092497843804342297 -0.040728948510773216 0 0.093910359333889512 -0.047194246847509447 0 0.092407681385197185 -0.044414811546337175 0 0.095376306150288193 -0.044763102690879408 0 0.093417597135950742 -0.042593995372345005 0 0.092407681385197185 -0.044414811546337175 0 0.095376306150288193 -0.044763102690879408 0 0.093417597135950742 -0.042593995372345005 0 0.092407681385197185 -0.044414811546337175 0 0.092497843804342297 -0.040728948510773216 0 0.094147799712479774 -0.041667167868957133 0 0.093802043543774485 -0.041368324610936938 0 0.097035997583346273 -0.035825149497963581 0 0.094158973805514301 -0.035509522835825327 0 0.095164919590426639 -0.039010863448355797 0 0.094158973805514301 -0.035509522835825327 0 0.095164919590426639 -0.039010863448355797 0 0.092497843804342297 -0.040728948510773216 0 0.10114171015905772 -0.049803414912324276 0 0.097784826168844013 -0.047783771708706152 0 0.099597635024115158 -0.045469956465998787 0 0.096429886589669611 -0.049359110918999159 0 0.093910359333889512 -0.047194246847509447 0 0.097784826168844013 -0.047783771708706152 0 0.093910359333889512 -0.047194246847509447 0 0.097784826168844013 -0.047783771708706152 0 0.095376306150288193 -0.044763102690879408 0 0.095376306150288193 -0.044763102690879408 0 0.099597635024115158 -0.045469956465998787 0 0.096507757896734755 -0.040488425366024851 0 0.093417597135950742 -0.042593995372345005 0 0.095376306150288193 -0.044763102690879408 0 0.094525106424809657 -0.042088085109279569 0 0.092696839645383305 -0.043857505436400983 0 0.090256127054654939 -0.039912148060674994 0 0.097784826168844013 -0.047783771708706152 0 0.095376306150288193 -0.044763102690879408 0 0.099597635024115158 -0.045469956465998787 0 0.090256127054654939 -0.039912148060674994 0 0.088182936807894394 -0.040291990950382363 0 0.083217362358357985 -0.039787778757122014 0 0.08480573065486606 -0.038926608572075902 0 0.08584403627848454 -0.040461432999417367 0 0.086955923931140724 -0.042834424024116843 0 0.085443693059165576 -0.040683790764408721 0 0.087792834744090512 -0.041255612660615976 0 0.090256127054654939 -0.039912148060674994 0 0.091193882479269822 -0.039102809641776079 0 0.095376306150288193 -0.044763102690879408 0 0.094525106424809657 -0.042088085109279569 0 0.096507757896734755 -0.040488425366024851 0 0.094525106424809657 -0.042088085109279569 0 0.096507757896734755 -0.040488425366024851 0 0.093175570438212604 -0.040768463474134299 0 0.089729444874886294 -0.039403471305739235 0 0.090086846275519647 -0.039896133961081826 0 0.090583579359269015 -0.039606860656165234 0 0.083217362358357985 -0.039787778757122014 0 0.082282911360778199 -0.03848489192542115 0 0.08480573065486606 -0.038926608572075902 0 0.090210800439674776 -0.037943940935756912 0 0.087463094511576536 -0.037804995530162713 0 0.084686131567448392 -0.036889956932789313 0 0.085894686063665265 -0.036195074098658971 0 0.084930926647660443 -0.03592805038546952 0 0.090256127054654939 -0.039912148060674994 0 0.090210800439674776 -0.037943940935756912 0 0.082282911360778199 -0.03848489192542115 0 0.08480573065486606 -0.038926608572075902 0 0.084272277183768812 -0.037305195154051632 0 0.08480573065486606 -0.038926608572075902 0 0.084272277183768812 -0.037305195154051632 0 0.085841041878700411 -0.037782859968123778 0 0.095164919590426639 -0.039010863448355797 0 0.093779438916113331 -0.040563250429730975 0 0.092497843804342297 -0.040728948510773216 0 0.095848848057656422 -0.04069389922971877 0 0.093779438916113331 -0.040563250429730975 0 0.094546789705489742 -0.041851014482295112 0 0.095848848057656422 -0.04069389922971877 0 0.095164919590426639 -0.039010863448355797 0 0.093779438916113331 -0.040563250429730975 0 0.093779438916113331 -0.040563250429730975 0 0.092720385535246599 -0.040616317630537253 0 0.094546789705489742 -0.041851014482295112 0 0.096507757896734755 -0.040488425366024851 0 0.092832105901667836 -0.040187447217187748 0 0.093175570438212604 -0.040768463474134299 0 0.093779438916113331 -0.040563250429730975 0 0.093018376141946538 -0.04062400525423418 0 0.092720385535246599 -0.040616317630537253 0 0.093018376141946538 -0.04062400525423418 0 0.092720385535246599 -0.040616317630537253 0 0.093175570438212604 -0.040768463474134299 0 0.092720385535246599 -0.040616317630537253 0 0.092832105901667836 -0.040187447217187748 0 0.093175570438212604 -0.040768463474134299 0 0.091206114338517108 -0.039100897974806675 0 0.091193882479269822 -0.039102809641776079 0 0.093779438916113331 -0.040563250429730975 0 0.093018376141946538 -0.04062400525423418 0 0.092497843804342297 -0.040728948510773216 0 0.093018376141946538 -0.04062400525423418 0 0.092497843804342297 -0.040728948510773216 0 0.093175570438212604 -0.040768463474134299 0 0.093417597135950742 -0.042593995372345005 0 0.092497843804342297 -0.040728948510773216 0 0.093175570438212604 -0.040768463474134299 0 0.093417597135950742 -0.042593995372345005 0 0.094525106424809657 -0.042088085109279569 0 0.093175570438212604 -0.040768463474134299 0 0.092720385535246599 -0.040616317630537253 0 0.092449357173705338 -0.040732963762973071 0 0.094546789705489742 -0.041851014482295112 0 0.090210800439674776 -0.037943940935756912 0 0.091193882479269822 -0.039102809641776079 0 0.090149768292234395 -0.042309142342126418 0 0.092001440275170154 -0.041233304409669526 0 0.091832571124351239 -0.042446772424493927 0 0.090149768292234395 -0.042309142342126418 0 0.091832571124351239 -0.042446772424493927 0 0.092299929275595272 -0.043671589603262749 0 0.090149768292234395 -0.042309142342126418 0 0.092299929275595272 -0.043671589603262749 0 0.091883188958574502 -0.0447018960926239 0 0.090210800439674776 -0.037943940935756912 0 0.092306728997014295 -0.031445549448837214 0 0.091832571124351239 -0.042446772424493927 0 0.092299929275595272 -0.043671589603262749 0 0.092879389862520714 -0.042572765501301145 0 0.092001440275170154 -0.041233304409669526 0 0.091832571124351239 -0.042446772424493927 0 0.092879389862520714 -0.042572765501301145 0 0.096933590217909343 -0.044334870425507676 0 0.094136771709687289 -0.043486006499711363 0 0.094546789705489742 -0.041851014482295112 0 0.092001440275170154 -0.041233304409669526 0 0.092879389862520714 -0.042572765501301145 0 0.094546789705489742 -0.041851014482295112 0 0.091193882479269822 -0.039102809641776079 0 0.092255899433320465 -0.039549934890317842 0 0.092879389862520714 -0.042572765501301145 0 0.094136771709687289 -0.043486006499711363 0 0.094546789705489742 -0.041851014482295112 0 0.092299929275595272 -0.043671589603262749 0 0.092879389862520714 -0.042572765501301145 0 0.094136771709687289 -0.043486006499711363 0 0.099126634910340586 -0.025349919839194567 0 0.096398228113496104 -0.019315998412937099 0 0.096933590217909343 -0.044334870425507676 0 0.094101589224943105 -0.045019863494306193 0 0.093656086714688225 -0.047173607482658669 0 0.096933590217909343 -0.044334870425507676 0 0.094136771709687289 -0.043486006499711363 0 0.094101589224943105 -0.045019863494306193 0 0.10373455001601993 -0.015440027633770514 0 0.10329756848026408 -0.017125315292353793 0 0.10158447398245582 -0.017373153143668916 0 0.092299929275595272 -0.043671589603262749 0 0.094136771709687289 -0.043486006499711363 0 0.094101589224943105 -0.045019863494306193 0 0.094101589224943105 -0.045019863494306193 0 0.091879926399989931 -0.044726954760628046 0 0.093656086714688225 -0.047173607482658669 0 0.092306728997014295 -0.031445549448837214 0 0.08961692690197301 -0.027376672381721884 0 0.08394139745261317 -0.035857367439815421 0 0.084403967855803119 -0.034643823688171323 0 0.084930926647660443 -0.03592805038546952 0 0.092306728997014295 -0.031445549448837214 0 0.096398228113496104 -0.019315998412937099 0 0.092299929275595272 -0.043671589603262749 0 0.094101589224943105 -0.045019863494306193 0 0.091879926399989931 -0.044726954760628046 0 0.092054305741866335 -0.032321110546127588 0 0.092306728997014295 -0.031445549448837214 0 0.089285572804757532 -0.019614380904984366 0 0.096398228113496104 -0.019315998412937099 0 0.090978404583695452 -0.021864413364885558 0 0.090916349661343668 -0.022288980254894494 0 0.090482011526653902 -0.022344288304549164 0 0.090754632526890505 -0.02273458418652554 0 0.090916349661343668 -0.022288980254894494 0 0.090482011526653902 -0.022344288304549164 0 0.10251388053440637 -0.01864630215111571 0 0.10329756848026408 -0.017125315292353793 0 0.10158447398245582 -0.017373153143668916 0 0.093351961396472116 -0.010694017795306697 0 0.096022500797054003 -0.0097050275783901723 0 0.094212838275004707 -0.0072165921648475653 0 0.10026421031456546 -0.0055452445797289137 0 0.096398228113496104 -0.019315998412937099 0 0.087463094511576536 -0.037804995530162713 0 0.087502529267122917 -0.036952507870682667 0 0.085894686063665265 -0.036195074098658971 0 0.086317664414825593 -0.035167970205623005 0 0.087133976090742721 -0.035524733738364803 0 0.085894686063665265 -0.036195074098658971 0 0.085416069464567757 -0.035129862263015586 0 0.086317664414825593 -0.035167970205623005 0 0.085894686063665265 -0.036195074098658971 0 0.084930926647660443 -0.03592805038546952 0 0.085416069464567757 -0.035129862263015586 0 0.084403967855803119 -0.034643823688171323 0 0.084930926647660443 -0.03592805038546952 0 0.085416069464567757 -0.035129862263015586 0 0.084686131567448392 -0.036889956932789313 0 0.08394139745261317 -0.035857367439815421 0 0.084930926647660443 -0.03592805038546952 0 0.084403967855803119 -0.034643823688171323 0 0.085416069464567757 -0.035129862263015586 0 0.08513446761645474 -0.034362108194647537 0 0.084869727370156217 -0.03340453381907664 0 0.084403967855803119 -0.034643823688171323 0 0.08513446761645474 -0.034362108194647537 0 0.085416069464567757 -0.035129862263015586 0 0.08513446761645474 -0.034362108194647537 0 0.085905560843202763 -0.03425683398189646 0 0.085905560843202763 -0.03425683398189646 0 0.086317664414825593 -0.035167970205623005 0 0.087425698411392805 -0.034303724796560277 0 0.085416069464567757 -0.035129862263015586 0 0.085905560843202763 -0.03425683398189646 0 0.086317664414825593 -0.035167970205623005 0 0.087425698411392805 -0.034303724796560277 0 0.088438532240756304 -0.034918199913170696 0 0.087133976090742721 -0.035524733738364803 0 0.086317664414825593 -0.035167970205623005 0 0.087425698411392805 -0.034303724796560277 0 0.087133976090742721 -0.035524733738364803 0 0.089006115598979363 -0.033964715261374706 0 0.087425698411392805 -0.034303724796560277 0 0.088438532240756304 -0.034918199913170696 0 0.087902103228907152 -0.036479845280799346 0 0.087502529267122917 -0.036952507870682667 0 0.088438532240756304 -0.034918199913170696 0 0.086328963888755134 -0.036095130700922511 0 0.089401894148292874 -0.037640322586523715 0 0.084272277183768812 -0.037305195154051632 0 0.086328963888755134 -0.036095130700922511 0 0.085841041878700411 -0.037782859968123778 0 0.086328963888755134 -0.036095130700922511 0 0.085841041878700411 -0.037782859968123778 0 0.08736683851193526 -0.03877323379357981 0 0.08480573065486606 -0.038926608572075902 0 0.085841041878700411 -0.037782859968123778 0 0.08736683851193526 -0.03877323379357981 0 0.086328963888755134 -0.036095130700922511 0 0.08736683851193526 -0.03877323379357981 0 0.089401894148292874 -0.037640322586523715 0 0.08736683851193526 -0.03877323379357981 0 0.088156024809268443 -0.040973307007739254 0 0.089401894148292874 -0.037640322586523715 0 0.089498137720688847 -0.041010128122482725 0 0.088182936807894394 -0.040291990950382363 0 0.088664032744157101 -0.038959565231390082 0 0.089302408722652271 -0.037022390553887334 0 0.088542425733738328 -0.041225769038170039 0 0.088156024809268443 -0.040973307007739254 0 0.08584403627848454 -0.040461432999417367 0 0.08736683851193526 -0.03877323379357981 0 0.088156024809268443 -0.040973307007739254 0 0.08584403627848454 -0.040461432999417367 0 0.08480573065486606 -0.038926608572075902 0 0.08736683851193526 -0.03877323379357981 0 0.08584403627848454 -0.040461432999417367 0 0.092254215266323839 -0.042196595064384015 0 0.090582216678208718 -0.039517136424082284 0 0.093306598973194071 -0.0388669311241229 0 0.088542425733738328 -0.041225769038170039 0 0.092254215266323839 -0.042196595064384015 0 0.090582216678208718 -0.039517136424082284 0 0.088156024809268443 -0.040973307007739254 0 0.090582216678208718 -0.039517136424082284 0 0.089304107892142909 -0.037035670901238611 0 0.088542425733738328 -0.041225769038170039 0 0.088156024809268443 -0.040973307007739254 0 0.090582216678208718 -0.039517136424082284 0 0.090582216678208718 -0.039517136424082284 0 0.089304107892142909 -0.037035670901238611 0 0.09160518617701767 -0.037093345852297024 0 0.090582216678208718 -0.039517136424082284 0 0.09160518617701767 -0.037093345852297024 0 0.093306598973194071 -0.0388669311241229 0 0.09160518617701767 -0.037093345852297024 0 0.093192274906153422 -0.035489473204519048 0 0.093306598973194071 -0.0388669311241229 0 0.09160518617701767 -0.037093345852297024 0 0.090306785506320014 -0.032990641569603005 0 0.093192274906153422 -0.035489473204519048 0 0.088438532240756304 -0.034918199913170696 0 0.089401894148292874 -0.037640322586523715 0 0.090316429791028399 -0.034636311474607634 0 0.089304107892142909 -0.037035670901238611 0 0.09160518617701767 -0.037093345852297024 0 0.090306785506320014 -0.032990641569603005 0 0.089302408722652271 -0.037022390553887334 0 0.090327792396661583 -0.033737932491494489 0 0.089006115598979363 -0.033964715261374706 0 0.088438532240756304 -0.034918199913170696 0 0.090316429791028399 -0.034636311474607634 0 0.090306785506320014 -0.032990641569603005 0 0.093373706810267895 -0.032946301462046884 0 0.093192274906153422 -0.035489473204519048 0 0.092646730090806428 -0.030951243475032003 0 0.090306785506320014 -0.032990641569603005 0 0.093373706810267895 -0.032946301462046884 0 0.093373706810267895 -0.032946301462046884 0 0.095006581959625247 -0.032625165339869262 0 0.095165929066588939 -0.034976081030142728 0 0.093974676418667136 -0.030878125668864428 0 0.093373706810267895 -0.032946301462046884 0 0.095006581959625247 -0.032625165339869262 0 0.096190103583996697 -0.031089911967370897 0 0.095006581959625247 -0.032625165339869262 0 0.096922990439726991 -0.03396714675155342 0 0.095006581959625247 -0.032625165339869262 0 0.095165929066588939 -0.034976081030142728 0 0.096922990439726991 -0.03396714675155342 0 0.095165929066588939 -0.034976081030142728 0 0.096841036156644439 -0.036339278261068531 0 0.096922990439726991 -0.03396714675155342 0 0.095165929066588939 -0.034976081030142728 0 0.096841036156644439 -0.036339278261068531 0 0.095612306956020965 -0.038136597624016819 0 0.093373706810267895 -0.032946301462046884 0 0.095165929066588939 -0.034976081030142728 0 0.093192274906153422 -0.035489473204519048 0 0.095165929066588939 -0.034976081030142728 0 0.093192274906153422 -0.035489473204519048 0 0.095612306956020965 -0.038136597624016819 0 0.096190103583996697 -0.031089911967370897 0 0.099332189757350225 -0.032768502575450068 0 0.096922990439726991 -0.03396714675155342 0 0.099332189757350225 -0.032768502575450068 0 0.096922990439726991 -0.03396714675155342 0 0.099120816303437484 -0.035916336731254363 0 0.096841036156644439 -0.036339278261068531 0 0.096922990439726991 -0.03396714675155342 0 0.099120816303437484 -0.035916336731254363 0 0.099120816303437484 -0.035916336731254363 0 0.10139276360982534 -0.037079485831377226 0 0.10200724055223874 -0.034991641991631323 0 0.099332189757350225 -0.032768502575450068 0 0.099120816303437484 -0.035916336731254363 0 0.10200724055223874 -0.034991641991631323 0 0.098770202440183516 -0.039242581898776198 0 0.10245500502321739 -0.039496158487891869 0 0.10139276360982534 -0.037079485831377226 0 0.099120816303437484 -0.035916336731254363 0 0.098770202440183516 -0.039242581898776198 0 0.10139276360982534 -0.037079485831377226 0 0.096841036156644439 -0.036339278261068531 0 0.099120816303437484 -0.035916336731254363 0 0.098770202440183516 -0.039242581898776198 0 0.096841036156644439 -0.036339278261068531 0 0.098770202440183516 -0.039242581898776198 0 0.095612306956020965 -0.038136597624016819 0 0.098770202440183516 -0.039242581898776198 0 0.095937327094834851 -0.040751931062620997 0 0.098191101064402944 -0.041719045031442331 0 0.098770202440183516 -0.039242581898776198 0 0.10163371483284325 -0.041991925440804087 0 0.10245500502321739 -0.039496158487891869 0 0.098770202440183516 -0.039242581898776198 0 0.098191101064402944 -0.041719045031442331 0 0.10163371483284325 -0.041991925440804087 0 0.092254215266323839 -0.042196595064384015 0 0.093306598973194071 -0.0388669311241229 0 0.095937327094834851 -0.040751931062620997 0 0.093192274906153422 -0.035489473204519048 0 0.093306598973194071 -0.0388669311241229 0 0.095612306956020965 -0.038136597624016819 0 0.098770202440183516 -0.039242581898776198 0 0.095612306956020965 -0.038136597624016819 0 0.095937327094834851 -0.040751931062620997 0 0.093306598973194071 -0.0388669311241229 0 0.095612306956020965 -0.038136597624016819 0 0.095937327094834851 -0.040751931062620997 0 0.092254215266323839 -0.042196595064384015 0 0.095937327094834851 -0.040751931062620997 0 0.09556692397912428 -0.043508860228915466 0 0.092254215266323839 -0.042196595064384015 0 0.093760017000800611 -0.04530614737730914 0 0.09556692397912428 -0.043508860228915466 0 0.093760017000800611 -0.04530614737730914 0 0.09556692397912428 -0.043508860228915466 0 0.096380649750704095 -0.045974793137691733 0 0.09556692397912428 -0.043508860228915466 0 0.098747640005710499 -0.044037108004457717 0 0.096380649750704095 -0.045974793137691733 0 0.095937327094834851 -0.040751931062620997 0 0.09556692397912428 -0.043508860228915466 0 0.098191101064402944 -0.041719045031442331 0 0.09556692397912428 -0.043508860228915466 0 0.098191101064402944 -0.041719045031442331 0 0.098747640005710499 -0.044037108004457717 0 0.099456974871685894 -0.04441116655084229 0 0.1006046589496129 -0.043313804135567013 0 0.098191101064402944 -0.041719045031442331 0 0.098747640005710499 -0.044037108004457717 0 0.10163371483284325 -0.041991925440804087 0 0.1018163372201538 -0.0453712731760074 0 0.099968229215659218 -0.044644408696360188 0 0.10163371483284325 -0.041991925440804087 0 0.099456974871685894 -0.04441116655084229 0 0.097548616611651401 -0.04627024622218591 0 0.099968229215659218 -0.044644408696360188 0 0.10040628849874647 -0.04697659413000338 0 0.098531334225503392 -0.046779050259850116 0 0.1018163372201538 -0.0453712731760074 0 0.10040628849874647 -0.04697659413000338 0 0.10308799747767514 -0.04776691004451785 0 0.1018163372201538 -0.0453712731760074 0 0.099968229215659218 -0.044644408696360188 0 0.10040628849874647 -0.04697659413000338 0 0.10040628849874647 -0.04697659413000338 0 0.10308799747767514 -0.04776691004451785 0 0.10109068326606263 -0.049072794167571251 0 0.10040628849874647 -0.04697659413000338 0 0.09917425207113445 -0.049508377102204848 0 0.10109068326606263 -0.049072794167571251 0 0.10040628849874647 -0.04697659413000338 0 0.098531334225503392 -0.046779050259850116 0 0.09917425207113445 -0.049508377102204848 0 0.097004107480517854 -0.048450456936353269 0 0.098531334225503392 -0.046779050259850116 0 0.09917425207113445 -0.049508377102204848 0 0.095626131595108771 -0.048129601481117001 0 0.097548616611651401 -0.04627024622218591 0 0.093760017000800611 -0.04530614737730914 0 0.094547483876655083 -0.047905880486968047 0 0.096380649750704095 -0.045974793137691733 0 0.10601282347908905 -0.046090541504985073 0 0.10628058443274513 -0.047975334925246617 0 0.10498824003220057 -0.047338957109968313 0 0.10601282347908905 -0.046090541504985073 0 0.10806875345024652 -0.0460437467747839 0 0.10628058443274513 -0.047975334925246617 0 0.07236067520947255 -0.034541458836859121 0 0.080019931121120061 -0.033731881189624363 0 0.10737359413390363 -0.046358699234518241 0 0.10718342152536633 -0.046857942014151874 0 0.10628058443274513 -0.047975334925246617 0 0.050686597200452196 -0.040222850278110615 0 0.051640715987789951 -0.038990483734326557 0 0.053161884850310953 -0.041184193685665817 0 0.07236067520947255 -0.034541458836859121 0 0.062741186912666169 -0.030964772399177967 0 0.061868205893823129 -0.027193232367249947 0 0.062894433933076185 -0.025874193773815918 0 0.062264214355478097 -0.025756018775078843 0 0.050686597200452196 -0.040222850278110615 0 0.050670063730331158 -0.042118171353527294 0 0.053161884850310953 -0.041184193685665817 0 0.10737359413390363 -0.046358699234518241 0 0.10718342152536633 -0.046857942014151874 0 0.10737970828286736 -0.047235480005643815 0 0.07236067520947255 -0.034541458836859121 0 0.07575221607295575 -0.04177453131702559 0 0.076289046666880536 -0.04227626465908798 0 0.07575221607295575 -0.04177453131702559 0 0.1074396233490961 -0.047261149447739938 0 0.10628058443274513 -0.047975334925246617 0 0.10748138436058927 -0.050023856037317932 0 0.076147413737250383 -0.04605562829651056 0 0.077176552662025111 -0.047909838040297352 0 0.076138139811311373 -0.04871513342718467 0 0.10718342152536633 -0.046857942014151874 0 0.1074396233490961 -0.047261149447739938 0 0.10628058443274513 -0.047975334925246617 0 0.050670063730331158 -0.042118171353527294 0 0.053161884850310953 -0.041184193685665817 0 0.052819362710942099 -0.046033034083850788 0 0.07575221607295575 -0.04177453131702559 0 0.070108865810347629 -0.045196025452197336 0 0.07575221607295575 -0.04177453131702559 0 0.084234749174924045 -0.04847172227658969 0 0.10628058443274513 -0.047975334925246617 0 0.10498824003220057 -0.047338957109968313 0 0.10540271136463883 -0.049454657484773672 0 0.10498824003220057 -0.047338957109968313 0 0.10308799747767514 -0.04776691004451785 0 0.10540271136463883 -0.049454657484773672 0 0.1018163372201538 -0.0453712731760074 0 0.10308799747767514 -0.04776691004451785 0 0.10419169117076373 -0.045074654503823065 0 0.10498824003220057 -0.047338957109968313 0 0.10308799747767514 -0.04776691004451785 0 0.10419169117076373 -0.045074654503823065 0 0.10601282347908905 -0.046090541504985073 0 0.10498824003220057 -0.047338957109968313 0 0.10419169117076373 -0.045074654503823065 0 0.10601282347908905 -0.046090541504985073 0 0.10419169117076373 -0.045074654503823065 0 0.10623761383675634 -0.043618417173990787 0 0.10419169117076373 -0.045074654503823065 0 0.10442680090830593 -0.041656543320940667 0 0.10623761383675634 -0.043618417173990787 0 0.1018163372201538 -0.0453712731760074 0 0.10419169117076373 -0.045074654503823065 0 0.10163371483284325 -0.041991925440804087 0 0.10419169117076373 -0.045074654503823065 0 0.10163371483284325 -0.041991925440804087 0 0.10442680090830593 -0.041656543320940667 0 0.10442680090830593 -0.041656543320940667 0 0.10623761383675634 -0.043618417173990787 0 0.10636916725876393 -0.040366534849748364 0 0.10623761383675634 -0.043618417173990787 0 0.10832401287144353 -0.042175378325359135 0 0.10636916725876393 -0.040366534849748364 0 0.10601282347908905 -0.046090541504985073 0 0.10806875345024652 -0.0460437467747839 0 0.10623761383675634 -0.043618417173990787 0 0.10806875345024652 -0.0460437467747839 0 0.10623761383675634 -0.043618417173990787 0 0.10832401287144353 -0.042175378325359135 0 0.061868205893823129 -0.027193232367249947 0 0.062264214355478097 -0.025756018775078843 0 0.061893600308373049 -0.020656862524632304 0 0.07236067520947255 -0.034541458836859121 0 0.07331458959927345 -0.029681675898829411 0 0.062264214355478097 -0.025756018775078843 0 0.061893600308373049 -0.020656862524632304 0 0.065252397943977442 -0.022766789829128106 0 0.0628845464377914 -0.025868588700445398 0 0.062264214355478097 -0.025756018775078843 0 0.065252397943977442 -0.022766789829128106 0 0.062741186912666169 -0.030964772399177967 0 0.062728104087369438 -0.03094478396377898 0 0.061893600308373049 -0.020656862524632304 0 0.064777047942013902 -0.016931915245345222 0 0.064882813957082328 -0.020008208413980454 0 0.061893600308373049 -0.020656862524632304 0 0.061951484543902438 -0.014175000871948326 0 0.064777047942013902 -0.016931915245345222 0 0.10832401287144353 -0.042175378325359135 0 0.10636916725876393 -0.040366534849748364 0 0.10846215360627985 -0.038013394943388054 0 0.07331458959927345 -0.029681675898829411 0 0.064623237858470239 -0.015755082899363129 0 0.10636916725876393 -0.040366534849748364 0 0.10579206915286658 -0.037918017827956264 0 0.10468379484217739 -0.039133515928102401 0 0.10636916725876393 -0.040366534849748364 0 0.10579206915286658 -0.037918017827956264 0 0.10846215360627985 -0.038013394943388054 0 0.10579206915286658 -0.037918017827956264 0 0.10846215360627985 -0.038013394943388054 0 0.10566297383055147 -0.035090682967179647 0 0.036951181217002402 0.018946096342026313 0 0.036622292105140127 0.01992322497774492 0 0.039488640361856779 0.017001727242596035 0 0.064384216413917839 -0.014538907488254756 0 0.064623237858470239 -0.015755082899363129 0 0.036951181217002402 0.018946096342026313 0 0.035978439906206944 0.017538485872677097 0 0.035665584989387419 0.018630676591377758 0 0.036951181217002402 0.018946096342026313 0 0.036918325166793518 0.019065073805270647 0 0.035665584989387419 0.018630676591377758 0 0.064623237858470239 -0.015755082899363129 0 0.051231816981806476 -0.0083033549404475139 0 0.036918325166793518 0.019065073805270647 0 0.035318325981210631 0.020265068728546977 0 0.035665584989387419 0.018630676591377758 0 0.10163371483284325 -0.041991925440804087 0 0.10442680090830593 -0.041656543320940667 0 0.10245500502321739 -0.039496158487891869 0 0.10442680090830593 -0.041656543320940667 0 0.10245500502321739 -0.039496158487891869 0 0.10468379484217739 -0.039133515928102401 0 0.10442680090830593 -0.041656543320940667 0 0.10636916725876393 -0.040366534849748364 0 0.10468379484217739 -0.039133515928102401 0 0.10245500502321739 -0.039496158487891869 0 0.10468379484217739 -0.039133515928102401 0 0.10374653834046065 -0.036935936853726599 0 0.10579206915286658 -0.037918017827956264 0 0.10468379484217739 -0.039133515928102401 0 0.10374653834046065 -0.036935936853726599 0 0.10245500502321739 -0.039496158487891869 0 0.10374653834046065 -0.036935936853726599 0 0.10139276360982534 -0.037079485831377226 0 0.10374653834046065 -0.036935936853726599 0 0.10139276360982534 -0.037079485831377226 0 0.10200724055223874 -0.034991641991631323 0 0.10374653834046065 -0.036935936853726599 0 0.10200724055223874 -0.034991641991631323 0 0.10566297383055147 -0.035090682967179647 0 0.10579206915286658 -0.037918017827956264 0 0.10374653834046065 -0.036935936853726599 0 0.10566297383055147 -0.035090682967179647 0 0.10268418407400579 -0.032033584633015963 0 0.10200724055223874 -0.034991641991631323 0 0.10566297383055147 -0.035090682967179647 0 0.080713960859751493 -0.015689847978610921 0 0.07338543053170711 -0.013784861731296274 0 0.061536805223911833 0.006174223209634384 0 0.044923541640407356 0.017426518424340825 0 0.045834073072562737 0.0085744386954306577 0 0.10268418407400579 -0.032033584633015963 0 0.099332189757350225 -0.032768502575450068 0 0.10200724055223874 -0.034991641991631323 0 0.035923651357558622 0.015844808592950191 0 0.039488640361856779 0.017001727242596035 0 0.037008812870913899 0.01327121939885641 0 0.035923651357558622 0.015844808592950191 0 0.037021398507232087 0.017401442254258284 0 0.039488640361856779 0.017001727242596035 0 0.036951181217002402 0.018946096342026313 0 0.035978439906206944 0.017538485872677097 0 0.037021398507232087 0.017401442254258284 0 0.035923651357558622 0.015844808592950191 0 0.035978439906206944 0.017538485872677097 0 0.037021398507232087 0.017401442254258284 0 0.036951181217002402 0.018946096342026313 0 0.037021398507232087 0.017401442254258284 0 0.039488640361856779 0.017001727242596035 0 0.064623237858470239 -0.015755082899363129 0 0.07338543053170711 -0.013784861731296274 0 0.044923541640407356 0.017426518424340825 0 0.039488640361856779 0.017001727242596035 0 0.037008812870913899 0.01327121939885641 0 0.036622292105140127 0.01992322497774492 0 0.044923541640407356 0.017426518424340825 0 0.039488640361856779 0.017001727242596035 0 0.044923541640407356 0.017426518424340825 0 0.045834073072562737 0.0085744386954306577 0 0.037008812870913899 0.01327121939885641 0 0.035923651357558622 0.015844808592950191 0 0.037008812870913899 0.01327121939885641 0 0.034881662594491818 0.014131855825095812 0 0.035923651357558622 0.015844808592950191 0 0.034881662594491818 0.014131855825095812 0 0.034210357282159612 0.015321662544813694 0 0.035923651357558622 0.015844808592950191 0 0.034523285447083225 0.016620578334432878 0 0.034210357282159612 0.015321662544813694 0 0.035923651357558622 0.015844808592950191 0 0.035978439906206944 0.017538485872677097 0 0.034523285447083225 0.016620578334432878 0 0.034210357282159612 0.015321662544813694 0 0.033543947257990023 0.015321371323318062 0 0.033898604706488859 0.016397747936559841 0 0.034523285447083225 0.016620578334432878 0 0.034210357282159612 0.015321662544813694 0 0.033898604706488859 0.016397747936559841 0 0.033543947257990023 0.015321371323318062 0 0.033361991288057648 0.015886364132302072 0 0.033898604706488859 0.016397747936559841 0 0.034210357282159612 0.015321662544813694 0 0.033814797762740642 0.014538948302310254 0 0.033543947257990023 0.015321371323318062 0 0.034881662594491818 0.014131855825095812 0 0.034210357282159612 0.015321662544813694 0 0.033814797762740642 0.014538948302310254 0 0.033814797762740642 0.014538948302310254 0 0.033049007901428111 0.014829336228519887 0 0.033543947257990023 0.015321371323318062 0 0.033049007901428111 0.014829336228519887 0 0.032672461870517609 0.01488085693200859 0 0.033143329203842394 0.015197479621173281 0 0.033049007901428111 0.014829336228519887 0 0.033543947257990023 0.015321371323318062 0 0.033143329203842394 0.015197479621173281 0 0.033049007901428111 0.014829336228519887 0 0.032672461870517609 0.01488085693200859 0 0.032750624921111728 0.015090075168586282 0 0.032672461870517609 0.01488085693200859 0 0.032750624921111728 0.015090075168586282 0 0.033506785918967545 0.013867398012946936 0 0.032672461870517609 0.01488085693200859 0 0.031011158753321912 0.012470492602440736 0 0.033506785918967545 0.013867398012946936 0 0.037566435401563715 0.0095040648973631469 0 0.038481321819653698 0.0070115499706391877 0 0.032672461870517609 0.01488085693200859 0 0.033361991288057648 0.015886364132302072 0 0.033264263067542689 0.016662026947369589 0 0.032672461870517609 0.01488085693200859 0 0.033143329203842394 0.015197479621173281 0 0.033361991288057648 0.015886364132302072 0 0.033543947257990023 0.015321371323318062 0 0.033143329203842394 0.015197479621173281 0 0.033361991288057648 0.015886364132302072 0 0.032672461870517609 0.01488085693200859 0 0.031011158753321912 0.012470492602440736 0 0.029510057027926948 0.012092424411419601 0 0.033361991288057648 0.015886364132302072 0 0.033264263067542689 0.016662026947369589 0 0.033627772440553871 0.016508834857319948 0 0.031011158753321912 0.012470492602440736 0 0.029510057027926948 0.012092424411419601 0 0.031115509354677752 0.008693592860767152 0 0.027001923302027702 -0.00426110818588503 0 0.028847050627364732 0.0047950630732066738 0 0.031011158753321912 0.012470492602440736 0 0.033437260868355953 0.0094353425048950956 0 0.033506785918967545 0.013867398012946936 0 0.026160244141002702 0.0022484485131819328 0 0.027001923302027702 -0.00426110818588503 0 0.036491812746909429 0.0064595071133265337 0 0.031115509354677752 0.008693592860767152 0 0.030974169662929145 0.0058632630233072776 0 0.031011158753321912 0.012470492602440736 0 0.036491812746909429 0.0064595071133265337 0 0.031115509354677752 0.008693592860767152 0 0.029510057027926948 0.012092424411419601 0 0.031115509354677752 0.008693592860767152 0 0.028381992199683265 0.0056879376229027334 0 0.031115509354677752 0.008693592860767152 0 0.030974169662929145 0.0058632630233072776 0 0.028381992199683265 0.0056879376229027334 0 0.034071330598313999 0.017544251880855361 0 0.033832149992104002 0.016784615804742671 0 0.034255426236832184 0.016858774402409567 0 0.041999512153824706 -0.0020656334833593247 0 0.037714580743303028 0.0099066252886416389 0 0.029510057027926948 0.012092424411419601 0 0.028381992199683265 0.0056879376229027334 0 0.024424719605678488 0.0059172612147609122 0 0.033311334895786304 0.02108458073195147 0 0.034126476183894743 0.02036253511713268 0 0.033831831468716711 0.019273729351657155 0 0.038481321819653698 0.0070115499706391877 0 0.041999512153824706 -0.0020656334833593247 0 0.033264263067542689 0.016662026947369589 0 0.034071330598313999 0.017544251880855361 0 0.033832149992104002 0.016784615804742671 0 0.033311334895786304 0.02108458073195147 0 0.034126476183894743 0.02036253511713268 0 0.03373972007008981 0.021645062336354867 0 0.064777047942013902 -0.016931915245345222 0 0.064882813957082328 -0.020008208413980454 0 0.067599417879709439 -0.019684214142891308 0 0.051231816981806476 -0.0083033549404475139 0 0.043982843986064023 -0.0093075720536178776 0 0.035318325981210631 0.020265068728546977 0 0.034126476183894743 0.02036253511713268 0 0.03373972007008981 0.021645062336354867 0 0.035318325981210631 0.020265068728546977 0 0.034126476183894743 0.02036253511713268 0 0.033831831468716711 0.019273729351657155 0 0.034523285447083225 0.016620578334432878 0 0.035665584989387419 0.018630676591377758 0 0.033831831468716711 0.019273729351657155 0 0.036743605713734306 0.012531100252900286 0 0.037714580743303028 0.0099066252886416389 0 0.035318325981210631 0.020265068728546977 0 0.035665584989387419 0.018630676591377758 0 0.033831831468716711 0.019273729351657155 0 0.035978439906206944 0.017538485872677097 0 0.034523285447083225 0.016620578334432878 0 0.035665584989387419 0.018630676591377758 0 0.034523285447083225 0.016620578334432878 0 0.033898604706488859 0.016397747936559841 0 0.034255426236832184 0.016858774402409567 0 0.033627772440553871 0.016508834857319948 0 0.033898604706488859 0.016397747936559841 0 0.033832149992104002 0.016784615804742671 0 0.033361991288057648 0.015886364132302072 0 0.033627772440553871 0.016508834857319948 0 0.033898604706488859 0.016397747936559841 0 0.033264263067542689 0.016662026947369589 0 0.033627772440553871 0.016508834857319948 0 0.033832149992104002 0.016784615804742671 0 0.033898604706488859 0.016397747936559841 0 0.033832149992104002 0.016784615804742671 0 0.034255426236832184 0.016858774402409567 0 0.04103771180324213 -0.00111160732274342 0 0.036268921403806373 -0.0016363042277388437 0 0.037809681782048771 0.0036509080091407724 0 0.036268921403806373 -0.0016363042277388437 0 0.037809681782048771 0.0036509080091407724 0 0.033751538490951333 0.0011333384727368009 0 0.037809681782048771 0.0036509080091407724 0 0.034279727419937976 0.0047835278413597849 0 0.033751538490951333 0.0011333384727368009 0 0.036268921403806373 -0.0016363042277388437 0 0.033751538490951333 0.0011333384727368009 0 0.03320166371574633 -0.0033208122586573185 0 0.033751538490951333 0.0011333384727368009 0 0.029073842340788199 -0.0014569547766062959 0 0.03320166371574633 -0.0033208122586573185 0 0.033751538490951333 0.0011333384727368009 0 0.029073842340788199 -0.0014569547766062959 0 0.029080908826715018 0.0032969740291280271 0 0.029073842340788199 -0.0014569547766062959 0 0.029080908826715018 0.0032969740291280271 0 0.026828486021871736 0.0014229169902560718 0 0.03309812751755465 0.0050868615357893641 0 0.031976030938589597 0.0062336827858606976 0 0.033390532451499269 0.0074198961684187187 0 0.034279727419937976 0.0047835278413597849 0 0.032510707229193317 0.0040325747137220725 0 0.034279727419937976 0.0047835278413597849 0 0.033751538490951333 0.0011333384727368009 0 0.032510707229193317 0.0040325747137220725 0 0.029080908826715018 0.0032969740291280271 0 0.024649893848039187 0.0055151647104118313 0 0.026828486021871736 0.0014229169902560718 0 0.024649893848039187 0.0055151647104118313 0 0.026828486021871736 0.0014229169902560718 0 0.024525357730107 -0.0016377206976325061 0 0.031976030938589597 0.0062336827858606976 0 0.030455679054081662 0.0087244532434429031 0 0.030455679054081662 0.0087244532434429031 0 0.028847050627364732 0.0047950630732066738 0 0.029073842340788199 -0.0014569547766062959 0 0.026828486021871736 0.0014229169902560718 0 0.024525357730107 -0.0016377206976325061 0 0.029073842340788199 -0.0014569547766062959 0 0.024525357730107 -0.0016377206976325061 0 0.027528832308176543 -0.0050598261793989704 0 0.024569182094248673 -0.0082169385288523127 0 0.024525357730107 -0.0016377206976325061 0 0.027528832308176543 -0.0050598261793989704 0 0.024569182094248673 -0.0082169385288523127 0 0.027528832308176543 -0.0050598261793989704 0 0.029597894191073146 -0.0085411290582474257 0 0.029597894191073146 -0.0085411290582474257 0 0.030649602049805953 -0.0053916033458567348 0 0.033335758719314344 -0.0071713520097487667 0 0.027528832308176543 -0.0050598261793989704 0 0.029597894191073146 -0.0085411290582474257 0 0.030649602049805953 -0.0053916033458567348 0 0.029073842340788199 -0.0014569547766062959 0 0.027528832308176543 -0.0050598261793989704 0 0.030649602049805953 -0.0053916033458567348 0 0.029073842340788199 -0.0014569547766062959 0 0.030649602049805953 -0.0053916033458567348 0 0.03320166371574633 -0.0033208122586573185 0 0.030649602049805953 -0.0053916033458567348 0 0.03320166371574633 -0.0033208122586573185 0 0.033335758719314344 -0.0071713520097487667 0 0.03320166371574633 -0.0033208122586573185 0 0.033335758719314344 -0.0071713520097487667 0 0.035209124893965764 -0.0049494619719747624 0 0.036268921403806373 -0.0016363042277388437 0 0.03320166371574633 -0.0033208122586573185 0 0.035209124893965764 -0.0049494619719747624 0 0.029597894191073146 -0.0085411290582474257 0 0.033335758719314344 -0.0071713520097487667 0 0.032262373905023081 -0.011224727850262914 0 0.033335758719314344 -0.0071713520097487667 0 0.035949783150741307 -0.0066665269637886009 0 0.035209124893965764 -0.0049494619719747624 0 0.033335758719314344 -0.0071713520097487667 0 0.035949783150741307 -0.0066665269637886009 0 0.035091798253389796 -0.0098827964994493943 0 0.035949783150741307 -0.0066665269637886009 0 0.037189329887031837 -0.0053251063352545199 0 0.035209124893965764 -0.0049494619719747624 0 0.04103771180324213 -0.00111160732274342 0 0.036268921403806373 -0.0016363042277388437 0 0.037189329887031837 -0.0053251063352545199 0 0.036832716294857223 -0.0063535605743329721 0 0.035949783150741307 -0.0066665269637886009 0 0.037189329887031837 -0.0053251063352545199 0 0.036268921403806373 -0.0016363042277388437 0 0.037189329887031837 -0.0053251063352545199 0 0.035209124893965764 -0.0049494619719747624 0 0.038322808055907397 -0.011672763638660898 0 0.035121292750244823 -0.012914509887601724 0 0.036303045708060949 -0.016135381125370225 0 0.034061988545942889 -0.012598457002414871 0 0.034253116947821981 -0.010596161214516078 0 0.038322808055907397 -0.011672763638660898 0 0.035949783150741307 -0.0066665269637886009 0 0.035091798253389796 -0.0098827964994493943 0 0.038322808055907397 -0.011672763638660898 0 0.035121292750244823 -0.012914509887601724 0 0.035091798253389796 -0.0098827964994493943 0 0.035121292750244823 -0.012914509887601724 0 0.035091798253389796 -0.0098827964994493943 0 0.032262373905023081 -0.011224727850262914 0 0.033335758719314344 -0.0071713520097487667 0 0.035091798253389796 -0.0098827964994493943 0 0.032262373905023081 -0.011224727850262914 0 0.035121292750244823 -0.012914509887601724 0 0.031373023727820762 -0.016127795943983891 0 0.036303045708060949 -0.016135381125370225 0 0.035121292750244823 -0.012914509887601724 0 0.032262373905023081 -0.011224727850262914 0 0.031373023727820762 -0.016127795943983891 0 0.021618060061750103 -0.022439186212306336 0 0.022146940398235705 -0.028270788040500164 0 0.026250354759938196 -0.028274647768240974 0 0.032262373905023081 -0.011224727850262914 0 0.028139081585699593 -0.012280480717864254 0 0.031373023727820762 -0.016127795943983891 0 0.027520695009505436 -0.014419304377908702 0 0.02871202622595603 -0.021883467331288226 0 0.029597894191073146 -0.0085411290582474257 0 0.032262373905023081 -0.011224727850262914 0 0.028139081585699593 -0.012280480717864254 0 0.027001923302027702 -0.00426110818588503 0 0.027520695009505436 -0.014419304377908702 0 0.024569182094248673 -0.0082169385288523127 0 0.029597894191073146 -0.0085411290582474257 0 0.028139081585699593 -0.012280480717864254 0 0.016929078807274803 -0.01656206745308416 0 0.021618060061750103 -0.022439186212306336 0 0.016667319721308096 -0.023566698681549845 0 0.021618060061750103 -0.022439186212306336 0 0.019022853905432468 -0.027168209053479317 0 0.016667319721308096 -0.023566698681549845 0 0.021618060061750103 -0.022439186212306336 0 0.019022853905432468 -0.027168209053479317 0 0.022146940398235705 -0.028270788040500164 0 0.019022853905432468 -0.027168209053479317 0 0.016667319721308096 -0.023566698681549845 0 0.016422837240121422 -0.030864621553792392 0 0.019022853905432468 -0.027168209053479317 0 0.01960292455489657 -0.031114919309651729 0 0.022146940398235705 -0.028270788040500164 0 0.019022853905432468 -0.027168209053479317 0 0.01960292455489657 -0.031114919309651729 0 0.016422837240121422 -0.030864621553792392 0 0.027991995110728196 -0.026987722081835298 0 0.029875112092572379 -0.026897915892045435 0 0.01960292455489657 -0.031114919309651729 0 0.02137302933231789 -0.035723581101127541 0 0.016453200225789812 -0.030860985352023491 0 0.027005382803218982 -0.031152303506904198 0 0.029875112092572379 -0.026897915892045435 0 0.01960292455489657 -0.031114919309651729 0 0.02137302933231789 -0.035723581101127541 0 0.023786794804851127 -0.032119298304988844 0 0.021600817591957595 -0.036364368974171044 0 0.016969192605090454 -0.031850112364061073 0 0.016675392597219344 -0.039767345203166528 0 0.02137302933231789 -0.035723581101127541 0 0.023786794804851127 -0.032119298304988844 0 0.026364046573479235 -0.036139501570239194 0 0.023786794804851127 -0.032119298304988844 0 0.022146940398235705 -0.028270788040500164 0 0.026250354759938196 -0.028274647768240974 0 0.01960292455489657 -0.031114919309651729 0 0.023786794804851127 -0.032119298304988844 0 0.022146940398235705 -0.028270788040500164 0 0.02871202622595603 -0.021883467331288226 0 0.029414220278326852 -0.028627289555748125 0 0.031373023727820762 -0.016127795943983891 0 0.034465394312902319 -0.019968117756763 0 0.036303045708060949 -0.016135381125370225 0 0.023786794804851127 -0.032119298304988844 0 0.026250354759938196 -0.028274647768240974 0 0.030885206014259228 -0.034094292898865251 0 0.023786794804851127 -0.032119298304988844 0 0.026364046573479235 -0.036139501570239194 0 0.030885206014259228 -0.034094292898865251 0 0.026364046573479235 -0.036139501570239194 0 0.030885206014259228 -0.034094292898865251 0 0.029513506869558639 -0.038232169604182777 0 0.038631014061423399 -0.020210119342091784 0 0.034465394312902319 -0.019968117756763 0 0.036303045708060949 -0.016135381125370225 0 0.038631014061423399 -0.020210119342091784 0 0.037527684759569961 -0.02382038147870565 0 0.034465394312902319 -0.019968117756763 0 0.041437973168438669 -0.010369937587711622 0 0.043356306237606002 -0.017580931838467553 0 0.04437528030659648 -0.021410562094105013 0 0.044139774912143666 -0.023491603554340441 0 0.042891170510381105 -0.019797645232242065 0 0.045098010154043133 -0.022129070573912338 0 0.04437528030659648 -0.021410562094105013 0 0.044139774912143666 -0.023491603554340441 0 0.045098010154043133 -0.022129070573912338 0 0.04437528030659648 -0.021410562094105013 0 0.045376511183737332 -0.020218870689252367 0 0.048306502315375095 -0.020761279048995461 0 0.046771854264891048 -0.022673768896249807 0 0.045376511183737332 -0.020218870689252367 0 0.045098010154043133 -0.022129070573912338 0 0.046771854264891048 -0.022673768896249807 0 0.045376511183737332 -0.020218870689252367 0 0.062741186912666169 -0.030964772399177967 0 0.053610790915969882 -0.020531506531966292 0 0.053610790915969882 -0.020531506531966292 0 0.043982843986064023 -0.0093075720536178776 0 0.045098010154043133 -0.022129070573912338 0 0.046771854264891048 -0.022673768896249807 0 0.045261031460490035 -0.024564849347503984 0 0.065252397943977442 -0.022766789829128106 0 0.064882813957082328 -0.020008208413980454 0 0.067599417879709439 -0.019684214142891308 0 0.061893600308373049 -0.020656862524632304 0 0.065252397943977442 -0.022766789829128106 0 0.064882813957082328 -0.020008208413980454 0 0.041999512153824706 -0.0020656334833593247 0 0.043982843986064023 -0.0093075720536178776 0 0.041999512153824706 -0.0020656334833593247 0 0.041437973168438669 -0.010369937587711622 0 0.043982843986064023 -0.0093075720536178776 0 0.041437973168438669 -0.010369937587711622 0 0.045098010154043133 -0.022129070573912338 0 0.045261031460490035 -0.024564849347503984 0 0.044139774912143666 -0.023491603554340441 0 0.039892301950241724 -0.012518458046271122 0 0.041181581420633565 -0.010866984802825724 0 0.038488665049610203 -0.0082786769335273375 0 0.028381992199683265 0.0056879376229027334 0 0.024424719605678488 0.0059172612147609122 0 0.025689856886275467 0.001984209438979233 0 0.028381992199683265 0.0056879376229027334 0 0.025689856886275467 0.001984209438979233 0 0.030696815645193203 0.0016529395377803137 0 0.030974169662929145 0.0058632630233072776 0 0.028381992199683265 0.0056879376229027334 0 0.030696815645193203 0.0016529395377803137 0 0.027001923302027702 -0.00426110818588503 0 0.028051668496964978 -0.013471451767005134 0 0.036491812746909429 0.0064595071133265337 0 0.030696815645193203 0.0016529395377803137 0 0.036327340437837766 -0.00070295179687933536 0 0.036491812746909429 0.0064595071133265337 0 0.030974169662929145 0.0058632630233072776 0 0.030696815645193203 0.0016529395377803137 0 0.030696815645193203 0.0016529395377803137 0 0.036327340437837766 -0.00070295179687933536 0 0.03060419928228722 -0.0028904830976738015 0 0.036327340437837766 -0.00070295179687933536 0 0.03060419928228722 -0.0028904830976738015 0 0.035613778609436708 -0.0078324412644909577 0 0.025689856886275467 0.001984209438979233 0 0.030696815645193203 0.0016529395377803137 0 0.03060419928228722 -0.0028904830976738015 0 0.041437973168438669 -0.010369937587711622 0 0.035209491594169862 -0.01610970157724324 0 0.043756971879212632 -0.022637359246755001 0 0.042022331766611944 -0.020997810887090778 0 0.042891170510381105 -0.019797645232242065 0 0.042022331766611944 -0.020997810887090778 0 0.042519081500025507 -0.019649553335118738 0 0.040169293396912685 -0.01930231484984726 0 0.042022331766611944 -0.020997810887090778 0 0.042891170510381105 -0.019797645232242065 0 0.042519081500025507 -0.019649553335118738 0 0.027311619112734647 -0.032197000992823313 0 0.03067714514333415 -0.034502694726858255 0 0.034613514506584696 -0.033404022321613006 0 0.035209491594169862 -0.01610970157724324 0 0.031384033193528199 -0.026583520107870861 0 0.036327340437837766 -0.00070295179687933536 0 0.036076146596349924 -0.0082834051210133128 0 0.035613778609436708 -0.0078324412644909577 0 0.028051668496964978 -0.013471451767005134 0 0.029875112092572379 -0.026897915892045435 0 0.042976357664730909 -0.034442873725199885 0 0.031384033193528199 -0.026583520107870861 0 0.03067714514333415 -0.034502694726858255 0 0.035130303265872506 -0.033903963442015343 0 0.034613514506584696 -0.033404022321613006 0 0.029875112092572379 -0.026897915892045435 0 0.031384033193528199 -0.026583520107870861 0 0.029875112092572379 -0.026897915892045435 0 0.026527089742781926 -0.040882041390973844 0 0.03067714514333415 -0.034502694726858255 0 0.035130303265872506 -0.033903963442015343 0 0.031577566032065289 -0.039543667637644164 0 0.035130303265872506 -0.033903963442015343 0 0.031577566032065289 -0.039543667637644164 0 0.034776639443600654 -0.043747751124233694 0 0.027311619112734647 -0.032197000992823313 0 0.03067714514333415 -0.034502694726858255 0 0.027011693589138314 -0.040939816022427751 0 0.042976357664730909 -0.034442873725199885 0 0.042570342574569806 -0.043058662981182223 0 0.03067714514333415 -0.034502694726858255 0 0.031577566032065289 -0.039543667637644164 0 0.027011693589138314 -0.040939816022427751 0 0.060163569770965437 -0.040644081158931915 0 0.056546331339991311 -0.043504732565816474 0 0.060034992353902278 -0.04588584868507737 0 0.060163569770965437 -0.040644081158931915 0 0.056546331339991311 -0.043504732565816474 0 0.055915822388862738 -0.039784586782559965 0 0.042976357664730909 -0.034442873725199885 0 0.051599521784363764 -0.032113544146271725 0 0.04437528030659648 -0.021410562094105013 0 0.042891170510381105 -0.019797645232242065 0 0.045376511183737332 -0.020218870689252367 0 0.042891170510381105 -0.019797645232242065 0 0.042519081500025507 -0.019649553335118738 0 0.045376511183737332 -0.020218870689252367 0 0.051640715987789951 -0.038990483734326557 0 0.055915822388862738 -0.039784586782559965 0 0.053161884850310953 -0.041184193685665817 0 0.062741186912666169 -0.030964772399177967 0 0.051599521784363764 -0.032113544146271725 0 0.056546331339991311 -0.043504732565816474 0 0.055915822388862738 -0.039784586782559965 0 0.053161884850310953 -0.041184193685665817 0 0.056546331339991311 -0.043504732565816474 0 0.053161884850310953 -0.041184193685665817 0 0.052819362710942099 -0.046033034083850788 0 0.052819362710942099 -0.046033034083850788 0 0.054987348920018456 -0.05000665454177361 0 0.057061656857366465 -0.047809477355384961 0 0.070108865810347629 -0.045196025452197336 0 0.067347506654923339 -0.049261912300386665 0 0.056546331339991311 -0.043504732565816474 0 0.052819362710942099 -0.046033034083850788 0 0.057061656857366465 -0.047809477355384961 0 0.077176552662025111 -0.047909838040297352 0 0.078175009280862559 -0.049739680952529237 0 0.076847297269970943 -0.049876356973165316 0 0.078175009280862559 -0.049739680952529237 0 0.07768724307057126 -0.051041311990963394 0 0.076847297269970943 -0.049876356973165316 0 0.057797781309160377 -0.050929922192855796 0 0.057061656857366465 -0.047809477355384961 0 0.059917758460850699 -0.051202738848040719 0 0.054987348920018456 -0.05000665454177361 0 0.057797781309160377 -0.050929922192855796 0 0.057204344287836356 -0.053994890300422323 0 0.054987348920018456 -0.05000665454177361 0 0.057797781309160377 -0.050929922192855796 0 0.057061656857366465 -0.047809477355384961 0 0.056546331339991311 -0.043504732565816474 0 0.057061656857366465 -0.047809477355384961 0 0.060034992353902278 -0.04588584868507737 0 0.027011693589138314 -0.040939816022427751 0 0.030289694037536018 -0.044634747474869563 0 0.026707664795632333 -0.049713559999152085 0 0.042570342574569806 -0.043058662981182223 0 0.041646182426335478 -0.050528713582917127 0 0.057061656857366465 -0.047809477355384961 0 0.060034992353902278 -0.04588584868507737 0 0.059917758460850699 -0.051202738848040719 0 0.031577566032065289 -0.039543667637644164 0 0.027011693589138314 -0.040939816022427751 0 0.030289694037536018 -0.044634747474869563 0 0.031577566032065289 -0.039543667637644164 0 0.030289694037536018 -0.044634747474869563 0 0.034776639443600654 -0.043747751124233694 0 0.026527089742781926 -0.040882041390973844 0 0.02386410053656738 -0.051050458510448898 0 0.034776639443600654 -0.043747751124233694 0 0.031026478015267114 -0.049300566174312284 0 0.03440283851750435 -0.053622623789169481 0 0.016675392597219344 -0.039767345203166528 0 0.016772384469629153 -0.047028044448985916 0 0.017694677158515169 -0.046154583259105271 0 0.030289694037536018 -0.044634747474869563 0 0.034776639443600654 -0.043747751124233694 0 0.031026478015267114 -0.049300566174312284 0 0.030289694037536018 -0.044634747474869563 0 0.031026478015267114 -0.049300566174312284 0 0.026707664795632333 -0.049713559999152085 0 0.057797781309160377 -0.050929922192855796 0 0.059917758460850699 -0.051202738848040719 0 0.059722856037965344 -0.05189956606377516 0 0.059917758460850699 -0.051202738848040719 0 0.059722856037965344 -0.05189956606377516 0 0.059555621494525715 -0.057248200217873552 0 0.041646182426335478 -0.050528713582917127 0 0.039770986704304977 -0.058193561958592585 0 0.059722856037965344 -0.05189956606377516 0 0.058979089419425909 -0.054937821552471719 0 0.059555621494525715 -0.057248200217873552 0 0.026707664795632333 -0.049713559999152085 0 0.029946877447809928 -0.05401893318942233 0 0.026420646069409238 -0.058496266187712205 0 0.031026478015267114 -0.049300566174312284 0 0.026707664795632333 -0.049713559999152085 0 0.029946877447809928 -0.05401893318942233 0 0.031026478015267114 -0.049300566174312284 0 0.029946877447809928 -0.05401893318942233 0 0.03440283851750435 -0.053622623789169481 0 0.029946877447809928 -0.05401893318942233 0 0.03440283851750435 -0.053622623789169481 0 0.030693000190604672 -0.058456860293886144 0 0.016772384469629153 -0.047028044448985916 0 0.017939137487683155 -0.047640495241244543 0 0.017160431426873051 -0.049127191612712909 0 0.02386410053656738 -0.051050458510448898 0 0.019715567046476066 -0.067398257394557001 0 0.03440283851750435 -0.053622623789169481 0 0.030693000190604672 -0.058456860293886144 0 0.034014722732180598 -0.063474281262127633 0 0.030693000190604672 -0.058456860293886144 0 0.029820048013703283 -0.062587528785347415 0 0.034014722732180598 -0.063474281262127633 0 0.058979089419425909 -0.054937821552471719 0 0.059555621494525715 -0.057248200217873552 0 0.058758271082709659 -0.056074367967181071 0 0.059555621494525715 -0.057248200217873552 0 0.058466259311495392 -0.057233349786645522 0 0.058758271082709659 -0.056074367967181071 0 0.029946877447809928 -0.05401893318942233 0 0.030693000190604672 -0.058456860293886144 0 0.026420646069409238 -0.058496266187712205 0 0.030693000190604672 -0.058456860293886144 0 0.028460979537332863 -0.060907060588652709 0 0.029820048013703283 -0.062587528785347415 0 0.030693000190604672 -0.058456860293886144 0 0.026420646069409238 -0.058496266187712205 0 0.028460979537332863 -0.060907060588652709 0 0.058333908734053384 -0.05821296887795524 0 0.057152163761832298 -0.058378869408334706 0 0.058398381955729023 -0.059629257347448068 0 0.058466259311495392 -0.057233349786645522 0 0.057152163761832298 -0.058378869408334706 0 0.057452455713375566 -0.055447563375885807 0 0.057152163761832298 -0.058378869408334706 0 0.054995173654114611 -0.05767549822204187 0 0.057452455713375566 -0.055447563375885807 0 0.058333908734053384 -0.05821296887795524 0 0.058466259311495392 -0.057233349786645522 0 0.057152163761832298 -0.058378869408334706 0 0.059555621494525715 -0.057248200217873552 0 0.058333908734053384 -0.05821296887795524 0 0.058398381955729023 -0.059629257347448068 0 0.059555621494525715 -0.057248200217873552 0 0.058333908734053384 -0.05821296887795524 0 0.058466259311495392 -0.057233349786645522 0 0.058466259311495392 -0.057233349786645522 0 0.058758271082709659 -0.056074367967181071 0 0.056755540864169722 -0.054380161802798865 0 0.064259305683750489 -0.053069072644824231 0 0.064768113262843888 -0.052841947852701937 0 0.057152163761832298 -0.058378869408334706 0 0.054995173654114611 -0.05767549822204187 0 0.056313720413026097 -0.059509738714349905 0 0.069963861717223449 -0.055577110180896006 0 0.064768113262843888 -0.052841947852701937 0 0.07765044541319957 -0.052832482069654407 0 0.07768724307057126 -0.051041311990963394 0 0.079156783056634178 -0.0515360317926679 0 0.078175009280862559 -0.049739680952529237 0 0.07768724307057126 -0.051041311990963394 0 0.079156783056634178 -0.0515360317926679 0 0.07765044541319957 -0.052832482069654407 0 0.07768724307057126 -0.051041311990963394 0 0.076598657257337333 -0.051202473605800297 0 0.067347506654923339 -0.049261912300386665 0 0.064768113262843888 -0.052841947852701937 0 0.059722856037965344 -0.05189956606377516 0 0.058979089419425909 -0.054937821552471719 0 0.056755540864169722 -0.054380161802798865 0 0.057797781309160377 -0.050929922192855796 0 0.059722856037965344 -0.05189956606377516 0 0.057204344287836356 -0.053994890300422323 0 0.063418785847613304 -0.053477778470367207 0 0.064768113262843888 -0.052841947852701937 0 0.058979089419425909 -0.054937821552471719 0 0.058758271082709659 -0.056074367967181071 0 0.056755540864169722 -0.054380161802798865 0 0.026942471150957194 -0.034642411883630785 0 0.024154671952743356 -0.03933944815456291 0 0.01955172710755786 -0.048030736642747707 0 0.019502640217422814 -0.048016297255613044 0 0.019526210438339579 -0.048046280088734905 0 0.024048684503168421 -0.035553746598529432 0 0.019539420920367836 -0.04289201468337444 0 0.023913630590343266 -0.044617822528295853 0 0.021302844695191558 -0.044947573905685476 0 0.021535890638025197 -0.046226565674498656 0 0.023913630590343266 -0.044617822528295853 0 0.023505528991603568 -0.044113590863617887 0 0.021302844695191558 -0.044947573905685476 0 0.026942471150957194 -0.034642411883630785 0 0.029414220278326852 -0.028627289555748125 0 0.035550882603014214 -0.039893065400000573 0 0.030885206014259228 -0.034094292898865251 0 0.029513506869558639 -0.038232169604182777 0 0.035550882603014214 -0.039893065400000573 0 0.029513506869558639 -0.038232169604182777 0 0.029397132603685282 -0.042132884933386135 0 0.029513506869558639 -0.038232169604182777 0 0.026327385605873235 -0.040685344479609004 0 0.029397132603685282 -0.042132884933386135 0 0.026364046573479235 -0.036139501570239194 0 0.029513506869558639 -0.038232169604182777 0 0.026327385605873235 -0.040685344479609004 0 0.021302844695191558 -0.044947573905685476 0 0.019199289685784333 -0.045784631728329181 0 0.021535890638025197 -0.046226565674498656 0 0.026327385605873235 -0.040685344479609004 0 0.029397132603685282 -0.042132884933386135 0 0.023390348352000843 -0.044249658217019879 0 0.024154671952743356 -0.03933944815456291 0 0.021265574876452916 -0.042105311155670337 0 0.023390348352000843 -0.044249658217019879 0 0.022139442054576453 -0.040274300436469547 0 0.019812987492422721 -0.042562429357424665 0 0.026327385605873235 -0.040685344479609004 0 0.023390348352000843 -0.044249658217019879 0 0.022139442054576453 -0.040274300436469547 0 0.021600817591957595 -0.036364368974171044 0 0.026327385605873235 -0.040685344479609004 0 0.022139442054576453 -0.040274300436469547 0 0.02137302933231789 -0.035723581101127541 0 0.026364046573479235 -0.036139501570239194 0 0.026327385605873235 -0.040685344479609004 0 0.027005382803218982 -0.031152303506904198 0 0.027619536213731824 -0.033757429953142008 0 0.021600817591957595 -0.036364368974171044 0 0.016675392597219344 -0.039767345203166528 0 0.022139442054576453 -0.040274300436469547 0 0.016675392597219344 -0.039767345203166528 0 0.022139442054576453 -0.040274300436469547 0 0.019812987492422721 -0.042562429357424665 0 0.016675392597219344 -0.039767345203166528 0 0.019812987492422721 -0.042562429357424665 0 0.017694677158515169 -0.046154583259105271 0 0.023390348352000843 -0.044249658217019879 0 0.019812987492422721 -0.042562429357424665 0 0.017694677158515169 -0.046154583259105271 0 0.019199289685784333 -0.045784631728329181 0 0.017694677158515169 -0.046154583259105271 0 0.018518395365704321 -0.046808280615645376 0 0.018518395365704321 -0.046808280615645376 0 0.017939137487683155 -0.047640495241244543 0 0.019200526288088091 -0.047723766277067196 0 0.021265574876452916 -0.042105311155670337 0 0.019722975109124359 -0.043155421218289074 0 0.016772384469629153 -0.047028044448985916 0 0.017694677158515169 -0.046154583259105271 0 0.017939137487683155 -0.047640495241244543 0 0.017694677158515169 -0.046154583259105271 0 0.018518395365704321 -0.046808280615645376 0 0.017939137487683155 -0.047640495241244543 0 0.017939137487683155 -0.047640495241244543 0 0.018400773541092229 -0.048425283952556283 0 0.019200526288088091 -0.047723766277067196 0 0.017939137487683155 -0.047640495241244543 0 0.018400773541092229 -0.048425283952556283 0 0.017160431426873051 -0.049127191612712909 0 0.019200526288088091 -0.047723766277067196 0 0.019315074460057306 -0.048160463374743022 0 0.019449582619963591 -0.048093096115771394 0 0.018400773541092229 -0.048425283952556283 0 0.019200526288088091 -0.047723766277067196 0 0.019096103360486925 -0.048446448176130703 0 0.019200526288088091 -0.047723766277067196 0 0.019096103360486925 -0.048446448176130703 0 0.019315074460057306 -0.048160463374743022 0 0.019096103360486925 -0.048446448176130703 0 0.019315074460057306 -0.048160463374743022 0 0.019344208139183496 -0.048365932315970257 0 0.019199289685784333 -0.045784631728329181 0 0.019200526288088091 -0.047723766277067196 0 0.021535890638025197 -0.046226565674498656 0 0.019199289685784333 -0.045784631728329181 0 0.018518395365704321 -0.046808280615645376 0 0.019200526288088091 -0.047723766277067196 0 0.018662587044239953 -0.044635369086251181 0 0.019539420920367836 -0.04289201468337444 0 0.019200526288088091 -0.047723766277067196 0 0.019470050421986324 -0.048005874660087842 0 0.019449582619963591 -0.048093096115771394 0 0.019200526288088091 -0.047723766277067196 0 0.019502640217422814 -0.048016297255613044 0 0.019470050421986324 -0.048005874660087842 0 0.019470050421986324 -0.048005874660087842 0 0.019449582619963591 -0.048093096115771394 0 0.019525382568483296 -0.048076473503239479 0 0.019315074460057306 -0.048160463374743022 0 0.019458560942893052 -0.048288490248423667 0 0.019449582619963591 -0.048093096115771394 0 0.019315074460057306 -0.048160463374743022 0 0.019344208139183496 -0.048365932315970257 0 0.019458560942893052 -0.048288490248423667 0 0.019458560942893052 -0.048288490248423667 0 0.019449582619963591 -0.048093096115771394 0 0.01952946942492962 -0.048157459062147551 0 0.019449582619963591 -0.048093096115771394 0 0.01952946942492962 -0.048157459062147551 0 0.019525382568483296 -0.048076473503239479 0 0.01952946942492962 -0.048157459062147551 0 0.019551034594253842 -0.048128540559589365 0 0.019525382568483296 -0.048076473503239479 0 0.019458560942893052 -0.048288490248423667 0 0.01952946942492962 -0.048157459062147551 0 0.019576358755202812 -0.048185336117015462 0 0.01952946942492962 -0.048157459062147551 0 0.019551034594253842 -0.048128540559589365 0 0.019576358755202812 -0.048185336117015462 0 0.01954056554992701 -0.048080360855549821 0 0.019551034594253842 -0.048128540559589365 0 0.019525382568483296 -0.048076473503239479 0 0.019470050421986324 -0.048005874660087842 0 0.019525382568483296 -0.048076473503239479 0 0.019526210438339579 -0.048046280088734905 0 0.019502640217422814 -0.048016297255613044 0 0.019470050421986324 -0.048005874660087842 0 0.019526210438339579 -0.048046280088734905 0 0.01954056554992701 -0.048080360855549821 0 0.019525382568483296 -0.048076473503239479 0 0.019526210438339579 -0.048046280088734905 0 0.01954056554992701 -0.048080360855549821 0 0.01954105232859888 -0.048058338491345165 0 0.019526210438339579 -0.048046280088734905 0 -0.0085859202367127747 -0.094875166029185887 0 -0.011231022803937755 -0.09405163603686853 0 -0.010905638422668585 -0.096285026845781121 0 -0.011231022803937755 -0.09405163603686853 0 -0.010905638422668585 -0.096285026845781121 0 -0.014266991904633529 -0.096618599457268778 0 -0.008290529632218822 -0.094042599374306243 0 -0.008065968989641405 -0.093118220867651924 0 -0.0094246895935279369 -0.093380059289062414 0 -0.008290529632218822 -0.094042599374306243 0 -0.0094246895935279369 -0.093380059289062414 0 -0.0095740298975534321 -0.09367470573258968 0 0.0049232362119486931 -0.06969591441029839 0 0.0042117711015051311 -0.075934585724576939 0 -0.0065175291698858278 -0.086803158320162124 0 0.0022135282509721313 -0.080662050243042197 0 0.019458560942893052 -0.048288490248423667 0 0.019576358755202812 -0.048185336117015462 0 0.019360461950778483 -0.048619602676091153 0 0.019344208139183496 -0.048365932315970257 0 0.019458560942893052 -0.048288490248423667 0 0.019360461950778483 -0.048619602676091153 0 -0.011231022803937755 -0.09405163603686853 0 -0.016394173837147013 -0.092930034818224677 0 -0.014266991904633529 -0.096618599457268778 0 0.0022135282509721313 -0.080662050243042197 0 0.0011661559778297975 -0.088943221764303651 0 -0.016394173837147013 -0.092930034818224677 0 -0.018390275521806741 -0.096740247839935012 0 -0.014266991904633529 -0.096618599457268778 0 0.014920538189382366 -0.079061220633019541 0 0.012695438763346285 -0.078585102444537189 0 0.013345792826125793 -0.082134756226739283 0 0.0042117711015051311 -0.075934585724576939 0 0.011955695850675671 -0.073864373425615137 0 0.019096103360486925 -0.048446448176130703 0 0.019360461950778483 -0.048619602676091153 0 0.01845046538211197 -0.049185212993872698 0 0.00052499234519258573 -0.076588238170735887 0 0.0020555841024711085 -0.073674493147101991 0 0.0090087325975267227 -0.075134563423915224 0 0.0042117711015051311 -0.075934585724576939 0 0.0022135282509721313 -0.080662050243042197 0 0.019096103360486925 -0.048446448176130703 0 0.019344208139183496 -0.048365932315970257 0 0.019360461950778483 -0.048619602676091153 0 0.018400773541092229 -0.048425283952556283 0 0.019096103360486925 -0.048446448176130703 0 0.01845046538211197 -0.049185212993872698 0 0.0022135282509721313 -0.080662050243042197 0 0.011955695850675671 -0.073864373425615137 0 0.014388030778782122 -0.071942862734820548 0 0.021222597193629782 -0.073366371203206548 0 0.021314476377902264 -0.070744454575254745 0 0.012695438763346285 -0.078585102444537189 0 0.011449071520930002 -0.080783771635956569 0 0.0099515330658430084 -0.079052692785095233 0 0.011955695850675671 -0.073864373425615137 0 0.020001394686626466 -0.071200889711829488 0 0.011955695850675671 -0.073864373425615137 0 0.019715567046476066 -0.067398257394557001 0 0.018400773541092229 -0.048425283952556283 0 0.01845046538211197 -0.049185212993872698 0 0.017160431426873051 -0.049127191612712909 0 0.012695438763346285 -0.078585102444537189 0 0.011449071520930002 -0.080783771635956569 0 0.013345792826125793 -0.082134756226739283 0 0.011764463107204989 -0.08523913103835748 0 0.013345792826125793 -0.082134756226739283 0 0.0097974105465443301 -0.083369967765990941 0 0.011449071520930002 -0.080783771635956569 0 0.013345792826125793 -0.082134756226739283 0 0.0097974105465443301 -0.083369967765990941 0 0.0038029502753999596 -0.09323958892101826 0 0.0011661559778297975 -0.088943221764303651 0 -0.016417163575533834 -0.10224202026423954 0 -0.02034579428252967 -0.10055577090846181 0 -0.017036009141264477 -0.099277437006604158 0 -0.016417163575533834 -0.10224202026423954 0 -0.017036009141264477 -0.099277437006604158 0 -0.014473730411400336 -0.099674808924375274 0 -0.018390275521806741 -0.096740247839935012 0 -0.017036009141264477 -0.099277437006604158 0 -0.014266991904633529 -0.096618599457268778 0 -0.02034579428252967 -0.10055577090846181 0 -0.018390275521806741 -0.096740247839935012 0 -0.017036009141264477 -0.099277437006604158 0 -0.014266991904633529 -0.096618599457268778 0 -0.014473730411400336 -0.099674808924375274 0 -0.011554209328496724 -0.098446203554864872 0 -0.017036009141264477 -0.099277437006604158 0 -0.014266991904633529 -0.096618599457268778 0 -0.014473730411400336 -0.099674808924375274 0 -0.016417163575533834 -0.10224202026423954 0 -0.014473730411400336 -0.099674808924375274 0 -0.012460712904604153 -0.10151304060065944 0 -0.0086131237267028649 -0.099903808524134372 0 -0.012460712904604153 -0.10151304060065944 0 -0.011554209328496724 -0.098446203554864872 0 -0.014473730411400336 -0.099674808924375274 0 -0.012460712904604153 -0.10151304060065944 0 -0.011554209328496724 -0.098446203554864872 0 -0.010905638422668585 -0.096285026845781121 0 -0.014266991904633529 -0.096618599457268778 0 -0.011554209328496724 -0.098446203554864872 0 -0.008963785073653396 -0.097488524239737251 0 -0.010905638422668585 -0.096285026845781121 0 -0.011554209328496724 -0.098446203554864872 0 0.0481316123096793 -0.068872661657929643 0 0.035994918958860311 -0.067744534983229743 0 0.0481316123096793 -0.068872661657929643 0 0.031979599874475781 -0.079242980637064156 0 0.035189914065800965 -0.070132542817852556 0 0.037169946273040107 -0.06987203615966793 0 0.037074949804469362 -0.072521952873874626 0 0.044519294770653813 -0.076378379301407784 0 0.045929117027272821 -0.075044561675038271 0 0.045983097590037339 -0.076620649188602147 0 0.054327669011132562 -0.063179244294039524 0 0.054267440610328406 -0.06199414977588092 0 0.055993144145976205 -0.061600781830943627 0 0.056809209668644327 -0.068074827536335494 0 0.0481316123096793 -0.068872661657929643 0 0.054267440610328406 -0.06199414977588092 0 0.056070904767178582 -0.061563545089658729 0 0.05499195912604693 -0.060213652374415783 0 0.049948307633272904 -0.068072860727432155 0 0.0481316123096793 -0.068872661657929643 0 0.054995173654114611 -0.05767549822204187 0 0.05499195912604693 -0.060213652374415783 0 0.052718560236278085 -0.059767966107699737 0 0.0481316123096793 -0.068872661657929643 0 0.04837953896816629 -0.068189265650135597 0 0.054995173654114611 -0.05767549822204187 0 0.05499195912604693 -0.060213652374415783 0 0.056313720413026097 -0.059509738714349905 0 0.056100993208012179 -0.061643610832261587 0 0.05499195912604693 -0.060213652374415783 0 0.056313720413026097 -0.059509738714349905 0 0.055637112663621334 -0.062194039747543402 0 0.058398381955729023 -0.059629257347448068 0 0.059263987843187108 -0.061660344432389477 0 0.057152163761832298 -0.058378869408334706 0 0.056313720413026097 -0.059509738714349905 0 0.058398381955729023 -0.059629257347448068 0 0.056100993208012179 -0.061643610832261587 0 0.056313720413026097 -0.059509738714349905 0 0.058398381955729023 -0.059629257347448068 0 0.0481316123096793 -0.068872661657929643 0 0.052548861843467035 -0.064785377551101128 0 0.028460979537332863 -0.060907060588652709 0 0.029820048013703283 -0.062587528785347415 0 0.026172159729500485 -0.0672018376596068 0 0.059555621494525715 -0.057248200217873552 0 0.058398381955729023 -0.059629257347448068 0 0.059263987843187108 -0.061660344432389477 0 0.039770986704304977 -0.058193561958592585 0 0.035994918958860311 -0.067744534983229743 0 0.026420646069409238 -0.058496266187712205 0 0.028460979537332863 -0.060907060588652709 0 0.026172159729500485 -0.0672018376596068 0 0.020001394686626466 -0.071200889711829488 0 0.035994918958860311 -0.067744534983229743 0 0.029820048013703283 -0.062587528785347415 0 0.033875571299227705 -0.06585643934115952 0 0.026172159729500485 -0.0672018376596068 0 0.029820048013703283 -0.062587528785347415 0 0.033953061944508693 -0.063477838141669005 0 0.033875571299227705 -0.06585643934115952 0 0.021991073601643239 -0.067454112720708767 0 0.019715567046476066 -0.067398257394557001 0 0.019715567046476066 -0.067398257394557001 0 0.020001394686626466 -0.071200889711829488 0 0.020001394686626466 -0.071200889711829488 0 0.017931745131722913 -0.080442674854793852 0 0.025632263533792839 -0.071163556957326554 0 0.022646030248379734 -0.075118076240652268 0 0.025402714380055692 -0.077613780996012585 0 0.011449071520930002 -0.080783771635956569 0 0.0099515330658430084 -0.079052692785095233 0 0.0097974105465443301 -0.083369967765990941 0 0.025632263533792839 -0.071163556957326554 0 0.020547017633826822 -0.0720449319558462 0 0.022646030248379734 -0.075118076240652268 0 0.020547017633826822 -0.0720449319558462 0 0.022646030248379734 -0.075118076240652268 0 0.020347170271393628 -0.078053166370985361 0 0.035994918958860311 -0.067744534983229743 0 0.031979599874475781 -0.079242980637064156 0 0.022646030248379734 -0.075118076240652268 0 0.020347170271393628 -0.078053166370985361 0 0.025402714380055692 -0.077613780996012585 0 0.0096580440396560659 -0.087724508015000133 0 0.011764463107204989 -0.08523913103835748 0 0.0097974105465443301 -0.083369967765990941 0 0.01611858886324407 -0.089406118490784017 0 0.017931745131722913 -0.080442674854793852 0 0.025153137000780257 -0.084068973554166246 0 0.025402714380055692 -0.077613780996012585 0 0.022749779469749102 -0.081059498938292243 0 0.030813385534749854 -0.087783303687597597 0 0.031979599874475781 -0.079242980637064156 0 0.020347170271393628 -0.078053166370985361 0 0.025402714380055692 -0.077613780996012585 0 0.022749779469749102 -0.081059498938292243 0 0.018600005551254691 -0.093453110487906929 0 0.018619131772168611 -0.093225890963794078 0 0.018667939947840502 -0.093355463670452735 0 0.031979599874475781 -0.079242980637064156 0 0.023699160128205644 -0.084666049741105767 0 0.047995388260564015 -0.080735963829257434 0 0.048101689323472273 -0.077793165886099441 0 0.045491110792889859 -0.078644065858573114 0 0.045929117027272821 -0.075044561675038271 0 0.048101689323472273 -0.077793165886099441 0 0.045983097590037339 -0.076620649188602147 0 0.048101689323472273 -0.077793165886099441 0 0.045983097590037339 -0.076620649188602147 0 0.045491110792889859 -0.078644065858573114 0 0.044519294770653813 -0.076378379301407784 0 0.045983097590037339 -0.076620649188602147 0 0.045491110792889859 -0.078644065858573114 0 0.044519294770653813 -0.076378379301407784 0 0.045491110792889859 -0.078644065858573114 0 0.043244060266016092 -0.077592360092552895 0 0.045161280032504372 -0.081002012503337342 0 0.043227593927922192 -0.080105606315671055 0 0.045491110792889859 -0.078644065858573114 0 0.06878652037335975 -0.071288222102420654 0 0.065465033637105693 -0.071677034823752067 0 0.066917256447019013 -0.061585307496503261 0 0.043227593927922192 -0.080105606315671055 0 0.045491110792889859 -0.078644065858573114 0 0.043244060266016092 -0.077592360092552895 0 0.063468653421005078 -0.074434612682880347 0 0.069687595463044677 -0.06377728006052967 0 0.06878652037335975 -0.071288222102420654 0 0.066917256447019013 -0.061585307496503261 0 0.068832553181342862 -0.059782375767991246 0 0.074870369968740677 -0.066571108850308799 0 0.076909684571069656 -0.06040411954928037 0 0.090823847964964843 -0.052944522629126953 0 0.076909684571069656 -0.06040411954928037 0 0.096461345038192689 -0.052709709237939995 0 0.095654312008746203 -0.053263168874383857 0 0.096322780238553146 -0.053263565692455959 0 0.094015230796517496 -0.055471907089190892 0 0.091107572890092636 -0.055653511966599581 0 0.090623607983619792 -0.05865332395516374 0 0.096086546722940189 -0.05346655784714182 0 0.095861848356964499 -0.053698157713637819 0 0.096455674268258046 -0.053650018322877413 0 0.096086546722940189 -0.05346655784714182 0 0.095654312008746203 -0.053263168874383857 0 0.096322780238553146 -0.053263565692455959 0 0.096086546722940189 -0.05346655784714182 0 0.095861848356964499 -0.053698157713637819 0 0.095654312008746203 -0.053263168874383857 0 0.076909684571069656 -0.06040411954928037 0 0.080922122595867604 -0.055932450245735642 0 0.069687595463044677 -0.06377728006052967 0 0.074582476275197276 -0.059197194623362474 0 0.095322675914546198 -0.053634157510099159 0 0.095276934487691839 -0.053705978239330605 0 0.095404389798441555 -0.054051471103578309 0 0.054327669011132562 -0.063179244294039524 0 0.052806157438633948 -0.064644364414852523 0 0.05276592215315859 -0.062250378519336833 0 0.095861848356964499 -0.053698157713637819 0 0.095654312008746203 -0.053263168874383857 0 0.095423744699065824 -0.05410901005999573 0 0.076909684571069656 -0.06040411954928037 0 0.069687595463044677 -0.06377728006052967 0 0.056809209668644327 -0.068074827536335494 0 0.069687595463044677 -0.06377728006052967 0 0.095322675914546198 -0.053634157510099159 0 0.095423744699065824 -0.05410901005999573 0 0.095404389798441555 -0.054051471103578309 0 0.054267440610328406 -0.06199414977588092 0 0.05276592215315859 -0.062250378519336833 0 0.052718560236278085 -0.059767966107699737 0 0.054327669011132562 -0.063179244294039524 0 0.054267440610328406 -0.06199414977588092 0 0.05276592215315859 -0.062250378519336833 0 0.095423744699065824 -0.05410901005999573 0 0.095404389798441555 -0.054051471103578309 0 0.095381915718924376 -0.054653645433195494 0 0.095861848356964499 -0.053698157713637819 0 0.096210151124358781 -0.054001340898377062 0 0.096455674268258046 -0.053650018322877413 0 0.095861848356964499 -0.053698157713637819 0 0.095423744699065824 -0.05410901005999573 0 0.096210151124358781 -0.054001340898377062 0 0.095423744699065824 -0.05410901005999573 0 0.096210151124358781 -0.054001340898377062 0 0.095381915718924376 -0.054653645433195494 0 0.096210151124358781 -0.054001340898377062 0 0.096230235724439214 -0.054649883845700284 0 0.095515619937259974 -0.054523154339586689 0 0.087418902494590528 -0.05202252791519843 0 0.079604017272625546 -0.055889520293224429 0 0.054267440610328406 -0.06199414977588092 0 0.05499195912604693 -0.060213652374415783 0 0.052718560236278085 -0.059767966107699737 0 0.074582476275197276 -0.059197194623362474 0 0.079604017272625546 -0.055889520293224429 0 0.097002107567189105 -0.054069621642416341 0 0.097740840325264297 -0.054402457816485388 0 0.096913863454270818 -0.05476683399625587 0 0.096210151124358781 -0.054001340898377062 0 0.096230235724439214 -0.054649883845700284 0 0.097002107567189105 -0.054069621642416341 0 0.096230235724439214 -0.054649883845700284 0 0.097002107567189105 -0.054069621642416341 0 0.096913863454270818 -0.05476683399625587 0 0.096210151124358781 -0.054001340898377062 0 0.097002107567189105 -0.054069621642416341 0 0.096455674268258046 -0.053650018322877413 0 0.097002107567189105 -0.054069621642416341 0 0.096921600322141616 -0.053472541610854595 0 0.096455674268258046 -0.053650018322877413 0 0.097002107567189105 -0.054069621642416341 0 0.096921600322141616 -0.053472541610854595 0 0.097487387854672189 -0.053601008354215877 0 0.096921600322141616 -0.053472541610854595 0 0.097257068255714618 -0.053196247587433854 0 0.097487387854672189 -0.053601008354215877 0 0.096921600322141616 -0.053472541610854595 0 0.096455674268258046 -0.053650018322877413 0 0.096322780238553146 -0.053263565692455959 0 0.096921600322141616 -0.053472541610854595 0 0.096322780238553146 -0.053263565692455959 0 0.096754733259777834 -0.053038506822809132 0 0.096086546722940189 -0.05346655784714182 0 0.096455674268258046 -0.053650018322877413 0 0.096322780238553146 -0.053263565692455959 0 0.096461345038192689 -0.052709709237939995 0 0.096322780238553146 -0.053263565692455959 0 0.096754733259777834 -0.053038506822809132 0 0.096808889611279939 -0.052682352297244037 0 0.096461345038192689 -0.052709709237939995 0 0.096754733259777834 -0.053038506822809132 0 0.096921600322141616 -0.053472541610854595 0 0.096754733259777834 -0.053038506822809132 0 0.097257068255714618 -0.053196247587433854 0 0.097112502333997403 -0.052827392202567484 0 0.096808889611279939 -0.052682352297244037 0 0.096754733259777834 -0.053038506822809132 0 0.097112502333997403 -0.052827392202567484 0 0.096754733259777834 -0.053038506822809132 0 0.097257068255714618 -0.053196247587433854 0 0.097112502333997403 -0.052827392202567484 0 0.097257068255714618 -0.053196247587433854 0 0.097616051029771791 -0.052947785636009825 0 0.097257068255714618 -0.053196247587433854 0 0.097616051029771791 -0.052947785636009825 0 0.097720055413482332 -0.053307747684655939 0 0.097616051029771791 -0.052947785636009825 0 0.098116660243493747 -0.053133742662320023 0 0.097720055413482332 -0.053307747684655939 0 0.098088235377741251 -0.052631380755810218 0 0.097616051029771791 -0.052947785636009825 0 0.098116660243493747 -0.053133742662320023 0 0.098088235377741251 -0.052631380755810218 0 0.098116660243493747 -0.053133742662320023 0 0.098595045028796555 -0.052900037335728248 0 0.09806426087284828 -0.053587126312708608 0 0.09856699866758141 -0.05341409144425311 0 0.098471990571606952 -0.053849816205802196 0 0.098116660243493747 -0.053133742662320023 0 0.09806426087284828 -0.053587126312708608 0 0.097720055413482332 -0.053307747684655939 0 0.098116660243493747 -0.053133742662320023 0 0.09806426087284828 -0.053587126312708608 0 0.09856699866758141 -0.05341409144425311 0 0.09806426087284828 -0.053587126312708608 0 0.097487387854672189 -0.053601008354215877 0 0.097720055413482332 -0.053307747684655939 0 0.097257068255714618 -0.053196247587433854 0 0.097487387854672189 -0.053601008354215877 0 0.097720055413482332 -0.053307747684655939 0 0.099143138884042914 -0.053092773161790952 0 0.098595045028796555 -0.052900037335728248 0 0.09856699866758141 -0.05341409144425311 0 0.098925558383719081 -0.052680765725209112 0 0.099143138884042914 -0.053092773161790952 0 0.098595045028796555 -0.052900037335728248 0 0.098116660243493747 -0.053133742662320023 0 0.098595045028796555 -0.052900037335728248 0 0.09856699866758141 -0.05341409144425311 0 0.099143138884042914 -0.053092773161790952 0 0.09856699866758141 -0.05341409144425311 0 0.098975621724501542 -0.053634583593985312 0 0.098248180305932048 -0.055205104187054238 0 0.09867876330221674 -0.053860978881091343 0 0.098975621724501542 -0.053634583593985312 0 0.098695130663907935 -0.054210500374443367 0 0.098864409032747375 -0.054015888153083259 0 0.09856699866758141 -0.05341409144425311 0 0.098975621724501542 -0.053634583593985312 0 0.098471990571606952 -0.053849816205802196 0 0.098975621724501542 -0.053634583593985312 0 0.098471990571606952 -0.053849816205802196 0 0.098695130663907935 -0.054210500374443367 0 0.098695130663907935 -0.054210500374443367 0 0.098864409032747375 -0.054015888153083259 0 0.098844374717957414 -0.054068438370368871 0 0.098471990571606952 -0.053849816205802196 0 0.098695130663907935 -0.054210500374443367 0 0.098378802612251917 -0.054184178924386033 0 0.097002107567189105 -0.054069621642416341 0 0.097487387854672189 -0.053601008354215877 0 0.097904591567980009 -0.053980190417913458 0 0.09806426087284828 -0.053587126312708608 0 0.097487387854672189 -0.053601008354215877 0 0.097904591567980009 -0.053980190417913458 0 0.09806426087284828 -0.053587126312708608 0 0.098471990571606952 -0.053849816205802196 0 0.097904591567980009 -0.053980190417913458 0 0.098471990571606952 -0.053849816205802196 0 0.097904591567980009 -0.053980190417913458 0 0.098378802612251917 -0.054184178924386033 0 0.098378802612251917 -0.054184178924386033 0 0.097740840325264297 -0.054402457816485388 0 0.09874230708019098 -0.054407722830080128 0 0.098695130663907935 -0.054210500374443367 0 0.098378802612251917 -0.054184178924386033 0 0.09874230708019098 -0.054407722830080128 0 0.097904591567980009 -0.053980190417913458 0 0.098378802612251917 -0.054184178924386033 0 0.097740840325264297 -0.054402457816485388 0 0.097002107567189105 -0.054069621642416341 0 0.097904591567980009 -0.053980190417913458 0 0.097740840325264297 -0.054402457816485388 0 0.10167815306549208 -0.054351800897042134 0 0.09874230708019098 -0.054407722830080128 0 0.10024376350405106 -0.053403520385145675 0 0.097740840325264297 -0.054402457816485388 0 0.097521421873228431 -0.055054249343572267 0 0.09874230708019098 -0.054407722830080128 0 0.099074043639222995 -0.053331119325571441 0 0.098975434098809434 -0.05365816724824788 0 0.09874230708019098 -0.054407722830080128 0 0.09880584283895158 -0.054119650061730432 0 0.10024376350405106 -0.053403520385145675 0 0.09880584283895158 -0.054119650061730432 0 0.10024376350405106 -0.053403520385145675 0 0.099853671238848821 -0.051543755384209002 0 0.099433127849472253 -0.053294688027169704 0 0.10005019514063897 -0.051829155425776846 0 0.099550363900967359 -0.053916275138077431 0 0.099457765672014684 -0.053018845783392048 0 0.10062626411797153 -0.05192242529333891 0 0.10024376350405106 -0.053403520385145675 0 0.099853671238848821 -0.051543755384209002 0 0.10233157104951075 -0.051901497742739305 0 0.10167815306549208 -0.054351800897042134 0 0.10024376350405106 -0.053403520385145675 0 0.10233157104951075 -0.051901497742739305 0 0.098864409032747375 -0.054015888153083259 0 0.098662922866151137 -0.054055009627585332 0 0.098844374717957414 -0.054068438370368871 0 0.098662922866151137 -0.054055009627585332 0 0.098844374717957414 -0.054068438370368871 0 0.098913295530584103 -0.053671188415272478 0 0.099192538842684766 -0.053779352562038384 0 0.099433127849472253 -0.053294688027169704 0 0.098695130663907935 -0.054210500374443367 0 0.099550363900967359 -0.053916275138077431 0 0.098844374717957414 -0.054068438370368871 0 0.098695130663907935 -0.054210500374443367 0 0.09874230708019098 -0.054407722830080128 0 0.09880584283895158 -0.054119650061730432 0 0.099550363900967359 -0.053916275138077431 0 0.098844374717957414 -0.054068438370368871 0 0.098913295530584103 -0.053671188415272478 0 0.099457765672014684 -0.053018845783392048 0 0.098913295530584103 -0.053671188415272478 0 0.098851138109505271 -0.05244339102806108 0 0.099550363900967359 -0.053916275138077431 0 0.099457765672014684 -0.053018845783392048 0 0.098913295530584103 -0.053671188415272478 0 0.098001079684817111 -0.053985380227669459 0 0.098662922866151137 -0.054055009627585332 0 0.098913295530584103 -0.053671188415272478 0 0.098001079684817111 -0.053985380227669459 0 0.098913295530584103 -0.053671188415272478 0 0.098851138109505271 -0.05244339102806108 0 0.098001079684817111 -0.053985380227669459 0 0.097479544222608169 -0.051182474257618293 0 0.098851138109505271 -0.05244339102806108 0 0.097479544222608169 -0.051182474257618293 0 0.098851138109505271 -0.05244339102806108 0 0.09917425207113445 -0.049508377102204848 0 0.098851138109505271 -0.05244339102806108 0 0.09917425207113445 -0.049508377102204848 0 0.10062626411797153 -0.05192242529333891 0 0.099457765672014684 -0.053018845783392048 0 0.098851138109505271 -0.05244339102806108 0 0.10062626411797153 -0.05192242529333891 0 0.097004107480517854 -0.048450456936353269 0 0.097479544222608169 -0.051182474257618293 0 0.09917425207113445 -0.049508377102204848 0 0.099853671238848821 -0.051543755384209002 0 0.10109068326606263 -0.049072794167571251 0 0.10233157104951075 -0.051901497742739305 0 0.10005019514063897 -0.051829155425776846 0 0.10046277120380273 -0.050758360951438944 0 0.09917425207113445 -0.049508377102204848 0 0.10062626411797153 -0.05192242529333891 0 0.10109068326606263 -0.049072794167571251 0 0.10308799747767514 -0.04776691004451785 0 0.10109068326606263 -0.049072794167571251 0 0.10351898692342693 -0.050053578926115151 0 0.10109068326606263 -0.049072794167571251 0 0.10351898692342693 -0.050053578926115151 0 0.10233157104951075 -0.051901497742739305 0 0.10351898692342693 -0.050053578926115151 0 0.10233157104951075 -0.051901497742739305 0 0.1052000925312965 -0.051440038709168918 0 0.10308799747767514 -0.04776691004451785 0 0.10351898692342693 -0.050053578926115151 0 0.10540271136463883 -0.049454657484773672 0 0.10351898692342693 -0.050053578926115151 0 0.1052000925312965 -0.051440038709168918 0 0.10540271136463883 -0.049454657484773672 0 0.1052000925312965 -0.051440038709168918 0 0.10540271136463883 -0.049454657484773672 0 0.10748138436058927 -0.050023856037317932 0 0.10628058443274513 -0.047975334925246617 0 0.10540271136463883 -0.049454657484773672 0 0.10748138436058927 -0.050023856037317932 0 0.077176552662025111 -0.047909838040297352 0 0.076138139811311373 -0.04871513342718467 0 0.076847297269970943 -0.049876356973165316 0 0.084234749174924045 -0.04847172227658969 0 0.08764163519378583 -0.051646990538600772 0 0.076138139811311373 -0.04871513342718467 0 0.076847297269970943 -0.049876356973165316 0 0.076146512218192769 -0.051319717688287581 0 0.1052000925312965 -0.051440038709168918 0 0.10748138436058927 -0.050023856037317932 0 0.10744155533669381 -0.052899045896443397 0 0.08764163519378583 -0.051646990538600772 0 0.097889992538432238 -0.052330606204337667 0 0.1052000925312965 -0.051440038709168918 0 0.10744155533669381 -0.052899045896443397 0 0.1046399172964132 -0.053628904931595174 0 0.07765044541319957 -0.052832482069654407 0 0.076598657257337333 -0.051202473605800297 0 0.076152566117495157 -0.051317953019614108 0 0.07768724307057126 -0.051041311990963394 0 0.076847297269970943 -0.049876356973165316 0 0.076598657257337333 -0.051202473605800297 0 0.076847297269970943 -0.049876356973165316 0 0.076598657257337333 -0.051202473605800297 0 0.076146512218192769 -0.051319717688287581 0 0.087226312797468231 -0.051719802004595583 0 0.08764163519378583 -0.051646990538600772 0 0.079604017272625546 -0.055889520293224429 0 0.08764163519378583 -0.051646990538600772 0 0.069963861717223449 -0.055577110180896006 0 0.079604017272625546 -0.055889520293224429 0 0.07765044541319957 -0.052832482069654407 0 0.076146286861008258 -0.054129723969741278 0 0.076152566117495157 -0.051317953019614108 0 0.096230235724439214 -0.054649883845700284 0 0.095488115863039555 -0.055565531701644785 0 0.09647189139591146 -0.055332495259813971 0 0.096230235724439214 -0.054649883845700284 0 0.095515619937259974 -0.054523154339586689 0 0.095488115863039555 -0.055565531701644785 0 0.096230235724439214 -0.054649883845700284 0 0.096913863454270818 -0.05476683399625587 0 0.09647189139591146 -0.055332495259813971 0 0.097521421873228431 -0.055054249343572267 0 0.096913863454270818 -0.05476683399625587 0 0.09647189139591146 -0.055332495259813971 0 0.099074043639222995 -0.053331119325571441 0 0.097889992538432238 -0.052330606204337667 0 0.097740840325264297 -0.054402457816485388 0 0.097521421873228431 -0.055054249343572267 0 0.096913863454270818 -0.05476683399625587 0 0.10167815306549208 -0.054351800897042134 0 0.10233157104951075 -0.051901497742739305 0 0.1046399172964132 -0.053628904931595174 0 0.10233157104951075 -0.051901497742739305 0 0.1052000925312965 -0.051440038709168918 0 0.1046399172964132 -0.053628904931595174 0 
</DataArray>
</PointData>
<CellData Scalars="region_id,cross_section_updated," Vectors="" Tensors="stress,">
<DataArray type="Float64" Name="region_id" format="ascii">
5 5 6 5 5 5 5 6 5 5 5 5 5 5 5 5 5 5 5 5 6 5 5 5 5 6 5 5 5 5 5 5 5 6 5 5 5 5 5 5 5 5 6 5 5 5 5 5 5 5 5 5 5 5 6 6 5 5 5 5 5 5 5 5 6 5 5 5 5 5 5 5 5 5 5 5 5 5 5 5 5 5 5 5 5 5 5 6 5 5 5 5 5 5 5 5 5 5 5 6 5 5 5 6 5 5 5 5 5 5 5 5 5 5 5 5 5 5 5 5 5 5 5 5 5 5 5 5 5 5 5 5 5 5 5 5 5 5 5 5 5 5 5 5 5 5 5 5 5 6 5 6 5 5 5 5 5 5 5 5 5 5 5 5 5 5 5 5 5 5 5 5 5 5 5 5 5 5 6 5 5 6 5 6 5 5 5 5 5 5 5 5 5 5 5 5 5 5 6 5 6 5 5 5 5 5 5 5 6 5 6 5 5 5 5 5 5 6 5 5 6 5 5 5 5 5 5 6 6 5 5 6 5 6 5 6 6 5 5 5 6 5 5 5 5 5 5 5 5 5 5 5 5 5 6 5 5 5 5 5 5 5 6 5 5 5 5 5 5 5 6 5 5 5 5 6 5 5 5 5 5 5 6 5 5 5 6 5 5 5 5 5 5 5 6 5 5 5 5 5 5 6 5 5 5 5 5 5 6 5 5 5 5 5 5 5 6 5 5 5 5 5 5 5 5 5 5 5 5 5 5 5 5 5 5 5 5 5 6 6 5 5 5 5 5 6 5 5 5 5 5 5 5 6 5 6 5 5 5 6 5 5 5 6 5 6 5 5 5 5 5 5 5 6 5 5 5 5 5 5 5 6 5 5 5 6 5 5 5 5 5 5 5 5 5 5 5 5 5 5 5 5 5 5 5 5 5 5 5 5 5 5 5 5 5 5 5 5 6 5 5 5 5 5 5 5 5 5 5 5 5 5 5 5 5 5 5 5 5 5 5 5 5 5 5 5 5 5 5 5 5 6 5 5 5 5 5 5 5 5 5 5 5 5 5 5 5 5 5 5 5 5 6 5 5 5 5 5 5 5 6 5 5 5 5 5 6 5 5 6 5 6 5 5 5 5 6 5 5 6 5 5 5 5 5 5 6 5 5 5 5 5 5 5 5 5 5 5 5 5 5 5 5 5 5 5 6 5 5 5 5 5 5 5 5 5 5 5 6 6 5 5 5 5 5 5 5 5 5 5 5 5 5 5 5 5 5 5 5 5 5 6 5 6 6 5 5 6 5 5 5 5 5 5 5 5 5 5 5 5 5 6 5 5 5 5 5 5 5 6 6 5 5 5 5 5 5 5 5 6 6 5 5 5 6 5 5 5 5 5 5 5 5 5 5 5 5 5 5 5 5 5 5 5 5 5 5 5 5 5 5 5 5 5 5 5 5 5 5 5 6 5 5 6 5 5 5 5 6 5 5 5 6 5 5 5 6 5 5 6 5 5 5 5 5 5 5 5 5 5 5 5 5 5 5 5 5 5 5 5 5 6 5 5 5 6 5 5 5 5 5 6 5 5 5 5 5 5 6 5 5 5 5 5 5 5 5 5 5 5 5 5 5 5 5 5 5 6 5 5 5 5 5 5 5 5 5 5 5 5 5 5 5 5 5 5 5 5 5 6 5 5 5 5 5 5 5 5 5 5 5 5 5 5 5 6 5 5 5 5 5 5 5 5 5 5 5 5 5 5 5 5 5 5 6 5 5 5 5 5 5 5 6 5 5 5 5 5 5 5 5 5 5 5 5 5 5 5 5 5 5 5 5 5 6 5 5 5 5 5 5 5 5 5 6 5 5 5 5 5 5 5 5 6 5 5 5 5 5 5 5 5 5 5 5 5 5 5 5 5 5 5 5 6 5 5 5 5 5 6 5 5 5 6 5 5 5 5 5 5 6 5 5 5 5 5 5 5 5 5 5 6 5 5 5 5 5 5 5 5 5 5 5 5 6 5 6 5 5 5 5 5 5 5 6 5 6 5 5 5 5 5 5 5 5 5 5 5 5 5 5 5 5 5 5 5 5 5 5 5 5 5 5 5 5 5 5 5 5 5 5 5 5 5 5 5 5 5 5 5 5 5 6 6 5 5 6 5 5 5 5 5 5 5 5 5 5 5 5 5 5 5 5 6 5 5 5 5 6 5 5 6 5 5 5 5 5 5 6 5 6 5 5 6 5 5 5 5 5 5 5 5 5 5 6 5 5 5 5 5 6 6 5 5 5 5 6 5 5 6 5 6 5 5 5 5 5 6 5 5 6 5 5 5 5 5 5 5 5 5 5 5 5 6 5 5 5 5 5 5 5 5 5 5 5 5 5 5 5 6 5 6 5 6 6 5 6 5 5 6 5 5 5 5 5 5 6 5 6 5 5 6 5 5 5 6 5 5 6 5 5 5 5 5 6 5 5 6 5 5 5 5 5 6 5 6 5 5 6 5 5 6 5 5 5 5 5 5 5 5 6 5 5 5 5 5 5 5 5 5 5 6 5 5 5 5 6 5 5 6 5 5 5 5 5 6 5 5 5 5 5 6 5 6 5 5 5 5 5 5 6 5 5 5 5 5 5 5 5 6 6 6 5 5 5 5 6 5 6 5 5 5 6 6 5 5 5 6 5 5 5 6 5 6 5 6 6 5 6 5 5 5 5 6 5 5 5 6 5 6 5 6 5 5 5 5 5 5 5 6 5 5 5 5 6 5 5 5 5 5 5 5 5 6 5 6 6 5 5 5 6 5 5 5 5 6 6 5 5 6 6 5 5 5 5 5 6 5 5 5 5 5 5 5 5 6 5 6 5 5 5 5 5 5 5 5 5 5 5 5 5 5 5 5 5 6 5 5 5 5 5 5 5 5 5 5 5 5 5 5 5 5 5 5 5 5 5 5 5 5 5 6 5 6 5 5 5 5 5 6 6 5 5 5 5 6 6 5 6 5 5 6 5 5 6 5 5 5 5 6 6 5 5 5 5 5 5 5 5 6 5 5 6 5 5 5 6 5 5 6 5 5 5 5 5 5 6 5 5 5 5 5 5 6 5 5 5 5 5 6 5 5 6 6 5 5 6 5 5 6 5 5 5 5 5 5 5 5 5 5 5 5 6 5 6 5 5 6 5 5 5 5 5 5 6 5 5 5 6 6 6 5 5 5 6 6 5 6 6 5 5 6 5 5 6 5 6 5 6 5 5 5 6 6 5 5 6 6 6 6 5 5 5 6 6 5 5 6 6 6 5 6 6 5 5 6 5 6 6 5 6 5 5 6 5 6 6 5 5 5 5 6 6 5 5 6 5 5 5 6 5 5 5 5 5 5 5 5 5 5 5 5 5 5 5 5 5 5 5 5 5 5 5 5 5 5 5 5 5 5 5 5 5 5 5 5 5 5 5 5 5 5 5 5 5 5 5 5 5 5 5 5 5 5 5 5 5 5 6 5 6 5 5 5 5 5 5 5 5 5 5 5 5 5 5 6 5 5 5 5 5 5 5 5 5 5 6 5 5 5 5 5 5 5 5 5 5 5 5 5 5 5 5 5 5 5 5 5 5 5 5 5 5 5 5 5 5 5 5 5 5 5 5 5 5 5 5 5 5 5 5 5 5 6 5 5 5 6 5 6 5 5 5 5 5 6 5 6 5 5 5 5 5 5 5 5 5 5 5 5 5 5 5 5 5 5 5 5 5 5 5 5 5 6 5 5 5 5 5 5 6 5 6 5 5 5 6 5 5 6 5 5 5 5 5 5 5 5 5 5 5 5 5 5 5 5 5 5 5 5 5 5 5 5 5 5 5 5 5 5 5 5 5 5 5 5 5 6 5 6 5 5 5 5 5 5 5 5 5 5 6 5 5 5 5 5 5 5 5 5 5 5 5 5 5 5 5 5 6 5 5 5 6 6 5 6 5 5 5 5 5 5 5 5 6 5 5 5 5 6 5 5 5 5 5 5 5 6 5 5 6 5 6 5 5 6 5 5 6 6 5 5 5 5 5 5 5 5 5 5 5 5 5 5 5 6 5 6 5 5 5 6 5 6 5 5 5 5 5 5 5 5 5 5 5 5 6 5 6 5 5 5 5 5 5 5 5 6 5 5 6 5 5 5 6 6 5 5 5 5 5 5 5 5 5 5 5 5 5 5 5 5 5 5 5 5 5 6 5 5 5 5 5 6 5 6 5 5 5 5 6 5 5 6 5 5 5 5 5 6 5 5 5 5 6 5 5 5 5 5 5 5 6 5 5 5 6 5 5 5 5 5 5 5 5 5 5 5 6 5 5 5 5 5 5 5 5 6 5 5 5 5 5 5 6 5 5 5 5 5 5 6 5 5 5 5 5 5 5 5 5 5 5 6 5 5 5 6 5 5 5 6 5 6 5 5 5 5 5 5 6 5 5 5 5 5 5 5 5 5 5 5 5 5 5 5 6 5 5 5 5 5 6 5 5 5 5 5 5 5 5 6 5 5 5 5 5 5 5 5 5 5 5 5 5 5 5 5 6 5 5 5 5 6 5 5 5 5 5 5 5 5 5 5 5 5 5 5 5 5 5 5 5 5 5 5 5 5 5 5 6 5 5 5 6 5 6 5 5 5 5 6 5 6 5 5 5 5 5 6 5 5 5 5 5 5 5 5 5 6 5 5 5 5 5 5 5 5 5 5 5 5 5 5 5 5 5 5 5 5 5 5 5 5 6 6 5 5 5 5 5 6 5 5 5 6 5 5 5 6 5 5 6 5 6 5 5 5 5 6 5 5 5 5 6 6 5 5 5 5 5 5 5 5 5 5 5 5 6 5 5 5 5 6 5 5 5 5 5 6 5 5 6 5 5 5 5 5 5 5 5 5 5 5 5 5 5 5 5 6 5 5 6 5 5 5 6 5 5 5 5 5 5 5 5 5 5 5 6 5 5 5 5 5 5 5 5 5 5 5 5 5 5 5 5 6 5 5 6 5 6 5 5 6 5 6 5 6 5 5 5 5 5 5 5 5 5 5 5 5 5 6 5 6 6 5 5 6 6 5 5 6 6 5 5 5 6 5 6 5 5 6 5 5 5 5 6 6 5 6 5 5 6 6 5 5 6 5 5 5 6 5 5 5 6 6 6 5 5 6 5 6 6 5 5 5 5 5 5 5 5 5 5 5 6 6 5 6 5 6 5 6 5 5 5 6 5 5 5 5 5 6 5 5 5 5 5 5 5 5 5 5 5 5 5 5 5 5 5 5 5 5 5 5 5 5 6 5 5 5 5 5 5 5 5 5 5 5 5 5 5 5 5 5 5 6 5 5 5 5 5 5 5 5 5 5 5 6 5 5 5 5 5 6 5 5 5 5 5 5 5 5 5 5 5 5 5 5 6 5 5 5 5 5 5 5 5 5 5 5 5 5 5 6 5 6 5 5 5 5 6 5 5 5 5 5 5 5 5 5 5 5 5 6 5 6 5 5 5 5 6 5 5 5 5 5 5 5 6 5 5 5 5 5 5 5 6 5 5 5 6 5 6 5 5 5 5 5 5 5 5 5 6 5 5 5 5 5 5 5 5 5 5 5 5 5 5 5 5 5 5 5 5 5 5 5 5 5 5 5 5 5 5 5 5 5 5 5 5 5 5 5 5 5 5 5 6 5 5 6 5 5 5 5 5 5 5 5 5 5 6 5 5 5 5 5 6 5 5 6 5 5 5 5 5 5 6 5 5 5 5 6 5 5 6 5 6 5 5 5 5 5 5 5 5 5 5 5 6 5 6 5 5 5 5 6 5 5 5 5 5 5 5 5 5 5 5 5 5 5 5 5 5 5 5 5 5 6 5 5 5 5 6 5 5 5 5 5 5 5 6 5 5 5 5 5 6 5 5 5 6 5 5 5 6 5 5 6 5 5 5 6 5 5 6 5 5 5 5 5 5 5 5 5 5 5 5 5 5 5 5 5 5 5 5 5 5 5 5 5 5 5 5 5 5 5 6 5 5 5 5 5 5 5 5 5 5 5 6 5 5 5 5 5 5 5 5 5 5 5 5 5 5 5 6 6 5 5 5 6 5 5 5 5 6 5 5 6 5 5 5 5 5 5 5 5 5 5 5 5 5 6 6 5 5 5 5 5 5 5 5 5 5 5 6 5 5 6 5 5 5 5 5 5 5 5 5 5 5 5 5 5 5 5 5 5 5 6 5 5 5 6 5 5 5 5 5 6 5 5 5 5 5 5 5 5 5 5 5 5 5 5 5 5 5 5 5 5 6 5 5 6 5 5 5 5 5 5 5 5 5 5 5 5 5 5 5 5 5 5 5 6 5 5 5 5 5 5 5 5 5 5 5 5 5 5 5 5 5 5 5 5 5 5 5 5 5 5 5 5 5 5 5 5 6 5 5 5 5 5 5 6 5 5 5 5 5 6 5 5 5 5 6 5 5 5 5 5 5 5 5 5 5 5 5 5 5 5 5 5 5 5 5 5 5 6 5 5 5 5 5 5 5 6 5 5 6 5 5 6 5 5 5 5 5 5 6 5 5 5 5 5 5 5 5 5 5 6 5 6 5 5 5 5 5 5 5 5 6 5 5 6 5 5 5 6 5 5 5 6 5 5 5 6 6 5 5 6 5 5 6 5 5 6 5 5 5 5 5 5 5 5 5 6 5 5 5 6 5 5 5 6 5 5 5 6 5 6 5 5 6 5 5 5 5 5 5 5 5 6 5 5 6 5 5 5 5 5 5 5 5 5 5 5 5 5 6 5 6 5 5 5 6 6 5 6 5 5 5 5 6 5 6 5 5 5 5 5 5 5 5 5 6 5 5 5 5 5 5 5 5 5 5 5 5 5 5 5 5 5 5 5 5 5 5 5 5 5 5 5 5 6 5 5 5 5 5 5 6 5 5 5 5 5 5 6 5 5 5 5 5 5 6 5 5 5 6 5 5 5 6 5 5 6 5 5 5 5 5 5 6 5 5 5 6 6 5 5 5 5 5 5 5 5 5 5 5 5 5 5 5 5 5 6 5 5 5 5 5 5 5 6 5 5 5 5 5 6 5 5 5 5 5 6 5 5 6 5 5 5 5 6 5 5 5 5 5 5 6 5 6 5 6 6 5 6 5 5 5 6 5 5 5 5 5 6 5 5 5 6 5 5 5 5 6 6 6 5 5 5 5 6 6 5 6 5 5 5 5 5 5 6 5 6 5 5 6 5 5 5 6 5 5 6 5 5 5 5 5 5 5 5 5 5 5 5 6 5 5 5 5 6 5 5 5 5 6 5 5 5 5 5 5 5 5 5 6 6 6 5 5 5 6 6 5 5 6 5 6 5 5 5 5 5 5 5 6 5 5 5 5 5 5 5 5 5 5 5 5 5 5 5 5 6 5 5 5 5 5 5 5 5 5 6 5 5 6 5 6 5 6 5 5 6 5 5 5 6 6 5 5 6 5 5 5 6 5 5 5 5 6 5 5 5 5 5 5 5 5 5 5 5 6 6 5 5 5 5 5 5 5 5 5 5 5 5 5 5 5 5 5 5 5 5 5 5 5 5 5 5 5 5 5 5 5 5 6 5 5 5 5 5 5 5 5 5 5 5 5 5 5 5 5 5 5 5 6 5 5 5 5 5 5 6 6 5 5 6 6 5 5 5 6 5 5 5 5 5 5 5 5 5 5 5 5 5 5 5 5 5 5 5 5 5 5 5 6 5 6 5 6 5 5 5 5 5 5 6 5 6 6 5 5 6 5 5 5 5 5 5 6 6 5 5 6 6 5 5 6 6 5 5 5 5 5 5 5 5 6 5 5 5 5 5 6 5 5 6 5 5 5 6 5 5 5 5 5 5 5 5 5 5 5 5 5 5 5 5 5 5 5 5 5 5 5 5 5 5 5 5 5 5 5 5 5 5 6 5 5 6 5 6 6 5 5 5 5 5 5 5 5 5 6 5 5 5 5 5 6 5 5 5 5 5 5 5 6 5 5 5 5 5 5 5 5 6 5 5 5 5 5 6 5 5 5 5 5 5 5 5 5 5 5 5 5 5 5 5 5 5 5 5 5 5 5 5 5 5 5 5 5 5 6 6 5 5 5 5 5 5 5 6 5 5 5 6 5 6 5 5 5 5 5 5 5 5 5 5 5 5 5 5 5 5 5 5 5 5 5 6 5 5 5 5 5 5 6 5 5 5 5 5 5 5 6 5 5 6 5 5 5 5 5 5 6 5 5 5 6 5 5 6 6 5 5 5 5 5 5 5 5 5 5 5 5 5 5 5 5 5 5 5 5 5 5 5 5 5 5 5 5 6 5 5 5 5 5 5 5 5 5 5 5 5 5 5 5 5 5 5 5 6 5 5 5 6 6 5 5 5 5 5 6 5 5 5 6 5 5 5 5 5 6 5 5 5 5 5 5 5 5 5 5 5 5 5 5 5 5 5 5 5 5 5 6 5 5 5 5 5 5 6 5 5 5 5 5 5 5 5 5 5 5 5 6 5 5 5 5 6 5 6 5 5 5 5 5 5 5 5 5 5 5 5 5 6 5 5 5 5 5 6 5 5 5 5 5 5 6 5 5 5 5 5 5 5 5 5 5 5 5 6 5 5 6 5 5 6 5 5 6 5 5 5 5 5 5 5 5 5 5 6 5 5 5 5 5 5 5 5 6 5 5 5 6 5 5 5 6 5 5 6 5 5 5 6 5 5 5 5 5 6 5 6 5 5 5 5 6 6 5 5 5 6 5 5 5 5 6 5 5 5 5 5 5 5 5 5 5 5 5 5 5 5 6 5 5 6 6 5 5 5 5 6 5 5 5 5 5 5 6 5 5 5 5 5 5 6 5 5 5 5 5 5 5 5 6 5 5 5 5 5 5 5 5 5 5 6 5 5 6 5 5 6 5 5 5 5 5 6 6 5 5 6 6 5 6 5 6 5 6 6 5 5 6 5 6 5 6 5 6 5 6 5 5 6 5 6 5 6 5 5 5 5 5 5 6 5 5 5 6 5 5 5 5 5 5 5 5 5 6 5 5 6 5 6 5 6 5 5 5 6 6 5 5 5 5 5 5 5 5 5 5 5 6 5 5 5 5 5 6 5 5 5 5 5 5 5 5 5 5 5 5 5 5 5 5 5 6 5 5 5 5 5 5 6 5 5 5 6 5 5 6 5 5 5 6 5 6 6 5 5 5 5 5 5 5 5 5 6 5 5 5 5 5 5 5 6 5 6 5 6 5 5 5 5 5 5 5 5 5 5 5 5 5 5 5 5 5 5 5 5 5 5 5 5 5 5 5 5 5 5 5 5 5 5 5 5 5 6 5 5 6 6 5 5 5 5 6 5 5 5 5 5 6 5 5 6 6 5 5 5 5 5 5 6 5 6 5 5 6 6 5 6 5 5 5 6 5 5 5 5 6 5 5 5 6 5 5 6 6 5 5 5 6 5 5 5 5 6 5 5 6 5 5 5 6 5 5 6 5 5 5 6 5 6 5 5 6 5 5 6 6 5 5 6 5 6 6 5 5 5 5 6 5 5 5 5 6 5 5 5 5 5 5 5 5 5 5 5 5 6 5 5 5 5 6 5 6 5 5 5 5 5 6 6 6 5 5 5 5 5 5 5 5 6 5 5 5 5 5 5 6 5 5 5 5 6 5 5 5 5 5 5 5 5 5 5 5 5 5 5 5 5 5 5 6 5 6 5 5 6 6 5 6 5 5 6 5 6 5 6 5 6 5 5 5 5 6 5 5 5 6 5 5 5 5 5 5 5 5 5 5 5 5 5 5 5 5 5 5 5 5 5 5 5 5 5 6 5 5 5 5 5 6 5 5 5 5 5 5 5 5 5 5 5 6 5 5 5 5 5 6 5 5 6 6 5 5 5 6 5 5 6 6 5 6 5 5 5 5 5 5 5 5 5 5 5 5 5 5 5 5 6 5 5 5 5 6 5 5 5 5 5 5 5 5 6 6 5 5 6 5 5 5 5 5 5 5 5 5 6 6 5 5 6 5 5 5 6 5 5 5 5 5 5 5 5 5 5 5 5 5 5 5 5 5 5 5 5 5 5 5 5 5 5 6 5 5 5 5 5 5 5 5 5 5 5 5 5 5 5 5 5 5 5 5 6 5 5 5 6 6 5 5 5 6 5 5 6 5 5 5 5 5 6 5 6 5 5 5 5 5 5 5 5 6 5 5 5 6 5 5 6 5 6 5 5 5 6 5 5 5 6 5 5 5 5 5 5 5 5 5 5 5 5 5 5 5 5 5 6 5 5 5 5 5 5 5 5 5 6 5 5 5 5 5 5 5 5 6 5 5 5 5 5 5 5 5 5 5 5 5 5 6 5 5 5 6 5 5 5 5 5 5 5 5 5 5 5 5 5 5 5 5 5 5 5 6 5 5 5 6 5 6 5 5 5 6 5 5 5 6 6 5 5 5 5 5 5 5 5 5 5 5 5 5 5 5 5 5 5 5 5 5 5 6 5 5 5 5 6 5 5 5 5 6 5 5 5 5 5 5 5 6 5 5 5 5 6 5 5 5 5 5 5 6 5 5 5 5 5 5 6 5 5 5 6 5 5 5 5 5 5 5 5 5 6 5 5 5 5 5 5 6 5 5 5 5 5 5 5 5 5 5 5 6 5 5 6 5 5 5 5 5 6 5 5 6 5 5 5 5 5 5 5 6 6 5 5 5 5 6 5 5 5 5 5 5 6 5 5 5 5 5 5 5 5 5 5 6 5 5 5 5 5 5 5 5 5 5 5 5 6 5 6 5 5 5 6 5 5 6 5 5 5 5 6 5 5 5 5 5 6 5 5 5 5 5 5 5 5 6 5 5 5 5 6 5 5 5 5 5 5 5 6 5 5 5 5 5 5 5 5 5 5 6 5 5 5 6 5 6 5 5 5 5 5 5 6 5 6 5 6 5 5 5 5 6 5 5 5 5 5 5 5 5 5 5 5 5 5 5 6 5 6 5 5 5 5 5 5 5 6 5 5 5 5 5 5 5 5 5 5 5 5 5 6 5 5 5 5 6 5 5 5 5 5 5 5 5 5 5 5 5 5 5 5 5 5 5 5 5 5 5 5 5 6 5 5 5 5 6 5 5 5 6 5 5 6 5 5 6 5 5 5 5 5 5 5 5 5 5 5 5 5 5 5 6 5 5 6 5 5 5 5 5 5 5 6 5 5 5 5 5 6 5 5 5 6 5 5 5 6 5 5 5 5 5 5 5 6 5 5 5 6 5 6 6 5 5 5 5 5 6 5 5 5 5 5 5 5 5 5 5 6 5 5 5 5 5 5 5 5 5 5 5 5 5 5 5 5 5 5 5 5 5 5 5 5 5 5 5 5 5 5 5 5 5 5 5 5 5 6 5 5 5 5 5 5 5 5 5 5 5 5 5 5 5 5 6 5 5 5 5 5 5 5 5 5 6 5 5 5 5 5 5 5 6 5 5 5 5 5 5 5 5 5 5 5 5 5 5 5 5 5 5 5 5 5 6 5 5 5 5 5 5 5 5 5 5 5 5 5 5 5 5 5 6 5 5 5 5 5 5 5 5 5 5 5 5 5 5 5 5 5 5 5 5 5 5 5 5 5 5 5 5 5 5 5 5 5 5 5 5 5 5 5 5 5 5 5 5 5 5 6 5 5 5 5 5 5 5 5 5 5 5 5 5 6 5 6 5 5 5 5 5 6 5 5 5 5 5 6 6 5 5 5 5 5 5 5 5 5 5 5 5 5 5 5 5 5 6 6 5 5 5 5 5 5 6 5 6 5 5 5 5 5 5 5 5 5 6 5 5 5 5 5 5 5 5 5 5 5 5 5 5 5 5 5 5 5 6 5 5 5 5 5 6 5 6 5 5 5 5 5 5 5 6 5 5 5 6 5 5 5 6 5 5 6 5 5 5 6 5 5 6 5 6 5 6 5 5 6 5 5 5 5 5 5 5 5 5 5 5 5 5 5 5 5 5 5 5 5 5 6 5 6 5 5 5 5 5 5 5 6 5 5 5 5 5 5 5 5 5 5 5 5 5 5 5 5 5 5 5 6 5 5 5 6 5 5 5 5 5 5 5 5 5 5 6 5 5 5 5 6 5 5 6 5 5 5 5 5 6 5 5 5 5 6 5 6 5 5 6 5 5 5 5 5 5 5 6 5 5 6 5 6 5 5 5 5 5 5 5 5 5 5 5 5 5 5 5 5 5 5 6 5 5 5 5 5 5 5 6 5 5 5 5 6 5 5 5 5 5 5 5 5 5 6 5 5 5 5 6 5 5 5 5 5 5 5 5 5 5 5 5 6 5 5 5 5 5 5 5 5 5 6 5 5 5 5 5 5 5 5 5 5 5 5 6 5 5 6 5 5 5 5 5 5 5 5 5 6 6 6 5 5 5 6 5 5 5 5 5 5 6 5 5 5 6 6 5 5 5 5 5 5 5 5 5 5 5 5 6 5 5 5 6 6 5 5 5 5 5 6 5 5 5 5 6 5 5 5 5 6 5 5 5 5 5 6 6 6 5 5 5 6 6 5 5 5 5 5 5 5 5 5 6 6 5 5 5 6 6 5 5 5 5 5 5 5 5 5 5 5 5 5 5 5 5 5 6 5 6 5 5 5 5 6 5 5 5 5 5 5 5 6 5 5 5 5 5 5 5 6 5 5 6 5 6 6 5 5 5 6 6 5 5 5 6 6 5 5 5 5 5 5 5 5 5 5 6 5 5 5 5 5 5 5 6 5 5 5 5 6 5 5 5 5 5 5 6 5 5 5 5 6 5 6 5 5 5 5 5 5 5 5 5 5 5 5 5 5 6 5 5 5 5 5 5 5 6 5 5 5 5 6 5 5 5 6 5 5 5 5 5 5 5 5 5 5 5 5 5 5 5 5 5 5 5 5 5 5 6 5 6 5 5 6 5 5 5 6 5 5 6 5 5 5 5 5 5 5 5 5 5 5 5 5 5 5 5 5 5 5 5 6 6 6 5 5 5 5 5 5 5 5 5 5 5 5 5 6 5 5 5 6 5 5 6 5 5 5 5 6 5 5 6 6 5 5 5 5 6 5 5 6 5 6 5 5 5 5 5 5 5 5 5 5 5 5 6 5 5 5 5 5 5 5 6 5 6 5 5 5 5 6 5 5 5 5 5 5 5 5 5 5 5 5 5 5 5 5 5 5 5 5 5 5 5 6 5 5 5 6 5 6 5 5 5 6 5 5 5 5 5 6 5 5 6 5 5 5 5 5 5 5 5 6 5 5 5 5 5 6 5 5 5 5 5 5 5 5 5 5 5 5 5 5 6 5 5 5 5 6 5 5 5 5 5 5 5 5 5 5 5 5 6 5 5 5 5 6 5 5 5 5 5 5 5 5 5 5 5 5 5 6 5 5 6 5 5 5 6 5 5 5 5 5 5 5 5 5 5 5 5 5 6 6 5 6 6 5 5 5 6 6 5 6 5 6 5 6 5 5 5 6 5 6 5 5 5 5 6 5 5 5 5 5 5 6 5 5 5 5 5 6 5 5 6 5 5 6 5 5 6 5 5 5 5 5 6 5 6 5 5 5 5 5 5 5 5 5 5 5 5 5 6 5 5 6 5 5 5 5 5 5 5 5 5 6 5 5 5 5 5 5 5 5 5 6 5 5 6 5 6 5 5 5 5 5 5 5 6 5 5 5 5 5 5 5 6 5 6 5 5 6 5 5 5 6 5 5 5 5 6 5 5 5 5 5 6 5 5 5 5 5 5 5 5 5 5 5 5 5 5 5 5 5 5 5 5 5 6 5 5 6 5 5 5 6 5 5 5 5 6 5 5 5 5 5 5 5 5 5 5 5 5 5 5 5 5 5 5 5 5 5 5 5 6 5 5 5 5 5 5 6 5 5 5 5 5 5 5 5 5 5 5 5 5 6 5 6 5 5 6 5 5 5 5 6 6 5 6 5 6 5 5 5 5 5 6 5 5 6 6 5 5 5 5 5 6 5 5 6 5 5 5 5 5 5 5 5 6 6 5 5 5 6 5 6 5 5 5 5 5 6 5 6 5 5 5 5 5 6 6 5 5 5 5 6 5 5 5 5 6 5 5 5 5 5 5 5 5 5 5 5 5 5 5 5 5 5 6 5 5 6 5 5 5 6 5 5 5 5 5 5 5 5 5 5 5 5 5 5 5 5 5 5 5 6 5 5 5 5 5 5 5 5 5 5 5 5 5 5 6 6 5 5 5 6 5 5 5 5 5 6 5 5 5 5 5 5 5 5 5 5 5 6 5 5 6 5 5 5 5 5 5 5 5 5 5 6 5 5 5 6 5 6 5 6 5 5 5 6 6 5 6 5 5 6 5 5 6 6 5 5 5 6 5 5 6 5 6 5 5 5 6 5 5 6 6 5 6 5 5 6 5 6 5 5 5 5 5 5 5 5 5 6 5 5 5 5 5 6 5 5 5 5 5 5 5 5 5 5 6 5 5 5 5 6 6 5 5 6 5 6 5 5 5 5 5 6 5 5 6 5 6 5 5 5 5 5 5 5 6 5 5 5 5 5 5 5 5 5 6 5 6 5 6 5 6 5 5 5 5 6 5 5 5 5 5 6 6 5 5 5 5 5 5 6 5 5 5 5 5 6 5 5 5 5 6 5 5 6 5 6 5 5 5 6 5 6 5 5 6 6 6 5 5 5 5 5 5 6 6 6 5 5 5 5 6 5 6 5 6 5 5 5 5 5 5 6 5 5 5 5 5 5 5 5 5 5 5 5 5 5 5 5 5 5 5 5 5 5 5 5 5 5 5 5 5 5 5 5 5 5 5 5 5 5 5 5 5 5 5 5 5 5 5 5 5 6 5 5 5 6 6 5 5 5 5 5 5 5 5 5 5 5 5 5 5 5 5 5 5 5 6 5 5 5 5 5 5 5 6 5 5 6 5 5 6 5 5 6 5 6 5 5 6 5 5 5 6 5 6 5 6 6 5 5 5 6 6 5 5 6 5 5 6 5 5 5 5 5 5 5 5 5 5 5 5 6 5 5 5 5 6 5 5 5 5 6 5 5 5 5 5 5 5 5 5 6 5 6 5 5 5 5 6 5 5 5 6 5 5 5 5 5 5 6 5 5 6 5 5 5 6 5 5 5 5 5 5 5 6 5 5 5 5 5 6 5 5 5 5 5 5 5 5 5 5 5 5 5 5 5 6 5 5 5 5 5 6 5 5 6 5 6 5 5 5 5 6 6 5 5 6 5 5 5 5 5 5 5 5 5 5 5 6 5 6 5 5 5 5 5 6 5 5 5 6 5 5 5 6 5 5 5 5 5 5 5 5 5 5 5 5 5 6 5 5 5 5 5 5 5 6 5 6 5 5 5 5 5 5 5 6 6 5 5 5 5 5 5 5 5 5 6 5 5 5 5 5 5 6 6 6 5 6 5 5 5 5 5 5 6 5 6 5 6 5 6 5 5 5 5 5 5 6 5 5 6 5 5 5 5 6 5 5 5 5 5 5 5 5 5 5 5 5 5 5 5 5 5 5 5 5 5 6 5 6 5 5 5 5 5 5 5 5 5 5 5 5 5 5 5 5 5 5 5 5 5 5 5 5 5 5 5 5 5 5 5 5 5 5 5 5 5 5 5 5 5 5 5 5 5 5 5 5 5 5 5 5 5 5 5 5 5 5 6 5 5 5 5 5 5 5 5 5 5 5 5 5 5 5 5 5 5 5 5 5 5 5 6 5 5 5 6 5 6 5 5 5 5 5 5 5 5 5 5 5 5 5 5 5 5 5 5 5 5 5 5 5 5 5 5 5 5 5 5 5 5 5 5 5 5 5 5 5 6 5 6 5 5 5 5 5 5 5 5 5 5 5 5 5 5 5 5 5 5 5 5 5 5 5 5 5 6 5 5 5 5 5 5 5 5 5 5 5 5 5 5 5 5 5 5 5 5 5 5 5 5 5 5 5 5 5 5 5 5 5 5 5 5 5 5 5 5 5 5 5 5 5 5 5 5 5 5 5 5 5 5 5 5 5 5 5 5 5 5 5 5 5 5 5 5 5 6 5 5 5 5 5 5 5 6 5 5 6 5 5 5 5 5 5 5 5 5 5 5 5 5 5 5 5 5 5 5 5 6 5 5 5 5 5 5 5 5 5 5 5 5 5 5 5 5 5 5 5 5 5 5 5 5 5 5 5 5 5 5 5 5 6 5 5 5 5 6 5 6 5 5 5 5 5 5 6 5 5 6 5 5 6 6 5 6 5 5 5 6 5 5 5 5 5 5 5 5 5 5 5 5 5 5 5 6 5 5 5 5 5 5 5 5 6 5 5 5 5 5 5 5 5 5 5 5 5 5 5 5 5 5 5 5 5 5 5 5 5 5 5 5 5 5 5 5 5 5 5 5 5 6 5 5 5 5 5 5 5 6 5 5 6 5 6 5 5 5 5 5 5 5 5 5 5 5 6 6 5 5 6 5 5 6 6 5 5 5 5 6 5 6 5 5 6 5 6 6 5 6 5 6 5 5 5 5 5 5 5 6 5 6 5 5 5 5 5 6 5 5 5 6 5 5 6 5 6 5 6 6 5 5 6 5 5 5 5 5 5 6 5 5 5 5 5 5 5 5 6 6 5 5 5 6 5 5 5 5 6 6 5 6 5 5 5 6 5 5 5 5 5 5 5 5 5 5 5 5 5 5 5 5 6 5 5 5 5 5 5 6 5 6 5 5 5 6 6 5 5 6 5 6 5 5 5 5 5 5 5 5 5 5 5 5 6 6 5 5 5 5 5 6 5 5 5 5 5 5 5 6 5 5 5 6 5 6 5 5 6 5 5 5 5 5 5 5 5 5 6 5 5 6 5 5 5 5 5 5 5 5 5 5 5 6 5 5 5 5 5 5 5 5 5 5 5 5 5 5 5 5 5 5 5 5 5 5 6 5 5 5 5 5 5 5 5 5 5 5 6 5 5 5 5 6 5 5 5 5 5 5 5 5 5 5 5 6 5 5 5 5 5 6 5 6 5 5 5 5 5 5 5 5 5 6 5 5 6 5 5 6 5 5 5 5 6 5 5 5 5 5 5 5 5 5 5 5 5 5 5 5 5 5 5 5 5 5 6 5 5 6 5 6 5 5 5 5 5 5 5 5 5 6 5 5 6 6 6 5 5 5 6 5 5 5 5 5 5 6 6 5 6 5 5 6 5 5 6 5 5 5 5 6 5 5 5 5 6 5 5 5 5 5 5 5 5 5 5 5 6 5 5 6 5 6 6 5 5 6 6 6 5 5 5 5 5 5 5 5 5 5 6 5 5 5 5 5 5 5 5 5 6 5 5 5 5 5 6 5 5 5 5 5 5 5 5 5 5 6 5 5 5 5 5 5 5 5 5 5 5 5 5 5 5 5 5 5 5 5 5 5 5 5 6 6 5 5 5 5 5 5 5 5 6 5 5 5 5 5 5 5 5 5 5 5 5 5 5 5 5 6 5 5 5 5 6 5 5 5 6 6 5 5 5 5 5 5 6 5 6 5 5 5 6 5 5 5 5 5 5 5 5 6 5 6 6 5 5 5 5 5 5 5 5 5 5 5 5 6 5 5 6 5 6 5 5 5 5 5 5 5 5 5 5 5 5 5 5 5 5 5 5 5 5 5 5 5 6 5 5 5 5 5 6 5 5 5 5 5 5 5 5 5 5 6 5 5 5 6 5 5 5 5 5 5 5 5 5 5 5 6 6 5 5 5 5 5 6 5 5 5 6 5 5 5 5 5 5 5 5 5 5 6 5 5 5 5 5 5 5 6 6 5 6 5 5 5 5 6 5 5 5 5 5 6 5 5 5 5 5 5 5 5 5 5 6 5 5 5 5 5 5 5 5 5 5 6 5 5 5 5 5 5 5 6 5 5 5 5 5 5 5 5 5 5 5 5 5 5 5 5 5 5 5 5 6 5 5 5 6 5 5 5 5 5 5 5 5 5 5 5 5 5 6 5 6 6 5 6 6 5 5 5 5 5 6 5 5 5 5 5 5 5 6 5 5 6 5 5 6 5 5 6 5 5 6 6 6 6 5 5 6 6 5 5 6 5 5 6 5 5 5 5 6 6 6 6 5 5 5 6 5 6 5 6 5 6 6 5 5 5 5 5 5 5 6 5 5 6 5 6 5 5 6 6 5 5 5 5 5 5 5 5 5 5 5 5 5 5 5 5 5 6 5 5 5 5 5 5 5 5 5 5 5 5 5 5 5 5 5 6 5 5 5 5 5 5 5 5 5 5 5 5 5 5 6 6 5 5 5 5 6 5 6 5 5 5 6 6 5 6 5 5 5 5 5 5 5 5 5 5 5 5 5 5 5 5 5 5 5 6 5 6 5 5 5 5 6 5 5 5 5 5 5 5 5 5 5 5 5 5 5 5 5 5 5 5 5 6 5 5 5 5 5 5 5 5 5 5 5 5 5 5 6 5 5 5 5 5 5 5 5 5 5 5 5 5 5 5 5 5 5 5 5 5 5 5 5 5 5 5 5 5 5 5 5 5 5 5 5 5 5 5 5 5 5 5 5 5 5 5 5 5 5 5 5 5 5 5 5 5 5 5 5 5 5 6 5 5 5 6 5 5 6 5 5 5 5 5 5 5 5 5 5 5 6 5 5 5 5 6 5 5 5 5 5 5 5 5 5 5 5 5 5 5 5 5 5 5 5 5 5 5 5 5 5 5 5 5 5 6 5 5 5 5 6 5 5 5 5 5 5 5 5 5 5 6 5 5 6 5 5 5 5 5 5 5 5 5 5 5 5 6 5 5 5 5 5 5 5 5 6 5 5 5 5 5 5 5 5 5 5 6 5 6 5 5 5 6 5 5 5 6 5 6 5 6 6 5 5 5 5 5 6 5 5 5 5 5 5 5 5 5 5 5 5 5 5 5 5 5 5 5 5 5 5 5 6 5 5 6 5 5 5 6 5 6 5 5 5 5 5 5 5 5 5 5 5 5 6 5 5 5 5 5 5 5 5 5 5 5 5 5 5 5 5 5 5 5 6 5 5 5 5 5 5 5 5 5 5 5 5 5 5 5 5 5 5 5 5 5 5 5 5 5 5 5 6 5 5 5 5 5 5 5 5 5 5 5 5 5 5 5 5 5 5 6 5 5 5 6 5 5 5 6 6 5 5 5 5 5 6 5 5 5 5 5 5 5 6 6 5 5 5 6 5 6 5 5 5 5 5 5 6 6 5 5 6 6 5 5 5 5 5 5 5 5 5 5 6 5 5 5 5 5 5 6 5 5 5 5 5 5 5 5 5 5 5 5 5 5 5 5 5 6 5 5 5 5 6 5 5 6 5 5 5 5 5 5 5 5 5 5 5 6 5 6 5 6 5 5 5 5 5 5 5 5 5 5 5 5 5 5 5 5 5 5 5 6 5 5 6 5 5 5 6 5 5 6 5 5 5 5 6 5 5 5 5 5 5 5 6 5 5 5 5 5 5 5 5 5 5 5 5 5 5 5 5 5 5 5 5 5 5 5 5 5 5 5 5 5 6 5 5 5 5 5 5 5 5 5 5 5 5 5 5 5 5 5 5 5 5 5 5 5 5 5 5 5 5 5 5 5 5 5 5 5 5 5 6 6 6 5 5 6 5 5 5 6 5 6 5 5 5 5 5 6 5 5 5 5 5 5 5 6 5 5 5 5 5 5 5 5 5 5 5 5 5 5 6 5 5 5 6 5 6 5 5 5 5 5 5 5 5 6 5 5 5 5 5 5 5 6 5 6 5 6 5 5 5 5 5 5 5 5 6 5 5 6 6 6 5 6 5 6 5 5 5 5 5 5 5 5 5 5 5 5 5 5 5 5 5 5 5 5 5 6 5 5 6 6 5 5 5 6 5 5 5 5 5 5 5 6 5 6 5 5 5 5 6 5 5 6 5 5 5 5 5 5 5 6 5 5 6 5 5 5 6 5 5 5 5 5 5 5 5 5 6 5 5 5 5 5 5 6 5 5 6 5 5 5 5 6 5 5 5 5 5 5 6 6 6 5 5 5 6 5 6 5 6 5 5 5 5 5 5 6 5 5 5 6 5 5 5 6 5 5 5 5 5 5 5 5 5 5 5 5 6 5 5 5 6 5 5 5 5 5 6 6 5 5 6 5 6 6 6 5 5 5 6 5 5 5 5 5 6 5 5 5 5 5 5 5 5 5 5 5 5 6 5 5 5 5 5 5 6 5 5 6 5 5 6 5 5 5 5 5 6 5 5 6 5 6 5 6 5 5 5 5 5 5 6 5 5 5 5 6 5 5 5 5 5 5 5 5 5 5 6 5 5 5 5 5 6 5 5 5 5 5 5 5 5 5 5 5 5 5 5 5 6 5 5 5 5 5 6 5 6 5 5 5 5 5 6 5 5 5 5 5 6 5 5 5 5 5 6 5 5 5 5 5 5 5 5 5 5 6 5 6 5 6 5 5 6 5 5 5 5 5 5 5 5 6 5 6 5 5 5 5 5 5 5 5 5 5 6 5 5 5 5 5 5 5 5 5 5 6 5 5 5 6 5 6 6 5 5 5 6 5 5 5 6 6 5 5 5 5 5 5 5 5 5 5 6 6 5 5 5 5 5 6 5 5 5 5 5 5 5 5 5 5 6 5 6 6 6 5 5 5 5 5 5 5 5 6 5 5 5 5 5 5 5 5 5 5 5 5 5 5 5 5 5 5 5 5 5 5 5 5 5 5 5 5 5 6 5 5 5 5 6 5 5 5 5 5 5 5 5 6 5 5 5 5 5 5 5 5 6 5 5 5 5 5 5 5 5 5 5 5 5 5 5 5 5 5 5 5 5 5 5 5 5 5 5 6 5 5 5 5 5 5 6 5 6 5 5 6 5 5 5 6 5 6 5 5 5 6 5 5 5 6 5 5 5 5 5 5 6 5 5 5 5 5 5 5 5 5 5 5 5 5 5 5 5 5 5 5 5 5 5 5 5 5 5 5 6 5 6 5 5 5 5 6 5 5 5 5 5 5 5 5 5 5 5 5 5 6 5 5 6 5 5 6 5 5 5 5 5 6 5 5 5 5 5 5 5 5 6 5 6 5 5 5 5 5 6 6 5 5 6 5 5 5 6 5 5 5 5 5 5 5 6 5 5 5 5 5 5 5 5 5 5 5 5 5 5 5 5 6 5 5 5 5 5 6 5 6 5 5 5 5 5 5 5 5 5 5 5 5 6 5 6 5 5 5 5 5 5 6 6 5 5 5 5 5 5 5 5 5 5 5 5 5 5 5 5 5 5 5 5 5 6 5 5 6 5 5 5 5 5 6 5 5 5 5 5 5 6 5 5 5 5 5 5 5 5 5 5 5 5 5 5 5 5 6 5 5 6 5 5 5 5 6 5 5 5 5 5 5 5 5 5 5 5 6 5 5 5 5 5 5 5 5 5 5 5 5 5 5 5 5 5 5 5 6 5 5 5 5 5 5 5 5 5 5 5 5 6 5 5 5 5 5 5 5 5 5 5 5 5 5 6 6 5 5 5 5 5 5 6 5 5 5 5 5 5 5 5 5 5 5 5 5 5 5 5 5 5 5 5 5 5 5 5 5 5 5 5 5 5 5 5 5 5 5 6 5 5 5 5 5 5 5 5 6 5 5 5 5 5 5 5 5 5 5 5 5 6 5 5 5 5 6 5 6 5 5 5 5 5 5 5 5 6 5 5 5 5 5 5 5 5 5 5 6 5 5 5 6 5 5 6 5 5 5 5 6 5 5 6 5 5 5 5 5 5 5 5 6 5 5 5 6 5 5 5 5 5 5 5 6 5 6 5 6 5 6 6 5 5 5 6 6 6 5 5 6 5 5 5 6 5 5 5 5 6 5 5 5 5 5 5 5 5 5 5 5 5 5 5 5 5 5 5 5 5 5 5 5 5 5 5 5 5 5 5 5 5 5 5 5 5 5 5 6 5 5 5 5 5 5 5 5 6 5 5 5 5 6 5 5 6 5 5 6 5 5 5 5 6 5 5 5 5 5 6 5 5 5 5 5 5 5 5 5 5 5 5 5 6 6 5 5 5 6 5 5 5 5 5 5 5 5 5 5 5 5 5 5 6 5 5 5 5 5 5 6 5 5 6 5 5 5 5 5 5 5 5 5 5 6 5 5 5 5 5 6 5 5 5 5 5 5 5 5 5 5 6 5 5 5 5 5 5 5 5 5 5 5 5 5 5 5 6 5 5 5 5 5 5 5 5 5 5 5 5 5 5 5 5 5 5 5 5 5 5 5 6 5 6 5 5 5 6 5 5 5 5 5 5 5 5 5 6 5 5 5 6 5 5 5 5 5 5 5 5 5 5 5 5 5 5 5 5 6 5 5 5 5 5 6 5 5 5 6 5 6 5 5 5 5 5 5 6 5 5 5 5 5 5 5 5 5 5 5 5 5 5 5 5 5 5 5 5 5 5 5 5 5 5 5 6 5 5 6 5 5 5 5 5 5 5 6 5 5 5 5 6 5 5 6 5 5 5 5 5 5 6 5 5 5 6 5 5 5 6 5 5 5 5 5 6 5 5 5 5 5 6 5 5 5 5 5 5 5 5 6 5 5 6 5 5 5 5 6 5 5 5 5 6 5 5 5 5 6 5 5 5 6 5 6 5 5 5 5 5 5 5 5 5 5 6 5 5 5 5 5 5 5 6 6 5 5 5 5 5 6 5 5 5 5 5 6 5 5 5 6 5 5 6 5 5 6 5 5 5 6 5 5 5 5 5 5 6 5 5 5 5 5 6 5 5 5 5 5 6 5 5 5 5 5 5 6 5 5 5 5 6 5 5 5 5 5 6 5 5 5 5 5 5 5 5 5 5 6 5 5 5 5 5 5 5 6 5 5 5 5 6 6 5 5 6 5 5 5 5 5 5 5 6 5 5 5 5 5 5 5 6 5 6 5 5 6 5 5 5 5 6 5 6 5 5 5 5 5 5 5 5 5 5 6 5 5 5 5 5 6 5 5 5 6 5 5 5 5 6 5 5 6 5 5 5 5 5 6 5 6 5 6 6 5 5 5 5 6 6 5 5 5 5 5 5 5 5 5 5 5 5 5 6 5 5 5 5 5 5 6 6 5 5 5 5 5 5 5 5 5 5 5 5 5 6 5 5 5 5 5 5 5 5 5 5 5 5 5 5 5 5 5 5 5 5 5 5 5 5 5 5 5 5 5 5 5 5 5 6 5 5 6 5 5 5 5 5 5 5 6 5 5 5 6 5 5 6 5 5 5 6 6 5 5 5 5 6 6 5 5 5 5 5 5 5 5 5 5 5 5 5 5 6 5 5 6 5 5 5 6 5 5 5 5 6 5 5 6 5 5 5 5 5 5 5 5 5 5 5 6 5 5 5 5 5 5 5 6 5 5 5 5 5 5 5 5 5 5 5 5 5 5 5 5 5 5 6 5 5 5 5 5 5 6 5 6 5 5 5 5 5 6 5 5 6 5 5 5 6 5 5 5 6 5 5 5 5 5 5 5 5 5 5 5 5 5 5 6 5 5 5 5 6 6 5 5 5 5 5 5 5 5 5 5 5 5 5 5 5 5 5 5 5 6 5 5 5 5 5 5 5 5 6 5 6 5 5 5 5 5 5 5 6 5 6 5 5 5 5 5 6 5 5 5 5 5 5 6 5 5 5 5 5 6 6 5 5 5 6 6 6 5 5 5 5 5 6 5 5 5 5 5 6 5 5 5 5 6 5 6 6 5 6 6 5 5 5 6 5 5 5 6 5 5 5 6 5 5 5 6 5 5 5 5 5 5 5 5 6 5 5 5 6 5 5 5 5 5 5 6 5 5 5 5 5 5 6 5 5 5 5 5 5 5 5 5 5 5 5 5 5 6 5 6 5 5 5 6 5 5 6 5 6 5 6 5 5 6 5 5 5 5 5 5 6 5 5 5 5 6 5 5 5 5 5 5 6 5 5 5 5 5 5 5 5 5 5 6 5 5 5 5 5 5 5 5 5 5 5 5 5 5 5 5 5 5 5 6 6 5 5 5 6 5 5 6 5 5 6 5 5 6 5 5 6 6 5 5 5 5 6 5 5 5 5 5 5 5 5 5 5 5 6 6 5 5 5 6 5 6 5 6 5 5 5 5 5 6 5 5 6 5 6 5 5 6 6 6 5 5 5 5 6 5 5 6 5 6 5 5 6 5 5 5 5 5 5 5 5 6 5 6 6 5 5 5 5 5 6 6 5 5 5 6 6 5 5 5 5 5 5 5 5 6 5 6 5 5 5 5 5 5 5 5 5 5 5 5 5 5 5 5 5 5 5 5 5 5 5 5 5 5 5 5 5 6 5 5 5 5 5 5 5 5 5 5 5 5 5 5 5 6 5 5 6 5 5 5 5 5 6 5 5 5 5 5 5 5 5 5 5 5 5 5 6 5 5 5 5 5 5 5 5 5 6 5 5 6 5 5 5 5 6 6 6 5 5 5 5 5 6 5 5 5 
</DataArray>
<DataArray type="Float64" Name="stress" NumberOfComponents="9" format="ascii">
3730860466.0337524 -6207599732.2752075 0 -6207599732.2752075 -3142933.4306796868 0 0 0 0 5978433.4307861328 -1326106279.2661743 0 -1326106279.2661743 2194149752.5672607 0 0 0 0 2854238.301671654 -8395906.8689935654 0 -8395906.8689935654 3446231.5098569542 0 0 0 0 -3133323318.4817505 -4225153195.5782471 0 -4225153195.5782471 1871033967.9676819 0 0 0 0 744440553.73495483 -6346464692.4047546 0 -6346464692.4047546 1346228.490447998 0 0 0 0 762445654.46992493 -4810297432.0585175 0 -4810297432.0585175 1433781681.8224182 0 0 0 0 2297620215.9004211 -3461532267.8495941 0 -3461532267.8495941 1944467449.1434956 0 0 0 0 3218797.6134742424 -8218243.5463891625 0 -8218243.5463891625 3273934.2568883896 0 0 0 0 5641289100.0273743 -5038357751.9174118 0 -5038357751.9174118 409230004.42211914 0 0 0 0 1952174298.5822449 -5564981118.5124817 0 -5564981118.5124817 510427389.36865997 0 0 0 0 1964887335.0845728 -4062969164.1531773 0 -4062969164.1531773 982125393.14923096 0 0 0 0 617047128.3526001 -4265050398.267395 0 -4265050398.267395 1384693824.1365814 0 0 0 0 523839176.14877319 -4813365626.8702393 0 -4813365626.8702393 1871533519.3321838 0 0 0 0 539551707.25997925 -4954005816.0776062 0 -4954005816.0776062 3110839521.5956726 0 0 0 0 12839838.61517334 -5839226194.2117081 0 -5839226194.2117081 1775269869.519516 0 0 0 0 -602068171.75723267 -4318691625.9631195 0 -4318691625.9631195 3083914504.309288 0 0 0 0 768047340.69464111 -3877119163.5787048 0 -3877119163.5787048 1897792167.1679783 0 0 0 0 -748638036.62017822 -3505702285.7770996 0 -3505702285.7770996 1951999219.9314289 0 0 0 0 -998098560.20035553 -2035593726.5344772 0 -2035593726.5344772 439771830.33830261 0 0 0 0 -3423906452.8845215 -3394112553.7422714 0 -3394112553.7422714 2807779894.6863403 0 0 0 0 1420230.3116546571 -3962908.9846443981 0 -3962908.9846443981 3573632.4568696469 0 0 0 0 2830315510.5858459 -3303292731.9259186 0 -3303292731.9259186 -545399173.23213196 0 0 0 0 1212876040.3026733 -5131455995.0495758 0 -5131455995.0495758 733924043.45809937 0 0 0 0 2008623582.4266357 -4858961432.5744171 0 -4858961432.5744171 767137661.51521683 0 0 0 0 3204913776.2866211 -5981550810.8806686 0 -5981550810.8806686 157021.68673706055 0 0 0 0 2568946.0995583273 -5625479.508313708 0 -5625479.508313708 2988803.724445641 0 0 0 0 -2490808895.0004807 -1953096964.1230392 0 -1953096964.1230392 1104856961.1200867 0 0 0 0 6535974170.9823914 -4285481714.503624 0 -4285481714.503624 -946208044.15843201 0 0 0 0 317444123.90101624 -2423216208.5716248 0 -2423216208.5716248 -1456143.3034210205 0 0 0 0 3497501248.9313354 -1276506337.5650787 0 -1276506337.5650787 -746611988.052948 0 0 0 0 3498920416.7151222 -2568962703.0555 0 -2568962703.0555 803577036.00079346 0 0 0 0 -98379866.808242798 -553088193.53981781 0 -553088193.53981781 169300095.51760864 0 0 0 0 3976600718.5155182 -2196534163.7630081 0 -2196534163.7630081 1017854879.989502 0 0 0 0 1844829.5329184085 -1164206.8726371229 0 -1164206.8726371229 299335.41202364862 0 0 0 0 4053093492.6824036 -1984933143.5834351 0 -1984933143.5834351 565512237.69020081 0 0 0 0 4071697326.0789795 -2350352509.7693176 0 -2350352509.7693176 506785.3426572826 0 0 0 0 3540598332.9864502 -2142017030.3673553 0 -2142017030.3673553 1470979216.1363525 0 0 0 0 4714681437.1429138 -4354859626.0934143 0 -4354859626.0934143 1701808448.2917919 0 0 0 0 1938970412.6029663 -326968556.65737915 0 -326968556.65737915 -662879098.2549057 0 0 0 0 1333528405.3084717 289429972.42398071 0 289429972.42398071 -316344229.88839722 0 0 0 0 1947671351.4196472 -85285985.216461182 0 -85285985.216461182 -302362692.93408203 0 0 0 0 514074681.00969315 -634857621.74925041 0 -634857621.74925041 166552714.52758789 0 0 0 0 466303.46810927987 -3744420.6523128152 0 -3744420.6523128152 4903758.388651222 0 0 0 0 82799884.345760345 962922054.31132889 0 962922054.31132889 -451733978.28674316 0 0 0 0 -273402288.92474365 -40075913.939437866 0 -40075913.939437866 -102194635.03858948 0 0 0 0 1534794103.9618225 104337802.95915222 0 104337802.95915222 -379461511.67565918 0 0 0 0 -34786034.956359863 -214459489.07749939 0 -214459489.07749939 -65584315.026885986 0 0 0 0 1560262141.8044128 267401764.36277771 0 267401764.36277771 634769160.00643921 0 0 0 0 3460248203.1215057 -1018048012.7535782 0 -1018048012.7535782 -79512030.07989502 0 0 0 0 5049236068.0196838 -4130045336.2109909 0 -4130045336.2109909 2193564623.2084808 0 0 0 0 4934812966.5614929 -2411371229.0834808 0 -2411371229.0834808 -1015391226.8610077 0 0 0 0 5218480757.1207275 -4876961724.7775574 0 -4876961724.7775574 3257313811.0897341 0 0 0 0 3400616856.3914032 -3083746690.645462 0 -3083746690.645462 3250911758.9700012 0 0 0 0 -1042570928.942749 1042931237.4364777 0 1042931237.4364777 -525182334.69412231 0 0 0 0 -1855261.673309058 -5627656.2694737166 0 -5627656.2694737166 9633790.7470056862 0 0 0 0 1632781.6884696484 -958072.64803054929 0 -958072.64803054929 866489.1890489012 0 0 0 0 4096797101.8782139 -4399722344.1945486 0 -4399722344.1945486 3313760908.8050537 0 0 0 0 4121955216.3729553 -4724232475.030365 0 -4724232475.030365 4370867693.3917236 0 0 0 0 1504631063.965271 -2232439142.3036804 0 -2232439142.3036804 1922690951.7843781 0 0 0 0 1141756814.0325623 -2179175305.7637177 0 -2179175305.7637177 501151012.81306458 0 0 0 0 1016499763.9230347 -2888585018.2349854 0 -2888585018.2349854 1237779664.1445618 0 0 0 0 -1651117306.9515762 124307105.33356285 0 124307105.33356285 1110859755.8399048 0 0 0 0 461510505.66235352 290203702.75527954 0 290203702.75527954 -1094117512.164093 0 0 0 0 -595677390.1583252 -1081734571.8328171 0 -1081734571.8328171 302339333.6272583 0 0 0 0 527415.43432214484 -13075728.02568002 0 -13075728.02568002 15699118.492620647 0 0 0 0 295497746.70874023 -861852606.58615112 0 -861852606.58615112 -733508228.93005371 0 0 0 0 -1098474108.2402649 -296794094.17027283 0 -296794094.17027283 -395576034.09670258 0 0 0 0 -1437993361.0674057 -1298042198.2596779 0 -1298042198.2596779 258215141.69317627 0 0 0 0 -546180352.9914856 -2081770204.1098671 0 -2081770204.1098671 831716320.80664062 0 0 0 0 4038849084.5463257 -380013078.96611023 0 -380013078.96611023 759235660.25073242 0 0 0 0 2633464482.5099487 -992541063.70541382 0 -992541063.70541382 727973754.44692993 0 0 0 0 1512557183.0665741 387085239.22418976 0 387085239.22418976 322484081.98138428 0 0 0 0 -321599187.1105957 100575143.02963257 0 100575143.02963257 760501368.01409912 0 0 0 0 1317589973.7937317 -1958146539.0841675 0 -1958146539.0841675 958084578.03652191 0 0 0 0 1823182704.5579529 -1069612513.282074 0 -1069612513.282074 1146399436.1558533 0 0 0 0 712355983.40783691 393045803.13163757 0 393045803.13163757 -394685429.21617126 0 0 0 0 1919577309.8228302 -684422335.64141846 0 -684422335.64141846 2668700529.9165039 0 0 0 0 4437986172.9562683 -1475181241.0498962 0 -1475181241.0498962 1191232221.7925415 0 0 0 0 4123677511.8472443 -829824228.02240753 0 -829824228.02240753 835652346.38348389 0 0 0 0 2813921998.0289612 -2246876694.2989044 0 -2246876694.2989044 1991050277.5888672 0 0 0 0 2001324200.5747833 -1158549005.3752594 0 -1158549005.3752594 614903078.74053955 0 0 0 0 2690812778.1891174 -1025833336.9823151 0 -1025833336.9823151 367369854.93113708 0 0 0 0 2621897773.2527771 -1999066235.3531494 0 -1999066235.3531494 -419138251.29272461 0 0 0 0 2281531049.8441162 -2202801974.5821075 0 -2202801974.5821075 659255696.57879448 0 0 0 0 2279583261.97159 -710492173.4685508 0 -710492173.4685508 -37942127.692932129 0 0 0 0 -2838052000.5272522 -1056297110.7614975 0 -1056297110.7614975 5357064.7609558105 0 0 0 0 -56789554.004302979 -1122084211.685524 0 -1122084211.685524 1048623121.7528687 0 0 0 0 732507.70329762064 -12708817.657104537 0 -12708817.657104537 12675754.939458907 0 0 0 0 -3997502271.4405212 -765768548.02584839 0 -765768548.02584839 -606400167.72151947 0 0 0 0 -1853798775.5400696 -1190293621.5190887 0 -1190293621.5190887 -941811918.41017914 0 0 0 0 -1641413867.6664391 -1772677023.2636395 0 -1772677023.2636395 -802228598.20227051 0 0 0 0 -1966038517.2937012 -680935647.66017151 0 -680935647.66017151 -786627931.02690125 0 0 0 0 -598430247.96973419 -1815816876.4715538 0 -1815816876.4715538 -313917524.10406494 0 0 0 0 -1066451063.4026642 -1178857638.3468399 0 -1178857638.3468399 -190254297.07164001 0 0 0 0 -896219917.65936279 -1366723874.416008 0 -1366723874.416008 1200463807.5379944 0 0 0 0 -418661969.11010742 -926860876.54016113 0 -926860876.54016113 -886890769.16762543 0 0 0 0 -300617909.24069214 -1179741742.0823669 0 -1179741742.0823669 -673173237.96208191 0 0 0 0 -583541882.57998657 -990244044.19802856 0 -990244044.19802856 -448085647.77233887 0 0 0 0 -591328060.42861938 -842129096.43110657 0 -842129096.43110657 -84748084.481750488 0 0 0 0 -1797735.8330719452 -9545318.5815775841 0 -9545318.5815775841 19770745.294097826 0 0 0 0 5587204.9868927002 366098662.61974335 0 366098662.61974335 -526311099.45562744 0 0 0 0 -267513353.62945557 81931678.242099762 0 81931678.242099762 -24460860.808288574 0 0 0 0 -1196645130.7597351 -793875807.71894073 0 -793875807.71894073 -410587080.02929688 0 0 0 0 -532593.85688827746 -2554915.4437405318 0 -2554915.4437405318 7676495.1181406379 0 0 0 0 -1192787783.2597046 57531141.725128174 0 57531141.725128174 -216436265.64442444 0 0 0 0 3031104623.6576538 -3549564248.089241 0 -3549564248.089241 4276109708.9880676 0 0 0 0 -3362190787.0022583 300274917.84898376 0 300274917.84898376 2981049319.0869751 0 0 0 0 -726102690.67993164 -1224802744.1719666 0 -1224802744.1719666 149762163.12361145 0 0 0 0 -1119839236.1343689 -697819607.44329834 0 -697819607.44329834 2379566024.6328125 0 0 0 0 -1428355194.6461029 -1856811575.1935196 0 -1856811575.1935196 3070862552.0541992 0 0 0 0 -2772386606.7550354 -2075201584.6067047 0 -2075201584.6067047 7364055558.8921204 0 0 0 0 -1458220618.4603882 -1715367230.1483002 0 -1715367230.1483002 2506454271.2212238 0 0 0 0 568908089.70404053 -5571262698.9854126 0 -5571262698.9854126 5092243843.4779816 0 0 0 0 -1258824.7930908203 -4021382767.0194626 0 -4021382767.0194626 8247442366.8120422 0 0 0 0 1395858088.6368713 -4774882520.9424057 0 -4774882520.9424057 3740025033.8380737 0 0 0 0 817464664.66387939 -4241336353.1526489 0 -4241336353.1526489 3294644176.9634857 0 0 0 0 -212186938.6557312 -4386680252.9400711 0 -4386680252.9400711 3230795552.8800964 0 0 0 0 -793309869.09954071 -3821737834.9045639 0 -3821737834.9045639 2973505281.3832703 0 0 0 0 -252366642.95046997 -4893720612.8836212 0 -4893720612.8836212 4572586345.331543 0 0 0 0 -1145958701.5240021 -3685151734.7918625 0 -3685151734.7918625 2803235194.131134 0 0 0 0 -1151151477.933136 -3062125016.9658966 0 -3062125016.9658966 2074149597.7278748 0 0 0 0 -763287814.96963501 -3648615030.6443481 0 -3648615030.6443481 2805523369.2407608 0 0 0 0 1982254379.6861725 -4071265006.0266171 0 -4071265006.0266171 1851004563.2688904 0 0 0 0 -149966503.77999878 -3426670348.9410553 0 -3426670348.9410553 1725594873.8029747 0 0 0 0 -295971696.83865356 -3224099600.563736 0 -3224099600.563736 1444815021.1873169 0 0 0 0 -495971863.00363159 -2334224938.4868164 0 -2334224938.4868164 358137032.2617569 0 0 0 0 -939234468.10711288 -2222220452.0239992 0 -2222220452.0239992 1297100546.9089661 0 0 0 0 -884292495.72235489 -2704463879.3455133 0 -2704463879.3455133 2370523786.6173096 0 0 0 0 -798314642.71118164 -2072231713.6817627 0 -2072231713.6817627 1081216806.9551277 0 0 0 0 -1107161838.4728699 -3567518940.4541779 0 -3567518940.4541779 3725204531.1490784 0 0 0 0 15417390.069160461 -33120493.054481506 0 -33120493.054481506 7769379.0241699219 0 0 0 0 1169915.3360137939 -57693330.021118164 0 -57693330.021118164 49238701.348876953 0 0 0 0 68092338.979629517 -120791658.94184875 0 -120791658.94184875 152042533.50646973 0 0 0 0 4469633.6368408203 -14539236.65020752 0 -14539236.65020752 108776686.52606201 0 0 0 0 2793930.7541999817 -20541911.809638977 0 -20541911.809638977 136983727.65838623 0 0 0 0 -138572696.00089264 -64598469.654678345 0 -64598469.654678345 97447320.146453857 0 0 0 0 -40894959.335449219 7816652.2850189209 0 7816652.2850189209 101679755.44192505 0 0 0 0 -94388049.293273926 -2581565.6480407715 0 -2581565.6480407715 184418276.35229492 0 0 0 0 -372556524.42132568 -259003627.08708191 0 -259003627.08708191 -1323620.0368652344 0 0 0 0 -58167910.879859924 -456453920.57270813 0 -456453920.57270813 -51105433.691650391 0 0 0 0 22929704.383209229 -67063273.141853333 0 -67063273.141853333 -111577672.43243408 0 0 0 0 90440381.239402771 -248796825.594944 0 -248796825.594944 367568895.68270874 0 0 0 0 510463834.53253937 -353443956.4426651 0 -353443956.4426651 -20932110.271194458 0 0 0 0 218290152.28871155 -223103237.08899689 0 -223103237.08899689 659075.56324768066 0 0 0 0 524335125.16359806 -760698945.97315335 0 -760698945.97315335 749051115.61169434 0 0 0 0 286255783.16961288 -317131213.75532341 0 -317131213.75532341 252902552.14399719 0 0 0 0 104902083.84036255 57068712.479278564 0 57068712.479278564 195327284.48590088 0 0 0 0 90839553.617340088 51122859.910217285 0 51122859.910217285 33594889.607513428 0 0 0 0 -126896473.05076599 -109074377.00939941 0 -109074377.00939941 219154282.06092453 0 0 0 0 -1230991.2973344997 -1315367.3085824139 0 -1315367.3085824139 -1580734.6652312726 0 0 0 0 -539146223.59275818 -133302423.04937744 0 -133302423.04937744 665424702.89028931 0 0 0 0 3986158.2113771737 -1298549.816341266 0 -1298549.816341266 5172625.0900298357 0 0 0 0 596945642.84912109 -1474688381.9108124 0 -1474688381.9108124 1840897289.9047241 0 0 0 0 575281663.93806458 -123243234.97476959 0 -123243234.97476959 377122899.53282166 0 0 0 0 1584096269.1242065 -586137963.51637268 0 -586137963.51637268 354631.578125 0 0 0 0 1819837825.2765465 -1076638812.199585 0 -1076638812.199585 201189649.85498047 0 0 0 0 2844472843.8100891 -721578780.52456665 0 -721578780.52456665 -747544.42035885307 0 0 0 0 3449804062.0274811 -1460655389.5933838 0 -1460655389.5933838 230283524.91545105 0 0 0 0 3234907083.602066 -407168210.19158936 0 -407168210.19158936 222782769.64245605 0 0 0 0 2876455663.5283203 -755720320.83966064 0 -755720320.83966064 -84831933.526000977 0 0 0 0 2596855885.1281128 -526578531.13534546 0 -526578531.13534546 -134997512.49798584 0 0 0 0 2486481127.6377563 -668280356.81887817 0 -668280356.81887817 13070781.92578125 0 0 0 0 2690338781.5800781 -652630914.97161865 0 -652630914.97161865 1445984.2924228429 0 0 0 0 1470183635.0488892 -430244765.77325439 0 -430244765.77325439 88970094.234100342 0 0 0 0 1836092336.6469727 -481596501.54011536 0 -481596501.54011536 145701038.31278992 0 0 0 0 2610241123.6713562 -195507030.38211441 0 -195507030.38211441 -144716169.65301514 0 0 0 0 2676478361.4421692 -1371929929.6129761 0 -1371929929.6129761 741667358.9836731 0 0 0 0 2822449187.2986755 -436870000.14616394 0 -436870000.14616394 -105130508.58511353 0 0 0 0 2768344181.2043762 -1046850652.5385284 0 -1046850652.5385284 1592378921.3236389 0 0 0 0 3939231931.9621124 -2530792329.2256775 0 -2530792329.2256775 1293915194.2276497 0 0 0 0 5272957574.7408447 -1947188656.4791107 0 -1947188656.4791107 319017904.16033936 0 0 0 0 3160856775.4410095 -1410124179.5644684 0 -1410124179.5644684 255812936.89682007 0 0 0 0 3615015930.7189713 -1409478862.7099953 0 -1409478862.7099953 3458528.2951660156 0 0 0 0 3900784907.9565277 -1427870565.9938889 0 -1427870565.9938889 2987200777.6524963 0 0 0 0 5792200393.2211609 -1007285306.8743134 0 -1007285306.8743134 214655659.10588074 0 0 0 0 3711391588.5599365 -3379440844.9525146 0 -3379440844.9525146 2010548710.9363098 0 0 0 0 1820105405.3931351 -406808808.84885406 0 -406808808.84885406 -307837197.01568604 0 0 0 0 -773468519.15609741 -426145946.58827209 0 -426145946.58827209 1448868699.2601013 0 0 0 0 28058191.251024187 -10406743.630756631 0 -10406743.630756631 -3132371.7116307206 0 0 0 0 840091461.04013062 23627884.532791138 0 23627884.532791138 -628715075.08227539 0 0 0 0 9506177485.6443939 -1507732362.7128754 0 -1507732362.7128754 224784851.08843994 0 0 0 0 2689972.0259869993 443919.00495409966 0 443919.00495409966 -684656.66159422696 0 0 0 0 9257467757.7566528 -2203762063.3888092 0 -2203762063.3888092 1318243507.7773743 0 0 0 0 5034060.0812948495 -5720562.2374388427 0 -5720562.2374388427 1365743.3306566477 0 0 0 0 4458102724.9015484 -580192981.71906877 0 -580192981.71906877 2762317671.9067993 0 0 0 0 5899734976.4554443 -2408131696.8541565 0 -2408131696.8541565 2176924393.6273346 0 0 0 0 3438435955.4468384 2488029828.829422 0 2488029828.829422 1732939656.9227295 0 0 0 0 8669555420.9504089 1071660884.2484131 0 1071660884.2484131 -76182084.192077637 0 0 0 0 6173151617.8270264 3955189689.3086548 0 3955189689.3086548 1181754391.7418289 0 0 0 0 4120412726.1643066 534964608.41305542 0 534964608.41305542 76127588.410705566 0 0 0 0 4982564314.4560242 173206732.15039062 0 173206732.15039062 174047455.41339111 0 0 0 0 3616539420.9833984 -1605435254.3302612 0 -1605435254.3302612 514974376.71303558 0 0 0 0 2369663480.2582397 -155530298.724823 0 -155530298.724823 -149354239.72862244 0 0 0 0 3092228871.4009705 -662333783.9806366 0 -662333783.9806366 -816703797.49816895 0 0 0 0 3205193505.2271347 1321558695.3723831 0 1321558695.3723831 137100499.72250366 0 0 0 0 3033427204.00914 1159786520.062294 0 1159786520.062294 591440071.51797485 0 0 0 0 73507290.603088379 -14254913.299728394 0 -14254913.299728394 -16658484.511230469 0 0 0 0 62930051.078918457 -12480368.297698975 0 -12480368.297698975 -12949527.308914185 0 0 0 0 15505558.889176995 -5684943.3339826837 0 -5684943.3339826837 -17732925.469933674 0 0 0 0 52043723.016174316 -19695577.464035034 0 -19695577.464035034 -9215675.9196166992 0 0 0 0 27551419.347764075 -17311327.053759404 0 -17311327.053759404 -22505626.409305319 0 0 0 0 65819248.44859314 -23617331.171440125 0 -23617331.171440125 -12526510.37399292 0 0 0 0 92867393.680786133 26727736.193389893 0 26727736.193389893 14471665.897018433 0 0 0 0 139300949.58807373 -4168012.4938964844 0 -4168012.4938964844 -39557252.098632812 0 0 0 0 121214931.66085815 -33792659.388244629 0 -33792659.388244629 -19544139.96762085 0 0 0 0 68313132.898651123 -14446943.45149231 0 -14446943.45149231 -34068900.679420471 0 0 0 0 99729010.816772461 -9279611.3509140015 0 -9279611.3509140015 -63196513.140823364 0 0 0 0 78981537.752502441 -75745134.024085999 0 -75745134.024085999 -108588879.83123779 0 0 0 0 50543108.00588429 -28698240.692833826 0 -28698240.692833826 -6682531.4952638503 0 0 0 0 414368820.94384766 -841982844.55108643 0 -841982844.55108643 1136792791.5072479 0 0 0 0 15732518.817565307 -14328857.369166128 0 -14328857.369166128 10017585.799129516 0 0 0 0 -138757034.39493942 -202352609.28054237 0 -202352609.28054237 -51658870.734283447 0 0 0 0 58633125.428863525 -59466057.699462891 0 -59466057.699462891 -115722948.58757019 0 0 0 0 346839937.72824097 -208327763.11927795 0 -208327763.11927795 -228581756.5519104 0 0 0 0 362397004.38146591 156286652.8478837 0 156286652.8478837 -4453840.8008422852 0 0 0 0 133419923.30155945 -52333774.913330078 0 -52333774.913330078 -97185226.5027771 0 0 0 0 21394623.023254395 -144893177.05688477 0 -144893177.05688477 -108041695.62605095 0 0 0 0 12335236.57676059 -6330655.670828335 0 -6330655.670828335 -22576735.925927967 0 0 0 0 -443407.0221862793 -46011504.07963562 0 -46011504.07963562 -21812796.457893372 0 0 0 0 106432508.01313782 16037594.860687256 0 16037594.860687256 -124808921.78317261 0 0 0 0 65280795.308836266 -41298022.931450129 0 -41298022.931450129 -11519138.466981586 0 0 0 0 105911826.74212646 -59281171.476753235 0 -59281171.476753235 -42036550.423294067 0 0 0 0 80010288.913627625 -52374456.047948837 0 -52374456.047948837 -26358671.005050659 0 0 0 0 164728580.38224792 -77265761.891506195 0 -77265761.891506195 -24991770.153411865 0 0 0 0 125694290.30230713 -108833760.00147247 0 -108833760.00147247 6525017.1552443504 0 0 0 0 108870227.25799561 -96361106.393013 0 -96361106.393013 13850639.768630981 0 0 0 0 82795225.403579712 -88359319.055055618 0 -88359319.055055618 7302167.8829345703 0 0 0 0 20580221.996828496 -56550699.36222855 0 -56550699.36222855 -2857890.0970302522 0 0 0 0 -40240908.529466882 -64917581.795377329 0 -64917581.795377329 12584352.108742744 0 0 0 0 -92762849.991575241 -45530747.541435242 0 -45530747.541435242 154180836.80656433 0 0 0 0 -1829678959.7856903 479475842.82756042 0 479475842.82756042 335761312.46789551 0 0 0 0 -18705116.517038442 -4659243.8629137501 0 -4659243.8629137501 4763096.3895130157 0 0 0 0 -336571491.62732697 -807450707.63275146 0 -807450707.63275146 -696705791.5300293 0 0 0 0 -10332112.993532628 -32468442.037029609 0 -32468442.037029609 36532.153321385384 0 0 0 0 -1391530532.538372 995222450.90552902 0 995222450.90552902 524448898.53128052 0 0 0 0 480475.23715563118 -10072533.492073677 0 -10072533.492073677 -2495332.607480824 0 0 0 0 4127561.9700166583 -36764940.070365012 0 -36764940.070365012 -6679604.6755456179 0 0 0 0 22412665.618133545 -52021661.617767334 0 -52021661.617767334 -68076869.880348206 0 0 0 0 -7005509.7375946045 -28331874.266624451 0 -28331874.266624451 -1979583.7249755859 0 0 0 0 37233442.206604004 -11028644.898834229 0 -11028644.898834229 -20913172.526641846 0 0 0 0 -4854680.7101656087 -28151387.950692274 0 -28151387.950692274 -20286341.738034934 0 0 0 0 2074480.0995178223 -20129152.36756897 0 -20129152.36756897 21142881.537414551 0 0 0 0 -1601385851.2200012 -118269064.22593689 0 -118269064.22593689 -23769193.829742432 0 0 0 0 -265323096.54349518 -598707064.98249435 0 -598707064.98249435 -63593782.737915039 0 0 0 0 -99379620.291999817 -601841074.2142334 0 -601841074.2142334 -270803067.99687958 0 0 0 0 -49772024.335662842 -472064510.23860931 0 -472064510.23860931 -170213723.97615814 0 0 0 0 -45948528.716886997 -441105649.80955601 0 -441105649.80955601 -52232641.342895508 0 0 0 0 -343165937.62863159 -504810264.17047119 0 -504810264.17047119 210942675.37609863 0 0 0 0 -264851033.02906799 -565425217.66519165 0 -565425217.66519165 183577807.94380188 0 0 0 0 -397510990.19309235 -578799246.72473145 0 -578799246.72473145 558116523.31877136 0 0 0 0 -1061292775.7802582 -439336027.15067291 0 -439336027.15067291 554911950.2280426 0 0 0 0 -536910595.47550583 6420440.8531417847 0 6420440.8531417847 187001699.74552917 0 0 0 0 115537435.75489426 -348637572.30013275 0 -348637572.30013275 231607736.64998245 0 0 0 0 -194590594.48952389 -276102223.87590027 0 -276102223.87590027 268967759.2807312 0 0 0 0 -50076619.98359216 -64639791.105015516 0 -64639791.105015516 9292743.2991190553 0 0 0 0 211369721.93200684 -143102222.9125061 0 -143102222.9125061 30416649.939559937 0 0 0 0 245743834.99572754 -147675033.07283783 0 -147675033.07283783 21125028.077941895 0 0 0 0 161068708.31056213 -75382749.576545715 0 -75382749.576545715 -907982.22579956055 0 0 0 0 279697375.1081543 -122863897.11329651 0 -122863897.11329651 13267108.342895508 0 0 0 0 364788048.59072876 -198629368.93754578 0 -198629368.93754578 58460932.739929199 0 0 0 0 225491956.45570374 -133309431.139534 0 -133309431.139534 37018090.807952881 0 0 0 0 498940634.400177 -194822279.1300354 0 -194822279.1300354 31815726.270446777 0 0 0 0 -51036487.620905064 -66230195.52758158 0 -66230195.52758158 6284699.4971351773 0 0 0 0 443233141.82556152 -163331442.06681824 0 -163331442.06681824 99515903.670013428 0 0 0 0 281233504.38237762 -275304943.83071899 0 -275304943.83071899 21422524.240097046 0 0 0 0 412243754.99248028 -572872454.40567017 0 -572872454.40567017 114816891.6103363 0 0 0 0 249918918.33217621 -379641257.97214508 0 -379641257.97214508 -382429718.70458984 0 0 0 0 253945113.95294571 -283704898.12970734 0 -283704898.12970734 -361059799.98326111 0 0 0 0 597033805.56463242 -355596159.93566132 0 -355596159.93566132 -581122730.41558838 0 0 0 0 308636220.45357513 -157432470.76704407 0 -157432470.76704407 -54851638.413703918 0 0 0 0 -44243837.631679311 -69846571.392700016 0 -69846571.392700016 5290446.6329808533 0 0 0 0 -1288932728.0943298 -1270428776.3984375 0 -1270428776.3984375 20240918.883026123 0 0 0 0 572255299.45336914 -1071689945.6873932 0 -1071689945.6873932 -964739829.81626892 0 0 0 0 666134701.89080811 -122849496.88589478 0 -122849496.88589478 18530993.436767578 0 0 0 0 577441596.19763184 -209516234.7951355 0 -209516234.7951355 115393647.44882202 0 0 0 0 2366101.4957285337 -3608592.7950906232 0 -3608592.7950906232 -2917982.3964511156 0 0 0 0 -1297294321.50177 -912595599.8135376 0 -912595599.8135376 -1002592466.3183632 0 0 0 0 264748180.60455322 103289410.81544495 0 103289410.81544495 -864524722.68338966 0 0 0 0 -887503415.58052063 -186090622.24927139 0 -186090622.24927139 -692455782.88479614 0 0 0 0 196489525.77203369 -81260956.57232666 0 -81260956.57232666 -881983304.1693573 0 0 0 0 217126038.06402588 215556545.65008545 0 215556545.65008545 -414127449.64479065 0 0 0 0 -1847153895.6417084 -1787258226.3273697 0 -1787258226.3273697 1042117887.460968 0 0 0 0 4919750.8075863868 -4832416.9248085767 0 -4832416.9248085767 -5640098.7275776118 0 0 0 0 -161822477.99734497 -1248831645.9739075 0 -1248831645.9739075 -803745729.53149414 0 0 0 0 556318079.77407837 -49738254.886672974 0 -49738254.886672974 -19586497.305206299 0 0 0 0 351758065.05432129 17365271.34236145 0 17365271.34236145 -12261804.826246262 0 0 0 0 6999132.9555170052 -6963162.1556758881 0 -6963162.1556758881 -8345679.3623617142 0 0 0 0 244214591.53616333 -31294346.429092407 0 -31294346.429092407 11188993.686065674 0 0 0 0 122114320.63284302 -14884513.231132507 0 -14884513.231132507 -12160032.27520752 0 0 0 0 250348439.1938591 -5495803.8842563629 0 -5495803.8842563629 -22983313.628631592 0 0 0 0 148830229.34651184 6811131.5080337524 0 6811131.5080337524 -11292326.195678711 0 0 0 0 204072529.80328369 -49874097.853256226 0 -49874097.853256226 -20944492.640615463 0 0 0 0 32263930.174468994 -56581088.050453186 0 -56581088.050453186 -3136517.3564147949 0 0 0 0 201960853.09011841 -82939435.938423157 0 -82939435.938423157 -110932868.68450928 0 0 0 0 13756038.120524477 -8975865.5550508574 0 -8975865.5550508574 -14364840.122272968 0 0 0 0 234826969.22573853 21235712.33089447 0 21235712.33089447 -79127249.382232666 0 0 0 0 545035.52757263184 49202528.343626022 0 49202528.343626022 183133635.60165405 0 0 0 0 2239328050.032135 -1806983619.1872864 0 -1806983619.1872864 -638691538.67255402 0 0 0 0 -1283048048.403656 -697169836.13208008 0 -697169836.13208008 2017174802.8199158 0 0 0 0 2182950183.4962463 -100642004.7414093 0 -100642004.7414093 -585484869.80047607 0 0 0 0 2341076541.2325745 -307848189.09170532 0 -307848189.09170532 -2198588805.5412598 0 0 0 0 10885293.775144376 -7371614.8468891457 0 -7371614.8468891457 -13365196.935372755 0 0 0 0 537771953.07275391 -607993984.56977844 0 -607993984.56977844 -811145806.17739105 0 0 0 0 2392152718.9385529 567051084.9491806 0 567051084.9491806 -3429659113.314209 0 0 0 0 2216679349.9143066 -2249500122.2097015 0 -2249500122.2097015 -4422832171.9292564 0 0 0 0 2065065316.5107422 572429626.52230835 0 572429626.52230835 -10470647595.731079 0 0 0 0 4182600920.4748993 -2423668060.9121628 0 -2423668060.9121628 -375587567.94319153 0 0 0 0 -1432950843.4360657 -2757616659.7347336 0 -2757616659.7347336 10376143262.419586 0 0 0 0 7997124.7026922554 -3661382.4753871486 0 -3661382.4753871486 220708.2829573265 0 0 0 0 1050560575.457489 345814167.1759491 0 345814167.1759491 879638686.10145569 0 0 0 0 41648360.554275513 -1966362677.5430794 0 -1966362677.5430794 16137665.405059814 0 0 0 0 1411673337.5709229 -981671774.82887268 0 -981671774.82887268 -997869749.89483643 0 0 0 0 50018801.439147949 -680514053.11288452 0 -680514053.11288452 -973974994.64096642 0 0 0 0 -832234577.67541504 -1633184885.8648529 0 -1633184885.8648529 -110869207.00608826 0 0 0 0 -1723873258.6247101 -1130430304.900444 0 -1130430304.900444 44999955.51461792 0 0 0 0 1298304087.4029694 -671581306.79478073 0 -671581306.79478073 606834575.29391479 0 0 0 0 3071201.4834328927 -2103691.1697084531 0 -2103691.1697084531 -8019492.3982411027 0 0 0 0 -703581976.61175537 -294418183.2227478 0 -294418183.2227478 -381889513.15223694 0 0 0 0 429234326.41204834 31294023.713912964 0 31294023.713912964 97002639.052505493 0 0 0 0 114084664.60821533 -793046289.29699707 0 -793046289.29699707 -783745913.99505615 0 0 0 0 -265277415.91723633 -739243955.27020264 0 -739243955.27020264 -761848321.72874451 0 0 0 0 207871016.62139893 -550881956.66963196 0 -550881956.66963196 -876910347.47451782 0 0 0 0 -89424131.909790039 -522803187.05838013 0 -522803187.05838013 -879367118.94511032 0 0 0 0 2148607.5899963379 -368229456.26605225 0 -368229456.26605225 -727449370.94024658 0 0 0 0 -95284578.570251465 -549124042.35951233 0 -549124042.35951233 -772587892.10339355 0 0 0 0 -653933143.89080048 -626669423.31390953 0 -626669423.31390953 -575479651.28070068 0 0 0 0 -176162698.65649414 -517470560.28320312 0 -517470560.28320312 -783709365.06230164 0 0 0 0 -285673344.7166748 -432673778.13928223 0 -432673778.13928223 -495248923.47885132 0 0 0 0 -158791623.88861084 -331830920.36990356 0 -331830920.36990356 -579247869.15864563 0 0 0 0 -50637612.272399902 -245897946.31136322 0 -245897946.31136322 -305347619.63424683 0 0 0 0 -180610848.31253052 -361331298.12632751 0 -361331298.12632751 -609400960.49194336 0 0 0 0 -23210020.151489258 -325366971.60267639 0 -325366971.60267639 -698974423.17687988 0 0 0 0 -74765121.751403809 -399128855.03057861 0 -399128855.03057861 -671904751.70175171 0 0 0 0 -100894632.9499054 -479397915.66160583 0 -479397915.66160583 -809431831.14431763 0 0 0 0 -51089914.125221252 -322176100.95057678 0 -322176100.95057678 -678009031.03063965 0 0 0 0 -14002008.746246338 -60880810.106811523 0 -60880810.106811523 -466316135.1831665 0 0 0 0 -17205805.263122559 -182604741.30918884 0 -182604741.30918884 -508783282.54940796 0 0 0 0 44884455.475143433 -34523344.065223694 0 -34523344.065223694 42446208.399490356 0 0 0 0 14027126.138547078 -13369637.423805386 0 -13369637.423805386 -27441780.268843979 0 0 0 0 1426117.5185699612 -3675516.0883651376 0 -3675516.0883651376 5423316.7407275736 0 0 0 0 332654165.00350952 245667722.46496582 0 245667722.46496582 -905351975.54153442 0 0 0 0 -829655.2785949707 -129216126.11138916 0 -129216126.11138916 -431359880.02049255 0 0 0 0 18041739.582794189 86215926.515964508 0 86215926.515964508 -446243166.66757202 0 0 0 0 -343883119.04541016 -97632175.630203247 0 -97632175.630203247 -288280723.90138245 0 0 0 0 -158279111.46463776 -497276799.38759995 0 -497276799.38759995 -56122326.180114746 0 0 0 0 21894662.101149917 -27431714.87397518 0 -27431714.87397518 -4433103.0520110354 0 0 0 0 -5159171.0065307617 20538604.595237732 0 20538604.595237732 43487609.375488281 0 0 0 0 58026244.785186768 -24566140.680969238 0 -24566140.680969238 -25809201.910797119 0 0 0 0 115199549.47628784 35696563.12670517 0 35696563.12670517 -57799719.879699707 0 0 0 0 40690994.789764404 53192255.222255707 0 53192255.222255707 -41534808.139862061 0 0 0 0 -27792545.44140625 -27682142.00743103 0 -27682142.00743103 -19653010.647838593 0 0 0 0 169554753.39328003 -78528119.304359436 0 -78528119.304359436 -188425717.36073303 0 0 0 0 -15233541.893554688 -74243134.41129303 0 -74243134.41129303 -15095430.104988098 0 0 0 0 16960513.728096038 -10083855.680094555 0 -10083855.680094555 -33549541.351280943 0 0 0 0 -71149844.944549561 63576761.479042053 0 63576761.479042053 167810269.04323578 0 0 0 0 16179418.962866932 -32369515.663087424 0 -32369515.663087424 -6319466.4581927955 0 0 0 0 -146561727.21734619 -163415150.9286499 0 -163415150.9286499 16368903.54296875 0 0 0 0 -84939669.225402832 -115245787.23023987 0 -115245787.23023987 -149683189.23321533 0 0 0 0 86115690.139343262 -58201459.848579407 0 -58201459.848579407 -132340881.89396667 0 0 0 0 42325263.828207687 -27869949.986153714 0 -27869949.986153714 -19870387.972427733 0 0 0 0 22395273.502563477 -86039346.22460556 0 -86039346.22460556 -74526957.880386353 0 0 0 0 67248635.600830078 -198875608.6632843 0 -198875608.6632843 -134340351.6529007 0 0 0 0 51762131.35534668 -13873669.211334229 0 -13873669.211334229 -10158737.495848656 0 0 0 0 15302350.362915486 1148252.026481593 0 1148252.026481593 -17000691.092828043 0 0 0 0 67423176.7293396 -96556612.154933929 0 -96556612.154933929 -255189947.16397858 0 0 0 0 191767.98917081952 -3202465.7268130928 0 -3202465.7268130928 3094263.038053561 0 0 0 0 58423111.178344727 -148191358.20393372 0 -148191358.20393372 -287011628.99475479 0 0 0 0 -3839448.1600341797 -5442266.1591453552 0 -5442266.1591453552 -358934990.2071991 0 0 0 0 -514731284.74139404 5412535.9624347687 0 5412535.9624347687 246506732.19160461 0 0 0 0 205750760.5211792 238181641.22302246 0 238181641.22302246 -29825679.902534485 0 0 0 0 245259288.56933594 -56172798.723091125 0 -56172798.723091125 -401367961.55935526 0 0 0 0 227917200.39952469 94087813.848664761 0 94087813.848664761 -404156062.60298157 0 0 0 0 -373410021.79628754 -793880901.31361389 0 -793880901.31361389 -757615181.88476562 0 0 0 0 37607416.547934301 -79781115.474782139 0 -79781115.474782139 16982067.78603898 0 0 0 0 -420728966.71882725 -575270392.41621208 0 -575270392.41621208 -419652370.70758057 0 0 0 0 50211978.14263916 -174255645.36814117 0 -174255645.36814117 -203076730.9425354 0 0 0 0 -107133744.62917328 -624834529.10864258 0 -624834529.10864258 -1003322960.077179 0 0 0 0 -142406585.64373016 -617910526.98758698 0 -617910526.98758698 -891825281.82583618 0 0 0 0 24385180.517597198 -527677368.97793579 0 -527677368.97793579 -830588686.53240967 0 0 0 0 -160307869.7097702 -420941785.49921417 0 -420941785.49921417 -832891711.94900513 0 0 0 0 -340259625.5847168 -959026605.23714447 0 -959026605.23714447 -815566595.00491333 0 0 0 0 -22688197.572973765 -74713663.21655196 0 -74713663.21655196 4446565.8799757361 0 0 0 0 -73893863.432388306 -462738566.00366211 0 -462738566.00366211 -839381354.0286026 0 0 0 0 -160998581.53831267 -479559677.85221362 0 -479559677.85221362 -704987997.90380859 0 0 0 0 -104976734.05717468 -533434984.49516296 0 -533434984.49516296 -996082701.15809631 0 0 0 0 -3116307.1146077663 -1588977.7426302359 0 -1588977.7426302359 -1443340.6802742481 0 0 0 0 106875724.19830322 235349024.8495636 0 235349024.8495636 81416524.687973022 0 0 0 0 -338135162.70220947 -907816086.17715454 0 -907816086.17715454 -2088061146.7419128 0 0 0 0 85805177.213348389 -19270740.860984802 0 -19270740.860984802 -905931160.96414185 0 0 0 0 -144989703.38867188 -626479372.53704834 0 -626479372.53704834 -1140815692.1435165 0 0 0 0 -459588802.98046875 -640062096.19555664 0 -640062096.19555664 -610042397.15881348 0 0 0 0 -617674396.50579834 -576568075.93434143 0 -576568075.93434143 -626423380.90436172 0 0 0 0 -349148220.89685059 -457020784.85237122 0 -457020784.85237122 -743177568.53005981 0 0 0 0 -342878467.02404785 -417694970.61065674 0 -417694970.61065674 -567754470.67550659 0 0 0 0 -411366747.05718994 -158469821.52844238 0 -158469821.52844238 -792203967.99691772 0 0 0 0 -533135780.29705811 -334728853.55581665 0 -334728853.55581665 -911466263.22372437 0 0 0 0 -607493841.8543396 -323161329.07473755 0 -323161329.07473755 -552855264.13952637 0 0 0 0 -552870335.23071289 -81839146.977119446 0 -81839146.977119446 -276495599.44372559 0 0 0 0 -621807125.80705261 -576450724.24681854 0 -576450724.24681854 -183918929.7166748 0 0 0 0 336939899.83384705 -564358082.9385376 0 -564358082.9385376 -725654201.22475433 0 0 0 0 1939810.5329818726 -574713356.03056335 0 -574713356.03056335 -713415590.21312714 0 0 0 0 275154303.37216187 -430844706.9063797 0 -430844706.9063797 -715674564.96021271 0 0 0 0 436728175.33516216 -258315438.65328407 0 -258315438.65328407 -623413717.39920044 0 0 0 0 289103180.29152679 -418682253.07723999 0 -418682253.07723999 -811258512.57008362 0 0 0 0 341385176.04945183 -372160512.89692307 0 -372160512.89692307 -789382322.18789673 0 0 0 0 277386238.6490097 -449680089.46746826 0 -449680089.46746826 -848588228.41867065 0 0 0 0 128819609.15470505 -476154140.60438538 0 -476154140.60438538 -818550325.09249878 0 0 0 0 353245984.80168533 -471445692.04497528 0 -471445692.04497528 -844113230.73492432 0 0 0 0 89709101.295631409 -433523382.28572083 0 -433523382.28572083 -823824856.39912796 0 0 0 0 -46089877.742607117 -483782192.23457336 0 -483782192.23457336 -756609129.38287354 0 0 0 0 31416298.528167725 -527585987.01502991 0 -527585987.01502991 -833108663.91991043 0 0 0 0 129151160.94192505 -419073067.35245514 0 -419073067.35245514 -753487174.59024048 0 0 0 0 168463393.83283997 -364843715.23986816 0 -364843715.23986816 -636847724.38865662 0 0 0 0 89720218.98576355 -469396801.17980957 0 -469396801.17980957 -742695494.30749512 0 0 0 0 -93720223.702217102 -573755863.17897034 0 -573755863.17897034 -773643566.38702774 0 0 0 0 -35513848.358963013 -428919673.50799561 0 -428919673.50799561 -570917038.79251099 0 0 0 0 4410456.651550293 -419759209.9552002 0 -419759209.9552002 -570518784.11757565 0 0 0 0 100526106.88608932 -117325149.13996887 0 -117325149.13996887 -253031429.50049591 0 0 0 0 54804289.891561501 -70471881.578557536 0 -70471881.578557536 11231001.77667556 0 0 0 0 -98632973.213554382 -199162907.98651123 0 -199162907.98651123 -150849970.98252869 0 0 0 0 -275367081.69203949 -405814404.68326569 0 -405814404.68326569 -240389090.06924438 0 0 0 0 88803103.731925964 -296633978.3184967 0 -296633978.3184967 -452791999.5135498 0 0 0 0 87765667.176616669 -287012653.54389191 0 -287012653.54389191 -408470919.67443848 0 0 0 0 7595302.8021202087 -393257976.84038544 0 -393257976.84038544 -446355226.36328125 0 0 0 0 163628997.34142303 -192348940.30570984 0 -192348940.30570984 -499960715.71588326 0 0 0 0 140047636.40804291 -148900366.47676086 0 -148900366.47676086 -354132327.09123993 0 0 0 0 173646306.39901733 -255323182.46572876 0 -255323182.46572876 -576884872.06292725 0 0 0 0 239893555.66599274 -227748674.27613068 0 -227748674.27613068 -634983014.11856079 0 0 0 0 167488088.8724823 -242615667.55470276 0 -242615667.55470276 -493139222.11891556 0 0 0 0 239192075.1090889 -333963705.58641052 0 -333963705.58641052 -771831047.68780518 0 0 0 0 179969733.94139099 -334170765.72303772 0 -334170765.72303772 -595230968.3205986 0 0 0 0 278872519.91609514 -388944419.81939375 0 -388944419.81939375 -846906747.79309082 0 0 0 0 308410330.65103912 -325862208.36040497 0 -325862208.36040497 -784588353.57246399 0 0 0 0 295788452.89807892 -206849731.32582855 0 -206849731.32582855 -809530723.08061218 0 0 0 0 315588783.25138855 -321938052.11865234 0 -321938052.11865234 -974184099.76283646 0 0 0 0 237727586.311409 -238415919.47101212 0 -238415919.47101212 -687319780.18135071 0 0 0 0 150618224.13967896 -36944972.184150696 0 -36944972.184150696 -561469876.16169357 0 0 0 0 210945748.7303009 71318827.257484436 0 71318827.257484436 -1168206862.2283173 0 0 0 0 184766983.91035461 133498083.194664 0 133498083.194664 -705544638.7183609 0 0 0 0 244108310.8289566 -136626379.08614349 0 -136626379.08614349 -1230406520.7108612 0 0 0 0 278311411.84284019 -267871343.95596313 0 -267871343.95596313 -958047050.24588013 0 0 0 0 150576501.40888977 -627555408.23703003 0 -627555408.23703003 -1203602244.5769043 0 0 0 0 286892854.42188263 -453451709.86403656 0 -453451709.86403656 -920515886.71972275 0 0 0 0 259094121.13856125 -429253638.97738647 0 -429253638.97738647 -878053563.36242676 0 0 0 0 148409989.71802998 -445477520.59061909 0 -445477520.59061909 -530376584.84255981 0 0 0 0 146152128.07581329 -461148518.86275482 0 -461148518.86275482 -529805055.49742126 0 0 0 0 24469346.207923889 -661370429.30923462 0 -661370429.30923462 -787922736.81796646 0 0 0 0 -31406223.14991951 -581747768.7429924 0 -581747768.7429924 -467561430.93812561 0 0 0 0 -101061272.42803764 -623292901.52338982 0 -623292901.52338982 -477984963.73709106 0 0 0 0 -504269296.08218384 -291068796.55581665 0 -291068796.55581665 -133011154.17800903 0 0 0 0 -413676986.11800385 434748336.98550415 0 434748336.98550415 -435161922.49026489 0 0 0 0 3028243.4319236875 -4659439.8906462491 0 -4659439.8906462491 5318300.6545188166 0 0 0 0 144322857.390625 -439974657.76141357 0 -439974657.76141357 -890343495.71463013 0 0 0 0 874497977.68057251 258078772.80039978 0 258078772.80039978 -1736069294.8632965 0 0 0 0 439654233.11431885 157931672.89801025 0 157931672.89801025 -634303177.48571014 0 0 0 0 227833505.34136963 316366893.30834198 0 316366893.30834198 1017159420.0358887 0 0 0 0 572907381.46798706 -306474975.3138504 0 -306474975.3138504 889603562.15753174 0 0 0 0 -114125272.28622437 -126106326.35882568 0 -126106326.35882568 2350859399.2615356 0 0 0 0 -364204846.10649109 -152817227.43309021 0 -152817227.43309021 1318491883.452652 0 0 0 0 -140968346.49066162 -206213361.52476501 0 -206213361.52476501 111948597.66345215 0 0 0 0 -18303188.275970459 -339557581.85397339 0 -339557581.85397339 810127443.15294647 0 0 0 0 -126558027.9960022 355825115.94275665 0 355825115.94275665 514781560.19198608 0 0 0 0 -272052745.76211548 -639190424.23706055 0 -639190424.23706055 1025464987.0656738 0 0 0 0 -126826048.8706665 -557457722.23487091 0 -557457722.23487091 72311952.800416946 0 0 0 0 -122411042.1472168 -192341387.1864624 0 -192341387.1864624 117466606.75666809 0 0 0 0 -75127123.116271973 -350898507.140625 0 -350898507.140625 52201073.255050659 0 0 0 0 -229374344.99411011 -399797994.12704468 0 -399797994.12704468 50364438.336273193 0 0 0 0 -351401054.03344727 -707899539.86993408 0 -707899539.86993408 -81780546.138832092 0 0 0 0 -358916.60995483398 -150607286.26277924 0 -150607286.26277924 -1222948686.3950806 0 0 0 0 -489238563.78775024 452242982.58885956 0 452242982.58885956 194222942.75036621 0 0 0 0 -110047340.82894897 -599719571.14949036 0 -599719571.14949036 -989011858.75448608 0 0 0 0 308824506.4197998 -10585747.14074707 0 -10585747.14074707 -1515581313.2435455 0 0 0 0 1546149.3371085823 426854.14126698673 0 426854.14126698673 1266234.9287551278 0 0 0 0 200838872.43939209 165835135.83659363 0 165835135.83659363 -1048360259.7776482 0 0 0 0 203153001.72399902 -82472553.483306885 0 -82472553.483306885 -751583844.07763672 0 0 0 0 -14810160.176971436 -25752108.647033691 0 -25752108.647033691 -728808805.52542114 0 0 0 0 37544799.170776367 -170818288.84365845 0 -170818288.84365845 105583191.71772766 0 0 0 0 -65961047.698669434 -66585543.918487549 0 -66585543.918487549 218173517.88825202 0 0 0 0 90748612.229660034 -40542422.870773315 0 -40542422.870773315 -95616339.107971191 0 0 0 0 -13762883.766784668 -4206700.9198150635 0 -4206700.9198150635 17508802.481254578 0 0 0 0 564349.37089580297 -2899076.5516664386 0 -2899076.5516664386 -1171747.1925694346 0 0 0 0 -93519835.425262451 -179217430.92863464 0 -179217430.92863464 -317439128.97106934 0 0 0 0 -77134.671234130859 43463774.580696106 0 43463774.580696106 113327125.29457092 0 0 0 0 157604843.86422729 -133197558.52597046 0 -133197558.52597046 -133912353.98043823 0 0 0 0 32579505.912719727 25797082.68270874 0 25797082.68270874 -127975861.0910387 0 0 0 0 -33205348.171813965 28998932.052192688 0 28998932.052192688 -88009102.521774292 0 0 0 0 2026059.6223412855 -8394135.3540072888 0 -8394135.3540072888 -3633536.7234472632 0 0 0 0 21366547.273864746 -9570021.0448532104 0 -9570021.0448532104 -87263571.304168701 0 0 0 0 28479778.977436066 -3213157.5373058319 0 -3213157.5373058319 7985015.8536376953 0 0 0 0 -6345015.5532229841 -3594504.678501416 0 -3594504.678501416 16463834.467873655 0 0 0 0 -403382165.22750854 -629217748.07315063 0 -629217748.07315063 -483264989.04176331 0 0 0 0 6642225.7201690078 -15632924.009973388 0 -15632924.009973388 14001946.640600339 0 0 0 0 -315499310.70743561 -772714540.93993378 0 -772714540.93993378 -958673321.14782715 0 0 0 0 -202783785.82667542 -873356190.83469391 0 -873356190.83469391 -1611809125.9386292 0 0 0 0 -215347589.17965698 -877432163.72805786 0 -877432163.72805786 -1257963004.6691589 0 0 0 0 -274019552.37884521 -607657210.60919189 0 -607657210.60919189 -1192891871.5704269 0 0 0 0 12126698.670081973 -17610328.377518278 0 -17610328.377518278 9536428.0096931607 0 0 0 0 9856516.1776161194 -95343502.814846039 0 -95343502.814846039 -19458612.140106201 0 0 0 0 107137996.5848999 32073890.030303955 0 32073890.030303955 1150697.8104858398 0 0 0 0 20168338.017003447 -17530520.441811513 0 -17530520.441811513 1928644.8297214657 0 0 0 0 -620654568.74100494 -894482939.96754837 0 -894482939.96754837 -1480828424.3811035 0 0 0 0 -39996286.814361572 -32346566.687828064 0 -32346566.687828064 44601371.242263794 0 0 0 0 -657404110.0424881 -1430990895.8038034 0 -1430990895.8038034 -2079298829.2378845 0 0 0 0 -619357952.42196655 -1126744449.5432434 0 -1126744449.5432434 -1052269851.4349823 0 0 0 0 -243416576.10945129 -544591006.03676605 0 -544591006.03676605 -1552752692.585083 0 0 0 0 -2606375489.636795 -2324792435.4118881 0 -2324792435.4118881 -1569857927.8088684 0 0 0 0 506697.79853438586 -5787622.6149007529 0 -5787622.6149007529 4219947.3010530174 0 0 0 0 -6012371311.6271973 -3263130592.2232056 0 -3263130592.2232056 -1039697340.8861084 0 0 0 0 -426002538.27334595 -2278598380.4931946 0 -2278598380.4931946 -3737853542.7966003 0 0 0 0 -1070176386.5499268 -2875814886.9974365 0 -2875814886.9974365 -2598865127.9217987 0 0 0 0 732747328.47341919 -2857183322.4665527 0 -2857183322.4665527 -3554118128.9076538 0 0 0 0 -906359540.24960327 -667959800.40953064 0 -667959800.40953064 -1538749309.2441864 0 0 0 0 -839239430.43516541 -1266953072.3069077 0 -1266953072.3069077 -2769467863.7080231 0 0 0 0 -1495751054.2016373 -2016443124.6818848 0 -2016443124.6818848 -3021136281.0492554 0 0 0 0 947411854.47735596 -1309041293.2387238 0 -1309041293.2387238 -366193527.31947136 0 0 0 0 1777520337.1703339 -1321421509.6694412 0 -1321421509.6694412 -3457303657.5582886 0 0 0 0 6376471425.6298218 -1450271189.398119 0 -1450271189.398119 -1963845097.4881287 0 0 0 0 3657203094.347168 -3795346367.5450516 0 -3795346367.5450516 -2326003659.0675354 0 0 0 0 -376247581.16464233 -1789554922.6656494 0 -1789554922.6656494 -2015439422.1626892 0 0 0 0 2453638637.1806335 -951436859.83700562 0 -951436859.83700562 -9824647043.5250244 0 0 0 0 288954487.10125732 783129447.66882324 0 783129447.66882324 -5704510008.8047638 0 0 0 0 -1284387540.6221008 -962152235.64274597 0 -962152235.64274597 -3409553333.4153194 0 0 0 0 1209019268.8914032 -2918808096.5262985 0 -2918808096.5262985 -7264961576.9122925 0 0 0 0 1033930587.7647705 -2830802652.2950974 0 -2830802652.2950974 1271498227.2615051 0 0 0 0 936968771.84945679 -3104911842.002121 0 -3104911842.002121 2974505170.3540497 0 0 0 0 -31051766.66293335 -2349126545.1332932 0 -2349126545.1332932 4894461593.8249969 0 0 0 0 20901587.059879795 -14475347.994278029 0 -14475347.994278029 1176729.4046173759 0 0 0 0 694600359.60510254 -2548157639.6298676 0 -2548157639.6298676 2405091588.2004089 0 0 0 0 153861390.34094238 -913020426.12591553 0 -913020426.12591553 2158117318.2560425 0 0 0 0 624434095.3862915 -2676374542.818222 0 -2676374542.818222 2533410965.2487488 0 0 0 0 269005060.72857666 -1931417799.1916809 0 -1931417799.1916809 2462278863.5435677 0 0 0 0 787902359.56964111 -2621719378.8194122 0 -2621719378.8194122 2247795675.7875519 0 0 0 0 768827035.88543606 -2080359660.7417295 0 -2080359660.7417295 1521819465.9145508 0 0 0 0 889571436.93103027 -1768869421.5948029 0 -1768869421.5948029 1878461105.3666382 0 0 0 0 626702278.45797729 -1244083009.2675934 0 -1244083009.2675934 859573567.52329636 0 0 0 0 -229776917.16835022 76768124.138916016 0 76768124.138916016 1042400237.7500916 0 0 0 0 421654923.59967041 783521525.13180542 0 783521525.13180542 -772997225.75959778 0 0 0 0 833905679.76422119 -1916581640.9830475 0 -1916581640.9830475 683658781.78158569 0 0 0 0 3064834.5163784474 3410685.3711778 0 3410685.3711778 -6288981.1989741102 0 0 0 0 25961300.82432656 -22991480.802633464 0 -22991480.802633464 4772829.0957059693 0 0 0 0 1446533984.1110229 -1628977759.8406525 0 -1628977759.8406525 -738093807.79718018 0 0 0 0 962453045.19354248 -288268824.00119019 0 -288268824.00119019 22970159.659185886 0 0 0 0 -276539742.81396484 -1865401056.1465759 0 -1865401056.1465759 2010354852.0213013 0 0 0 0 1473506856.9259796 -1077475861.3504295 0 -1077475861.3504295 1303409021.8280029 0 0 0 0 1010734086.5223999 -2409906988.8383179 0 -2409906988.8383179 1936103131.3855438 0 0 0 0 1830893513.9163208 -3124905974.5353394 0 -3124905974.5353394 2556410427.3693848 0 0 0 0 415261165.57678223 -2331289035.2960052 0 -2331289035.2960052 3511002137.4131775 0 0 0 0 3663852744.772583 -2703269309.8042603 0 -2703269309.8042603 2469981800.5314636 0 0 0 0 2070501045.3335266 -219444152.02728271 0 -219444152.02728271 3137869323.9369507 0 0 0 0 1706293913.6574097 -1048886648.1234741 0 -1048886648.1234741 1486228713.8085709 0 0 0 0 740901107.00579834 330331908.0409317 0 330331908.0409317 2552272458.2747498 0 0 0 0 1411025197.0801868 -1312188518.6653547 0 -1312188518.6653547 2602447023.2272339 0 0 0 0 1410956304.299015 -1230481867.5132818 0 -1230481867.5132818 6481991691.4185181 0 0 0 0 4183644653.2173462 -4033124471.3335724 0 -4033124471.3335724 3187661482.2797852 0 0 0 0 5605934347.2278442 -1023820135.3472443 0 -1023820135.3472443 3145430309.8053589 0 0 0 0 1831951701.1478271 -1664930769.4437561 0 -1664930769.4437561 4383691455.7741699 0 0 0 0 4338703182.781601 -4747712248.3115997 0 -4747712248.3115997 7599561774.3139038 0 0 0 0 1778408450.9473753 -3154402818.0533018 0 -3154402818.0533018 4007849734.080658 0 0 0 0 -491526256.29302979 -933294931.0663147 0 -933294931.0663147 5448179108.6719055 0 0 0 0 -141836176.3675499 2173041175.478137 0 2173041175.478137 1938561913.6081543 0 0 0 0 4980161468.8062134 383462747.38980103 0 383462747.38980103 -981599089.59030151 0 0 0 0 3383736.3109882325 -2978503.7845403925 0 -2978503.7845403925 265350.78005376458 0 0 0 0 872109632.9664917 -2838473576.705719 0 -2838473576.705719 9108537358.6961975 0 0 0 0 -87146.53767075669 -2554112.7938017547 0 -2554112.7938017547 1320086.4074210227 0 0 0 0 961869.57662840188 -11599999.197095614 0 -11599999.197095614 7579572.641993098 0 0 0 0 4453257.2922687531 -11038794.635455608 0 -11038794.635455608 -5961958.6194763184 0 0 0 0 657524919.54548836 -526720657.19697952 0 -526720657.19697952 833427333.48855591 0 0 0 0 6051968.6678512599 -11252616.344353065 0 -11252616.344353065 -5170880.1009679139 0 0 0 0 2421818006.9107361 -447745157.62188721 0 -447745157.62188721 -462671815.12481689 0 0 0 0 1663841501.3198547 -1586301655.9645901 0 -1586301655.9645901 852894242.75231934 0 0 0 0 2574476018.1116333 -1907384333.9407959 0 -1907384333.9407959 649535643.65162659 0 0 0 0 22669303.415588379 -973686391.55822754 0 -973686391.55822754 1328614872.7182617 0 0 0 0 678466011.83792114 -429992133.28669739 0 -429992133.28669739 13210909.859535217 0 0 0 0 -43008550.618286133 -89088449.688018799 0 -89088449.688018799 216840349.67266846 0 0 0 0 319941704.72363281 -917616230.97854614 0 -917616230.97854614 1311595958.2773132 0 0 0 0 -494518903.56488037 -386655329.43527222 0 -386655329.43527222 1804149800.8881683 0 0 0 0 117625426.21850586 -698372923.98400879 0 -698372923.98400879 1238972774.276825 0 0 0 0 357226036.50588989 -1786367936.113163 0 -1786367936.113163 2666758379.894165 0 0 0 0 -483960753.04943848 -301465110.31486511 0 -301465110.31486511 1647101967.8531494 0 0 0 0 -8691055.842956543 -767339877.79820251 0 -767339877.79820251 1740010157.3813477 0 0 0 0 670693304.65344238 -661906004.41305542 0 -661906004.41305542 515631346.42063904 0 0 0 0 8866143.8497594595 -12859366.971584287 0 -12859366.971584287 1741075.764806509 0 0 0 0 3277072.4869384766 -10657507.353790283 0 -10657507.353790283 -1330155.5464019775 0 0 0 0 3034325.9039001465 -5335743.6689987183 0 -5335743.6689987183 805947.02255249023 0 0 0 0 -423656840.82365417 397269977.55498028 0 397269977.55498028 20275684.733123779 0 0 0 0 210149287.93688965 -406014009.3134613 0 -406014009.3134613 -597682085.29203033 0 0 0 0 -68316840.940063477 -343309064.36047363 0 -343309064.36047363 8882479.2762756348 0 0 0 0 9391688.9815979004 230970188.18083191 0 230970188.18083191 -196352582.46352386 0 0 0 0 9855240.7466430664 -46854684.145530701 0 -46854684.145530701 50613263.340930939 0 0 0 0 11068565.903622553 -11089076.277608022 0 -11089076.277608022 2004225.2107459903 0 0 0 0 7882984.8665005714 -9173553.2285770252 0 -9173553.2285770252 -845154.4619436264 0 0 0 0 8968680.2124710083 -90481774.30830574 0 -90481774.30830574 37693835.476165771 0 0 0 0 -93537994.36328125 32623642.532592773 0 32623642.532592773 -12496049.063317776 0 0 0 0 37626091.6795578 -19123987.849842072 0 -19123987.849842072 -10593385.922973633 0 0 0 0 44029298.873016357 -113482137.76644135 0 -113482137.76644135 -74440685.110397339 0 0 0 0 758701606.89120483 -847922502.84584045 0 -847922502.84584045 664794772.40145874 0 0 0 0 1207952592.0657043 -1117549957.3198013 0 -1117549957.3198013 386064159.78307343 0 0 0 0 241155223.3041687 -286751454.5610733 0 -286751454.5610733 306731858.69908142 0 0 0 0 4506273.8522033691 -10892980.303291321 0 -10892980.303291321 6004798.8858413696 0 0 0 0 3409429.7900853311 -13140103.994450301 0 -13140103.994450301 470887.65787434578 0 0 0 0 4266262.1083789086 -9551331.3265324533 0 -9551331.3265324533 -5599832.0822626427 0 0 0 0 7667940.721862793 -31791383.87197113 0 -31791383.87197113 -89144166.198158264 0 0 0 0 141137110.60189819 -37815034.370353699 0 -37815034.370353699 -27864916.058998108 0 0 0 0 1082392273.3554993 -533089332.55820465 0 -533089332.55820465 293053534.02640533 0 0 0 0 -2199826.0347092599 -4403193.0435490906 0 -4403193.0435490906 1186163.1827343702 0 0 0 0 500673021.05184937 -1055315230.1976547 0 -1055315230.1976547 1104302679.8793564 0 0 0 0 840356302.64056396 -1092288587.8713684 0 -1092288587.8713684 762726287.37246704 0 0 0 0 -175323176.73849487 -1608340582.3495483 0 -1608340582.3495483 1359927918.9452362 0 0 0 0 276879658.51036072 -1356356350.3659363 0 -1356356350.3659363 1132329686.647995 0 0 0 0 -71866444.458709717 -1440774059.9122124 0 -1440774059.9122124 1188774499.8910217 0 0 0 0 1257125176.302948 -1473992246.4051056 0 -1473992246.4051056 822784526.81584549 0 0 0 0 320411630.07601929 -1399956080.2519836 0 -1399956080.2519836 1518965606.1236267 0 0 0 0 704698662.46029663 -1743967673.7259293 0 -1743967673.7259293 1824642976.0417175 0 0 0 0 444212591.75744629 -1666655216.2455597 0 -1666655216.2455597 1532390989.5625763 0 0 0 0 739414657.39712524 -2098358696.6194534 0 -2098358696.6194534 3470673628.9971008 0 0 0 0 -105468180.02923584 -1387729162.1559448 0 -1387729162.1559448 1532078359.9375916 0 0 0 0 -202858250.11575317 -1105296382.6652527 0 -1105296382.6652527 1425030595.0924072 0 0 0 0 -911294.36581420898 -1477790689.0613403 0 -1477790689.0613403 1971495950.9032288 0 0 0 0 -146427715.06652832 -909711550.20924377 0 -909711550.20924377 1639932302.8389359 0 0 0 0 -238450897.44711304 -952949013.10381699 0 -952949013.10381699 1636300206.3326111 0 0 0 0 311653833.1517334 -691742576.14810181 0 -691742576.14810181 1941692762.6761017 0 0 0 0 302240121.66217041 -1144510280.7065735 0 -1144510280.7065735 3486162781.4096756 0 0 0 0 -124436001.29398727 -1175769382.0205908 0 -1175769382.0205908 2874461410.5973206 0 0 0 0 -699852.00193786621 -931449787.05884552 0 -931449787.05884552 775743946.3967514 0 0 0 0 -240395790.89978027 -1152852238.4164276 0 -1152852238.4164276 1364903676.7928925 0 0 0 0 -366633600.67072296 -609080025.85565567 0 -609080025.85565567 1087589215.5563354 0 0 0 0 -309986771.28762817 -1089304160.0899773 0 -1089304160.0899773 1342183248.4626923 0 0 0 0 -225955747.04751587 -933172672.62372589 0 -933172672.62372589 864202312.19515991 0 0 0 0 -71338931.41619873 -1294976404.3314209 0 -1294976404.3314209 762645273.29747009 0 0 0 0 -100297.62221959121 -1127690913.4240108 0 -1127690913.4240108 1019151678.0910339 0 0 0 0 -70366971.876403809 -1357513262.5420303 0 -1357513262.5420303 1117120666.19244 0 0 0 0 -144228805.79013062 -1244676915.2683716 0 -1244676915.2683716 1065378887.161972 0 0 0 0 25684872.283187866 -1485519023.5174446 0 -1485519023.5174446 807328834.24815369 0 0 0 0 184453062.54614258 -1426512324.8292923 0 -1426512324.8292923 759851715.68266678 0 0 0 0 -24390.954803466797 -1168866814.7509232 0 -1168866814.7509232 715314042.50788879 0 0 0 0 149786035.25289917 -1284475395.5956879 0 -1284475395.5956879 178021087.24934387 0 0 0 0 502200919.25900269 -1126208728.6628723 0 -1126208728.6628723 243408326.53796005 0 0 0 0 548559567.44371319 -542627666.607831 0 -542627666.607831 -386760315.70188904 0 0 0 0 592666.68328857422 -819310583.18845367 0 -819310583.18845367 70137619.229759216 0 0 0 0 111252805.39968872 -270239693.15931702 0 -270239693.15931702 -2420529738.2600403 0 0 0 0 -2429435.9016517848 -769799.1296948269 0 -769799.1296948269 1496998.5286167227 0 0 0 0 -27990977.734649658 -2226168890.8197861 0 -2226168890.8197861 -249204206.8453598 0 0 0 0 -911596000.95083618 -1244205224.0845108 0 -1244205224.0845108 -963238358.24269104 0 0 0 0 3441518.3335966468 -941064.48798929527 0 -941064.48798929527 -3567227.1985399351 0 0 0 0 -311580089.56860352 -97838336.279472351 0 -97838336.279472351 -319248654.23498726 0 0 0 0 -824452242.89715576 -1357408828.3956985 0 -1357408828.3956985 -1853178756.9554596 0 0 0 0 -374491453.29406738 -651464920.44078827 0 -651464920.44078827 -1029657270.0278549 0 0 0 0 -552952419.07191086 -703407458.95358181 0 -703407458.95358181 -613009478.12635803 0 0 0 0 5240425.461845085 -1573208.1853251234 0 -1573208.1853251234 -5318534.2294096649 0 0 0 0 323462785.59213257 -379242937.62534332 0 -379242937.62534332 -884165231.94432068 0 0 0 0 -220068712.10064697 -469744112.36142349 0 -469744112.36142349 -1027441453.2926712 0 0 0 0 -368914324.33071899 -86499438.013870239 0 -86499438.013870239 -316615900.61463928 0 0 0 0 3013020.7550642192 2669104.5857757628 0 2669104.5857757628 -2921803.6165985167 0 0 0 0 96185139.928314209 -466801632.17673492 0 -466801632.17673492 -615681101.63582611 0 0 0 0 -32474466.067077637 18242072.842651367 0 18242072.842651367 -260085652.80321503 0 0 0 0 -1186109320.11026 -508812950.47296906 0 -508812950.47296906 -737131033.59155655 0 0 0 0 1269624.1205820441 1275537.5443136524 0 1275537.5443136524 -1347390.875058189 0 0 0 0 -149647215.90853882 -354779108.34544373 0 -354779108.34544373 611557495.31266785 0 0 0 0 -263262624.90048218 -211830191.53691483 0 -211830191.53691483 432173755.99337769 0 0 0 0 3408520.7737550288 3419187.5304634795 0 3419187.5304634795 -3589672.4836830944 0 0 0 0 101779918.89794922 -174376931.3046875 0 -174376931.3046875 -859276143.65105057 0 0 0 0 129191742.6534729 -438590444.10324097 0 -438590444.10324097 394412721.0456543 0 0 0 0 71104777.008422852 -186326850.1958313 0 -186326850.1958313 -412754788.99347687 0 0 0 0 -282101181.78814697 -361291502.73110962 0 -361291502.73110962 -14408194.43661499 0 0 0 0 45378857.161010742 -123411447.40213776 0 -123411447.40213776 -7808096.6560935974 0 0 0 0 -244695.18508911133 -384435051.82488251 0 -384435051.82488251 -140175620.55399323 0 0 0 0 13438362.086334229 50359227.596107483 0 50359227.596107483 229169541.6666832 0 0 0 0 214438.70892333984 -376450087.37618637 0 -376450087.37618637 860405273.26554489 0 0 0 0 -155280052.15461731 -118407824.15269852 0 -118407824.15269852 1641007648.4602432 0 0 0 0 169349626.87051392 -338748138.74325562 0 -338748138.74325562 913996114.88546753 0 0 0 0 -58839779.69329834 -66288966.805656433 0 -66288966.805656433 777553534.13616943 0 0 0 0 -40576256.894134521 -364598749.59738922 0 -364598749.59738922 475695039.8522644 0 0 0 0 -63698690.829597473 -409892373.90470886 0 -409892373.90470886 285239951.6027832 0 0 0 0 -506194.59136962891 -144338805.27433777 0 -144338805.27433777 476119744.38401794 0 0 0 0 -8824047.912902832 -397342167.23188019 0 -397342167.23188019 796063989.70327759 0 0 0 0 -23167451.827293396 -478240093.37798119 0 -478240093.37798119 478520319.57666016 0 0 0 0 19386635.978393555 -344416343.25340271 0 -344416343.25340271 372981001.53385925 0 0 0 0 -10230172.205200195 -263251473.49402618 0 -263251473.49402618 748113863.16846466 0 0 0 0 -49526630.31860733 -461765278.81774473 0 -461765278.81774473 541517343.34025574 0 0 0 0 69583825.306907654 -429967397.70345688 0 -429967397.70345688 363085021.24850464 0 0 0 0 157099538.06271362 -369124008.23350525 0 -369124008.23350525 1121019385.1795502 0 0 0 0 563275.83958756924 2534692.8740713634 0 2534692.8740713634 1930555.8477551378 0 0 0 0 -110350302.93737793 -309265031.89035416 0 -309265031.89035416 1068752903.8803482 0 0 0 0 183459765.85992432 -328187296.97309875 0 -328187296.97309875 767333043.8839798 0 0 0 0 -169581007.05335999 -311494706.8687439 0 -311494706.8687439 1539041108.9697342 0 0 0 0 484192.69092449546 4178814.019689247 0 4178814.019689247 2732586.379002736 0 0 0 0 49339151.194702148 -13625552.745727539 0 -13625552.745727539 1063870111.0858116 0 0 0 0 1120407170.6436157 353693597.76002502 0 353693597.76002502 631943809.88323593 0 0 0 0 -614451617.91189575 -741043053.71987915 0 -741043053.71987915 2395801743.6631775 0 0 0 0 -68025785.200775146 624591585.50750732 0 624591585.50750732 2635232323.0680771 0 0 0 0 -121238607.19052124 46075928.429065704 0 46075928.429065704 -44288682.808742523 0 0 0 0 3366872.5903996825 -1873331.1898656152 0 -1873331.1898656152 -919261.30373363197 0 0 0 0 170631399.83684564 -834896113.88124394 0 -834896113.88124394 907621036.93875885 0 0 0 0 167659056.85333252 -510650809.80669403 0 -510650809.80669403 -106780811.57852173 0 0 0 0 66600973.147583008 -270469112.43713379 0 -270469112.43713379 371675447.75938416 0 0 0 0 -38746022.607696533 -192227303.57410812 0 -192227303.57410812 490802419.3944397 0 0 0 0 -4860507.7395935059 -287865607.27193451 0 -287865607.27193451 776400781.37218857 0 0 0 0 -288666429.08021927 -132332851.13350773 0 -132332851.13350773 1196748711.9426804 0 0 0 0 -638311.45157212019 5211977.7531678416 0 5211977.7531678416 3227258.4948100448 0 0 0 0 -67099.017822265625 -83218445.336444855 0 -83218445.336444855 905240836.85100174 0 0 0 0 -312960521.54125977 -175557088.22679138 0 -175557088.22679138 1709865780.4933968 0 0 0 0 -162800995.04855347 -79269629.263401031 0 -79269629.263401031 742718514.08099365 0 0 0 0 -158998149.00732422 -129525656.31311417 0 -129525656.31311417 500465267.1051771 0 0 0 0 -112497654.13194275 -158244477.66896057 0 -158244477.66896057 182081236.36703491 0 0 0 0 -136627043.71908569 29352331.928287506 0 29352331.928287506 503192786.0096283 0 0 0 0 -161441434.46563721 -68444438.519607544 0 -68444438.519607544 542846889.9377594 0 0 0 0 -166338887.82687378 -40035257.768299103 0 -40035257.768299103 378079614.89309692 0 0 0 0 -76115825.639343262 7814748.5392189026 0 7814748.5392189026 367396116.66859436 0 0 0 0 -107651339.17773438 57315848.338623047 0 57315848.338623047 607270260.34030914 0 0 0 0 -12493856.84185791 -64301543.224739075 0 -64301543.224739075 574882897.72540283 0 0 0 0 71027228.978607178 180036996.40254974 0 180036996.40254974 308598807.66186523 0 0 0 0 182719691.31396484 119417345.12836456 0 119417345.12836456 606577811.28705597 0 0 0 0 17810004.389526367 49750944.67735672 0 49750944.67735672 593614923.80202866 0 0 0 0 37462633.346984863 -250669229.79672241 0 -250669229.79672241 1519457995.9234772 0 0 0 0 106906822.73714447 324593063.12696266 0 324593063.12696266 1189660182.923172 0 0 0 0 -15161398.606842041 -65778571.767879486 0 -65778571.767879486 1114087671.1334438 0 0 0 0 -87879760.855224609 -94097145.365211487 0 -94097145.365211487 1104494569.058754 0 0 0 0 -31302.862907081842 1051867.6635758951 0 1051867.6635758951 801369.56424421351 0 0 0 0 -106497937.96960831 -434041831.97521639 0 -434041831.97521639 1566909885.7729645 0 0 0 0 -31272298.100250244 -414844031.79434204 0 -414844031.79434204 164304716.40930939 0 0 0 0 41689727.676239014 -62503741.294197083 0 -62503741.294197083 684477744.14308167 0 0 0 0 -148845435.35314941 -515522729.46883392 0 -515522729.46883392 578138950.37556458 0 0 0 0 -85277143.077636719 -553056819.95721436 0 -553056819.95721436 423737478.06474304 0 0 0 0 -312958641.26733398 -1058206505.9547424 0 -1058206505.9547424 -361360638.63948822 0 0 0 0 -172418480.50024414 -557616020.16208649 0 -557616020.16208649 530513501.76991272 0 0 0 0 30707925.481323242 -733293745.93216705 0 -733293745.93216705 255727341.30186653 0 0 0 0 -86625399.965332031 -407767579.49590302 0 -407767579.49590302 172667963.63923645 0 0 0 0 -48869930.256515503 -475908188.36486053 0 -475908188.36486053 294571725.64933777 0 0 0 0 -147481940.98880005 -440844616.73347473 0 -440844616.73347473 615339511.92912292 0 0 0 0 -60895070.836742401 -330188510.58997393 0 -330188510.58997393 542714899.06211853 0 0 0 0 -60563766.687713623 -288401746.57107735 0 -288401746.57107735 428222917.91462708 0 0 0 0 -111743677.11541748 -415862131.66532898 0 -415862131.66532898 113886918.0775528 0 0 0 0 -43387470.407531738 -507325167.00191879 0 -507325167.00191879 101162308.5486908 0 0 0 0 -48272981.124206543 -539778215.06275368 0 -539778215.06275368 -5576378.5060119629 0 0 0 0 -6278721.5522460938 -642321911.61476898 0 -642321911.61476898 -393673748.44238281 0 0 0 0 51168047.672790527 -615620222.4834671 0 -615620222.4834671 -880737704.67319489 0 0 0 0 29317763.835540771 -564529931.32863617 0 -564529931.32863617 -405928738.3468647 0 0 0 0 95713468.644317627 -553969781.7587204 0 -553969781.7587204 -638911899.09975433 0 0 0 0 -558502110.84069824 -1245904178.7644348 0 -1245904178.7644348 74957289.271118164 0 0 0 0 2752988.6364897788 -785670.77816149592 0 -785670.77816149592 -2804908.2926018834 0 0 0 0 -94539069.911743164 6754894.5097198486 0 6754894.5097198486 -194571852.0708313 0 0 0 0 342549530.91107178 -67284269.555603027 0 -67284269.555603027 -231710234.31640625 0 0 0 0 238060779.42459106 -285199248.62657928 0 -285199248.62657928 -435074090.43727112 0 0 0 0 484051641.82936096 -607591972.26357079 0 -607591972.26357079 -143987730.60940552 0 0 0 0 -52228433.694458008 -467336019.43173981 0 -467336019.43173981 -173822069.66799927 0 0 0 0 128606624.01254272 -584811214.32467651 0 -584811214.32467651 -415644863.7787323 0 0 0 0 -332674424.34014893 -617353900.69047546 0 -617353900.69047546 -417205758.20175219 0 0 0 0 -655726152.38555908 -288536883.67837524 0 -288536883.67837524 -779861134.77823257 0 0 0 0 -262680140.2376709 -444194532.63908386 0 -444194532.63908386 -429411551.19430256 0 0 0 0 -15617444.235214233 -382373791.82623291 0 -382373791.82623291 -787520814.84242249 0 0 0 0 -220856953.5199585 -458269315.28148651 0 -458269315.28148651 -751456703.63842773 0 0 0 0 -289194877.99511719 -104770488.0920105 0 -104770488.0920105 -196776672.28672099 0 0 0 0 -1893112.2970581055 -657856535.98888397 0 -657856535.98888397 -1516696499.1867981 0 0 0 0 182547906.15289307 -588975331.00254822 0 -588975331.00254822 -1659692350.9839611 0 0 0 0 -41060982.168624878 -195351453.74148941 0 -195351453.74148941 -1577418477.9465256 0 0 0 0 1272697.6714697788 -2937962.2118850499 0 -2937962.2118850499 -2209183.4795084447 0 0 0 0 -425537222.05645943 -824161871.84898925 0 -824161871.84898925 -1025200967.6516876 0 0 0 0 -15918742.667456627 439724945.93010759 0 439724945.93010759 -735972262.65678406 0 0 0 0 -335130407.60058594 -108641259.31117249 0 -108641259.31117249 -28985790.868625641 0 0 0 0 173055682.6265564 11482736.27255249 0 11482736.27255249 -1409888093.0065002 0 0 0 0 117772259.72155762 -265526111.7910862 0 -265526111.7910862 -669395802.54746246 0 0 0 0 166404458.48718262 -221018967.62257767 0 -221018967.62257767 -664242676.25440979 0 0 0 0 -325115886.37809753 -863873801.10225296 0 -863873801.10225296 -1028616402.034256 0 0 0 0 278952191.38116455 -205147712.16407013 0 -205147712.16407013 -1638115254.6824722 0 0 0 0 -7633647.7493133545 162889867.74063492 0 162889867.74063492 -560748499.5872345 0 0 0 0 -120108533.38339233 42280588.815093994 0 42280588.815093994 -39888247.743713379 0 0 0 0 -14452474.498687744 -44788274.866760254 0 -44788274.866760254 -179066079.17734528 0 0 0 0 2054695.7648391724 12879171.212697983 0 12879171.212697983 -157525776.4344635 0 0 0 0 51453349.859527588 -117568860.76135254 0 -117568860.76135254 -377646349.66577911 0 0 0 0 -4787729.1200408936 -88533716.375852585 0 -88533716.375852585 -47564293.816116333 0 0 0 0 5903113.0139923096 -183439330.88208008 0 -183439330.88208008 -244418849.63589478 0 0 0 0 -33102164.78302002 -259417702.77258301 0 -259417702.77258301 -341571602.41217232 0 0 0 0 327536769.65223694 83259874.267864227 0 83259874.267864227 -57602384.456771851 0 0 0 0 -21833636.016296387 -180542973.25 0 -180542973.25 -236652733.4620285 0 0 0 0 6076114.9064771608 396001.62269052863 0 396001.62269052863 -20824698.150079772 0 0 0 0 13568130.660888672 105462259.50118256 0 105462259.50118256 32066789.827438354 0 0 0 0 -50499252.45930481 -133782747.91734314 0 -133782747.91734314 -54573354.357330322 0 0 0 0 23472864.964324951 -98019140.057910919 0 -98019140.057910919 -26582043.812728882 0 0 0 0 111432978.09460449 -187144972.19975281 0 -187144972.19975281 8505047.5844573975 0 0 0 0 101393164.57134628 -185305350.60007238 0 -185305350.60007238 20279526.378967285 0 0 0 0 84562504.860900879 -20039852.436843872 0 -20039852.436843872 30064230.996612549 0 0 0 0 619643.86743164062 -438823907.78115082 0 -438823907.78115082 1037435401.4111786 0 0 0 0 3541663.8378067315 -639839.63601503894 0 -639839.63601503894 -3854885.3345693946 0 0 0 0 -52717896.780334473 -152132504.13586426 0 -152132504.13586426 452548717.13494873 0 0 0 0 -88765924.128601074 -35234773.883369446 0 -35234773.883369446 219831971.93264771 0 0 0 0 54738720.527404785 -48784583.323989868 0 -48784583.323989868 -249648500.57973862 0 0 0 0 77294028.599182129 -393727541.64024353 0 -393727541.64024353 122858321.59839439 0 0 0 0 131774331.90637207 -333471983.6918335 0 -333471983.6918335 25358114.158622742 0 0 0 0 424079153.45635986 -659062758.12585449 0 -659062758.12585449 -236519362.23631287 0 0 0 0 154716917.37896729 -581169410.69496918 0 -581169410.69496918 547518409.86618233 0 0 0 0 69439248.770874023 -87062993.901081085 0 -87062993.901081085 -145336684.58981323 0 0 0 0 334771517.18503571 -259153709.22879314 0 -259153709.22879314 -365566375.99249268 0 0 0 0 305647052.91802979 -317964774.25844574 0 -317964774.25844574 -20656555.845970154 0 0 0 0 266509928.96902466 -252875268.90975571 0 -252875268.90975571 -126965968.37136841 0 0 0 0 243911858.73513794 -60617993.677833557 0 -60617993.677833557 20584028.339576721 0 0 0 0 226782893.72067261 -77062423.312572479 0 -77062423.312572479 5481006.8268737793 0 0 0 0 305439848.4286499 -186208277.22769928 0 -186208277.22769928 -12841160.94549942 0 0 0 0 411289332.71963501 -139847919.34292603 0 -139847919.34292603 -44418012.558265686 0 0 0 0 608837083.43740845 30667411.919002533 0 30667411.919002533 -61049938.930858612 0 0 0 0 258296429.43818665 -174450073.66950035 0 -174450073.66950035 -168674529.25178528 0 0 0 0 307669934.24609375 -59470795.412231445 0 -59470795.412231445 -77796288.99297142 0 0 0 0 217363124.45846558 -31120626.908733368 0 -31120626.908733368 -112412721.82820129 0 0 0 0 298855719.09298706 -107227682.01874924 0 -107227682.01874924 -102987747.50520325 0 0 0 0 454606604.784729 49821909.476715088 0 49821909.476715088 -99898228.048128724 0 0 0 0 339476.16728508472 862025.87958942354 0 862025.87958942354 -3841133.3401388675 0 0 0 0 905708172.48794556 265280538.41046143 0 265280538.41046143 -237554627.58634186 0 0 0 0 408674195.70098877 49218205.398427963 0 49218205.398427963 74225746.282035828 0 0 0 0 -214221170.65731812 -452628656.3293457 0 -452628656.3293457 -431834354.52239227 0 0 0 0 -1794762603.6250305 -1227542258.5005836 0 -1227542258.5005836 -377654774.30307007 0 0 0 0 28238159.788253784 -517633026.20951653 0 -517633026.20951653 -442614114.94215393 0 0 0 0 -184498306.37255859 -569054905.55709076 0 -569054905.55709076 -162180222.33493042 0 0 0 0 -252027131.00888062 -382697866.31575012 0 -382697866.31575012 -336437723.60432816 0 0 0 0 -8989463.5469207764 -562965304.17281342 0 -562965304.17281342 -449492422.55716705 0 0 0 0 -553706193.81800079 -650558689.77284145 0 -650558689.77284145 -393138732.6608429 0 0 0 0 2113553.2775453851 1597705.6999855042 0 1597705.6999855042 -11979423.991077684 0 0 0 0 -5354681.4517555237 86768528.662361145 0 86768528.662361145 -83431807.787528992 0 0 0 0 -1488782.1422424316 -14201167.950229645 0 -14201167.950229645 99759324.838928223 0 0 0 0 106627412.09845734 14622011.458824158 0 14622011.458824158 -329121113.25686443 0 0 0 0 121820155.76159668 -54549158.210296631 0 -54549158.210296631 -330484049.15125275 0 0 0 0 68440514.588359833 -43258895.44152832 0 -43258895.44152832 -74119707.387176514 0 0 0 0 69392530.01739502 -30019998.405780792 0 -30019998.405780792 82652111.162811279 0 0 0 0 56881443.874282837 37890214.413162231 0 37890214.413162231 -92527260.742509842 0 0 0 0 163457182.12553787 58131062.342983246 0 58131062.342983246 -51564476.086364746 0 0 0 0 53270028.443694189 -61855829.702377804 0 -61855829.702377804 8173281.3848109841 0 0 0 0 -570279610.83041382 -348584889.721241 0 -348584889.721241 -175235667.97877502 0 0 0 0 127598183.75395966 -45882568.195095062 0 -45882568.195095062 -262204739.90441895 0 0 0 0 27415467.107242584 -67338654.645530701 0 -67338654.645530701 46161004.501724243 0 0 0 0 110357574.23283768 -112681510.10122681 0 -112681510.10122681 -235950797.74905396 0 0 0 0 822768448.58886719 -1299678211.5649414 0 -1299678211.5649414 835275728.7668457 0 0 0 0 104476792.48287964 -237126935.20001984 0 -237126935.20001984 -216427771.67916107 0 0 0 0 346759925.32354736 584605198.17429352 0 584605198.17429352 -1104365152.8778229 0 0 0 0 752953990.56140137 -1340819808.6088409 0 -1340819808.6088409 817228628.31977844 0 0 0 0 2629692931.7813721 -845341630.33394623 0 -845341630.33394623 -1766570011.2404022 0 0 0 0 431925108.62365723 -414748748.09820557 0 -414748748.09820557 -157420053.44169998 0 0 0 0 62562057.076263428 -147797098.86880493 0 -147797098.86880493 -249475408.97333527 0 0 0 0 -601088195.97158813 136827933.26214218 0 136827933.26214218 -195340997.92146301 0 0 0 0 -186734745.95306396 -174170858.8951149 0 -174170858.8951149 -71322730.544998169 0 0 0 0 89512256.902511597 -192595129.99045944 0 -192595129.99045944 -165527225.08059692 0 0 0 0 79817842.678771973 -180343587.18254471 0 -180343587.18254471 -122405568.40646362 0 0 0 0 -116792556.60177612 -214856912.40355682 0 -214856912.40355682 3378925.7317352295 0 0 0 0 83348941.485168457 -136559960.42253113 0 -136559960.42253113 -85788268.553291321 0 0 0 0 320984574.60491943 -159097624.71014404 0 -159097624.71014404 -123239788.57804108 0 0 0 0 90721360.600463867 -148529784.3608036 0 -148529784.3608036 -154317208.40132141 0 0 0 0 -30801640.486047752 -46449511.812112726 0 -46449511.812112726 82122.89682675153 0 0 0 0 -115879630.79519653 -228108742.05407333 0 -228108742.05407333 -159823411.30924702 0 0 0 0 -302193276.27748871 -372474665.26925659 0 -372474665.26925659 -128627968.48952484 0 0 0 0 -154028988.37579346 -216909293.55508804 0 -216909293.55508804 -183139686.41857314 0 0 0 0 62622681.34231329 -37651557.319619656 0 -37651557.319619656 100014387.74326324 0 0 0 0 77147112.31224823 36697603.410690308 0 36697603.410690308 73439488.342415333 0 0 0 0 36025136.910608612 -53092056.29492078 0 -53092056.29492078 8672511.0741831139 0 0 0 0 2573754737.5459061 1487451299.5603485 0 1487451299.5603485 -1659305346.370697 0 0 0 0 -121232214.6554985 -285459052.04331589 0 -285459052.04331589 72855488.814323425 0 0 0 0 8088726268.4524384 -371740181.59895325 0 -371740181.59895325 -1283349759.5552368 0 0 0 0 -1925288.6012585685 -198294.88425819948 0 -198294.88425819948 1401389.7705958337 0 0 0 0 -4267708551.5829468 -1542593965.9092636 0 -1542593965.9092636 1056258972.2999268 0 0 0 0 -474692254.23339844 -1033745313.6661758 0 -1033745313.6661758 -833005671.05692291 0 0 0 0 87369936.866088867 -425054014.8890152 0 -425054014.8890152 -1403455316.398262 0 0 0 0 -151691782.00097275 -298398684.20864296 0 -298398684.20864296 -48033161.332336426 0 0 0 0 -386180891.45111084 -2000705461.4947586 0 -2000705461.4947586 756750195.62413788 0 0 0 0 693920778.46494484 91454418.821817398 0 91454418.821817398 -214164912.17158508 0 0 0 0 24566692.239988789 -4114329.7595593557 0 -4114329.7595593557 -953985.65928263962 0 0 0 0 -378221415.18418884 -164703248.49246216 0 -164703248.49246216 -146623324.48758698 0 0 0 0 -237099875.25797272 -145034663.50954437 0 -145034663.50954437 -198126902.04071045 0 0 0 0 -230976645.50970459 -225877279.1552124 0 -225877279.1552124 -293992444.49235535 0 0 0 0 -329146118.00644112 -465526203.827425 0 -465526203.827425 -645094390.33322144 0 0 0 0 -219909175.63164139 -673862289.83530807 0 -673862289.83530807 -428700803.95761108 0 0 0 0 -802680583.92213821 -746164881.49840546 0 -746164881.49840546 -159938742.03549194 0 0 0 0 -368622904.19486237 -393131183.57542992 0 -393131183.57542992 -132730243.07881165 0 0 0 0 -382993170.04308319 -434894557.41879272 0 -434894557.41879272 -211651703.9931488 0 0 0 0 -547310735.54832458 -408549431.23565292 0 -408549431.23565292 41049775.110916138 0 0 0 0 -130841502.4627533 -129878644.28294373 0 -129878644.28294373 -46908189.832923889 0 0 0 0 3660838.2382626832 -7944552.3556610718 0 -7944552.3556610718 -3837915.062924251 0 0 0 0 -504026719.24902344 -322402544.38503265 0 -322402544.38503265 96324001.530723572 0 0 0 0 -266413063.66998291 -84307570.495037079 0 -84307570.495037079 240594123.75175476 0 0 0 0 26341072.906337738 121627553.91249847 0 121627553.91249847 141604586.80375671 0 0 0 0 321603353.46444702 17296376.876823425 0 17296376.876823425 -58331850.820765495 0 0 0 0 224980637.67327881 48419483.180267334 0 48419483.180267334 -59420097.653594971 0 0 0 0 -239166032.91804647 -122000275.04775596 0 -122000275.04775596 -17468805.414794922 0 0 0 0 47832629.756317139 -55651270.469985962 0 -55651270.469985962 -149768833.00787354 0 0 0 0 84650989.866271973 18398257.62059021 0 18398257.62059021 -137316401.83532715 0 0 0 0 56707764.306945801 54717614.7134552 0 54717614.7134552 -35809783.139638901 0 0 0 0 38889684.17334938 -8330442.2344007492 0 -8330442.2344007492 -28462143.855773926 0 0 0 0 273697872.97223663 -80630493.948280334 0 -80630493.948280334 -10135975.358612061 0 0 0 0 199845751.04705811 -26458251.139938354 0 -26458251.139938354 8308429.106048584 0 0 0 0 14588254.601800755 -33722546.473504908 0 -33722546.473504908 -2744460.7661970118 0 0 0 0 295622038.4810257 -90274050.809791565 0 -90274050.809791565 -22289665.616439819 0 0 0 0 20129133.113497414 -27380877.425799027 0 -27380877.425799027 -15919546.395201724 0 0 0 0 329066836.08140564 -62710058.709411621 0 -62710058.709411621 -49143429.244636536 0 0 0 0 219321153.76177979 -57984943.351974487 0 -57984943.351974487 -19460401.489135742 0 0 0 0 260626806.00475311 -46609489.288711548 0 -46609489.288711548 -178238968.96226883 0 0 0 0 -437394783.60317993 -636818842.97692871 0 -636818842.97692871 112914436.58442688 0 0 0 0 276008528.31622314 -352151552.38624573 0 -352151552.38624573 -7733536.3711338043 0 0 0 0 114201851.62091064 -326522705.3840332 0 -326522705.3840332 6432481.9976501465 0 0 0 0 177315783.22227478 -202714303.94514656 0 -202714303.94514656 -87620541.552856445 0 0 0 0 -36634111.353338569 -40651881.185034037 0 -40651881.185034037 8708850.5667747259 0 0 0 0 102381775.71351624 -180757924.01612473 0 -180757924.01612473 99500314.333282471 0 0 0 0 76505118.466965288 -87021775.671584249 0 -87021775.671584249 -20969182.411806565 0 0 0 0 -4646995.9014968872 -126213051.68013382 0 -126213051.68013382 13354848.20602417 0 0 0 0 -83882147.027294159 -14658914.755430222 0 -14658914.755430222 96226119.436256409 0 0 0 0 -109819249.71979523 -65592840.325366974 0 -65592840.325366974 351654233.61131287 0 0 0 0 63692889.998687744 -226657582.3314209 0 -226657582.3314209 193187187.96518707 0 0 0 0 -26193075.005340576 -139454239.20907593 0 -139454239.20907593 137027371.61359406 0 0 0 0 17277796.311676025 -144091271.92814636 0 -144091271.92814636 -13766912.902709961 0 0 0 0 108435357.41413879 -173985255.8806076 0 -173985255.8806076 -41424911.431304932 0 0 0 0 101943218.79696655 -224775598.47581482 0 -224775598.47581482 60562912.717712402 0 0 0 0 119825538.63949585 -195590781.7082119 0 -195590781.7082119 25849802.621261597 0 0 0 0 225884410.39550781 -231567659.77616882 0 -231567659.77616882 -45414879.307434082 0 0 0 0 103883575.29138184 -129283081.43556976 0 -129283081.43556976 -112425529.82432556 0 0 0 0 213376917.94920349 -106902274.35235596 0 -106902274.35235596 -154975946.81922913 0 0 0 0 118084110.26016235 -19489185.82333374 0 -19489185.82333374 -213072711.89915466 0 0 0 0 239269492.82333565 -91056447.588395596 0 -91056447.588395596 -145446521.86044312 0 0 0 0 172658692.15258789 -526870182.14242554 0 -526870182.14242554 780485379.04143524 0 0 0 0 436108824.51699829 -226360308.14903259 0 -226360308.14903259 -76366958.740936279 0 0 0 0 -47949935.096496582 -170133006.62625885 0 -170133006.62625885 503180069.99868774 0 0 0 0 442790219.06585693 -359147606.85717773 0 -359147606.85717773 64849619.006473541 0 0 0 0 293325773.98971558 -218580362.80290222 0 -218580362.80290222 27165669.133850098 0 0 0 0 62123063.586151123 -224893639.1361084 0 -224893639.1361084 231945366.56236267 0 0 0 0 280825426.95324707 -336208531.57220459 0 -336208531.57220459 123675792.08538818 0 0 0 0 234059817.1968689 -460991253.60186768 0 -460991253.60186768 465529874.22637939 0 0 0 0 502129391.78071594 -389547231.37399292 0 -389547231.37399292 44425178.93270874 0 0 0 0 1403913230.2148743 -1309265171.9232788 0 -1309265171.9232788 158525560.65987778 0 0 0 0 1197279529.8223877 208704427.96444702 0 208704427.96444702 -752149656.97169495 0 0 0 0 2934837452.3550415 -876104667.50138855 0 -876104667.50138855 -1999417473.0080566 0 0 0 0 -101672143.61187744 781523828.64588165 0 781523828.64588165 -578542919.04092407 0 0 0 0 3108767247.6801682 217662927.74961662 0 217662927.74961662 -3214264711.4710083 0 0 0 0 1043789623.518795 1398099238.1254578 0 1398099238.1254578 -2109813482.5298462 0 0 0 0 419259224.6741333 252943294.48535156 0 252943294.48535156 -92516393.184997559 0 0 0 0 192862438.31686401 218506063.68865967 0 218506063.68865967 -86639413.141876221 0 0 0 0 344632229.18612671 -28676416.253982544 0 -28676416.253982544 -229616350.82354355 0 0 0 0 762064067.90472412 445525079.79438782 0 445525079.79438782 -879036814.76365662 0 0 0 0 963596196.35916138 -283328855.31614685 0 -283328855.31614685 -142631243.80690002 0 0 0 0 138530016.98040771 -6853821.0630493164 0 -6853821.0630493164 -146289932.58888245 0 0 0 0 396857173.93475342 43258456.929336548 0 43258456.929336548 -136570581.50164795 0 0 0 0 225260730.57065105 25491660.808726788 0 25491660.808726788 -270256342.04284668 0 0 0 0 66671444.000686646 -111180383.36830139 0 -111180383.36830139 -326193543.72567749 0 0 0 0 74439251.178321838 117334009.89256287 0 117334009.89256287 -42177046.728759766 0 0 0 0 124704818.56394196 80425110.80879879 0 80425110.80879879 -21689584.045379639 0 0 0 0 -136150493.68257904 -83636467.263465881 0 -83636467.263465881 186322424.4776001 0 0 0 0 -77739285.525428772 174914443.24056625 0 174914443.24056625 295569772.51541138 0 0 0 0 270865628.01926422 151899877.62447929 0 151899877.62447929 -211761823.51558685 0 0 0 0 -1309857312.4543304 -1057837219.7425423 0 -1057837219.7425423 1139646031.7078018 0 0 0 0 -1346562404.6459656 1243511891.4507523 0 1243511891.4507523 1055654531.5702286 0 0 0 0 4049199.809521839 -8583286.733737817 0 -8583286.733737817 -1620360.5496663917 0 0 0 0 316880.54618082941 2889048.0720777204 0 2889048.0720777204 -2568197.2321524844 0 0 0 0 13320682.052181244 398631011.2515955 0 398631011.2515955 78513441.515106201 0 0 0 0 201510912.44049072 -456465153.13798523 0 -456465153.13798523 -1208580902.5795479 0 0 0 0 -480291.47891557217 -4745619.0916625634 0 -4745619.0916625634 1437334.6872135103 0 0 0 0 -725982000.63760376 533373574.57737732 0 533373574.57737732 2387487522.7853317 0 0 0 0 -240691749.20510864 -716429645.56438446 0 -716429645.56438446 -473947168.01848602 0 0 0 0 -326620889.62716675 -369607242.36935043 0 -369607242.36935043 408614173.5608139 0 0 0 0 187042960.28352356 -444216620.69786263 0 -444216620.69786263 -131631257.84533691 0 0 0 0 -298617039.49610901 -668746142.36158752 0 -668746142.36158752 1184481670.5281677 0 0 0 0 407891189.35842896 -591620182.31588364 0 -591620182.31588364 -1103509697.1672211 0 0 0 0 261093844.66470337 1055859575.0676498 0 1055859575.0676498 146796390.26576614 0 0 0 0 679603684.97616577 -49443185.226898193 0 -49443185.226898193 -603080901.77772522 0 0 0 0 519567643.10528564 -516848143.29328156 0 -516848143.29328156 -966474208.99560547 0 0 0 0 -942905776.40884399 -1494707613.8004684 0 -1494707613.8004684 279785808.37000275 0 0 0 0 359547420.51367188 -277267477.08516693 0 -277267477.08516693 -57409232.032772064 0 0 0 0 313216347.9000473 -116427550.67217636 0 -116427550.67217636 -287184577.95661926 0 0 0 0 564560398.86273193 -324817797.54563141 0 -324817797.54563141 -148871276.30871582 0 0 0 0 360522965.49047852 -261668086.59080505 0 -261668086.59080505 -11568657.954879761 0 0 0 0 -453928937.89459229 -443854557.56213379 0 -443854557.56213379 1478473182.2910233 0 0 0 0 -218380733.59744263 -312713945.97075653 0 -312713945.97075653 -205978958.5848856 0 0 0 0 -1828375.8665486872 -28744012.582313966 0 -28744012.582313966 7221046.9880625028 0 0 0 0 -59607236.520723343 -311299430.8930285 0 -311299430.8930285 -456687361.10081482 0 0 0 0 -899884834.3515625 -396287472.3143158 0 -396287472.3143158 1042883182.7745514 0 0 0 0 -474936485.47937012 150983585.92337036 0 150983585.92337036 176005054.89491272 0 0 0 0 46041670.355224609 -159738032.542099 0 -159738032.542099 -522185036.10271072 0 0 0 0 -25668186.217857271 -47433842.854005501 0 -47433842.854005501 -3744347.4153618366 0 0 0 0 580683858.27661133 -30293576.849319458 0 -30293576.849319458 -862139147.28919983 0 0 0 0 217662393.39855957 -362149171.066082 0 -362149171.066082 38484538.463023186 0 0 0 0 15574097.194181383 -7101876.8877263516 0 -7101876.8877263516 -6653044.3841715381 0 0 0 0 -22009515.883136749 -142868353.55256939 0 -142868353.55256939 2632369.1246795654 0 0 0 0 -6587692.3906860352 -158081288.97367096 0 -158081288.97367096 17454482.355278969 0 0 0 0 -21237800.183937073 -137602504.2892971 0 -137602504.2892971 38532529.344421387 0 0 0 0 50276477.424621582 -39643315.685409546 0 -39643315.685409546 14549149.032794952 0 0 0 0 63890801.200378418 -12951938.384460449 0 -12951938.384460449 481838787.14823914 0 0 0 0 277861941.52471924 -435899706.35878754 0 -435899706.35878754 336249381.26423264 0 0 0 0 -32087237.899643704 -36742667.25048884 0 -36742667.25048884 7293317.6479271688 0 0 0 0 -160751105.62872314 -902283750.95341492 0 -902283750.95341492 874566722.81839561 0 0 0 0 -29734084.319276333 -32541285.200126886 0 -32541285.200126886 14393332.261332296 0 0 0 0 36985896.654418945 -118190718.51683807 0 -118190718.51683807 574006087.19683838 0 0 0 0 -141218082.38427734 50384651.782028198 0 50384651.782028198 768634405.71463394 0 0 0 0 -8556045.3227815032 -14215962.729782769 0 -14215962.729782769 5420130.0047831908 0 0 0 0 -221061812.12895203 -129758082.96067429 0 -129758082.96067429 707630509.81864166 0 0 0 0 -12235676.35748291 -246800284.97309113 0 -246800284.97309113 127106298.7230835 0 0 0 0 -84155702.496520996 -97122487.309909821 0 -97122487.309909821 68775910.327697754 0 0 0 0 -153777504.62667847 -128012083.682827 0 -128012083.682827 78688282.53302002 0 0 0 0 -45155684.766216278 -110986935.2342124 0 -110986935.2342124 -565333156.28056335 0 0 0 0 -1248.2462768554688 -371384186.79810333 0 -371384186.79810333 -391862080.55084229 0 0 0 0 -39006714.833465576 -332447393.72783661 0 -332447393.72783661 196523993.08195496 0 0 0 0 -55456577.41897583 31414410.727874756 0 31414410.727874756 437569316.44365692 0 0 0 0 2709278.1933193207 -140102790.2116878 0 -140102790.2116878 94248.450408935547 0 0 0 0 -419945.77834796906 -210625406.37413526 0 -210625406.37413526 291328711.49127197 0 0 0 0 -14996598.746639311 -11135630.053478859 0 -11135630.053478859 7901275.745562817 0 0 0 0 -3977916.0586700439 -76736419.734920502 0 -76736419.734920502 65825857.191299438 0 0 0 0 -2369150.3391113281 -8614703.0272064209 0 -8614703.0272064209 10258091.276414871 0 0 0 0 -271764.59045410156 -9487300.717880249 0 -9487300.717880249 9072924.4568634033 0 0 0 0 848556.38827514648 -11280930.310789108 0 -11280930.310789108 37033698.056060791 0 0 0 0 -9851098.5136566162 -30060760.616651535 0 -30060760.616651535 64430433.769348145 0 0 0 0 -1405982.048979193 -7568569.151085481 0 -7568569.151085481 14526169.391624257 0 0 0 0 562549.82857967913 -10950071.666733436 0 -10950071.666733436 -1593600.2230668273 0 0 0 0 5565286.6185913086 -25064652.155269623 0 -25064652.155269623 -7133732.5360958576 0 0 0 0 -1486202.5343322754 -15587666.282161713 0 -15587666.282161713 20403146.254768372 0 0 0 0 -24491762.73348999 19944538.49124527 0 19944538.49124527 80918511.625305176 0 0 0 0 -41064085.654258728 -19158410.496509552 0 -19158410.496509552 36849219.510131836 0 0 0 0 -7158323.9570854604 -26555808.260475509 0 -26555808.260475509 2554483.055581674 0 0 0 0 20914287.645874023 -70150621.468505859 0 -70150621.468505859 -86592563.246627808 0 0 0 0 5286822.4264373779 -23325276.565202713 0 -23325276.565202713 -5462310.6112365723 0 0 0 0 -3472734.2362178862 -32748442.954786226 0 -32748442.954786226 -2393903.7889738381 0 0 0 0 3785362.8211669922 -31270581.963006973 0 -31270581.963006973 -36567388.392379761 0 0 0 0 21352693.486872494 -45712475.608684421 0 -45712475.608684421 3068948.0067242365 0 0 0 0 1297019.5785675049 -34103839.579229355 0 -34103839.579229355 -26488276.863666534 0 0 0 0 12413578.901443481 -110971828.30838013 0 -110971828.30838013 -19181472.569431305 0 0 0 0 7129719.5038146973 -42954682.200576782 0 -42954682.200576782 -28536109.094096184 0 0 0 0 -1060064.310760498 -115269551.99176025 0 -115269551.99176025 13933372.425743103 0 0 0 0 15128563.525200844 1102601.8875555992 0 1102601.8875555992 46368225.864212036 0 0 0 0 6745666.4006735981 -20586107.058492891 0 -20586107.058492891 -3545498.3213892775 0 0 0 0 80375822.070678711 -20067999.187456131 0 -20067999.187456131 -43152861.916862488 0 0 0 0 -34684582.661895752 -88980765.136703491 0 -88980765.136703491 82504865.977409363 0 0 0 0 259100.50319647789 -4428352.5741793886 0 -4428352.5741793886 -560997.56150614761 0 0 0 0 53961346.407470703 -64602910.426277161 0 -64602910.426277161 60527265.691561699 0 0 0 0 7158650.383972168 -36387287.609207153 0 -36387287.609207153 -50931023.446174622 0 0 0 0 -1094176.1722412109 -48459791.321619034 0 -48459791.321619034 2678538.0959644318 0 0 0 0 66886396.135925293 -35592530.646560669 0 -35592530.646560669 -9604658.0736503601 0 0 0 0 -18925794.315101624 1587622.7153577805 0 1587622.7153577805 -27508161.356117249 0 0 0 0 36113390.042633057 -78811974.760737419 0 -78811974.760737419 66974614.286613464 0 0 0 0 91311784.279693604 7381946.4413528442 0 7381946.4413528442 -667223.08271789551 0 0 0 0 117035734.41866302 -51569465.677283287 0 -51569465.677283287 24886361.670921326 0 0 0 0 61448096.83795166 -67154077.380214691 0 -67154077.380214691 32874561.233908653 0 0 0 0 118319019.43228149 -42115990.820103168 0 -42115990.820103168 94027013.364875793 0 0 0 0 240422066.45007324 -30452056.467227936 0 -30452056.467227936 15468919.264625549 0 0 0 0 149523884.64593506 -114225889.95937538 0 -114225889.95937538 21494526.393066406 0 0 0 0 -2759988.3887519538 -2290113.2052024752 0 -2290113.2052024752 2028651.7863685731 0 0 0 0 110707069.15534973 -93833611.79186058 0 -93833611.79186058 77497594.069770813 0 0 0 0 107929140.3120575 -106343490.67693996 0 -106343490.67693996 33149815.597061157 0 0 0 0 36315268.983123779 -94979561.776134491 0 -94979561.776134491 29941401.777944565 0 0 0 0 69242668.80178833 -61321702.280272484 0 -61321702.280272484 14888076.335109711 0 0 0 0 13299468.539398193 -71917324.144786835 0 -71917324.144786835 25388889.228210449 0 0 0 0 19164678.175743103 -61648043.28494215 0 -61648043.28494215 -33673255.616725922 0 0 0 0 33543980.299102783 -55851834.619413376 0 -55851834.619413376 2779491.719461441 0 0 0 0 -44132410.326446533 -45789728.150192261 0 -45789728.150192261 11512743.947359085 0 0 0 0 1379193.437789917 -10252207.357207298 0 -10252207.357207298 -32926922.45526886 0 0 0 0 -15088355.214813232 -12123333.487995148 0 -12123333.487995148 -2968241.6430587769 0 0 0 0 -14816287.982551575 -12486769.953280687 0 -12486769.953280687 -17537876.351249695 0 0 0 0 -4565827.8729248047 -4466802.9577331543 0 -4466802.9577331543 -18787421.623779297 0 0 0 0 -14643619.753234863 -16192285.575380325 0 -16192285.575380325 -26661095.562685013 0 0 0 0 857548.31567382812 -9793605.9624252319 0 -9793605.9624252319 9136919.217048645 0 0 0 0 -15004818.487780571 -9666473.3392201662 0 -9666473.3392201662 -20693071.84393692 0 0 0 0 -4155983.1747422069 -13363623.906615909 0 -13363623.906615909 -498101.57345487783 0 0 0 0 32712427.061279297 -13839597.184791565 0 -13839597.184791565 41450103.73576355 0 0 0 0 262943.00148582458 -632401.14872879535 0 -632401.14872879535 1507302.0559478942 0 0 0 0 -2883115.2435302734 -4240910.6793670654 0 -4240910.6793670654 48170780.175292969 0 0 0 0 -4993937.1074335128 -19218439.373538673 0 -19218439.373538673 -4816477.4184537511 0 0 0 0 -3383655.9113297164 -341532.914211303 0 -341532.914211303 17600904.374562308 0 0 0 0 8150603.3912353516 -39659003.680526733 0 -39659003.680526733 59580970.279109955 0 0 0 0 1634279.7429677993 -21664890.908266515 0 -21664890.908266515 -5665300.9906028258 0 0 0 0 -3362918.7385253906 -18662199.139778137 0 -18662199.139778137 -38440422.424594879 0 0 0 0 -26872316.259033203 -11809544.107034683 0 -11809544.107034683 -49739347.418109894 0 0 0 0 -1889962.7493107021 -3378197.0158381183 0 -3378197.0158381183 -2267896.8369641872 0 0 0 0 -25259118.151916504 -32329268.203125 0 -32329268.203125 97972981.492937088 0 0 0 0 45660909.476573944 -46323623.682545185 0 -46323623.682545185 11044004.208007812 0 0 0 0 44052327.694007874 -40271025.459390402 0 -40271025.459390402 8261763.0430164337 0 0 0 0 97189914.125522614 -104799315.84557915 0 -104799315.84557915 77456469.53843689 0 0 0 0 90455553.182102203 -69283695.112188339 0 -69283695.112188339 -63581903.127212524 0 0 0 0 47038243.896766663 -37096491.885564327 0 -37096491.885564327 -3646650.8465900421 0 0 0 0 52234213.10709776 -35294324.308108672 0 -35294324.308108672 -9391313.2875229679 0 0 0 0 21080622.16267395 59056365.044418335 0 59056365.044418335 -198149016.80229187 0 0 0 0 10318992.977005389 -8148895.1844666973 0 -8148895.1844666973 5347947.0676121935 0 0 0 0 53169851.284606934 198821854.12436676 0 198821854.12436676 -393264307.64413643 0 0 0 0 100830064.29676819 -17433063.51360321 0 -17433063.51360321 -195394572.69781494 0 0 0 0 63355571.95420213 -36397406.134811983 0 -36397406.134811983 -19965095.912882753 0 0 0 0 42322245.409423828 -36215325.021764278 0 -36215325.021764278 10300603.597463608 0 0 0 0 48334651.792984009 -42718187.980690956 0 -42718187.980690956 2948663.5980024338 0 0 0 0 153416072.60540771 -86801368.441049576 0 -86801368.441049576 55398274.17641449 0 0 0 0 9273977.5325278342 -23679946.08858487 0 -23679946.08858487 10822551.507345831 0 0 0 0 114099037.69525146 -101557791.24124146 0 -101557791.24124146 17020030.305332184 0 0 0 0 161133056.76318359 -102076839.75128555 0 -102076839.75128555 31958719.947544098 0 0 0 0 2653703.716142565 4037722.9253079258 0 4037722.9253079258 -4508813.9357723594 0 0 0 0 113688097.37203979 -120183435.37691116 0 -120183435.37691116 99439700.60742569 0 0 0 0 71777332.552490234 5917328.080581665 0 5917328.080581665 -211124097.82501984 0 0 0 0 167456915.81207275 -131009342.17520332 0 -131009342.17520332 -149553552.83757019 0 0 0 0 50911523.754013062 -77231190.294870377 0 -77231190.294870377 -171422800.96867371 0 0 0 0 108588926.56111145 -118109809.6140976 0 -118109809.6140976 -169669520.7774353 0 0 0 0 35971134.966988198 -30249046.226765748 0 -30249046.226765748 -8145724.085327832 0 0 0 0 18576326.914047241 -78265117.920970917 0 -78265117.920970917 -118454808.90306091 0 0 0 0 19828945.417724133 -54728594.749405622 0 -54728594.749405622 -14406062.065181732 0 0 0 0 15642589.541270345 -26406730.267976999 0 -26406730.267976999 113200.88474679925 0 0 0 0 -21487409.973144531 -35480591.740097046 0 -35480591.740097046 112484401.170681 0 0 0 0 148073515.89556885 -207863089.15708923 0 -207863089.15708923 61514070.967684746 0 0 0 0 115261485.48144531 -53480824.723882675 0 -53480824.723882675 -66350626.055714607 0 0 0 0 -192543272.27084351 -30600098.535594463 0 -30600098.535594463 116409939.49309158 0 0 0 0 267585242.09130859 -180718090.85006714 0 -180718090.85006714 -4322635.6666755676 0 0 0 0 721034.16349899769 891246.69954069704 0 891246.69954069704 -904961.55536477827 0 0 0 0 -96519514.21987915 -55443726.524215698 0 -55443726.524215698 88527890.349397659 0 0 0 0 2733541.6834613234 -18649430.190719888 0 -18649430.190719888 -799309.34244774655 0 0 0 0 41298524.901657104 -59299496.532097816 0 -59299496.532097816 25062229.061460972 0 0 0 0 42887592.492645264 -34392836.399664879 0 -34392836.399664879 18373061.581311941 0 0 0 0 3694804.5274613798 -18276018.80760058 0 -18276018.80760058 1645328.5289422926 0 0 0 0 48211026.168951035 -49281105.979961276 0 -49281105.979961276 13578224.587114334 0 0 0 0 45304810.323730469 -40249325.277667522 0 -40249325.277667522 33172533.555679321 0 0 0 0 32351058.677887753 -17655785.727182046 0 -17655785.727182046 -13964239.638865171 0 0 0 0 46094716.311190605 -52706043.63712126 0 -52706043.63712126 35664333.173444748 0 0 0 0 22413597.036193848 30206356.082939148 0 30206356.082939148 -113284101.2361908 0 0 0 0 -830807759.05938721 -78941376.648742676 0 -78941376.648742676 90384676.418838501 0 0 0 0 -296214009.99935913 -187769214.4662323 0 -187769214.4662323 -282362911.82225037 0 0 0 0 -314268417.9153595 79841145.475208282 0 79841145.475208282 -37995471.292572021 0 0 0 0 -371805426.50775146 86981858.511146545 0 86981858.511146545 98842718.167864323 0 0 0 0 -176181991.27148438 274023439.59232712 0 274023439.59232712 -220554919.51032257 0 0 0 0 22082189.271118164 43206972.235395432 0 43206972.235395432 -34044449.295280457 0 0 0 0 26496479.433717713 -16280911.242407244 0 -16280911.242407244 -18535174.056616098 0 0 0 0 47968888.733657837 -65520896.589060783 0 -65520896.589060783 51351432.843665123 0 0 0 0 -58899464.992103577 -60882743.940930367 0 -60882743.940930367 18865986.057296753 0 0 0 0 -48749521.157562256 8452824.1089105606 0 8452824.1089105606 -872442.19152069092 0 0 0 0 -53629314.850738525 -18933104.117961884 0 -18933104.117961884 -135884206.69083405 0 0 0 0 -101761698.02807617 39491607.978393555 0 39491607.978393555 -121874268.28287506 0 0 0 0 32174299.624221802 -20768716.275691986 0 -20768716.275691986 -49042280.707229614 0 0 0 0 51012464.916318893 -43965854.010586381 0 -43965854.010586381 45145267.098762512 0 0 0 0 33717828.061920166 -33388418.761143923 0 -33388418.761143923 32580587.275936127 0 0 0 0 60004626.853370667 -61466951.296021938 0 -61466951.296021938 27700032.26240921 0 0 0 0 42518198.48046875 -75188381.874965668 0 -75188381.874965668 66852982.224993706 0 0 0 0 23250564.981075421 -17231454.427240767 0 -17231454.427240767 -21637487.749377403 0 0 0 0 23786104.319807053 23189931.662538886 0 23189931.662538886 -110493747.13156509 0 0 0 0 45012803.352752686 -75598885.103595734 0 -75598885.103595734 -62568246.781204224 0 0 0 0 -99094734.030761719 -23668448.132061005 0 -23668448.132061005 150376696.36739159 0 0 0 0 -26556705.818584442 -37769039.317672729 0 -37769039.317672729 11556046.018035889 0 0 0 0 -4250591.3175881952 -1018547.7453425843 0 -1018547.7453425843 -6220127.783327993 0 0 0 0 -6089735.8162841797 -1301582.6418457031 0 -1301582.6418457031 -136806560.00405884 0 0 0 0 -104179202.22814941 23809491.254814148 0 23809491.254814148 -70938841.596323013 0 0 0 0 -2801394.6624569446 -832336.18683771417 0 -832336.18683771417 -3694443.6520287516 0 0 0 0 34656696.402755737 41799937.472133636 0 41799937.472133636 87649406.335502625 0 0 0 0 -73832083.118309021 99130577.503864288 0 99130577.503864288 62815932.19480896 0 0 0 0 93027260.956085205 105723420.12923813 0 105723420.12923813 -24076857.532096863 0 0 0 0 65919239.421142578 -237571964.9520092 0 -237571964.9520092 120444592.33233643 0 0 0 0 129536135.22821045 39383631.210575104 0 39383631.210575104 6680736.2555999756 0 0 0 0 -2118572.1774005219 -2509938.757269755 0 -2509938.757269755 5577410.5251312628 0 0 0 0 34911077.068313599 -256993219.8182869 0 -256993219.8182869 136131745.13819504 0 0 0 0 60560574.584686279 -272880023.60864258 0 -272880023.60864258 142463900.26643372 0 0 0 0 -244693647.88726807 409999122.21138 0 409999122.21138 108932494.94067383 0 0 0 0 -142893786.49485016 -355760108.92915154 0 -355760108.92915154 140161034.6869812 0 0 0 0 -351081865.65441895 -159892566.36087036 0 -159892566.36087036 -20270622.05266571 0 0 0 0 -32711.485304832458 24760.039390794933 0 24760.039390794933 52550.867604740895 0 0 0 0 122424345.70526123 48469972.862205505 0 48469972.862205505 -238019260.49928284 0 0 0 0 -639237.49348704517 -849982.13721411675 0 -849982.13721411675 21617.27635936439 0 0 0 0 -1272887046.9934692 243249831.24312592 0 243249831.24312592 -41799355.570186615 0 0 0 0 -1474713096.9664764 -266317279.2369976 0 -266317279.2369976 167151694.2019043 0 0 0 0 78713366.811889648 -101145910.41448975 0 -101145910.41448975 13319388.436260223 0 0 0 0 41712359.408966064 -79264381.695922852 0 -79264381.695922852 17080312.92691803 0 0 0 0 20038885.394897461 -118995747.9678421 0 -118995747.9678421 11529471.628761292 0 0 0 0 246343702.93807983 -40049647.202030182 0 -40049647.202030182 -60643536.490747452 0 0 0 0 -3455431.7407905906 -25673.906575404108 0 -25673.906575404108 630763.22281429917 0 0 0 0 -73989602.609710693 -92134332.733867645 0 -92134332.733867645 18114275.227413177 0 0 0 0 -40914212.358909607 32888279.302679062 0 32888279.302679062 -23672684.647209167 0 0 0 0 109067875.33815002 -41085262.109886169 0 -41085262.109886169 -1163467.727897644 0 0 0 0 19436671.389434814 -8566123.0738391876 0 -8566123.0738391876 -12116501.910686493 0 0 0 0 38969606.174545288 -73887879.162276745 0 -73887879.162276745 26286119.779205322 0 0 0 0 52690453.000778198 -82008072.937072754 0 -82008072.937072754 21870522.756500244 0 0 0 0 106465976.40570068 -63738828.451108932 0 -63738828.451108932 35303038.368659973 0 0 0 0 54577667.014556885 -94400447.051124573 0 -94400447.051124573 36148662.679558814 0 0 0 0 -9642419.5112989694 -19612579.086388707 0 -19612579.086388707 18240002.028037399 0 0 0 0 7234070.0518061519 -11769200.072794937 0 -11769200.072794937 -11573968.600656101 0 0 0 0 23340911.931113809 -20602738.624802634 0 -20602738.624802634 -25412555.787908696 0 0 0 0 53005677.532104492 -52317937.212152004 0 -52317937.212152004 15970866.247292519 0 0 0 0 22606218.761398315 -43874420.660642624 0 -43874420.660642624 60677859.999004364 0 0 0 0 44587855.884338379 -72558140.461061478 0 -72558140.461061478 66575397.810953617 0 0 0 0 50903105.351425171 -84207192.396129608 0 -84207192.396129608 19728043.996650696 0 0 0 0 -7979095.8114765361 -23741470.996984702 0 -23741470.996984702 24812461.024583418 0 0 0 0 18792570.516265869 -32442552.144968033 0 -32442552.144968033 49773420.484749794 0 0 0 0 11327925.090815112 -11767367.026312809 0 -11767367.026312809 -23852613.572079439 0 0 0 0 47263375.641433716 -50494541.109220982 0 -50494541.109220982 11095725.708121061 0 0 0 0 25477357.711486816 -50583025.543017387 0 -50583025.543017387 42519366.534515381 0 0 0 0 101613508.19082642 25492402.989318848 0 25492402.989318848 -110719625.54301453 0 0 0 0 8362901.2089618817 -34424720.115844838 0 -34424720.115844838 7202620.1438430324 0 0 0 0 1605764.6786404252 841612.22391657531 0 841612.22391657531 -3865717.8086543754 0 0 0 0 17083098.634241104 -34923354.94710803 0 -34923354.94710803 -60370410.854873657 0 0 0 0 -47684143.950805664 -27207347.184768677 0 -27207347.184768677 -3058034.860458374 0 0 0 0 -1649053.0244140625 -22828987.42729187 0 -22828987.42729187 -67737400.530296326 0 0 0 0 -4961530.6219476014 -2430619.001179602 0 -2430619.001179602 -13151162.959879737 0 0 0 0 1396673.9339599609 6719593.2801361084 0 6719593.2801361084 -69944022.190933228 0 0 0 0 5494327.4043273926 -63310885.088569641 0 -63310885.088569641 46514365.048961639 0 0 0 0 14698217.700622559 -17616120.66753006 0 -17616120.66753006 4907436.5241518021 0 0 0 0 1067175.8849956542 -16878683.945201419 0 -16878683.945201419 -6332239.2740175277 0 0 0 0 14764773.12008667 -31402943.550075531 0 -31402943.550075531 47190306.712371826 0 0 0 0 7641306.1109931469 -7157866.3170610322 0 -7157866.3170610322 -22455515.136253104 0 0 0 0 8299790.9145507812 -15430795.509040833 0 -15430795.509040833 12470534.160961151 0 0 0 0 4294148.4652760178 -11599849.039255038 0 -11599849.039255038 1205761.0845339987 0 0 0 0 4799494.3091611639 -16315515.792930149 0 -16315515.792930149 1703083.1342594624 0 0 0 0 25105728.241142273 -34778579.78922081 0 -34778579.78922081 -11594084.720901489 0 0 0 0 772008.67510871589 -2138443.3930654027 0 -2138443.3930654027 -4076344.6387562943 0 0 0 0 -3617002.8753662109 -44010254.144203186 0 -44010254.144203186 58510419.009037018 0 0 0 0 24291799.753082275 -13316712.830572128 0 -13316712.830572128 -42181596.564413548 0 0 0 0 -79424039.938446045 -10834824.061206818 0 -10834824.061206818 69094688.753898621 0 0 0 0 -89854247.864599228 -126886117.24791479 0 -126886117.24791479 243384387.97200012 0 0 0 0 -956117.63092157245 -19115452.799281046 0 -19115452.799281046 -6951037.4709964227 0 0 0 0 108154954.14797974 -195648487.38064957 0 -195648487.38064957 78087189.367088318 0 0 0 0 -42933733.204101562 -14359234.399868011 0 -14359234.399868011 65635626.644989014 0 0 0 0 -67662516.482971191 -142112087.45539665 0 -142112087.45539665 156091020.76057434 0 0 0 0 -2707144.0891746357 412529.87271091342 0 412529.87271091342 1656174.772834789 0 0 0 0 160154967.5605011 67570391.041526794 0 67570391.041526794 -149528755.7881813 0 0 0 0 4430637.4012434185 -29830562.196250871 0 -29830562.196250871 -9138477.8321943041 0 0 0 0 53083667.283630371 -54895556.203136444 0 -54895556.203136444 -12255515.400627136 0 0 0 0 6580326.4358995557 -35940307.926188476 0 -35940307.926188476 3839166.4504318945 0 0 0 0 7632650.9169311523 -83895304.91143322 0 -83895304.91143322 -2155939.1665546894 0 0 0 0 27040525.962097168 -147451817.29290867 0 -147451817.29290867 29378105.923370361 0 0 0 0 7885476.772064209 -87895374.43915081 0 -87895374.43915081 -85132517.212491989 0 0 0 0 -38161550.924865723 -46651269.495277405 0 -46651269.495277405 567191.52605724335 0 0 0 0 -57206899.044281006 -145981717.47542572 0 -145981717.47542572 10184897.143173218 0 0 0 0 -69622019.074890137 16176515.943252563 0 16176515.943252563 5871533.9084935188 0 0 0 0 -55857684.711349487 10834274.823895454 0 10834274.823895454 515683.19752502441 0 0 0 0 -1500445.1668847352 890831.94206929207 0 890831.94206929207 241122.3977175951 0 0 0 0 -9921184.9016723633 10425263.623664856 0 10425263.623664856 -29556567.830062866 0 0 0 0 -59489537.63067627 -3120960.391254425 0 -3120960.391254425 2836032.3900413513 0 0 0 0 -67080888.324035645 2327822.5416412354 0 2327822.5416412354 6770143.7319450378 0 0 0 0 -84351828.665008545 7669782.509472847 0 7669782.509472847 10871423.125778198 0 0 0 0 7806846.0006375015 -21493226.949793339 0 -21493226.949793339 2564179.176172534 0 0 0 0 -17141437.15246582 -45381919.534416199 0 -45381919.534416199 -3618253.7603683472 0 0 0 0 -76782401.876003265 -33821834.086211443 0 -33821834.086211443 9638201.7813568115 0 0 0 0 21205684.777435303 6763680.7066402435 0 6763680.7066402435 -61953366.633928299 0 0 0 0 -69706982.987243652 -19385593.910284042 0 -19385593.910284042 26146736.782012939 0 0 0 0 -8978532.2278442383 -40058383.638764381 0 -40058383.638764381 21709369.705688477 0 0 0 0 -12881791.925323486 -20071917.633672714 0 -20071917.633672714 2642991.8513717651 0 0 0 0 7929325.4378814697 -14800699.674993515 0 -14800699.674993515 2434728.3141479492 0 0 0 0 9690314.7602539062 -10347253.999359131 0 -10347253.999359131 5870921.216178894 0 0 0 0 -1618976.048958987 -3253528.4208706496 0 -3253528.4208706496 1780267.4150127303 0 0 0 0 -42401804.730316162 -30803017.562164307 0 -30803017.562164307 2511837.0719184875 0 0 0 0 -4221961.7071632408 -85541.873893290758 0 -85541.873893290758 187344.13357443362 0 0 0 0 -6739043.3831941783 -590140.64657444507 0 -590140.64657444507 2982058.3551662304 0 0 0 0 -57879615.168922424 -13283437.944359779 0 -13283437.944359779 17795043.112503052 0 0 0 0 -52024557.003173828 -12766757.35358429 0 -12766757.35358429 8035721.6003856659 0 0 0 0 912396.49047851562 -2357712.276134491 0 -2357712.276134491 -3217388.0535621643 0 0 0 0 5106781.4780508578 -635638.89513152093 0 -635638.89513152093 -2315295.0346319834 0 0 0 0 -5929631.2936706543 -30521565.792933464 0 -30521565.792933464 -38781622.641414642 0 0 0 0 451782.34088134766 -3435737.127986908 0 -3435737.127986908 -5314340.061964035 0 0 0 0 648525.01763916016 -4022015.5584068298 0 -4022015.5584068298 -5844065.8360443115 0 0 0 0 37122352.921905518 -23771200.749732018 0 -23771200.749732018 -2993627.7243318558 0 0 0 0 8978826.3874146044 -5279426.7331120791 0 -5279426.7331120791 -481810.59145063767 0 0 0 0 -146845.89434345067 -6130088.0676291734 0 -6130088.0676291734 -2338999.6287862696 0 0 0 0 38793.37158203125 -4206561.4979324341 0 -4206561.4979324341 -5247965.4309692383 0 0 0 0 50658774.981140137 -7332372.8637313843 0 -7332372.8637313843 68234320.023925781 0 0 0 0 87478.128743067384 -17281672.241289228 0 -17281672.241289228 1034459.5399986953 0 0 0 0 5500602.5331304073 -4547927.6010536477 0 -4547927.6010536477 2520009.9236083608 0 0 0 0 34616491.973632812 -43281649.190842152 0 -43281649.190842152 -11070013.038551331 0 0 0 0 33730580.036315918 -58711260.665213585 0 -58711260.665213585 -8706222.1664390564 0 0 0 0 35170706.541137695 -8129730.5091381073 0 -8129730.5091381073 -106892262.31452942 0 0 0 0 14667535.260864258 -9142820.8410978317 0 -9142820.8410978317 19187676.013463974 0 0 0 0 16008502.398635864 2023285.9455928802 0 2023285.9455928802 -6258586.1471443176 0 0 0 0 388478.27032704651 -1478168.3024223298 0 -1478168.3024223298 1899121.9721292201 0 0 0 0 -42816782.182220459 -85441149.625433922 0 -85441149.625433922 33502942.343996525 0 0 0 0 -32238807.576324463 -125705828.29170895 0 -125705828.29170895 -109171222.90332031 0 0 0 0 39363552.31652832 -67701706.925415516 0 -67701706.925415516 -264722003.61774623 0 0 0 0 -72136732.970092773 22213849.830803394 0 22213849.830803394 -80100213.42444706 0 0 0 0 52470003.68182373 16447864.530732155 0 16447864.530732155 -247884682.75549507 0 0 0 0 69589907.715393066 -45954960.742115736 0 -45954960.742115736 -290905920.37104583 0 0 0 0 -8333896.8992996216 -98292674.202908754 0 -98292674.202908754 -183261022.6107235 0 0 0 0 1097543.452507019 -158571287.14608634 0 -158571287.14608634 203008286.69151211 0 0 0 0 -1829488.6777317822 2162378.8331722096 0 2162378.8331722096 1690068.9713652134 0 0 0 0 11901646.817932129 -72939732.339853764 0 -72939732.339853764 131282300.20969009 0 0 0 0 -3358355.0866763592 3919669.7916025966 0 3919669.7916025966 3087174.3635753328 0 0 0 0 94917262.971221924 -44761448.161884785 0 -44761448.161884785 47393246.587635279 0 0 0 0 3951257.8551940918 -78034865.96372509 0 -78034865.96372509 1565306.3711590767 0 0 0 0 40724213.640228271 -4312848.6310124397 0 -4312848.6310124397 -62427373.2519207 0 0 0 0 -12718487.046966553 -68170814.664495587 0 -68170814.664495587 142553999.89608288 0 0 0 0 46641176.278503418 -79115789.453792572 0 -79115789.453792572 -162617059.01441956 0 0 0 0 42072824.375152588 -74566636.497731686 0 -74566636.497731686 -106636895.07982635 0 0 0 0 57194177.010009766 -64668085.845074654 0 -64668085.845074654 -146391850.09858322 0 0 0 0 54526271.585876465 -89616005.070793152 0 -89616005.070793152 -219750954.20040989 0 0 0 0 24375069.449401855 -34289879.427425861 0 -34289879.427425861 -36682159.391840465 0 0 0 0 -1187103.6492843628 6103869.678523913 0 6103869.678523913 141227225.44855273 0 0 0 0 34201809.288299561 -72781756.28742063 0 -72781756.28742063 -16666133.557125933 0 0 0 0 -7084604.5683898926 -46711997.942145109 0 -46711997.942145109 -15253982.100730896 0 0 0 0 -37436526.487518311 -120389333.04126835 0 -120389333.04126835 -160833928.02539444 0 0 0 0 -109838168.50372314 -54728323.992321014 0 -54728323.992321014 -96252281.752885818 0 0 0 0 -29559651.792999268 16992556.860706329 0 16992556.860706329 -41357779.220455885 0 0 0 0 79698.623709219682 -28035164.546477247 0 -28035164.546477247 -221538997.08602905 0 0 0 0 -49047091.745239258 -134565242.97183418 0 -134565242.97183418 -143892265.79247665 0 0 0 0 -2173660.3003937304 -76425.400682494044 0 -76425.400682494044 2333473.749613232 0 0 0 0 -36287331.828857422 -53209741.376781464 0 -53209741.376781464 23667458.544048309 0 0 0 0 5130858.2326049805 -96875125.536252022 0 -96875125.536252022 -359514032.29141998 0 0 0 0 3646713.9537353516 -32747714.988191605 0 -32747714.988191605 -147586712.2505188 0 0 0 0 -32296170.874149323 35179708.938880205 0 35179708.938880205 -112220873.1270752 0 0 0 0 -37551487.02935791 123901327.00940514 0 123901327.00940514 -337976696.75324869 0 0 0 0 29511180.549520493 12805888.907110453 0 12805888.907110453 8787643.6726112366 0 0 0 0 33197632.402366638 -21037164.908105135 0 -21037164.908105135 1411350.560005188 0 0 0 0 25505775.485748291 6239108.9803543091 0 6239108.9803543091 -6310681.7758178711 0 0 0 0 -39235799.82623291 -25788252.001856804 0 -25788252.001856804 -13181477.083030701 0 0 0 0 -17579599.51763916 4597358.0125713348 0 4597358.0125713348 12366547.720214844 0 0 0 0 4754618.8526611328 4394320.4379577637 0 4394320.4379577637 -11535733.718463898 0 0 0 0 -89613.297775268555 -11730714.626795769 0 -11730714.626795769 -40126388.325302124 0 0 0 0 -841795.310546875 -27653991.796470642 0 -27653991.796470642 -79838727.359117508 0 0 0 0 5239769.9258422852 -53973602.298130035 0 -53973602.298130035 -89228646.736808777 0 0 0 0 7314947.6926879883 -41959104.808273315 0 -41959104.808273315 -28933661.99679184 0 0 0 0 36237339.080780029 -54346638.201108456 0 -54346638.201108456 -133231955.1916008 0 0 0 0 42658184.130935669 -43044903.459303379 0 -43044903.459303379 -160818159.40539169 0 0 0 0 37653032.895263672 -43419269.892040253 0 -43419269.892040253 -148800477.51024914 0 0 0 0 34081237.120697021 -67952425.043167591 0 -67952425.043167591 -233529741.42730713 0 0 0 0 20904148.761108398 36843374.465869904 0 36843374.465869904 -202302026.83722019 0 0 0 0 25110356.981994629 652143.79837608337 0 652143.79837608337 -114062697.921875 0 0 0 0 24210122.49230957 237101.07009506226 0 237101.07009506226 -109609733.08175659 0 0 0 0 6525266.9252929688 -19406186.621651649 0 -19406186.621651649 -95766020.099006653 0 0 0 0 2105220.2340087891 8361769.6407089233 0 8361769.6407089233 -62186253.948375702 0 0 0 0 -14269380.500427246 4871515.4312839508 0 4871515.4312839508 6867974.0234489441 0 0 0 0 -690958.21178425848 512106.84870681167 0 512106.84870681167 1908016.5383607028 0 0 0 0 738675.97698974609 -10484358.500377655 0 -10484358.500377655 -58255908.390547752 0 0 0 0 -4631393.9463323951 -487334.51244821399 0 -487334.51244821399 5284526.2114026193 0 0 0 0 36192244.331787109 1874044.3815002441 0 1874044.3815002441 -52405859.547210693 0 0 0 0 15386116.177490234 -15732291.690071106 0 -15732291.690071106 -66670618.582210541 0 0 0 0 9570233.8014526367 30815502.568401337 0 30815502.568401337 -95288610.531202316 0 0 0 0 7101710.2542724609 2075951.3793067932 0 2075951.3793067932 22399202.06287384 0 0 0 0 22875896.278686523 -20902505.279270172 0 -20902505.279270172 25966382.320678711 0 0 0 0 -76131.507814586163 100252.3596457392 0 100252.3596457392 320534.12204933632 0 0 0 0 762192.86230333149 -155361.05394677073 0 -155361.05394677073 -753682.83746231906 0 0 0 0 5460811.0587158203 -30881691.174316406 0 -30881691.174316406 2826965.4994888306 0 0 0 0 -19402556.423339844 -22285809.521331787 0 -22285809.521331787 14672064.499694824 0 0 0 0 10101895.308227539 1745165.6051483154 0 1745165.6051483154 1521166.7461090088 0 0 0 0 13904154.023193359 12576062.067901611 0 12576062.067901611 12449692.072041512 0 0 0 0 -2941098.7213104665 -213080.27883390337 0 -213080.27883390337 5486322.7354404181 0 0 0 0 -654622.60999581218 864596.62672725692 0 864596.62672725692 2054932.0667525856 0 0 0 0 -1458307.4797363281 1756413.0828170776 0 1756413.0828170776 2513286.6806030273 0 0 0 0 -964320.46923372149 1638180.8878838476 0 1638180.8878838476 -1127301.115007095 0 0 0 0 181590.25616455078 550104.42316627502 0 550104.42316627502 -11115203.910898209 0 0 0 0 2104762.4155273438 -729533.38864898682 0 -729533.38864898682 6062317.7165374756 0 0 0 0 2558274.2497390211 -688159.63341497071 0 -688159.63341497071 -2276002.7227894319 0 0 0 0 10643317.677276611 -6343314.6128845215 0 -6343314.6128845215 -65591269.11341095 0 0 0 0 4017299.1998291016 -16643438.633453846 0 -16643438.633453846 -61560925.352394104 0 0 0 0 -4311323.9975312352 -1257486.0229369812 0 -1257486.0229369812 2766183.9852166064 0 0 0 0 -2524305.4284973145 1654439.4813938141 0 1654439.4813938141 6982819.9441833496 0 0 0 0 15841712.288146973 -94028236.420621872 0 -94028236.420621872 173855494.05638123 0 0 0 0 -17293444.466308594 -6911322.4975395203 0 -6911322.4975395203 7895661.5531539917 0 0 0 0 342057.07415771484 -1264362.316947937 0 -1264362.316947937 5530050.2139797211 0 0 0 0 -5076412.0775723159 1237678.0202843919 0 1237678.0202843919 5628175.5023299828 0 0 0 0 3121768.4297787547 4910009.1113977311 0 4910009.1113977311 -2434331.4931895728 0 0 0 0 -57756576.882568359 19928644.711643219 0 19928644.711643219 150078009.14126778 0 0 0 0 -310618691.45419312 123210190.30586624 0 123210190.30586624 90351801.349350929 0 0 0 0 -33572158.206962585 175991912.47386336 0 175991912.47386336 82312360.799037933 0 0 0 0 -147079978.73474121 -184112419.22361374 0 -184112419.22361374 -109141870.66812515 0 0 0 0 -50302868.230651855 23748527.715908051 0 23748527.715908051 66533704.37727356 0 0 0 0 -134800411.82196045 -98889336.496086121 0 -98889336.496086121 176164194.6906662 0 0 0 0 -91828388.655578613 15612552.505687714 0 15612552.505687714 -65279143.597297668 0 0 0 0 160984101.31106567 -97077269.824474335 0 -97077269.824474335 -63543176.641227722 0 0 0 0 2753815.5760964304 5581468.2073747162 0 5581468.2073747162 -1466516.0218624659 0 0 0 0 -15802632.20715332 -13262512.413927078 0 -13262512.413927078 -13860031.565570831 0 0 0 0 -8263764.7444458008 6059923.6769523621 0 6059923.6769523621 28641322.321879387 0 0 0 0 2467422.4001127481 4935571.8341786265 0 4935571.8341786265 -782693.73421108071 0 0 0 0 -678257.44573974609 7128559.2822227478 0 7128559.2822227478 -1062886.2732048035 0 0 0 0 93274096.464950562 130549244.88211441 0 130549244.88211441 94512162.381519318 0 0 0 0 -8263764.7444458008 -10127861.06785965 0 -10127861.06785965 4346303.1862154007 0 0 0 0 5121055.239397943 -1486699.939473547 0 -1486699.939473547 -4735398.4454687815 0 0 0 0 52551.405914306641 -16042125.908946991 0 -16042125.908946991 -10221076.885005951 0 0 0 0 -41229.533081054688 -16104837.6837883 0 -16104837.6837883 -10185954.154659271 0 0 0 0 6005437.5489049405 -1373933.1626059562 0 -1373933.1626059562 -5888517.3446527235 0 0 0 0 191832069.9597168 106859905.54496193 0 106859905.54496193 217302910.7796936 0 0 0 0 186688832.93349838 61917038.798585415 0 61917038.798585415 -169811068.4726944 0 0 0 0 14085578.742523193 -239812420.89802265 0 -239812420.89802265 59239489.613937378 0 0 0 0 59247051.110870361 -112833302.04353714 0 -112833302.04353714 381579641.57331085 0 0 0 0 260306.18404336803 -85356176.10798569 0 -85356176.10798569 460652570.2739563 0 0 0 0 100996070.6338501 -138174357.11616135 0 -138174357.11616135 272486690.57842064 0 0 0 0 -961297.74301242828 1566724.2742832825 0 1566724.2742832825 -119239.43200449762 0 0 0 0 -107212665.82342529 104353465.77853394 0 104353465.77853394 30569820.3359828 0 0 0 0 26455324.61177063 -24258230.774360657 0 -24258230.774360657 -398484893.74881744 0 0 0 0 -258949390.60826111 13849062.376497269 0 13849062.376497269 151186131.74254608 0 0 0 0 143369489.03515625 -252592564.61555481 0 -252592564.61555481 254013373.3021698 0 0 0 0 -230998093.41343689 1926219.3101234436 0 1926219.3101234436 43924514.66633606 0 0 0 0 -7965735.8972473145 37012643.840255737 0 37012643.840255737 24599326.37713623 0 0 0 0 6499068.6722685844 -6725014.2159904614 0 -6725014.2159904614 -1232038.5461960845 0 0 0 0 -95147379.758346558 -156055015.13081741 0 -156055015.13081741 -130289312.43351746 0 0 0 0 -46611110.762939453 26249199.470947266 0 26249199.470947266 -40350798.276294708 0 0 0 0 106411996.40179443 44221782.095672607 0 44221782.095672607 -161699403.31859112 0 0 0 0 -5378738.3877639771 -167129465.25249481 0 -167129465.25249481 49905207.210838318 0 0 0 0 -103191327.59405518 -27621213.964925766 0 -27621213.964925766 141986073.75079346 0 0 0 0 -2652649.4672340751 -398019.3166340068 0 -398019.3166340068 -704189.10802102741 0 0 0 0 -18814237.154296875 -29578773.532913208 0 -29578773.532913208 137559512.1493988 0 0 0 0 20679854.560058594 -59854951.870769501 0 -59854951.870769501 13217461.299118042 0 0 0 0 -14159557.416505843 -7955228.8116124943 0 -7955228.8116124943 4969177.0512849139 0 0 0 0 3886205.4861522019 -13758373.354071036 0 -13758373.354071036 -279664.92807522044 0 0 0 0 -21546171.496582031 -70325114.991428375 0 -70325114.991428375 -54821726.817111969 0 0 0 0 -28927002.826087952 -57013692.089831352 0 -57013692.089831352 -11986884.021686554 0 0 0 0 5391657.0176422596 -8957337.3562689591 0 -8957337.3562689591 -3444963.6683880584 0 0 0 0 -59813772.817602158 -97949880.768694401 0 -97949880.768694401 16176975.27816391 0 0 0 0 -59960876.773193359 10333879.076881409 0 10333879.076881409 183004479.05842972 0 0 0 0 -935675.70444321632 -1578335.5551591814 0 -1578335.5551591814 434204.26541824546 0 0 0 0 48979264.502532959 19861388.933731079 0 19861388.933731079 106941436.99803162 0 0 0 0 -158576.46896362305 -23333595.192184448 0 -23333595.192184448 113132974.95599556 0 0 0 0 -53062264.540344238 57016436.585578918 0 57016436.585578918 362274093.73478413 0 0 0 0 -69455229.729705811 -10588723.513313293 0 -10588723.513313293 210651375.30964661 0 0 0 0 -81912954.361206055 8401858.839553833 0 8401858.839553833 208738314.93000412 0 0 0 0 -93631737.42401123 10523180.400131226 0 10523180.400131226 345592084.79537582 0 0 0 0 -41155573.962158203 12120969.060668945 0 12120969.060668945 103231386.19302368 0 0 0 0 -33803216.03288269 -19479473.143182755 0 -19479473.143182755 57914022.913726807 0 0 0 0 -36994995.830505371 -62978527.569419861 0 -62978527.569419861 188526428.24191284 0 0 0 0 -37800830.215209961 -29153683.77129364 0 -29153683.77129364 125620293.42358398 0 0 0 0 2668424.4951782227 -12253420.863121033 0 -12253420.863121033 11892298.422966003 0 0 0 0 -59830933.418029785 -27708307.045257568 0 -27708307.045257568 84156301.545562744 0 0 0 0 -11719044.606835902 -11481409.105354071 0 -11481409.105354071 4107501.9588868842 0 0 0 0 -35895396.342102051 -34201862.985565186 0 -34201862.985565186 -4152088.6516723633 0 0 0 0 -6013792.367276866 -7726048.3979106992 0 -7726048.3979106992 1319788.6358072311 0 0 0 0 -4801239.6068115234 -7142436.0085830688 0 -7142436.0085830688 -2117356.5532164574 0 0 0 0 -4666663.3597106934 -6946411.8506088257 0 -6946411.8506088257 -2753736.2245483398 0 0 0 0 -6385955.1399687305 -7313862.7118198201 0 -7313862.7118198201 -4007884.2736151852 0 0 0 0 -3329970.7960205078 -7363173.2905197144 0 -7363173.2905197144 8811639.4725341797 0 0 0 0 -4655226.6296386719 -11721047.954376221 0 -11721047.954376221 -3026417.785446167 0 0 0 0 -2036743.8564453125 -9239258.8023071289 0 -9239258.8023071289 -3339290.8019943237 0 0 0 0 -8581037.2301025391 17629578.345573425 0 17629578.345573425 28735840.021026611 0 0 0 0 -41211065.494873047 -22338660.96786499 0 -22338660.96786499 58358504.438066483 0 0 0 0 -22313774.567321777 -13209804.268768311 0 -13209804.268768311 -38235172.292419434 0 0 0 0 55114.314507827163 -2024554.7672062814 0 -2024554.7672062814 -2010871.9080168456 0 0 0 0 -6776379.4096488953 -16316294.653754234 0 -16316294.653754234 -9027637.6682739258 0 0 0 0 -7024590.2838315964 -7193586.5833436847 0 -7193586.5833436847 -3044897.8106842041 0 0 0 0 -7276446.7325439453 -10010199.144615173 0 -10010199.144615173 -5372633.6201605797 0 0 0 0 -7967056.2196528018 -9364925.321408432 0 -9364925.321408432 -3015825.4664296471 0 0 0 0 -9433552.2712034583 -17083656.909179866 0 -17083656.909179866 2597112.7644479284 0 0 0 0 -36281.06626611203 -97437.967232748866 0 -97437.967232748866 -83421.555188454688 0 0 0 0 -7882442.1038208008 -22622545.153377533 0 -22622545.153377533 -13938537.080703735 0 0 0 0 -11908185.312713623 -22185463.690395355 0 -22185463.690395355 7002300.9515075684 0 0 0 0 -4285044.7894897461 -5737783.4348258972 0 -5737783.4348258972 869775.99843597412 0 0 0 0 -1860642.3328898996 -11215745.429206245 0 -11215745.429206245 22523.749194059521 0 0 0 0 -5432906.7178041339 -5721868.1086184001 0 -5721868.1086184001 6257746.5202338751 0 0 0 0 4040381.4131011963 -11191113.254733086 0 -11191113.254733086 15088450.760559082 0 0 0 0 -8965951.1349516585 -9707653.8195941448 0 -9707653.8195941448 -2778071.6398654729 0 0 0 0 -8624802.1659577042 -10678877.853300668 0 -10678877.853300668 3283400.3874725103 0 0 0 0 -16176012.397155762 -38253727.364643097 0 -38253727.364643097 17423956.536437988 0 0 0 0 -11379182.840026855 -39271425.425418854 0 -39271425.425418854 -1847195.7079086304 0 0 0 0 180062.80546529591 -7307924.4771215618 0 -7307924.4771215618 7003849.6913294587 0 0 0 0 -244628.18237304688 -4513463.5855407715 0 -4513463.5855407715 3905804.46692276 0 0 0 0 -40529.74267578125 -6930197.538482666 0 -6930197.538482666 13119645.543212891 0 0 0 0 -4072356.5574840605 -10452710.120855616 0 -10452710.120855616 -2840514.4603095045 0 0 0 0 -2685598.826965332 -8158197.8233718872 0 -8158197.8233718872 9306101.8952026367 0 0 0 0 -4875364.5889545381 -10286203.181701005 0 -10286203.181701005 -188249.85638490506 0 0 0 0 -2491048.9902572632 -9248416.509016037 0 -9248416.509016037 6149365.6493835449 0 0 0 0 -295330.48675180972 -6694141.3437914625 0 -6694141.3437914625 7266752.8586251354 0 0 0 0 -2616335.7432861328 -6898488.7263336182 0 -6898488.7263336182 1111727.5712738037 0 0 0 0 -2127173.7703857422 -5016775.1879806519 0 -5016775.1879806519 -1297324.7379837036 0 0 0 0 -7203847.5239257812 -9537688.6073303223 0 -9537688.6073303223 -2692587.9154663086 0 0 0 0 -10029985.766622309 -5777227.2290566415 0 -5777227.2290566415 -408733.99100563303 0 0 0 0 -10045728.607661232 -9854770.2590053827 0 -9854770.2590053827 -4434345.2889357582 0 0 0 0 -2241932.452911377 -5094595.1965522766 0 -5094595.1965522766 -1847862.0994873047 0 0 0 0 -3117341.8684082031 -3783596.5640563965 0 -3783596.5640563965 -1373155.3397064209 0 0 0 0 -9208294.236484766 -7379830.7315705642 0 -7379830.7315705642 -3645432.5334707163 0 0 0 0 -6180472.1806325316 -7539621.2699631564 0 -7539621.2699631564 -4456053.4005995896 0 0 0 0 -739050.15016943216 -6271992.9717307463 0 -6271992.9717307463 5103904.9689845834 0 0 0 0 2135705.06419155 -7600730.9289381728 0 -7600730.9289381728 4497659.5637812801 0 0 0 0 3010965.9105224609 -6516710.2536621094 0 -6516710.2536621094 -898442.89421844482 0 0 0 0 3221237.5118713379 -6045883.24974823 0 -6045883.24974823 -1052249.8675384521 0 0 0 0 2339262.2296142578 -5324903.6332168579 0 -5324903.6332168579 1121302.0210037231 0 0 0 0 3376374.2386296839 -6755852.3276451305 0 -6755852.3276451305 2453121.6640179129 0 0 0 0 -8606502.2070920989 -7293916.4052930176 0 -7293916.4052930176 -1278527.1242792718 0 0 0 0 -652819.77209472656 -4895301.3758087158 0 -4895301.3758087158 3836034.8064193726 0 0 0 0 -3460307.2723083496 -6694581.568857193 0 -6694581.568857193 -2110144.2579956055 0 0 0 0 -12934104.125987187 -11184394.986973822 0 -11184394.986973822 -2356790.8195725232 0 0 0 0 -4651800.7103905678 -17242214.132277466 0 -17242214.132277466 8152781.4300183551 0 0 0 0 2080987.2958755493 -6989639.3851655945 0 -6989639.3851655945 5961187.7300237045 0 0 0 0 -14256870.51184082 -22110472.124443054 0 -22110472.124443054 2103066.5961904526 0 0 0 0 -11240799.629995115 -2098425.1279555485 0 -2098425.1279555485 5488690.389030613 0 0 0 0 -8080750.3180000931 -3438634.0536120385 0 -3438634.0536120385 -2103111.5603788085 0 0 0 0 -60647083.594116211 -26902173.513397217 0 -26902173.513397217 -3037031.6217651367 0 0 0 0 -7711913.759979248 -3007959.8764677048 0 -3007959.8764677048 445740.96601867676 0 0 0 0 -4876674.0977607146 -5762477.2808544785 0 -5762477.2808544785 -5304469.0038560946 0 0 0 0 -28094138.555633545 -49809273.899611473 0 -49809273.899611473 -21020446.435905427 0 0 0 0 3112346.5579251647 -6154368.8880097792 0 -6154368.8880097792 2628634.0422618464 0 0 0 0 -8514345.5402992219 -9416917.6968222558 0 -9416917.6968222558 -82223.917728848755 0 0 0 0 5082057.132019043 -6614235.1973609924 0 -6614235.1973609924 2985429.4738883972 0 0 0 0 2113022.044272989 -12318703.335670352 0 -12318703.335670352 2603341.4171658624 0 0 0 0 3973198.8926696777 -7997117.0011005402 0 -7997117.0011005402 3047866.8828544617 0 0 0 0 6280597.9345703125 -12251943.681777954 0 -12251943.681777954 13126624.745635986 0 0 0 0 3031040.2911463678 -5648748.8711768538 0 -5648748.8711768538 3703859.5268133869 0 0 0 0 4204210.0628585815 -7145625.8037061691 0 -7145625.8037061691 2929.8215026855469 0 0 0 0 -8730244.3694052696 -4316045.7352375388 0 -4316045.7352375388 6695631.4227298815 0 0 0 0 1740689.6104959846 -5611322.4563644081 0 -5611322.4563644081 3395867.8854955817 0 0 0 0 3052448.6069641113 -16478187.692895889 0 -16478187.692895889 44783750.17697525 0 0 0 0 -9862667.6091918945 19538548.581539154 0 19538548.581539154 58130663.161941528 0 0 0 0 -26028225.125549316 -13257686.001029968 0 -13257686.001029968 42533748.527172089 0 0 0 0 -41876.985412597656 -4913492.1003608704 0 -4913492.1003608704 989474.10025024414 0 0 0 0 116012.90597218275 -1784377.6143177673 0 -1784377.6143177673 3371493.8426567679 0 0 0 0 -5643238.6648545861 -6733235.5085386261 0 -6733235.5085386261 5261138.9800599851 0 0 0 0 -8778538.4017333984 -3385756.6557693481 0 -3385756.6557693481 2088920.4357070923 0 0 0 0 -1751305.7324829102 -15483469.626159668 0 -15483469.626159668 -3366469.9877319336 0 0 0 0 -1664861.4667499065 -241198.60953633487 0 -241198.60953633487 562218.99500427768 0 0 0 0 -48324901.099060059 -5528044.8202209473 0 -5528044.8202209473 52153225.402603149 0 0 0 0 -55320734.995117188 50975517.055541992 0 50975517.055541992 15039858.432548523 0 0 0 0 110449234.38085938 -247700880.37887669 0 -247700880.37887669 20003520.480308533 0 0 0 0 -2400740.3250817806 433374.15208343416 0 433374.15208343416 2520902.3210393898 0 0 0 0 -11457380.573364258 44710940.376899719 0 44710940.376899719 3189549.6262352467 0 0 0 0 -57624290.169403076 -71509649.850576401 0 -71509649.850576401 40439434.662597656 0 0 0 0 -84175206.981552124 -7700668.2275085449 0 -7700668.2275085449 33429130.762374878 0 0 0 0 -47016718.510498047 -28901334.228569031 0 -28901334.228569031 14878746.140281677 0 0 0 0 -30051046.660308838 -13733894.786119461 0 -13733894.786119461 28274505.618545532 0 0 0 0 -44683126.898925781 -19663637.471298218 0 -19663637.471298218 44587117.968294144 0 0 0 0 -28644253.062133789 -3906753.340927124 0 -3906753.340927124 33634794.19707489 0 0 0 0 -59723353.383651733 -709016559.21710968 0 -709016559.21710968 -25954276.462409973 0 0 0 0 -181684358.42874146 -674385855.04045105 0 -674385855.04045105 -35568569.046129227 0 0 0 0 -273867398.74928284 -581801147.28251743 0 -581801147.28251743 284228097.70998383 0 0 0 0 -381366960.67933655 -734502444.91973877 0 -734502444.91973877 185246945.85282707 0 0 0 0 -187280174.34587097 -496861823.85379791 0 -496861823.85379791 326541205.8229847 0 0 0 0 -370780061.10987854 -509629041.35659027 0 -509629041.35659027 526874920.56246948 0 0 0 0 -303559291.57659531 -501252279.54015446 0 -501252279.54015446 358934538.74497986 0 0 0 0 -420673956.08546448 -721004992.28424835 0 -721004992.28424835 180636119.2772007 0 0 0 0 -535202185.93669128 -790129038.17077637 0 -790129038.17077637 -23059308.791538239 0 0 0 0 -390976108.44159698 -784568111.36833572 0 -784568111.36833572 -28029058.300540924 0 0 0 0 -469086730.60447693 -1012807001.2513123 0 -1012807001.2513123 -160892862.91115856 0 0 0 0 -219882267.67110062 -882595211.3637042 0 -882595211.3637042 -153705942.58236313 0 0 0 0 -198619514.0123291 -818391821.22004128 0 -818391821.22004128 -117323848.59962463 0 0 0 0 1593685.5552368164 -829539830.95564079 0 -829539830.95564079 -269413241.13427353 0 0 0 0 -5500749.4181213379 -850463868.7233429 0 -850463868.7233429 -293885307.07009125 0 0 0 0 39785802.439376831 -817948831.91392136 0 -817948831.91392136 -271483634.81430817 0 0 0 0 36454817.908355713 -770139432.0895195 0 -770139432.0895195 -297256722.80228615 0 0 0 0 -1169566.8603210449 -790610215.59143448 0 -790610215.59143448 -317857432.26339722 0 0 0 0 50925243.976238251 -766636532.46000147 0 -766636532.46000147 -306857892.31513214 0 0 0 0 49881769.102325439 -762660008.15859604 0 -762660008.15859604 -366966510.53271866 0 0 0 0 105822647.48828125 -609570433.34054565 0 -609570433.34054565 -295191388.53898239 0 0 0 0 68248268.039794922 -697386809.41296196 0 -697386809.41296196 -499736271.20004272 0 0 0 0 18370638.748092651 -557893522.10677719 0 -557893522.10677719 -141744641.5461812 0 0 0 0 -74652493.070331573 -746062329.63944626 0 -746062329.63944626 -114116964.20583344 0 0 0 0 22010689.84942627 -765394054.46118546 0 -765394054.46118546 -295712909.72626305 0 0 0 0 -57341154.155693054 -507976797.02231693 0 -507976797.02231693 170140003.09302521 0 0 0 0 14982871.340450287 -587866926.45202732 0 -587866926.45202732 -266411331.14134216 0 0 0 0 97487241.620239258 -339934327.96210861 0 -339934327.96210861 -74691952.840324402 0 0 0 0 115057323.15077782 -417978470.68491292 0 -417978470.68491292 -529648909.75640869 0 0 0 0 88495703.601654053 -36214556.076738358 0 -36214556.076738358 213397925.15554428 0 0 0 0 -36990043.289670944 -198811553.55535936 0 -198811553.55535936 311571904.68096924 0 0 0 0 5744108.2461242676 -287140406.49801826 0 -287140406.49801826 -101375352.04200554 0 0 0 0 -166956426.93153 -165216440.07476234 0 -165216440.07476234 602952612.98735809 0 0 0 0 -51270970.016624451 -228137932.84573936 0 -228137932.84573936 263415656.04541779 0 0 0 0 -169437572.70170593 -485132707.85241699 0 -485132707.85241699 177926930.20902634 0 0 0 0 -99004813.155754089 -378393925.71452713 0 -378393925.71452713 332635637.83792877 0 0 0 0 -154038837.78952789 -282604319.01139641 0 -282604319.01139641 567843205.18862915 0 0 0 0 -127634987.438797 -210940868.54137039 0 -210940868.54137039 511812473.5447731 0 0 0 0 -231943765.44786072 -345625819.45519638 0 -345625819.45519638 552362029.26707458 0 0 0 0 -268420015.3621521 -289228875.91466522 0 -289228875.91466522 692923511.12413025 0 0 0 0 -144014420.44098854 -78889579.648549557 0 -78889579.648549557 809109095.64349365 0 0 0 0 -849782.66719055176 8774764.2144069672 0 8774764.2144069672 485874925.0575943 0 0 0 0 1671294.7569580078 193565920.20500183 0 193565920.20500183 860825469.29467487 0 0 0 0 -43960822.813659668 164728479.66591263 0 164728479.66591263 966627278.34985924 0 0 0 0 2004178119.2973862 -4803030043.2032585 0 -4803030043.2032585 -746527535.19377899 0 0 0 0 -73939600.131439209 85212321.212814331 0 85212321.212814331 1019207303.9446793 0 0 0 0 -121562511.68264771 -61078773.606002808 0 -61078773.606002808 779791290.7131691 0 0 0 0 -131387.85940551758 56842131.262435913 0 56842131.262435913 1017928305.0698547 0 0 0 0 180677489.41323853 217672661.53553009 0 217672661.53553009 970682016.86717987 0 0 0 0 -3697123422.6163025 660346768.50850296 0 660346768.50850296 -5704317913.547142 0 0 0 0 -25629266.342803955 225745084.62745667 0 225745084.62745667 1656603578.5953217 0 0 0 0 10519633.516057357 -7057506.376848693 0 -7057506.376848693 1171621.0505773537 0 0 0 0 26933525.569412231 492663202.81891632 0 492663202.81891632 1644104474.5805016 0 0 0 0 3976290.7906605229 -2217519.7155043855 0 -2217519.7155043855 -401347.84178706491 0 0 0 0 324204193.05918121 444352766.61064529 0 444352766.61064529 1138418189.6881485 0 0 0 0 82183868.465503693 295007210.89843082 0 295007210.89843082 1239702323.4880371 0 0 0 0 22905610.13571167 131686501.55054092 0 131686501.55054092 1135350044.1706276 0 0 0 0 -83778190.373153687 100647152.62185669 0 100647152.62185669 1206674407.4557381 0 0 0 0 66250418.681304932 170942860.9161644 0 170942860.9161644 1364329219.2712898 0 0 0 0 23715282.587838411 312474846.93303841 0 312474846.93303841 1519983639.4777679 0 0 0 0 -56038184.685516357 -235318351.8845787 0 -235318351.8845787 1226901180.1758003 0 0 0 0 -74718979.684353828 57909589.377824545 0 57909589.377824545 1462034625.735321 0 0 0 0 -49146178.210557938 -101615029.22847676 0 -101615029.22847676 991365227.55895233 0 0 0 0 -237199870.83798218 -241371243.0735054 0 -241371243.0735054 1092468814.1113968 0 0 0 0 -159910426.90892029 -105432157.92434692 0 -105432157.92434692 896856706.52224159 0 0 0 0 -286481257.65913391 -370854450.81215668 0 -370854450.81215668 769705629.09007645 0 0 0 0 -117323374.71281624 -126012657.61418581 0 -126012657.61418581 902924736.84667969 0 0 0 0 283105842.46331787 -706969081.22507286 0 -706969081.22507286 -3595053061.4717064 0 0 0 0 15651800.269881822 -8403808.270525977 0 -8403808.270525977 -559620.62486145773 0 0 0 0 -729731134.63134003 -19094780.596672058 0 -19094780.596672058 -2505140016.7077789 0 0 0 0 549630330.35565186 -2196812203.9852829 0 -2196812203.9852829 -6869263936.1399384 0 0 0 0 47056248.479995728 129376890.62097168 0 129376890.62097168 1583432860.8641853 0 0 0 0 76885323.943069458 -63238381.968811035 0 -63238381.968811035 1132355333.7267685 0 0 0 0 2864487.7609863281 -245487474.43421936 0 -245487474.43421936 1861140017.5526114 0 0 0 0 450151506.86444092 -117342945.06646156 0 -117342945.06646156 1273224150.9509735 0 0 0 0 389620648.85279846 426022234.89693642 0 426022234.89693642 1743124249.834137 0 0 0 0 168075767.21741486 -678646989.51932144 0 -678646989.51932144 2991915829.0675812 0 0 0 0 -40443616.552913666 530360942.63355541 0 530360942.63355541 3500205606.970005 0 0 0 0 968303599.73294067 -1045624030.2547894 0 -1045624030.2547894 1508216124.1112862 0 0 0 0 5065393.1198077276 -1302245.5924179172 0 -1302245.5924179172 -596561.41552615259 0 0 0 0 675014723.76760483 32355459.830555916 0 32355459.830555916 399967831.38521576 0 0 0 0 386476372.74375916 -524254471.24043274 0 -524254471.24043274 1173986500.2288713 0 0 0 0 275717443.22016716 -127210500.10976601 0 -127210500.10976601 332198055.42800903 0 0 0 0 155531134.18936539 -463622035.59876823 0 -463622035.59876823 648914474.91513824 0 0 0 0 -68224679.389785767 -188188784.24335098 0 -188188784.24335098 1165148942.7560606 0 0 0 0 282489876.54891968 -365565246.71767235 0 -365565246.71767235 176431994.49225521 0 0 0 0 190423513.94073486 -99266532.213806152 0 -99266532.213806152 -354174659.72369003 0 0 0 0 298419389.20818329 -208141480.5080452 0 -208141480.5080452 249414804.62758064 0 0 0 0 397137126.51047325 29790767.721454859 0 29790767.721454859 -245528140.10647964 0 0 0 0 -346602932.32292175 -558979148.15080643 0 -558979148.15080643 438180920.30435944 0 0 0 0 -319935732.95371628 -314031023.50173092 0 -314031023.50173092 691847590.01859283 0 0 0 0 -412680199.57818604 -537932269.35255432 0 -537932269.35255432 523732051.81461334 0 0 0 0 -228883004.15110016 -323893135.03248405 0 -323893135.03248405 614193881.73087311 0 0 0 0 -137115656.40081787 -275368801.018507 0 -275368801.018507 656159218.4488678 0 0 0 0 -92590355.89364624 -90711634.483503342 0 -90711634.483503342 1019068960.1372528 0 0 0 0 -131603938.2315979 -414713360.63618469 0 -414713360.63618469 742436885.5961647 0 0 0 0 -187243176.5438385 -259246685.33939362 0 -259246685.33939362 596743321.90736771 0 0 0 0 -150735372.89586258 -480623446.92905235 0 -480623446.92905235 338738128.04077148 0 0 0 0 -16143822.343185425 -163927866.42100525 0 -163927866.42100525 244926403.20298004 0 0 0 0 -96032110.953155518 -350999334.43694687 0 -350999334.43694687 154595354.88948631 0 0 0 0 -118366288.29269409 -229985149.88429832 0 -229985149.88429832 -191230999.92447662 0 0 0 0 -530373660.16485596 -317971906.07662201 0 -317971906.07662201 270772000.14323235 0 0 0 0 -367926453.6710968 -565283300.26296425 0 -565283300.26296425 25405588.434150696 0 0 0 0 -480926612.35391235 -401173129.14310074 0 -401173129.14310074 315798382.95084953 0 0 0 0 -602942192.040802 -739745473.86241531 0 -739745473.86241531 234437097.72519684 0 0 0 0 -593121980.99339294 -638875262.83018112 0 -638875262.83018112 -348547813.02835083 0 0 0 0 -945746114.6075058 -477888627.48039627 0 -477888627.48039627 16970625.401721954 0 0 0 0 -988717317.78668213 -536425415.91136932 0 -536425415.91136932 -374897570.77352905 0 0 0 0 -496097493.05334854 -237560458.45750809 0 -237560458.45750809 -186993024.61928558 0 0 0 0 -401066052.2929306 -318503424.83225822 0 -318503424.83225822 -508782462.73238373 0 0 0 0 -367879182.28005981 -343494386.30732918 0 -343494386.30732918 -1336230240.4085884 0 0 0 0 -1223966427.7429066 -465228071.00895452 0 -465228071.00895452 -958535597.85171509 0 0 0 0 -455093650.58518982 -211152627.36507797 0 -211152627.36507797 -655420679.63135862 0 0 0 0 -1068518228.3777084 -698682407.73250008 0 -698682407.73250008 -3184168210.5014229 0 0 0 0 -2098506649.7484741 -372830984.09901619 0 -372830984.09901619 -812961900.41062927 0 0 0 0 -1257928979.9420681 -810487049.40438485 0 -810487049.40438485 -590804123.96281815 0 0 0 0 -1153266155.4151459 -47364454.266939163 0 -47364454.266939163 -603323077.51123047 0 0 0 0 269133331.52018738 -40438305.718543053 0 -40438305.718543053 -779620871.42049408 0 0 0 0 140655961.18484497 -179790739.3440361 0 -179790739.3440361 -349438638.80373001 0 0 0 0 27395330.118598938 -37505912.99478817 0 -37505912.99478817 -747106958.93784714 0 0 0 0 119987234.16723633 -237987084.23768806 0 -237987084.23768806 -353657622.21100074 0 0 0 0 146988272.78787613 -5276667.0915145874 0 -5276667.0915145874 -764282852.73608208 0 0 0 0 324900365.35528564 -123798100.78019428 0 -123798100.78019428 -786393634.64165807 0 0 0 0 113317704.56568146 62066359.352804184 0 62066359.352804184 -34183669.472393036 0 0 0 0 151424821.09921646 55829310.297568321 0 55829310.297568321 -560084399.39101982 0 0 0 0 204218682.53061676 -168988551.90039444 0 -168988551.90039444 -723130618.32243347 0 0 0 0 1249909.9170059077 -747782.97755877301 0 -747782.97755877301 -2064486.6843832433 0 0 0 0 -776128792.41126251 -389386338.33880281 0 -389386338.33880281 -496002678.72029781 0 0 0 0 -1507181131.3935394 -1098161453.3250961 0 -1098161453.3250961 -538427898.76147151 0 0 0 0 142372669.84242249 327331354.78221893 0 327331354.78221893 -116635953.21013451 0 0 0 0 2085426.0243430249 -2189689.7314182613 0 -2189689.7314182613 -3375051.1662216997 0 0 0 0 -1904328780.723999 -879104114.45961952 0 -879104114.45961952 -247678174.62302399 0 0 0 0 -580432.78270501504 -1364730.9612857662 0 -1364730.9612857662 -3147938.0213323962 0 0 0 0 -3022076320.6345825 -1892197733.6644573 0 -1892197733.6644573 -1164724959.443018 0 0 0 0 -1175261970.6854477 -1102496844.0037012 0 -1102496844.0037012 -1522083688.3013783 0 0 0 0 -1066031805.8921509 -762368664.08482885 0 -762368664.08482885 -490353334.3202343 0 0 0 0 -998361534.6406374 -612686253.77092445 0 -612686253.77092445 -427962326.77417183 0 0 0 0 -872017227.25305176 -597157014.2954855 0 -597157014.2954855 -447483656.18783903 0 0 0 0 -1506230.6547659212 -3642543.7192852832 0 -3642543.7192852832 -8427558.3112430014 0 0 0 0 -216935165.96755791 292626730.91649532 0 292626730.91649532 710659296.03595734 0 0 0 0 -2006572.8638116866 -2642105.2887433064 0 -2642105.2887433064 -5236109.6196266208 0 0 0 0 -4494766.0799636841 -8908719.7003955841 0 -8908719.7003955841 -43606110.118042946 0 0 0 0 -123016410.38806152 -162618642.15449905 0 -162618642.15449905 239200069.88512802 0 0 0 0 18680347.188671112 -109663610.92289782 0 -109663610.92289782 -46278528.91386795 0 0 0 0 111183874.22687912 -110926440.48196793 0 -110926440.48196793 -970068706.45059967 0 0 0 0 -248771039.07702637 -161037570.38320923 0 -161037570.38320923 -84599762.704319954 0 0 0 0 129546448.85353851 553978873.92715991 0 553978873.92715991 -1364683712.7318764 0 0 0 0 117503544.87728119 -924179632.00113487 0 -924179632.00113487 -2191562106.0533085 0 0 0 0 -1387057948.8995132 -1471197922.9540148 0 -1471197922.9540148 -999825775.80679703 0 0 0 0 -76255686.425964355 -599106198.64779854 0 -599106198.64779854 -652005767.6249752 0 0 0 0 154383259.8013382 -605287631.45832729 0 -605287631.45832729 -868392932.79545021 0 0 0 0 -300381513.60747528 -917466095.68566704 0 -917466095.68566704 -446338445.62806702 0 0 0 0 -164000689.54914093 -987105826.16714859 0 -987105826.16714859 -590337573.62985992 0 0 0 0 -172760662.89497054 -948034731.29566014 0 -948034731.29566014 -337220091.46200943 0 0 0 0 -171860225.82447863 -920926263.30306625 0 -920926263.30306625 -459224448.55980682 0 0 0 0 -408751413.55751038 -1163707992.6856251 0 -1163707992.6856251 -905833463.79900074 0 0 0 0 -782971761.5428009 -992575261.79312897 0 -992575261.79312897 -180766760.23690033 0 0 0 0 -1100026544.4597931 -917385970.83625793 0 -917385970.83625793 -198593071.06767273 0 0 0 0 138561372.44883347 -807872604.20931315 0 -807872604.20931315 -362864146.55130005 0 0 0 0 165077009.81395054 -677932801.19819665 0 -677932801.19819665 -251496487.87441635 0 0 0 0 61570943.358970642 -840146384.43318558 0 -840146384.43318558 -363825692.83925247 0 0 0 0 56414272.56729126 -813182300.10380173 0 -813182300.10380173 -464037379.94833565 0 0 0 0 180793186.56344604 -545045487.67618942 0 -545045487.67618942 -388831914.7917012 0 0 0 0 125475131.5683136 -645590965.53361607 0 -645590965.53361607 -537309369.10296249 0 0 0 0 195952410.59143448 -621578215.08709669 0 -621578215.08709669 -98159322.103633881 0 0 0 0 922659920.4596405 -597220069.01954079 0 -597220069.01954079 -161226906.59853363 0 0 0 0 -1097150.989706099 -838555.86789915711 0 -838555.86789915711 -1215410.9256505715 0 0 0 0 -136629299.6428566 -426227348.5867157 0 -426227348.5867157 661040438.41078949 0 0 0 0 -212259695.84914398 -233860762.12539291 0 -233860762.12539291 183826408.59662247 0 0 0 0 66192655.432006836 -241380324.89146805 0 -241380324.89146805 399878937.0261116 0 0 0 0 2579597914.9935989 -174222840.37332153 0 -174222840.37332153 71638518.350148559 0 0 0 0 1131623685.9068909 -1252674502.0364265 0 -1252674502.0364265 1258029916.6275406 0 0 0 0 659801573.25641632 -79072590.628164768 0 -79072590.628164768 67051104.165992737 0 0 0 0 -3281312.9336789772 -5345882.74026566 0 -5345882.74026566 34411407.918516606 0 0 0 0 871808504.64398956 -14820249.120244026 0 -14820249.120244026 -38510662.26102829 0 0 0 0 -2012299.699593056 -137669.82218192518 0 -137669.82218192518 12535907.206951467 0 0 0 0 1530835410.8799019 1717509820.9341893 0 1717509820.9341893 854599849.36819458 0 0 0 0 -266918408.25886536 -663513958.93103981 0 -663513958.93103981 -544670765.36463737 0 0 0 0 -914856694.93671417 192975104.8832531 0 192975104.8832531 280497622.67266846 0 0 0 0 18170724.862756848 -28685693.852128185 0 -28685693.852128185 31924292.819730043 0 0 0 0 -854732988.11052799 -719448756.11037207 0 -719448756.11037207 -86864021.353275299 0 0 0 0 157433518.83535767 95349408.787902832 0 95349408.787902832 53065874.257564545 0 0 0 0 -1445348.2246981449 -16360090.487869285 0 -16360090.487869285 52602996.712244749 0 0 0 0 -82759708.9740448 136493142.54239273 0 136493142.54239273 91598936.023065567 0 0 0 0 -221874919.80860901 -347642163.00447273 0 -347642163.00447273 115600981.46138763 0 0 0 0 -390054488.13768768 -192947057.12347984 0 -192947057.12347984 146136650.36296844 0 0 0 0 9592692.5551147461 -112386571.99710083 0 -112386571.99710083 144761852.87421417 0 0 0 0 307959398.15483856 856853.24110412598 0 856853.24110412598 50205063.691307068 0 0 0 0 134047212.03796005 -257522468.91049957 0 -257522468.91049957 -59764710.077323914 0 0 0 0 113354325.10998535 -636191717.73479462 0 -636191717.73479462 -284834340.04667616 0 0 0 0 329783031.16474152 -364198354.7501545 0 -364198354.7501545 -104355755.39934158 0 0 0 0 569778541.40071106 -479712428.42336845 0 -479712428.42336845 -266601801.36000443 0 0 0 0 368851184.54123688 -110144683.39097023 0 -110144683.39097023 32082098.498106956 0 0 0 0 -389545495.94314575 -544236679.13121796 0 -544236679.13121796 -301465281.2618866 0 0 0 0 -93061021.80090332 -230316814.51258087 0 -230316814.51258087 -99990126.909603119 0 0 0 0 600731892.8782959 -539246488.19628143 0 -539246488.19628143 20854655.654907227 0 0 0 0 11794150.335266113 -514260066.23402405 0 -514260066.23402405 465569066.08802795 0 0 0 0 269156568.30801392 -660804034.95142937 0 -660804034.95142937 166784576.2809906 0 0 0 0 195954545.39541626 -487952799.10364151 0 -487952799.10364151 79624847.955352783 0 0 0 0 -297909692.07550049 -694558377.20900726 0 -694558377.20900726 128751226.91568375 0 0 0 0 62353521.764862061 -570461852.76759338 0 -570461852.76759338 138852983.95648575 0 0 0 0 384710253.27911377 -467100259.92119598 0 -467100259.92119598 36199286.100523472 0 0 0 0 571584629.87908936 -725394143.23527527 0 -725394143.23527527 32571977.744003296 0 0 0 0 340441741.12512207 -465032344.06798553 0 -465032344.06798553 36405056.327575684 0 0 0 0 568795119.57958984 -359801767.18587494 0 -359801767.18587494 -127480551.80397129 0 0 0 0 849351669.80743408 -395663176.21754456 0 -395663176.21754456 -124436975.7798872 0 0 0 0 1102733431.3079834 -559789005.78303146 0 -559789005.78303146 -49902980.162193298 0 0 0 0 793230909.61726379 -863124943.44184113 0 -863124943.44184113 469537318.47523499 0 0 0 0 1441415466.9841309 -304342404.05297852 0 -304342404.05297852 78557069.035274506 0 0 0 0 1114260501.9463603 360117027.37328714 0 360117027.37328714 33861502.328308105 0 0 0 0 2045676418.8175659 156904398.72748184 0 156904398.72748184 73184266.883609772 0 0 0 0 266347189.97813416 54889480.465461731 0 54889480.465461731 8538578.6888656616 0 0 0 0 255997158.91955566 -33701989.441604614 0 -33701989.441604614 -18471744.596969604 0 0 0 0 -343505513.07983398 -347315493.94266129 0 -347315493.94266129 130042308.00144577 0 0 0 0 -433070152.63195801 -423841879.41301727 0 -423841879.41301727 175349923.92264557 0 0 0 0 -290428816.58475494 -461020891.07822609 0 -461020891.07822609 153815474.07530212 0 0 0 0 -104944983.96131897 -303471320.48413467 0 -303471320.48413467 -122484177.33191681 0 0 0 0 227620723.5020752 -512686407.39409637 0 -512686407.39409637 7677354.2032623291 0 0 0 0 306670290.23809814 88784774.99005127 0 88784774.99005127 -316381361.98596191 0 0 0 0 220743249.16768265 -677967273.97323954 0 -677967273.97323954 -1584960263.0330353 0 0 0 0 14999035.027357947 -14230359.237738349 0 -14230359.237738349 -13319416.19910109 0 0 0 0 -2268017511.5842285 -3544991126.6162224 0 -3544991126.6162224 -2414207079.0265236 0 0 0 0 4160694.604507044 -9558688.4993350804 0 -9558688.4993350804 13268314.41325165 0 0 0 0 -830299935.89785385 432280870.72713661 0 432280870.72713661 2358770005.4989166 0 0 0 0 -4531279136.7877808 -3624960324.841629 0 -3624960324.841629 2346957246.6500854 0 0 0 0 7403524348.4083252 -1116937003.9981232 0 -1116937003.9981232 -4544022558.0391083 0 0 0 0 2063689363.7109375 -938801605.60344696 0 -938801605.60344696 722211735.47947693 0 0 0 0 1101366678.7467651 -613378629.13596344 0 -613378629.13596344 3443146329.2299652 0 0 0 0 1101347631.3070731 -620640045.21959746 0 -620640045.21959746 718188627.43519592 0 0 0 0 417634128.5100708 -366252881.15206909 0 -366252881.15206909 728501969.6221962 0 0 0 0 885836644.55841064 1382134607.4675121 0 1382134607.4675121 2337185201.2090912 0 0 0 0 3625156272.8134155 3970238061.4057159 0 3970238061.4057159 4516017057.5415421 0 0 0 0 1782471359.0101013 619783159.63928986 0 619783159.63928986 -1560204867.2062225 0 0 0 0 10888223.716896936 -19284801.789594177 0 -19284801.789594177 3937508.7889016271 0 0 0 0 202464570.12091064 300887014.66345215 0 300887014.66345215 -1315409071.5286407 0 0 0 0 1041684780.0197754 636166958.28104401 0 636166958.28104401 -1476605057.9229145 0 0 0 0 -129096100.83346558 -178424985.96239471 0 -178424985.96239471 -807443982.80751801 0 0 0 0 -261816772.34765625 437793508.37133026 0 437793508.37133026 165524145.21101379 0 0 0 0 -529775092.0295105 235312695.65612793 0 235312695.65612793 212804836.35850525 0 0 0 0 636771364.06536865 585881549.75856018 0 585881549.75856018 -204627070.78525543 0 0 0 0 399884951.59103394 -451892662.29505444 0 -451892662.29505444 338492723.80726624 0 0 0 0 -395420283.24456787 220252890.05302811 0 220252890.05302811 1174967962.5496597 0 0 0 0 -646297680.87365723 285558619.89618111 0 285558619.89618111 227624600.657547 0 0 0 0 -371188872.8369751 245820432.33769989 0 245820432.33769989 131329153.68837738 0 0 0 0 43476956.607284546 -41443926.164485455 0 -41443926.164485455 11407318.068994522 0 0 0 0 43063787.505615234 -38147294.248173237 0 -38147294.248173237 19372086.292918205 0 0 0 0 173361390.04476929 21388446.631267548 0 21388446.631267548 -91765527.157554626 0 0 0 0 125271042.20067978 -186532758.93841457 0 -186532758.93841457 28996084.460533142 0 0 0 0 54869986.574157715 -155056110.90050507 0 -155056110.90050507 191513201.24155426 0 0 0 0 49234964.918045044 -85153496.883319855 0 -85153496.883319855 64556939.350730896 0 0 0 0 93057923.074584961 -58471849.887535095 0 -58471849.887535095 27867533.654101193 0 0 0 0 45112679.34092328 -25190760.787948795 0 -25190760.787948795 -8942987.8999605514 0 0 0 0 36109420.405487061 -45812625.541007042 0 -45812625.541007042 18829638.569992065 0 0 0 0 -49277368.977432251 -266081675.28026581 0 -266081675.28026581 224560332.36999989 0 0 0 0 -485399399.5007019 129415329.13019562 0 129415329.13019562 161617715.40480804 0 0 0 0 4253346.3010480702 -3903516.8805517554 0 -3903516.8805517554 273458.96825093776 0 0 0 0 16345819.71445005 -59942907.80432535 0 -59942907.80432535 62331454.7839863 0 0 0 0 -23540380.238708496 -195162607.46891785 0 -195162607.46891785 70837926.78326416 0 0 0 0 73038361.313212752 -48892096.614358582 0 -48892096.614358582 -16770719.715139262 0 0 0 0 195254163.50632477 -63625073.523042679 0 -63625073.523042679 -91168253.785270691 0 0 0 0 126047355.01252747 -41598810.472377777 0 -41598810.472377777 250286.06730651855 0 0 0 0 9049478.8835678101 -62893752.715625763 0 -62893752.715625763 240210467.18894958 0 0 0 0 146215148.30128479 -288981313.96620941 0 -288981313.96620941 221860548.35801506 0 0 0 0 136642636.69576263 -218886801.69110107 0 -218886801.69110107 42701852.478645325 0 0 0 0 170151854.81427002 -377253281.94393539 0 -377253281.94393539 3897912.6419296265 0 0 0 0 240403115.6033535 -185966480.46051979 0 -185966480.46051979 -137575444.60629272 0 0 0 0 236735561.11458492 -166228239.86301994 0 -166228239.86301994 69148367.373764038 0 0 0 0 5146015.0138461851 -819827.63146230951 0 -819827.63146230951 -7427034.7067345157 0 0 0 0 472645244.0476532 690474442.94160843 0 690474442.94160843 -1318495838.0237389 0 0 0 0 296508163.70706177 467984156.5571785 0 467984156.5571785 -455304541.00775337 0 0 0 0 1177242783.8261261 252355910.12100983 0 252355910.12100983 -1132820853.9935312 0 0 0 0 1502720229.7774582 405642496.98997116 0 405642496.98997116 -1946510277.9151077 0 0 0 0 -1248801.0080272779 -2613472.7413167544 0 -2613472.7413167544 -2833304.7265126556 0 0 0 0 -519981317.52018738 -1070671276.1378193 0 -1070671276.1378193 -848329959.2716217 0 0 0 0 1090010782.7749405 -186023192.70520401 0 -186023192.70520401 -2446612701.0208588 0 0 0 0 -1755159444.3857727 -3084331175.5662003 0 -3084331175.5662003 -1501723044.4055939 0 0 0 0 -292451180.49195099 -672412494.77247047 0 -672412494.77247047 782664833.45342255 0 0 0 0 253214850.21690369 -758432852.02448273 0 -758432852.02448273 -1142231615.7248399 0 0 0 0 -177780711.61018372 143603949.92344666 0 143603949.92344666 92453251.504981995 0 0 0 0 83259274.898452759 -66054053.727142334 0 -66054053.727142334 28388443.987037659 0 0 0 0 -15204606.114929169 -2126927.1866428703 0 -2126927.1866428703 12532464.686608911 0 0 0 0 160804288.21598279 150246998.49477193 0 150246998.49477193 631371824.17932892 0 0 0 0 35678206.757553101 -38314734.862695694 0 -38314734.862695694 10239478.300430298 0 0 0 0 57999215.409868747 -50810664.900052413 0 -50810664.900052413 16065927.661973529 0 0 0 0 22945790.498260498 -40185781.123620987 0 -40185781.123620987 16433239.805345535 0 0 0 0 34041417.727853768 -30875986.059526153 0 -30875986.059526153 11207399.427993532 0 0 0 0 232446167.19513512 15824782.194728851 0 15824782.194728851 -1494688988.7230835 0 0 0 0 -160895201.89474487 -176002093.54168701 0 -176002093.54168701 -95554324.213470459 0 0 0 0 10585288.82557451 -7944148.2753083147 0 -7944148.2753083147 -4618596.4632587731 0 0 0 0 -214491369.48958588 -891897424.78666878 0 -891897424.78666878 -3531845523.9984283 0 0 0 0 41149490.586410522 -38999201.515031815 0 -38999201.515031815 9506612.8562932014 0 0 0 0 55120951.508544266 -26640339.163071822 0 -26640339.163071822 -7252258.5368391164 0 0 0 0 2003077.2714735344 -3587083.9892232865 0 -3587083.9892232865 -865244.1002423428 0 0 0 0 40206918.981048584 -42889220.270485878 0 -42889220.270485878 9067118.9846076965 0 0 0 0 -624030782.68132019 -947618744.3503685 0 -947618744.3503685 -368160325.36301041 0 0 0 0 -775270950.90386963 -476537220.66028929 0 -476537220.66028929 -22523190.051216125 0 0 0 0 -1445569734.9522858 183453162.61093521 0 183453162.61093521 -561011936.60008621 0 0 0 0 -334629475.25987244 -911420465.28097534 0 -911420465.28097534 -407827993.00029564 0 0 0 0 -136567969.29473114 -1022080781.0245113 0 -1022080781.0245113 -1020310770.9426346 0 0 0 0 66106673.363555908 -694740447.93381882 0 -694740447.93381882 -502453525.76750183 0 0 0 0 -207014197.40901184 -887046691.99253464 0 -887046691.99253464 -420036989.49770355 0 0 0 0 -210009317.69442463 -644001893.25117874 0 -644001893.25117874 -153326589.79051208 0 0 0 0 -152738876.99291992 -547752187.88124847 0 -547752187.88124847 -101032900.14131904 0 0 0 0 15489785.088912964 -731585825.3608017 0 -731585825.3608017 -311518657.77402496 0 0 0 0 71050682.760635376 -736590456.99635124 0 -736590456.99635124 -311405065.27835083 0 0 0 0 -255635089.04670715 -631942590.42590523 0 -631942590.42590523 -155884845.59069824 0 0 0 0 -114975781.20697021 -192195758.3408432 0 -192195758.3408432 -1767577.1424818039 0 0 0 0 -181809838.71170044 -184985701.05299759 0 -184985701.05299759 118317043.8301239 0 0 0 0 7172252.1130736098 -38584139.730187923 0 -38584139.730187923 61602941.23440475 0 0 0 0 163670349.83456802 29776132.092392921 0 29776132.092392921 -32662574.420124054 0 0 0 0 51729355.004347652 -51050433.458884865 0 -51050433.458884865 -9082020.3662001379 0 0 0 0 27955325.05770874 -60114724.148422241 0 -60114724.148422241 101302860.64807129 0 0 0 0 -18196563.174743652 -103805327.71127319 0 -103805327.71127319 142606953.5934906 0 0 0 0 118517822.10488319 37637926.384411812 0 37637926.384411812 -117711170.07167053 0 0 0 0 23916732.043198306 -9603961.760880664 0 -9603961.760880664 -26827647.529727168 0 0 0 0 236861965.73252106 -107549332.45698547 0 -107549332.45698547 7250792.9706802368 0 0 0 0 5774459.0183888078 -8292300.1368433964 0 -8292300.1368433964 3677232.0966214724 0 0 0 0 -11384841.990325928 -499777714.62629318 0 -499777714.62629318 -625444078.52012634 0 0 0 0 -885292404.74446106 -585980175.62913513 0 -585980175.62913513 3513026.1684341431 0 0 0 0 -341265699.25438309 -37795471.964276314 0 -37795471.964276314 95249032.546791077 0 0 0 0 -871276682.42304993 -403486014.90485001 0 -403486014.90485001 -432547152.71575165 0 0 0 0 -737831904.38783264 -259554939.11244583 0 -259554939.11244583 -263453950.87501144 0 0 0 0 -1250085346.2972717 -1168270210.7817001 0 -1168270210.7817001 -1148375556.4542198 0 0 0 0 498828270.7022934 168202057.24261761 0 168202057.24261761 -739739297.6963501 0 0 0 0 -617111668.48716736 -1146005582.3765163 0 -1146005582.3765163 -969183810.00817108 0 0 0 0 -621723413.50639343 -1237344116.074398 0 -1237344116.074398 -1310242100.1043396 0 0 0 0 -1180049335.1669502 -1246054975.50035 0 -1246054975.50035 -1291582204.8316422 0 0 0 0 -998666545.02330017 -1109128149.5770416 0 -1109128149.5770416 -911575133.09854126 0 0 0 0 -1022996101.0918121 -111855041.51642609 0 -111855041.51642609 291025909.56025696 0 0 0 0 -613771.35947255045 -1034708.0055955537 0 -1034708.0055955537 344669.21681471355 0 0 0 0 -1343851780.3593063 -1389486552.3143883 0 -1389486552.3143883 -1360745664.6947174 0 0 0 0 608732.48262612778 -3584194.0845547542 0 -3584194.0845547542 -2611552.2493836582 0 0 0 0 241410225.07034779 268076178.19302082 0 268076178.19302082 -753492029.54090881 0 0 0 0 -834087742.29808426 -1537836630.7710075 0 -1537836630.7710075 -1150124393.1557083 0 0 0 0 183538197.72161865 -610195938.55266571 0 -610195938.55266571 -2079684856.3103447 0 0 0 0 -905141586.48959732 -837735835.88262033 0 -837735835.88262033 -1826165253.4196243 0 0 0 0 71423180.572235107 -335949277.83911324 0 -335949277.83911324 -305038704.19246292 0 0 0 0 263559384.13700867 -281736917.49288559 0 -281736917.49288559 -913285227.95128775 0 0 0 0 130260752.41259766 -171406901.38736343 0 -171406901.38736343 -286364264.80665588 0 0 0 0 -161486538.92305374 -112981872.34550762 0 -112981872.34550762 246630551.17419815 0 0 0 0 1276024.7551323473 -6732121.3162520546 0 -6732121.3162520546 -2177249.813286176 0 0 0 0 427033.31534576416 -3299240.8298835754 0 -3299240.8298835754 678189.29479598999 0 0 0 0 -2171849.3089981079 -7429079.4126205444 0 -7429079.4126205444 8438291.8306427002 0 0 0 0 -632681.17067915946 -6013540.4783724565 0 -6013540.4783724565 1593581.6770870723 0 0 0 0 1051110.3547515869 -7636279.3513507843 0 -7636279.3513507843 -5862485.4672546387 0 0 0 0 122020623.18119812 -55893667.920387268 0 -55893667.920387268 -63361742.277359009 0 0 0 0 -2745817.0636291504 -7339754.7542953491 0 -7339754.7542953491 1342085.8496212959 0 0 0 0 29305.477976656752 -8874042.4420403875 0 -8874042.4420403875 -577697.82752379775 0 0 0 0 -1689673.4175273762 -8269994.6618451215 0 -8269994.6618451215 4256160.759709809 0 0 0 0 123686599.86360812 -57770465.43627429 0 -57770465.43627429 -288557008.75773621 0 0 0 0 726368.95980072021 -7862230.5779685974 0 -7862230.5779685974 1300188.9346237183 0 0 0 0 -429367229.78942871 -471614597.15910339 0 -471614597.15910339 -378604116.53465271 0 0 0 0 -466262255.1126709 -231717862.96030045 0 -231717862.96030045 -581975174.16766357 0 0 0 0 -609873278.61833572 61869472.140234947 0 61869472.140234947 -642916.72314453125 0 0 0 0 -496476659.46762848 -47520727.925514221 0 -47520727.925514221 121748735.77056885 0 0 0 0 -447363010.52599335 -799917450.6724807 0 -799917450.6724807 -1856694384.9031677 0 0 0 0 -413779942.57572174 420910706.7088356 0 420910706.7088356 -1365029115.2672424 0 0 0 0 -654065336.8782196 -82052403.810260773 0 -82052403.810260773 -131634971.06989288 0 0 0 0 -692625615.63331604 164292978.54295731 0 164292978.54295731 508288015.73278809 0 0 0 0 -616931945.59727478 185956848.73098373 0 185956848.73098373 128413259.86820984 0 0 0 0 -749183910.42810059 -105583903.84313202 0 -105583903.84313202 385736195.03450775 0 0 0 0 -674437117.67178726 -29036310.202943802 0 -29036310.202943802 426647072.09957886 0 0 0 0 -716702272.23704529 -164444231.48244858 0 -164444231.48244858 207967099.05027771 0 0 0 0 -596769108.04785156 -253868846.9758606 0 -253868846.9758606 694016808.02325439 0 0 0 0 -166453277.63671875 -226201605.97927856 0 -226201605.97927856 253997724.62347412 0 0 0 0 -134838473.93650818 161459642.67154694 0 161459642.67154694 -19594681.738391876 0 0 0 0 -499890270.08766174 -58815503.448272705 0 -58815503.448272705 84467770.899711609 0 0 0 0 -289203485.07633972 -36562551.039756775 0 -36562551.039756775 74303832.202144712 0 0 0 0 -459319045.81602478 -115596892.89622116 0 -115596892.89622116 73917586.860168457 0 0 0 0 92173891.063720703 -123578965.33215332 0 -123578965.33215332 -106221015.35418701 0 0 0 0 1962810.7859900817 -2914912.0082266927 0 -2914912.0082266927 -3324276.7561500799 0 0 0 0 -197020406.72329712 -7067927.1244163513 0 -7067927.1244163513 51248610.911254883 0 0 0 0 -706880774.87562561 -770875887.03565979 0 -770875887.03565979 -365593290.9098053 0 0 0 0 -377325405.96472168 -425557539.91963959 0 -425557539.91963959 -133015986.42495728 0 0 0 0 -280067334.21421051 -485629308.92059517 0 -485629308.92059517 -837180597.75312805 0 0 0 0 -682535666.52807617 -273659957.77145386 0 -273659957.77145386 315391726.83032227 0 0 0 0 -56459.106179293245 -116983.772262346 0 -116983.772262346 104701.0079562068 0 0 0 0 -439004611.73388672 151438329.28417206 0 151438329.28417206 636321375.86876297 0 0 0 0 -573756.0016470626 295380.23755783215 0 295380.23755783215 127781.01645684987 0 0 0 0 -700573760.69921112 -100777681.84147644 0 -100777681.84147644 433087378.83298492 0 0 0 0 -1022681376.139267 -408040592.68019867 0 -408040592.68019867 345686725.57084084 0 0 0 0 -1002607450.912796 -634482586.10365295 0 -634482586.10365295 -15295953.176757812 0 0 0 0 334873417.94939423 -339624494.47572708 0 -339624494.47572708 -106069319.13070679 0 0 0 0 -2069647.4494742863 -2801612.1961167306 0 -2801612.1961167306 -538379.41879402101 0 0 0 0 -1099189921.4588776 -45266000.383140564 0 -45266000.383140564 477343586.83419991 0 0 0 0 -659948759.51531792 -330348857.49090004 0 -330348857.49090004 354477362.04948425 0 0 0 0 -3015685.8526008949 -4985151.616560474 0 -4985151.616560474 1910022.4803517759 0 0 0 0 1784297.2845916748 -2786924.8950500488 0 -2786924.8950500488 -1583244.9481811523 0 0 0 0 339413227.44715881 -572565823.85619164 0 -572565823.85619164 159085894.56250763 0 0 0 0 -82051086.50151062 315081372.81892776 0 315081372.81892776 243477632.48773956 0 0 0 0 -38535441.136154175 225598737.81372452 0 225598737.81372452 226403510.36206436 0 0 0 0 415304547.4402771 132957154.79302979 0 132957154.79302979 21581243.507026672 0 0 0 0 -1246945.2477935671 -4366069.3475202844 0 -4366069.3475202844 1600979.6225004196 0 0 0 0 -2357517.8299865723 -4472457.5008163452 0 -4472457.5008163452 647167.01964569092 0 0 0 0 963963587.26265717 -631829092.84133911 0 -631829092.84133911 -1178256777.985672 0 0 0 0 216902122.639328 592926212.48732758 0 592926212.48732758 1235889450.617569 0 0 0 0 -525012481.3168335 -1636495989.3886108 0 -1636495989.3886108 -770125730.0221405 0 0 0 0 15297200.682469018 9954446.4706690349 0 9954446.4706690349 -22666689.28767202 0 0 0 0 -308503271.41339874 -848417892.28123093 0 -848417892.28123093 -489723487.4276886 0 0 0 0 -283347741.14356995 -546670120.7035675 0 -546670120.7035675 -2459296831.8539314 0 0 0 0 -334061740.4261322 -927470658.79602814 0 -927470658.79602814 -430694425.7264328 0 0 0 0 -262287908.58966064 -1224293106.2251282 0 -1224293106.2251282 -1551147825.6897478 0 0 0 0 -1338673496.0995789 -1088423799.9141464 0 -1088423799.9141464 87462058.47076416 0 0 0 0 -368970924.67875934 -23022272.237746119 0 -23022272.237746119 665751177.45677185 0 0 0 0 -185459664.22003174 -851204636.31657791 0 -851204636.31657791 1641465243.6906967 0 0 0 0 246466.9305922091 -1417895.6514384113 0 -1417895.6514384113 -386755.55658566207 0 0 0 0 84219634.846046448 -669660257.44286346 0 -669660257.44286346 -1218658780.4236851 0 0 0 0 -899987655.43338013 118805610.66414261 0 118805610.66414261 2927409262.7811356 0 0 0 0 790079749.07234192 -414575052.51443481 0 -414575052.51443481 248877223.41371155 0 0 0 0 -3213222.5839156527 -6159811.6987776794 0 -6159811.6987776794 -5173831.7376367971 0 0 0 0 619273484.72601318 -155710699.7592659 0 -155710699.7592659 453659042.42547607 0 0 0 0 -425313125.68553925 106427808.06988907 0 106427808.06988907 394437954.59353638 0 0 0 0 1237637153.9281273 954970841.95158291 0 954970841.95158291 -1366898476.4754562 0 0 0 0 -608392684.95501709 -1731516481.2142677 0 -1731516481.2142677 231321190.6087532 0 0 0 0 -1245724226.5100555 390074346.66425323 0 390074346.66425323 76001692.730117798 0 0 0 0 1734816333.1204071 -1568534436.3793869 0 -1568534436.3793869 -295746385.70273972 0 0 0 0 498210890.77758408 234403827.8080864 0 234403827.8080864 526588861.24119568 0 0 0 0 -192707826.37120056 -390115957.23683167 0 -390115957.23683167 159020614.78353119 0 0 0 0 -182096410.30419922 -431540539.46088409 0 -431540539.46088409 1123075339.8811874 0 0 0 0 419347323.13508606 -900666782.97591019 0 -900666782.97591019 347651948.43849182 0 0 0 0 917805933.09933472 -562213146.09389114 0 -562213146.09389114 -130597945.94790649 0 0 0 0 -3815340.0391028523 -6137687.4641383328 0 -6137687.4641383328 -3126056.5295120925 0 0 0 0 387025934.11573792 -182348679.80364227 0 -182348679.80364227 204204188.57276154 0 0 0 0 816028121.62638855 -165905090.9040451 0 -165905090.9040451 75074960.412109375 0 0 0 0 311266064.75522614 -299712734.94693565 0 -299712734.94693565 71880791.643226624 0 0 0 0 241084613.88585663 -276031977.1944313 0 -276031977.1944313 382092738.5499382 0 0 0 0 -33979741.499511719 -913648847.95431614 0 -913648847.95431614 -438625204.5741272 0 0 0 0 78611098.809211731 -27742138.35515213 0 -27742138.35515213 -245058844.06041241 0 0 0 0 16316237.439628601 -347573285.59173775 0 -347573285.59173775 -928931464.5437088 0 0 0 0 -63607202.30809021 -177545532.70906067 0 -177545532.70906067 350053662.35743332 0 0 0 0 -1499797.4647132605 -26159.899355262518 0 -26159.899355262518 646988.69494853541 0 0 0 0 -253141817.20425415 -514893621.0998764 0 -514893621.0998764 -720481702.37821198 0 0 0 0 -325011218.26272583 -153800423.14431 0 -153800423.14431 -281442779.79580688 0 0 0 0 195957076.7881279 327185297.20321274 0 327185297.20321274 499121192.05342102 0 0 0 0 -192576402.96554565 -673061824.42053986 0 -673061824.42053986 -595305714.36470032 0 0 0 0 119185331.67736435 -31456181.916545868 0 -31456181.916545868 -12996334.72277832 0 0 0 0 43236617.38482666 -9172014.2708740234 0 -9172014.2708740234 365296181.23970795 0 0 0 0 -3234879.9368246347 -484946.80200599506 0 -484946.80200599506 1085086.4942883924 0 0 0 0 307097559.64053345 -108642820.43997192 0 -108642820.43997192 12560854.693180084 0 0 0 0 111949322.31152439 -50485630.712412357 0 -50485630.712412357 381502924.34933472 0 0 0 0 587243251.96234131 -692554614.80503082 0 -692554614.80503082 512180812.13108826 0 0 0 0 354570748.69898033 -293526787.8642807 0 -293526787.8642807 115461898.3518219 0 0 0 0 133654228.09303284 -67671475.294509888 0 -67671475.294509888 285905815.143013 0 0 0 0 -147053286.61951065 -447449779.35897446 0 -447449779.35897446 572657075.97399902 0 0 0 0 -3985111.9783544242 -1003212.3769823834 0 -1003212.3769823834 973138.33057186007 0 0 0 0 -205530371.26773262 -557040341.88670874 0 -557040341.88670874 -265456761.36502075 0 0 0 0 -192407611.49546814 -1175470584.1410332 0 -1175470584.1410332 -1437990483.9141693 0 0 0 0 -660960684.83342743 -1037002656.9238281 0 -1037002656.9238281 -694909418.15674591 0 0 0 0 -482485213.48880005 -638554368.08600616 0 -638554368.08600616 -225519911.72335052 0 0 0 0 -1035374434.2061005 -706222030.4391098 0 -706222030.4391098 301826424.40722656 0 0 0 0 -461222870.29169464 -498095575.61893463 0 -498095575.61893463 -1209066678.4536514 0 0 0 0 -365772622.66608429 35310864.046760559 0 35310864.046760559 367495052.31590176 0 0 0 0 57083244.00019455 90525002.736782074 0 90525002.736782074 57605192.549316406 0 0 0 0 13277136.973213196 372716271.92066956 0 372716271.92066956 -168869239.18920517 0 0 0 0 16217016.945543766 -104768515.04185748 0 -104768515.04185748 124132382.8964386 0 0 0 0 190798476.89537048 -191183522.59186554 0 -191183522.59186554 624158205.7684803 0 0 0 0 2968505.3541823179 -906378.81409402564 0 -906378.81409402564 3420287.0463104323 0 0 0 0 1112141311.7264328 -1172591381.9443474 0 -1172591381.9443474 -42410722.380950928 0 0 0 0 640037024.14082336 -1456709746.460537 0 -1456709746.460537 338038848.03742981 0 0 0 0 2841267178.9716492 -320423000.07626343 0 -320423000.07626343 374880841.42596436 0 0 0 0 -282434.27773487289 -1147356.6692252271 0 -1147356.6692252271 600324.56159974635 0 0 0 0 -1373992396.0857525 -1778187208.532372 0 -1778187208.532372 -3504743743.0283508 0 0 0 0 -1412978710.4355392 -18753646.927913666 0 -18753646.927913666 1186907085.9561539 0 0 0 0 -1064683532.0914993 -326436536.44092941 0 -326436536.44092941 367988743.19896698 0 0 0 0 -1519129.0037019532 -4790268.0310458913 0 -4790268.0310458913 -2846909.405987896 0 0 0 0 -1383555.5973825455 -7080703.399995327 0 -7080703.399995327 1845174.2798461914 0 0 0 0 -1660261.9388463614 -4546626.2915636003 0 -4546626.2915636003 -1104726.671399042 0 0 0 0 1383949113.0021417 104695563.44190443 0 104695563.44190443 -1341223337.6766205 0 0 0 0 -700517581.97502899 -728426120.96021271 0 -728426120.96021271 411549614.66306305 0 0 0 0 409272557.27763367 125976995.42242432 0 125976995.42242432 -299766613.69254303 0 0 0 0 1111284287.5500031 -540657085.95351791 0 -540657085.95351791 210755962.31906128 0 0 0 0 524439873.62905121 -958618622.1950531 0 -958618622.1950531 -447647655.71564484 0 0 0 0 912618632.74943924 -373903546.28978729 0 -373903546.28978729 41196758.63104248 0 0 0 0 -2347712.0829181224 -487499.58894754201 0 -487499.58894754201 632919.76836476475 0 0 0 0 -530376725.72920227 -269889765.73061371 0 -269889765.73061371 1201091486.8242683 0 0 0 0 -945724235.11869812 277481594.28729248 0 277481594.28729248 951712044.44091797 0 0 0 0 -643794464.45431519 -577251836.95740509 0 -577251836.95740509 478970436.44010162 0 0 0 0 -208660742.50367928 -462237617.82429314 0 -462237617.82429314 -821043462.17221069 0 0 0 0 -158893313.42041016 -644236633.76987457 0 -644236633.76987457 -521471763.02433014 0 0 0 0 -6582795.8673095703 -799372631.43208313 0 -799372631.43208313 -411673625.79904938 0 0 0 0 -37811476.367927551 -884430278.80265808 0 -884430278.80265808 -898631543.6708374 0 0 0 0 19781679.35647583 -747284939.81361389 0 -747284939.81361389 -996053784.46995544 0 0 0 0 144124107.47903442 -742909782.05791473 0 -742909782.05791473 -1284822859.309082 0 0 0 0 142191014.30896759 -867325863.72348022 0 -867325863.72348022 -1430278767.1748505 0 0 0 0 535684351.20367432 -439270492.21408081 0 -439270492.21408081 -1021870766.3635864 0 0 0 0 -553519129.04472351 -1896375879.9028397 0 -1896375879.9028397 -1699542441.3459854 0 0 0 0 725723251.95432186 -1423664054.5489669 0 -1423664054.5489669 -2335317113.366333 0 0 0 0 1554903321.3554215 -705020917.25273323 0 -705020917.25273323 299734695.28744507 0 0 0 0 542764117.20146179 389238297.39422989 0 389238297.39422989 119346588.4005127 0 0 0 0 -1865090.6718436256 -4066388.1204135753 0 -4066388.1204135753 -2790386.2451713085 0 0 0 0 2167454699.0713806 -501080782.09135818 0 -501080782.09135818 -1838059718.7715912 0 0 0 0 -2186045681.4894638 -2182504384.0948639 0 -2182504384.0948639 -1148373763.8692169 0 0 0 0 -2488301373.8956642 -1820473518.2581062 0 -1820473518.2581062 -616943346.50038147 0 0 0 0 -393588700.85125732 51562340.56817627 0 51562340.56817627 -1597981926.3082542 0 0 0 0 183694412.87309265 120862184.90987778 0 120862184.90987778 -43401518.872665405 0 0 0 0 1227544.2714529536 -5353135.8316176571 0 -5353135.8316176571 -17389393.607212901 0 0 0 0 -127745913.53081465 -362998075.91237259 0 -362998075.91237259 -951684572.01599121 0 0 0 0 -140115939.9568634 -8026734.394203186 0 -8026734.394203186 53718305.073898315 0 0 0 0 -249768581.72683716 77270950.704582214 0 77270950.704582214 64809426.168476105 0 0 0 0 -79912951.751045227 61985998.809772491 0 61985998.809772491 47071609.2576828 0 0 0 0 -155456982.16795349 80226363.129882812 0 80226363.129882812 57756988.565711975 0 0 0 0 316228833.58831024 -758231226.10187531 0 -758231226.10187531 -587401680.00203896 0 0 0 0 -36352227.020706177 190513653.97462082 0 190513653.97462082 -228273971.05653381 0 0 0 0 -4035055868.8830795 -2349546030.2905464 0 -2349546030.2905464 -146926695.17489624 0 0 0 0 62548.172964230995 -1659174.9678073041 0 -1659174.9678073041 -6411344.2749702781 0 0 0 0 -219310535.11109924 1361844.0349884033 0 1361844.0349884033 55488943.626495361 0 0 0 0 -177126515.02479553 255647609.63760757 0 255647609.63760757 -348353552.19458771 0 0 0 0 353500576.36160278 -580329547.24426746 0 -580329547.24426746 153921809.83110046 0 0 0 0 288369843.49996948 -131780655.72236633 0 -131780655.72236633 -259704280.77448273 0 0 0 0 600255606.04038239 167424946.97866821 0 167424946.97866821 -6202494.5553741455 0 0 0 0 -80149301.991744995 -52719724.167442322 0 -52719724.167442322 -101350393.16570282 0 0 0 0 236240445.53552246 130458170.69082642 0 130458170.69082642 -13788125.561439514 0 0 0 0 172750752.19520569 -75410824.873657227 0 -75410824.873657227 58504673.42357254 0 0 0 0 388070111.67671204 -625003691.16823578 0 -625003691.16823578 143164811.26551056 0 0 0 0 150384968.69633484 10386285.253852844 0 10386285.253852844 446806401.68465424 0 0 0 0 237353303.49118805 -724952764.86701202 0 -724952764.86701202 515162134.7125473 0 0 0 0 309045200.65685606 16382814.73860836 0 16382814.73860836 -7044325.7104187012 0 0 0 0 382405089.71626282 -515791110.44582748 0 -515791110.44582748 412773268.48191071 0 0 0 0 109442757.87442017 -383703100.50350952 0 -383703100.50350952 576170732.13244438 0 0 0 0 76382530.313026428 179545181.32902527 0 179545181.32902527 -40045273.824264526 0 0 0 0 -484271388.4523468 -494387931.85266876 0 -494387931.85266876 -597330383.08041 0 0 0 0 2271438.3617705479 -1465174.2087043189 0 -1465174.2087043189 -814169.06902787276 0 0 0 0 192285904.52740479 -657950993.44661331 0 -657950993.44661331 675316883.67188644 0 0 0 0 -941820122.46853638 -781591417.6184082 0 -781591417.6184082 -295063514.28691101 0 0 0 0 148799656.01698303 -1111814686.7781601 0 -1111814686.7781601 -1732880138.8816071 0 0 0 0 -753345010.23664856 -361867178.35644531 0 -361867178.35644531 -123957352.44664001 0 0 0 0 454617.08340873569 -2208728.8646745905 0 -2208728.8646745905 -2400715.4654413201 0 0 0 0 -9778410.1623306274 222140809.69772339 0 222140809.69772339 -2015032438.2062836 0 0 0 0 -261668566.57720947 -1503177599.7068977 0 -1503177599.7068977 -2988789824.8073959 0 0 0 0 -3613856748.6961975 -760564589.36724854 0 -760564589.36724854 -25732763.952735901 0 0 0 0 -60967687.587169647 -646346447.55940056 0 -646346447.55940056 -110917058.73950958 0 0 0 0 -96522279.571685791 -1663843560.0763779 0 -1663843560.0763779 -1406107198.2775421 0 0 0 0 -602221802.43534088 -610112878.93478775 0 -610112878.93478775 -107644050.51966095 0 0 0 0 -1193483316.3483276 -1110588472.4308853 0 -1110588472.4308853 -477785865.54718781 0 0 0 0 -576539595.34918213 -304333946.00889397 0 -304333946.00889397 -16071657.548606873 0 0 0 0 -391657216.66880798 -304456779.32050323 0 -304456779.32050323 -455998407.62229156 0 0 0 0 112005597.01882172 114358646.35303497 0 114358646.35303497 -4988485.4801059961 0 0 0 0 -314695675.03271484 -106793391.69351959 0 -106793391.69351959 -251703030.98438931 0 0 0 0 -749060454.13802338 -487390020.93625259 0 -487390020.93625259 -188915118.54500198 0 0 0 0 -615898154.85434914 -728544844.48622513 0 -728544844.48622513 -736376455.59387207 0 0 0 0 -1134574318.1592407 -160597946.53274918 0 -160597946.53274918 -1227391254.420969 0 0 0 0 -867679327.15400219 -1156999852.9547057 0 -1156999852.9547057 -1431112027.2938614 0 0 0 0 -305526581.11207581 -454074017.65384293 0 -454074017.65384293 -694299526.49944878 0 0 0 0 -730110716.09796524 -776916465.71764565 0 -776916465.71764565 -559105443.65600586 0 0 0 0 -1003153940.3902092 -670636060.92078209 0 -670636060.92078209 -183731969.81781769 0 0 0 0 -742355031.40498352 -353823042.13075256 0 -353823042.13075256 -419687841.29607391 0 0 0 0 -487598507.44652557 -549331766.30485153 0 -549331766.30485153 -285677807.30444336 0 0 0 0 -531634255.14888 -704947197.50133133 0 -704947197.50133133 -305405860.49895477 0 0 0 0 -143042830.98904419 -209045824.87841415 0 -209045824.87841415 -156624854.10195923 0 0 0 0 22458015.640510559 -441425909.90987396 0 -441425909.90987396 129480463.18745804 0 0 0 0 -858835254.39533997 -556688350.56887054 0 -556688350.56887054 -169228517.00485229 0 0 0 0 -763727722.11943054 -511261223.90677643 0 -511261223.90677643 -284476503.95831299 0 0 0 0 -1191216347.5121422 -264533062.29901695 0 -264533062.29901695 -383468611.45547485 0 0 0 0 5131496.7705306113 -14099159.035871958 0 -14099159.035871958 6200411.0565697784 0 0 0 0 -159122685.61816406 -362993724.76193237 0 -362993724.76193237 -725088521.7008667 0 0 0 0 -38597755.241592407 -1425797.4038391113 0 -1425797.4038391113 487577818.76475143 0 0 0 0 -907516035.93885803 -677322272.98509598 0 -677322272.98509598 -260811453.39186859 0 0 0 0 47828.829164206982 -81198.605447292328 0 -81198.605447292328 858947.23384033144 0 0 0 0 -41546137.876708984 -117581348.60123253 0 -117581348.60123253 326697177.88237762 0 0 0 0 860981.68969900161 -7736505.4645703714 0 -7736505.4645703714 2091928.3182779457 0 0 0 0 29535852.405029297 -59815683.583187103 0 -59815683.583187103 311426574.61039537 0 0 0 0 235331.63858032227 -7176567.9314002991 0 -7176567.9314002991 1876884.3224506378 0 0 0 0 -348184398.61472321 -263520045.01072311 0 -263520045.01072311 136285753.07653809 0 0 0 0 -256533888.29307556 127613826.69533539 0 127613826.69533539 275708723.00319672 0 0 0 0 1857985.1556355208 -6592684.1644788589 0 -6592684.1644788589 -942321.26588810235 0 0 0 0 -92246653.919090271 -1189379719.4437103 0 -1189379719.4437103 2204889267.3777313 0 0 0 0 866948.61140335351 -4422084.3609852046 0 -4422084.3609852046 -1507057.2692537066 0 0 0 0 -232947886.92918015 -610993871.56318092 0 -610993871.56318092 957471129.54399109 0 0 0 0 -116486361.38072586 -708466695.66479874 0 -708466695.66479874 34456494.940658569 0 0 0 0 805967263.93034363 -198086613.52190781 0 -198086613.52190781 -2321201963.8224773 0 0 0 0 396626936.67445374 -452130665.72399139 0 -452130665.72399139 508610226.81136298 0 0 0 0 -147139084.60404968 -77781623.086341858 0 -77781623.086341858 426896898.87098694 0 0 0 0 2671689.1360486262 -27182.958953373134 0 -27182.958953373134 -2158807.0047683157 0 0 0 0 373597030.0510788 -563873117.50137329 0 -563873117.50137329 339590843.48429871 0 0 0 0 -101932523.64891052 -981954457.51933289 0 -981954457.51933289 535886209.43112183 0 0 0 0 308813653.82505035 -155504418.03207064 0 -155504418.03207064 862092694.634552 0 0 0 0 -655278918.38101196 -1278810547.7218475 0 -1278810547.7218475 3123015113.4747896 0 0 0 0 -165609483.00849915 -658291016.4672699 0 -658291016.4672699 2535537022.2008438 0 0 0 0 189302597.40414429 -2105893926.9970703 0 -2105893926.9970703 1798592964.0631256 0 0 0 0 189449824.10430145 -866515790.20116806 0 -866515790.20116806 256432232.97943115 0 0 0 0 296988063.25282288 -968353350.86713409 0 -968353350.86713409 232283052.41612816 0 0 0 0 -10651839.997467041 -677659516.88160706 0 -677659516.88160706 -2450545883.82061 0 0 0 0 9570523.7421286702 -12387798.993194222 0 -12387798.993194222 4700291.0755496994 0 0 0 0 284259060.10518456 -1716803212.1476917 0 -1716803212.1476917 -146890606.30010986 0 0 0 0 -827713232.9592514 -436130628.66088104 0 -436130628.66088104 -319718058.40444946 0 0 0 0 188997978.24880981 -412810818.26892853 0 -412810818.26892853 -915452666.81535721 0 0 0 0 232560146.41542816 -629552609.72373199 0 -629552609.72373199 -475815210.43217182 0 0 0 0 502306523.91789627 -606356735.02202225 0 -606356735.02202225 -473864467.24613953 0 0 0 0 -93315977.206829071 -718891511.85202408 0 -718891511.85202408 -258527312.73508453 0 0 0 0 55248845.466522217 -281353086.85761642 0 -281353086.85761642 -453331480.99313545 0 0 0 0 -228605003.30841827 -459153442.37460327 0 -459153442.37460327 -413490965.92573166 0 0 0 0 -243975739.48164558 -553500141.82520676 0 -553500141.82520676 -700132626.02667999 0 0 0 0 149692456.76604462 -83173886.066776276 0 -83173886.066776276 -1014804257.8782692 0 0 0 0 218825837.77388573 -518896897.44530487 0 -518896897.44530487 -305378437.15814972 0 0 0 0 165560935.72427368 -113809846.42050934 0 -113809846.42050934 -481902286.41373253 0 0 0 0 333916129.36184311 -263805104.54528999 0 -263805104.54528999 -509261765.92578888 0 0 0 0 698609421.86392975 -1280247448.8782539 0 -1280247448.8782539 339503085.58415985 0 0 0 0 235052550.0697403 -254822685.04385376 0 -254822685.04385376 110339072.31468201 0 0 0 0 438327600.76768112 -846132271.31586933 0 -846132271.31586933 392507742.87870789 0 0 0 0 345997254.86271763 -699877979.83014965 0 -699877979.83014965 333377352.17388916 0 0 0 0 107832743.90800476 -205832320.02682495 0 -205832320.02682495 1076143854.9222946 0 0 0 0 -84722495.456177235 -1071407584.156003 0 -1071407584.156003 252601922.72079468 0 0 0 0 43418647.885864258 -301007845.75721741 0 -301007845.75721741 -89881200.41872406 0 0 0 0 42588639.781188965 -482851423.5283432 0 -482851423.5283432 -181876945.88177872 0 0 0 0 -266211122.16392899 -184905290.01356125 0 -184905290.01356125 -457474214.55104828 0 0 0 0 -2688775.5621795654 -5975855.5473937988 0 -5975855.5473937988 -4472294.7391300201 0 0 0 0 39319673.012737274 -329778843.94054031 0 -329778843.94054031 -578316897.77810669 0 0 0 0 -3082010.3582293615 -5516384.5865105223 0 -5516384.5865105223 3055266.6531756613 0 0 0 0 3105632.4423907977 -2058729.5807024771 0 -2058729.5807024771 -717430.00954733789 0 0 0 0 -33534610.832481384 -266146257.24264908 0 -266146257.24264908 -508374613.65082312 0 0 0 0 -3016658.0502243042 -3557614.325843811 0 -3557614.325843811 125538.96508789062 0 0 0 0 -100883455.56005955 36500083.207565308 0 36500083.207565308 107866329.44204712 0 0 0 0 4027094.3866424561 -3332591.8638496399 0 -3332591.8638496399 -2315172.582244873 0 0 0 0 793171.03948974609 -1970526.4659576416 0 -1970526.4659576416 -2838099.0174369812 0 0 0 0 1896005.636552135 -1883193.7607602337 0 -1883193.7607602337 235500.29225581884 0 0 0 0 -32352822.730329514 185710030.72242069 0 185710030.72242069 -559495747.1789093 0 0 0 0 154736274.55786896 -135481552.99444199 0 -135481552.99444199 -508372537.93544006 0 0 0 0 83693997.179107666 -105535386.12072372 0 -105535386.12072372 -520634783.15748596 0 0 0 0 129935.89442690834 -6650320.6135431984 0 -6650320.6135431984 1268606.782303568 0 0 0 0 422568.61999511719 -8483775.5557250977 0 -8483775.5557250977 -8558386.5364990234 0 0 0 0 -12742462.497516632 24545561.022727966 0 24545561.022727966 -383003110.59305382 0 0 0 0 291746.08390808105 -10734762.603927612 0 -10734762.603927612 -5833952.5117492676 0 0 0 0 7005124.0947651118 -4642586.0652468204 0 -4642586.0652468204 -2735106.0605006432 0 0 0 0 180486818.21141434 76259419.827623367 0 76259419.827623367 42559642.610298157 0 0 0 0 1654927.3842697144 -18478644.178421021 0 -18478644.178421021 -410230379.83077049 0 0 0 0 1842759.5314547531 -6187323.0572291836 0 -6187323.0572291836 -5928085.0441499315 0 0 0 0 4682421.3802185059 -67854175.845870972 0 -67854175.845870972 553892503.64862061 0 0 0 0 -35309.377278633416 -2058134.2502777651 0 -2058134.2502777651 917742.17388734221 0 0 0 0 31981390.671310425 61454494.73487854 0 61454494.73487854 182573924.04098511 0 0 0 0 84930468.720626831 -220039866.8870697 0 -220039866.8870697 315196607.08317947 0 0 0 0 -3348333.4767303467 -72046682.314025879 0 -72046682.314025879 361371606.97799683 0 0 0 0 325800.85803985596 -8150400.5431976318 0 -8150400.5431976318 16061642.802017212 0 0 0 0 2435914.7914812118 -7319692.0449116211 0 -7319692.0449116211 -2601904.8922185255 0 0 0 0 -23978146.432025909 -17371400.384277344 0 -17371400.384277344 216536025.02774048 0 0 0 0 37089564.809371948 -18762397.207389832 0 -18762397.207389832 1634872.23462677 0 0 0 0 -31395215.198215485 73183099.463443756 0 73183099.463443756 89068401.060997009 0 0 0 0 26974836.057308197 11170298.222873688 0 11170298.222873688 -290384998.4185791 0 0 0 0 2578751.5759555474 -13586822.376819238 0 -13586822.376819238 -2636273.2897747606 0 0 0 0 4150886.3872101344 -1973864.9623796158 0 -1973864.9623796158 -2018558.9330549501 0 0 0 0 -8779252.7792358398 -73406144.888153076 0 -73406144.888153076 71743076.20198822 0 0 0 0 82191302.212936401 -102426935.92333984 0 -102426935.92333984 9538277.7038726807 0 0 0 0 57792244.582839966 -120471506.05852509 0 -120471506.05852509 63506489.030593872 0 0 0 0 151026371.89859772 -146532184.11968231 0 -146532184.11968231 11025058.654006958 0 0 0 0 97069564.465209961 -177701731.40215302 0 -177701731.40215302 96171142.957519531 0 0 0 0 337940094.87281036 -290214697.65745544 0 -290214697.65745544 -251261547.87260818 0 0 0 0 74130779.37097168 -165657419.76886749 0 -165657419.76886749 90350041.607498169 0 0 0 0 207940216.71168518 -257955171.87599945 0 -257955171.87599945 83652506.141136169 0 0 0 0 205447558.78339386 -187739082.6273613 0 -187739082.6273613 24821967.16544342 0 0 0 0 101757448.49213409 -297727896.11421204 0 -297727896.11421204 95148526.862686157 0 0 0 0 198483.77962493896 -4967452.7354812622 0 -4967452.7354812622 680845.88465881348 0 0 0 0 4752491.1220779419 -12434965.274742126 0 -12434965.274742126 21461977.020084381 0 0 0 0 5053783.6941549778 -5715819.5818004925 0 -5715819.5818004925 -3274614.5218978124 0 0 0 0 11122448.682151794 -10598279.622436523 0 -10598279.622436523 2785832.6407928467 0 0 0 0 3007157.7856369019 -4723273.2242889404 0 -4723273.2242889404 15850094.099430084 0 0 0 0 22588504.803167343 -2046514.744436264 0 -2046514.744436264 -25753334.720352173 0 0 0 0 6305926.4927978516 -383668.99423217773 0 -383668.99423217773 6140941.151260376 0 0 0 0 2194243.7095257007 -712137.3329423815 0 -712137.3329423815 -1527029.4816770107 0 0 0 0 53704553.866710663 -100241954.29236221 0 -100241954.29236221 40951853.845527649 0 0 0 0 91480665.704063416 -76631195.757698059 0 -76631195.757698059 -36233926.739447594 0 0 0 0 -4690915.6848449707 4590437.05078125 0 4590437.05078125 55087807.16734314 0 0 0 0 -216890382.40549088 -301962302.06503773 0 -301962302.06503773 -31540583.199699402 0 0 0 0 71299959.31300354 -20376024.595867157 0 -20376024.595867157 -67665115.669723511 0 0 0 0 320955.81323508453 2308263.6149623273 0 2308263.6149623273 -303737.21202893555 0 0 0 0 -160329602.88269806 -28062399.664871216 0 -28062399.664871216 -107215961.77436829 0 0 0 0 -679560574.29447937 -246528764.6219635 0 -246528764.6219635 180936544.16786575 0 0 0 0 -526827.76330877002 1765852.7077240981 0 1765852.7077240981 546869.25689651072 0 0 0 0 145506575.13130569 -89910872.849664688 0 -89910872.849664688 19925282.231338501 0 0 0 0 210522503.51899719 -7714732.1902961731 0 -7714732.1902961731 15816526.320289612 0 0 0 0 32142069.23683548 -185748122.89951706 0 -185748122.89951706 33373508.913421631 0 0 0 0 -149997931.34777832 -238472596.50288391 0 -238472596.50288391 -63927241.337177277 0 0 0 0 -39720770.223564148 4977352.9661865234 0 4977352.9661865234 57341072.783878326 0 0 0 0 10841294.302158356 -47389090.131149292 0 -47389090.131149292 -81399728.789352417 0 0 0 0 20376179.114365578 -20724125.249154091 0 -20724125.249154091 -15983951.84552002 0 0 0 0 54712327.217956543 -62717023.12260437 0 -62717023.12260437 -28801398.753608704 0 0 0 0 -123318934.89037323 -68712204.820400238 0 -68712204.820400238 21717697.937580109 0 0 0 0 -115943350.50135803 -107985062.93402243 0 -107985062.93402243 69110503.210708618 0 0 0 0 13530292.849010468 -243545423.54720116 0 -243545423.54720116 -110137290.88863373 0 0 0 0 48022140.588340759 -164449752.48159742 0 -164449752.48159742 -350438721.53450775 0 0 0 0 34322619.841049194 -155493294.95904732 0 -155493294.95904732 -155483703.0273571 0 0 0 0 -24324170.536466599 311869450.24058676 0 311869450.24058676 -391902743.08746338 0 0 0 0 236026407.48514557 246518893.54870987 0 246518893.54870987 -573202262.21683502 0 0 0 0 11983136.296543121 195602768.63549232 0 195602768.63549232 -172703745.95466614 0 0 0 0 4202568.1650297754 -14652118.816586493 0 -14652118.816586493 -9311956.7149663642 0 0 0 0 -138331289.11341858 -116027033.57823563 0 -116027033.57823563 22214856.59085083 0 0 0 0 259062093.04190826 333200705.27105713 0 333200705.27105713 -298102777.79247284 0 0 0 0 2112193.5817765631 1602189.3200808354 0 1602189.3200808354 -2997182.6149098836 0 0 0 0 238269829.01668549 228993718.9660511 0 228993718.9660511 -436368530.36851501 0 0 0 0 -6224651.0096511841 -187676624.53487778 0 -187676624.53487778 93492071.915290833 0 0 0 0 136827910.4753952 -17589167.140926361 0 -17589167.140926361 -17405980.160562515 0 0 0 0 3432258.6466658879 2464808.7329396047 0 2464808.7329396047 -4968155.7503863685 0 0 0 0 346258212.91081238 -265908610.01235199 0 -265908610.01235199 -9434362.5710105896 0 0 0 0 102190856.33407593 121856543.5014782 0 121856543.5014782 -304340798.92276764 0 0 0 0 -316847193.13389587 -79002733.216350555 0 -79002733.216350555 371915737.73027802 0 0 0 0 284100525.88741684 -164016668.34540939 0 -164016668.34540939 21336316.542198181 0 0 0 0 138386923.26352692 -124997194.78390884 0 -124997194.78390884 -8058898.0177440643 0 0 0 0 134852476.16669464 -91146985.315517426 0 -91146985.315517426 67171114.839603424 0 0 0 0 127248318.87665081 -124106285.50714445 0 -124106285.50714445 7644.0210494995117 0 0 0 0 117298424.03768158 -92332856.499160767 0 -92332856.499160767 32065526.610061646 0 0 0 0 238948364.11329651 -64916500.381736755 0 -64916500.381736755 28260433.893959045 0 0 0 0 296484614.09989166 -96322369.655342102 0 -96322369.655342102 -124632280.90135193 0 0 0 0 229805244.99790192 -247601769.98005867 0 -247601769.98005867 -60250537.311660767 0 0 0 0 2006759.3733394984 1495379.5948648378 0 1495379.5948648378 -2660794.5080545284 0 0 0 0 200552266.91589355 -174419511.75535202 0 -174419511.75535202 -223243916.28865051 0 0 0 0 111596879.60954857 -21978256.300467968 0 -21978256.300467968 -173374673.59095764 0 0 0 0 -51240267.821716309 -46824983.767501831 0 -46824983.767501831 -135626987.44760132 0 0 0 0 129283777.93891907 -147214014.0566864 0 -147214014.0566864 -87169310.453117371 0 0 0 0 36791392.504863739 -35789573.854529381 0 -35789573.854529381 -33184091.596122742 0 0 0 0 14764480.192699432 53657457.731913567 0 53657457.731913567 -243015030.92599487 0 0 0 0 -160410964.42134857 87423609.186592102 0 87423609.186592102 -79173173.443706512 0 0 0 0 35580667.780029297 102239001.54230881 0 102239001.54230881 -80110181.725063324 0 0 0 0 216145375.15133095 81407544.835234642 0 81407544.835234642 27614797.343971252 0 0 0 0 91625793.644348145 -122655239.79907608 0 -122655239.79907608 148769909.24134827 0 0 0 0 93632751.705589294 -65186393.65209198 0 -65186393.65209198 -135391419.75716782 0 0 0 0 -282115494.56695557 241810837.802948 0 241810837.802948 83405061.696594238 0 0 0 0 -326086682.2074461 -143097126.46106315 0 -143097126.46106315 -108139115.80455017 0 0 0 0 -46237750.29095459 -12547720.023220062 0 -12547720.023220062 -433325205.15966034 0 0 0 0 -206942130.09141541 -4881095.2698822021 0 -4881095.2698822021 82004437.043914795 0 0 0 0 -235098517.93145752 218418905.5851059 0 218418905.5851059 -258277791.23882484 0 0 0 0 364059.31851646304 -3858700.5856069662 0 -3858700.5856069662 2191064.4104271084 0 0 0 0 93430260.502476692 66703763.066787481 0 66703763.066787481 82179553.703094482 0 0 0 0 309453056.37606812 -58691028.235300064 0 -58691028.235300064 -167875089.7215271 0 0 0 0 3426537.4109483035 -17678133.082072563 0 -17678133.082072563 -25216421.936590884 0 0 0 0 52747815.130126953 -347722790.7420845 0 -347722790.7420845 -405988010.49124908 0 0 0 0 5619966.6817601314 -29108800.92861129 0 -29108800.92861129 -24600278.356716156 0 0 0 0 22342528.168403625 -28078882.139541626 0 -28078882.139541626 -4426304.658241272 0 0 0 0 -41230868.365379333 -157555465.25845718 0 -157555465.25845718 134708196.76691437 0 0 0 0 10392012.045748383 -17838669.806473553 0 -17838669.806473553 -34873238.162111729 0 0 0 0 -25713128.917793274 -45582387.122097015 0 -45582387.122097015 119154147.86817169 0 0 0 0 -3930107.161427781 -17544692.959920049 0 -17544692.959920049 12589087.391893424 0 0 0 0 36798869.276294708 -40576464.100717545 0 -40576464.100717545 -9983148.8097991943 0 0 0 0 5294923.1441698596 -19893385.622308552 0 -19893385.622308552 -29208673.059205204 0 0 0 0 1268045.7933959961 -22929483.376075745 0 -22929483.376075745 -17626024.545349121 0 0 0 0 10271029.353321075 -33510874.607192993 0 -33510874.607192993 -7612759.7910766602 0 0 0 0 84618902.958367348 -76396490.715705395 0 -76396490.715705395 -48667109.455993652 0 0 0 0 14787995.841032982 -18495764.00834465 0 -18495764.00834465 -16480117.01222229 0 0 0 0 31270180.714332581 66014884.696544647 0 66014884.696544647 -175620852.29663086 0 0 0 0 -13202889.473846436 80274203.140552521 0 80274203.140552521 -42115440.263748169 0 0 0 0 86510426.641914368 -23238649.401115417 0 -23238649.401115417 -46031260.371910095 0 0 0 0 -46685221.059356689 58273739.172164917 0 58273739.172164917 -83785658.009010315 0 0 0 0 -98141251.740005493 86339408.950263977 0 86339408.950263977 -84795521.233909607 0 0 0 0 -54431800.71647644 83012259.675216675 0 83012259.675216675 -94536237.619354248 0 0 0 0 -63664549.717216492 49287972.915718079 0 49287972.915718079 -122758509.61972046 0 0 0 0 -12352272.59928894 93637082.051872253 0 93637082.051872253 -87505139.217472076 0 0 0 0 -21973203.124237061 23363430.6705513 0 23363430.6705513 -110716057.84234238 0 0 0 0 -2695868.6158982143 -15594249.399099063 0 -15594249.399099063 -8767986.6320557706 0 0 0 0 322989.06854248047 -9549385.0237884521 0 -9549385.0237884521 3698991.9625244141 0 0 0 0 2988816.2205047403 -25477669.221837733 0 -25477669.221837733 2378602.6222118288 0 0 0 0 2303845.2842941731 -11446996.243972706 0 -11446996.243972706 -36266138.381430686 0 0 0 0 -2788859.7008514404 -140777125.08982086 0 -140777125.08982086 -92742368.98115921 0 0 0 0 53545797.607131958 -67236609.672393799 0 -67236609.672393799 -381165050.89384651 0 0 0 0 -830211.52946507186 -22558277.573826179 0 -22558277.573826179 -6772399.5833345056 0 0 0 0 2425918.2634174526 -1146084.1872381326 0 -1146084.1872381326 -15563526.865129119 0 0 0 0 -32747083.402191162 -3860130.1816711426 0 -3860130.1816711426 -179498068.60807014 0 0 0 0 -7602483.8486328125 -41288154.053375244 0 -41288154.053375244 -27770581.921096802 0 0 0 0 721664.57049074024 41372.694665620103 0 41372.694665620103 -2501011.2063850127 0 0 0 0 11591086.745286934 -11598966.201766253 0 -11598966.201766253 -38675917.960636817 0 0 0 0 19814646.8801651 -12150532.772125244 0 -12150532.772125244 -18237279.371200562 0 0 0 0 29187157.455047607 -64060408.794616699 0 -64060408.794616699 -49585435.394332886 0 0 0 0 4622878.1411743164 -71304.551391601562 0 -71304.551391601562 -20791890.81350708 0 0 0 0 441775.19203835726 -18715458.834981196 0 -18715458.834981196 -39176871.760846674 0 0 0 0 27310354.816482544 -6069250.0559387207 0 -6069250.0559387207 -33574957.630981445 0 0 0 0 12508922.966643341 -21928827.229018729 0 -21928827.229018729 -20875475.58799234 0 0 0 0 8055962.1330718994 -3855237.8287200928 0 -3855237.8287200928 -17441999.272033691 0 0 0 0 -2974853.8675441742 -23962195.590442657 0 -23962195.590442657 -52514494.038909912 0 0 0 0 9911144.2654438876 -30692850.85149635 0 -30692850.85149635 747501.23756125569 0 0 0 0 38728781.94033432 -44317865.724388123 0 -44317865.724388123 -146959855.18936157 0 0 0 0 6123839.6949062347 -19487382.497112274 0 -19487382.497112274 -90842530.736053467 0 0 0 0 25392134.356578827 -23712751.773338318 0 -23712751.773338318 -21164392.49156189 0 0 0 0 29026770.199287415 -30098562.13735199 0 -30098562.13735199 -10802766.454198837 0 0 0 0 23782919.152400538 -21007194.291866429 0 -21007194.291866429 -80465984.101270735 0 0 0 0 15915977.218781285 -28401516.39988824 0 -28401516.39988824 -29127143.731963679 0 0 0 0 18144699.969161987 -26802941.379920959 0 -26802941.379920959 -40527672.932540894 0 0 0 0 9539787.2031671796 -21618500.627796251 0 -21618500.627796251 -28409064.179616258 0 0 0 0 145512558.34888458 -1540071.0230102539 0 -1540071.0230102539 -72413316.044128418 0 0 0 0 2602126.4897003174 -19656924.748893738 0 -19656924.748893738 -16259251.824514389 0 0 0 0 4893987.6781091876 -14830610.922691576 0 -14830610.922691576 -26866542.534859449 0 0 0 0 3732833.9777299007 1805321.3758339584 0 1805321.3758339584 2978.5612661093473 0 0 0 0 1458518.5465011597 -32944770.81186676 0 -32944770.81186676 -25466443.997337341 0 0 0 0 -3794055.2108917236 -29755603.008209229 0 -29755603.008209229 -51244100.303077698 0 0 0 0 4868673.210400749 -16120266.869738612 0 -16120266.869738612 -25096610.287138417 0 0 0 0 -1784275.8722991943 -24694178.807437897 0 -24694178.807437897 -53865346.188903809 0 0 0 0 86265222.060932159 -4870768.087387085 0 -4870768.087387085 -119867058.42967224 0 0 0 0 81333659.008861542 -269297976.78175354 0 -269297976.78175354 39230905.290893555 0 0 0 0 4410978.318821352 -26018338.390649304 0 -26018338.390649304 -3520882.5245256871 0 0 0 0 -6086669.1334075928 -30253535.655670166 0 -30253535.655670166 -52952580.150360107 0 0 0 0 1410370.2591323853 -154371044.11781311 0 -154371044.11781311 -122581549.18453979 0 0 0 0 -3772303.2991333008 -18703916.864776611 0 -18703916.864776611 -3737374.8801269531 0 0 0 0 12546308.902803974 -22385971.617705125 0 -22385971.617705125 -14115501.508616835 0 0 0 0 10000970.698455557 -22282869.41162258 0 -22282869.41162258 -7933387.3587010354 0 0 0 0 3522228.6331290454 -24417507.538169399 0 -24417507.538169399 -5059448.857229054 0 0 0 0 129909473.15712827 -13477677.12476629 0 -13477677.12476629 18325721.271240234 0 0 0 0 -3322466.6147460938 -18624730.077301025 0 -18624730.077301025 -4848164.6251220703 0 0 0 0 10446578.641022645 -15766393.074470662 0 -15766393.074470662 -34425042.886273086 0 0 0 0 -167788694.80329132 -119239835.19335938 0 -119239835.19335938 93719331.90838623 0 0 0 0 431011.43533487478 -23239448.692176443 0 -23239448.692176443 15364078.967218325 0 0 0 0 2908717.4869284453 -9419136.5743289515 0 -9419136.5743289515 -237502.41673997045 0 0 0 0 -253252175.20372057 -86396179.100578785 0 -86396179.100578785 126007254.17266846 0 0 0 0 -63809489.230239868 30056084.802307129 0 30056084.802307129 -63296281.447875977 0 0 0 0 -115405557.21474457 -98644726.241073608 0 -98644726.241073608 73679170.222991943 0 0 0 0 -118182789.08146667 -45680521.408401489 0 -45680521.408401489 166258254.77610016 0 0 0 0 -123792947.22813416 -174168988.89878845 0 -174168988.89878845 32455596.01675415 0 0 0 0 85084182.403163433 -253628085.45187855 0 -253628085.45187855 756951.81188964844 0 0 0 0 104710143.54421234 -89628450.557357788 0 -89628450.557357788 -11194740.150878906 0 0 0 0 -126556194.6738205 -27284286.734512329 0 -27284286.734512329 -52843094.511352539 0 0 0 0 -162703364.22437668 -126115719.99060059 0 -126115719.99060059 62512923.308959961 0 0 0 0 42843636.939781189 -101399888.01696777 0 -101399888.01696777 44340754.82661438 0 0 0 0 159770276.11928558 -42197616.009597778 0 -42197616.009597778 21112722.923461914 0 0 0 0 5623299.607564427 -19150098.749013059 0 -19150098.749013059 -10239980.400184155 0 0 0 0 -8481036.2075586934 -16450622.838495441 0 -16450622.838495441 15055501.049094841 0 0 0 0 60431583.792369843 -22709903.425079346 0 -22709903.425079346 82072175.685424805 0 0 0 0 -1677150.4832253838 -45597670.286035173 0 -45597670.286035173 6469028.9692951143 0 0 0 0 6041144.7858657837 -29288627.094436646 0 -29288627.094436646 -6613894.9777832031 0 0 0 0 -1395114.911911739 -35625260.042388111 0 -35625260.042388111 -7763561.8317462206 0 0 0 0 -30151668.39874649 15215964.855567932 0 15215964.855567932 -64115590.529632568 0 0 0 0 10015538.382280454 -16637404.301214404 0 -16637404.301214404 -53777116.723812945 0 0 0 0 153247890.08557129 -186939271.97421265 0 -186939271.97421265 60661683.574859619 0 0 0 0 49398289.910919189 -108862051.10177612 0 -108862051.10177612 117107715.62187958 0 0 0 0 29730066.466384888 5089925.3929367065 0 5089925.3929367065 -72663453.63621521 0 0 0 0 1274142.3805103749 385928.74570405483 0 385928.74570405483 -14202816.500826132 0 0 0 0 477092873.01826096 -62436774.335845947 0 -62436774.335845947 -81210993.831628799 0 0 0 0 88077266.653842926 -89463027.448806763 0 -89463027.448806763 -83073287.503295898 0 0 0 0 -14179272.136440277 -82357680.595298767 0 -82357680.595298767 35275670.924682617 0 0 0 0 -10882873.107078552 7376031.011505127 0 7376031.011505127 1205254.2764434814 0 0 0 0 -145995453.52130127 -307019122.13302612 0 -307019122.13302612 -148067780.64682007 0 0 0 0 -1782021.8344389666 -4326327.4484445676 0 -4326327.4484445676 3643647.3910246789 0 0 0 0 -243180961.18310928 -216460810.11786652 0 -216460810.11786652 -61728652.506011963 0 0 0 0 141614526.3024292 44895782.982116699 0 44895782.982116699 -1704393.3187866211 0 0 0 0 -55497447.691101074 14999116.076293945 0 14999116.076293945 81253482.559875488 0 0 0 0 -30160681.627670288 -1328990.1607971191 0 -1328990.1607971191 65338014.563262939 0 0 0 0 -33992153.989822388 21347908.258789062 0 21347908.258789062 120559985.15284729 0 0 0 0 -12556500.44060421 -45980454.319236755 0 -45980454.319236755 -26553675.315704346 0 0 0 0 82557282.593063354 -12564355.104217529 0 -12564355.104217529 61218731.845336914 0 0 0 0 -227695453.22022247 -147257352.4916687 0 -147257352.4916687 -29349406.147499084 0 0 0 0 176088823.94191742 -9334605.7945556641 0 -9334605.7945556641 -27039742.541857719 0 0 0 0 -94154905.494377136 -281765297.70713806 0 -281765297.70713806 -115335579.28591919 0 0 0 0 -65675569.816757202 -260135240.7610321 0 -260135240.7610321 -86796911.568054199 0 0 0 0 -468923864.26504517 -255543378.26596069 0 -255543378.26596069 -75347627.800262451 0 0 0 0 -282918822.37454987 -99400064.381103516 0 -99400064.381103516 -225777775.80838013 0 0 0 0 -347641946.9779377 -247541878.57972717 0 -247541878.57972717 -112396002.58605957 0 0 0 0 -583098083.65643311 106247659.0859375 0 106247659.0859375 -399762268.11151123 0 0 0 0 -623623236.43566895 -8492066.9519042969 0 -8492066.9519042969 387284739.90603638 0 0 0 0 -883166729.35223389 -320721088.72787476 0 -320721088.72787476 103624951.45950317 0 0 0 0 -780829487.12265015 -743383038.19662476 0 -743383038.19662476 1508134062.5499954 0 0 0 0 -473503040.22817993 -920694305.98638916 0 -920694305.98638916 381073765.34729004 0 0 0 0 -288212285.56091309 -777082849.17913818 0 -777082849.17913818 -314634517.25286865 0 0 0 0 -285418525.26002502 -611214349.80722046 0 -611214349.80722046 -44978908.307281494 0 0 0 0 -451613755.51364136 -510458958.67547607 0 -510458958.67547607 186468656.68740845 0 0 0 0 -478493612.69770336 -1009975067.855011 0 -1009975067.855011 -277942118.09161377 0 0 0 0 244942501.96485901 106848041.44232178 0 106848041.44232178 92406581.893005371 0 0 0 0 -1015824.4273310676 2514741.8075002339 0 2514741.8075002339 -2495604.5519440919 0 0 0 0 248062566.31082153 -48645641.375183105 0 -48645641.375183105 -103788739.86422729 0 0 0 0 182017244.11781311 -67937437.723937988 0 -67937437.723937988 -61877413.513336182 0 0 0 0 267359935.14710999 -46052038.277038574 0 -46052038.277038574 -105096980.70098877 0 0 0 0 370950902.62219238 90762362.2109375 0 90762362.2109375 -96195796.632232666 0 0 0 0 241556120.34159851 60451578.490478516 0 60451578.490478516 -11960044.780113101 0 0 0 0 402512508.85612679 -31148741.655975342 0 -31148741.655975342 -194870593.56481934 0 0 0 0 301240049.21247101 -108065853.02157593 0 -108065853.02157593 -238173403.7020874 0 0 0 0 449465389.22628021 781094823.65752411 0 781094823.65752411 1366899007.0629883 0 0 0 0 392985608.80552673 -64911650.758789062 0 -64911650.758789062 -247465173.62139893 0 0 0 0 680386151.21232605 -66296272.868988037 0 -66296272.868988037 -459641252.15344238 0 0 0 0 -137081315.08345032 -884616913.73623657 0 -884616913.73623657 -1048782066.3979492 0 0 0 0 173667413.39242554 -421509676.9810791 0 -421509676.9810791 -1462882787.5805969 0 0 0 0 -238016148.40873718 -471213619.66564941 0 -471213619.66564941 -249596543.7958374 0 0 0 0 -24788669.809768677 -274346122.18383789 0 -274346122.18383789 -136840389.78701782 0 0 0 0 -10676114.319671631 -476934313.75411987 0 -476934313.75411987 -756139309.98504639 0 0 0 0 -172326194.64845276 -726015827.87982178 0 -726015827.87982178 -294806033.28988647 0 0 0 0 37399199.541828156 -347723459.94191742 0 -347723459.94191742 -559259816.72180176 0 0 0 0 -137368173.0587616 -13968076.47906971 0 -13968076.47906971 -197501772.7663784 0 0 0 0 -3735277.7361418046 -60817019.612130933 0 -60817019.612130933 10002815.610014699 0 0 0 0 -126762549.18034744 164407110.3465271 0 164407110.3465271 207325445.79611206 0 0 0 0 195412450.21031952 295065773.13168335 0 295065773.13168335 -661153923.16760635 0 0 0 0 17348367.755243301 -108249220.90218544 0 -108249220.90218544 -276767500.17281532 0 0 0 0 -292548837.20545006 -246025146.5386734 0 -246025146.5386734 176875298.98251343 0 0 0 0 243349708.00751495 123273863.82214355 0 123273863.82214355 -1090314901.4278107 0 0 0 0 76839306.741954803 -95835842.96522522 0 -95835842.96522522 -308119605.7130394 0 0 0 0 43341751.382215977 -109649924.45558619 0 -109649924.45558619 -313815428.1547699 0 0 0 0 52277003.207586765 -63580282.220545173 0 -63580282.220545173 -373363650.91810608 0 0 0 0 -83946343.566589355 -227871866.37011623 0 -227871866.37011623 -226266482.58985138 0 0 0 0 168292054.58403015 -94047970.608636856 0 -94047970.608636856 -604654762.58614635 0 0 0 0 409999819.65872192 -75385020.146511078 0 -75385020.146511078 -77777572.407756805 0 0 0 0 14612757.356204798 837713.21814960428 0 837713.21814960428 -60658483.515523568 0 0 0 0 112973972.34451294 -163748335.55766296 0 -163748335.55766296 -223664971.4857769 0 0 0 0 184991817.12664795 43895147.420444489 0 43895147.420444489 -114350209.28597641 0 0 0 0 166721205.26743317 -115513490.46794701 0 -115513490.46794701 -200369936.25743866 0 0 0 0 81233738.42401886 -111355291.78384972 0 -111355291.78384972 -147132212.33202744 0 0 0 0 16958660.238712311 -129258109.861413 0 -129258109.861413 -150623858.56947899 0 0 0 0 5283462.8767700344 -58002543.676231176 0 -58002543.676231176 -4288548.6584247835 0 0 0 0 -190521694.80406952 -854559904.05927277 0 -854559904.05927277 -927422700.27944946 0 0 0 0 -427398043.64122009 -673082428.57632446 0 -673082428.57632446 -329944547.41333008 0 0 0 0 -1023338693.447422 -555441398.06894684 0 -555441398.06894684 -77960050.59727478 0 0 0 0 -474918097.72075653 -814097952.3228302 0 -814097952.3228302 -691662684.18510437 0 0 0 0 -550250076.2930069 -910564219.31298828 0 -910564219.31298828 -695699830.08083916 0 0 0 0 -1252378436.5560684 -1853856647.572052 0 -1853856647.572052 -1958000750.2544708 0 0 0 0 48828007.842643738 -614296736.79331207 0 -614296736.79331207 -897400351.52815151 0 0 0 0 -180017356.36352539 -1093128469.6689911 0 -1093128469.6689911 -1844392233.4983826 0 0 0 0 80151655.369606018 9448415.7814865112 0 9448415.7814865112 -1738881721.5795898 0 0 0 0 114410644.74684906 -195895958.70410156 0 -195895958.70410156 -1021893455.2685089 0 0 0 0 -417613449.83415985 -492509021.84352112 0 -492509021.84352112 -1290009909.8525887 0 0 0 0 449065409.61220932 170954289.76857376 0 170954289.76857376 -1523828248.8056335 0 0 0 0 -1071030263.6521988 571780887.71519089 0 571780887.71519089 -3019561004.3166656 0 0 0 0 -110382842.74211121 -894166438.66454697 0 -894166438.66454697 -4562018081.5330048 0 0 0 0 -5834789.0317256451 361717.35826681554 0 361717.35826681554 1789136.159271216 0 0 0 0 -2029691756.8904438 -1601741576.4858637 0 -1601741576.4858637 -1178642308.1812515 0 0 0 0 -138998318.93102074 -629627208.12818146 0 -629627208.12818146 -1690756045.9638672 0 0 0 0 89564702.932739258 -239313346.09760284 0 -239313346.09760284 -164402225.88085938 0 0 0 0 -693591185.0243988 300963992.83009338 0 300963992.83009338 356508651.44349289 0 0 0 0 -1905850666.7643185 -680684950.24491501 0 -680684950.24491501 -60278844.33493042 0 0 0 0 -472170650.94808197 5253532.9178619385 0 5253532.9178619385 2549710.2013502121 0 0 0 0 -56529321.655952454 72151222.402824402 0 72151222.402824402 -158269204.18528748 0 0 0 0 -394139394.92243958 -79006910.841171265 0 -79006910.841171265 -43895195.611297607 0 0 0 0 44572540.832260132 -66404404.811561584 0 -66404404.811561584 2694114.1431427002 0 0 0 0 70284872.382003784 -62144167.485183716 0 -62144167.485183716 -95890403.61914444 0 0 0 0 30503839.644805908 33759585.570724487 0 33759585.570724487 -120386542.95684433 0 0 0 0 34549444.259109497 -38297597.035667419 0 -38297597.035667419 -34000475.987808228 0 0 0 0 48900716.470077515 -11942955.681015015 0 -11942955.681015015 -7078369.5749969482 0 0 0 0 -84574065.441375732 -22667600.347503662 0 -22667600.347503662 28379532.467590332 0 0 0 0 -1100483.3477350026 -11387736.370589096 0 -11387736.370589096 7480350.9103116542 0 0 0 0 36836970.666114807 -65413762.722700596 0 -65413762.722700596 8147771.2892608643 0 0 0 0 -22814062.936279222 -9750472.5373170748 0 -9750472.5373170748 12336249.293087864 0 0 0 0 46558210.591171265 -78564244.015258789 0 -78564244.015258789 11129871.235717773 0 0 0 0 -35449356.110900879 -47443757.016662598 0 -47443757.016662598 90874381.447746277 0 0 0 0 -35744090.284545898 -186091431.36679077 0 -186091431.36679077 328171527.98003006 0 0 0 0 59596024.539234161 -54956155.17963028 0 -54956155.17963028 6164355.7996368408 0 0 0 0 -15626671.548340142 -2372627.0674772225 0 -2372627.0674772225 5964194.6308416445 0 0 0 0 109702657.21765137 -428798707.27186584 0 -428798707.27186584 -2196185072.9767971 0 0 0 0 48012421.433488846 -843324831.53570271 0 -843324831.53570271 -1373283385.2494354 0 0 0 0 5287784.3326568604 -654857820.72160339 0 -654857820.72160339 -1754337938.8744507 0 0 0 0 92401552.076156616 -760237701.02362061 0 -760237701.02362061 -1496441560.7079926 0 0 0 0 37605019.835693359 -891167262.11186981 0 -891167262.11186981 -1316352558.8836212 0 0 0 0 74422791.502288818 -745352136.62809753 0 -745352136.62809753 -1215682768.2478714 0 0 0 0 -161784985.48913574 -316090528.05295563 0 -316090528.05295563 -505512036.87874603 0 0 0 0 66083323.824775696 -224732318.00754166 0 -224732318.00754166 -1307958481.5263062 0 0 0 0 -166832964.45071411 -669238443.45083618 0 -669238443.45083618 -959133776.92660522 0 0 0 0 -189612368.19425201 -328517570.71372223 0 -328517570.71372223 -494808057.60719299 0 0 0 0 140955982.32914734 60796293.826499939 0 60796293.826499939 -302137929.04039001 0 0 0 0 -221787.48074531555 -30632065.107891083 0 -30632065.107891083 41656784.563354492 0 0 0 0 -8843998.986221198 -24695827.057319231 0 -24695827.057319231 20876321.364231572 0 0 0 0 -477452928.98316956 -675889425.24066162 0 -675889425.24066162 -914156165.63450623 0 0 0 0 -1479883.8839503899 261810.78745035827 0 261810.78745035827 2584706.4588160068 0 0 0 0 -581494183.76489258 -323546881.18222046 0 -323546881.18222046 257357112.0471344 0 0 0 0 -278955706.12081909 -689184760.72200775 0 -689184760.72200775 -949039298.23847961 0 0 0 0 -1308635586.0040436 -1724200643.3348007 0 -1724200643.3348007 -738833255.0816803 0 0 0 0 -652267371.95530701 -947187346.76542664 0 -947187346.76542664 -1031539252.3683319 0 0 0 0 1847751.1702233888 -3999755.4049843997 0 -3999755.4049843997 -2630205.839898333 0 0 0 0 -656000681.45046234 -1002143815.4658279 0 -1002143815.4658279 -361771548.91854858 0 0 0 0 110737505.92835617 -1208542920.5981979 0 -1208542920.5981979 -994604216.03814697 0 0 0 0 -623023200.76791382 26518598.872047424 0 26518598.872047424 465530722.20269775 0 0 0 0 -513621103.27462769 -642465179.90127563 0 -642465179.90127563 -157468361.75598145 0 0 0 0 -1592313502.7068481 -110606706.43917084 0 -110606706.43917084 -290765057.60447693 0 0 0 0 -930401.54943847656 -30401617.056793213 0 -30401617.056793213 24196215.093849182 0 0 0 0 1831333.9519042969 -58652972.159179688 0 -58652972.159179688 -7235433.9683227539 0 0 0 0 2822414.7363988385 -17437565.803410172 0 -17437565.803410172 -20402913.244850457 0 0 0 0 212411170.3458786 -171101870.38721848 0 -171101870.38721848 92079388.230102539 0 0 0 0 -5825610.2416229248 -61828437.937026978 0 -61828437.937026978 1194952.8784484863 0 0 0 0 16235466.780181885 -58483589.255386353 0 -58483589.255386353 -7427980.6070251465 0 0 0 0 67491557.276245117 -62452482.868927002 0 -62452482.868927002 -34248474.97845459 0 0 0 0 15947067.522674561 -84217964.373550415 0 -84217964.373550415 -16838006.12020874 0 0 0 0 -14657751.914123535 -98006193.267242432 0 -98006193.267242432 -18856433.167114258 0 0 0 0 -14766686.164886475 -70604796.866210938 0 -70604796.866210938 4960131.6005859375 0 0 0 0 347421.13681571186 -1303816.8839605451 0 -1303816.8839605451 2063614.9538399465 0 0 0 0 -5994063.3721923828 -59967683.116455078 0 -59967683.116455078 -75756042.449707031 0 0 0 0 -10462578.29335022 -43035037.30594635 0 -43035037.30594635 -19663079.221923828 0 0 0 0 -8047883.0550689697 -55934671.431381226 0 -55934671.431381226 43930615.836425781 0 0 0 0 4366469.6503988151 -34913269.068857044 0 -34913269.068857044 12369688.597480863 0 0 0 0 6489008.7829589844 -79267618.764892578 0 -79267618.764892578 -38777533.182800293 0 0 0 0 -2296308.0872835964 226591.31293696165 0 226591.31293696165 2430593.6332666427 0 0 0 0 -41524480.466247559 -91783609.609375 0 -91783609.609375 227740.68139648438 0 0 0 0 -41844017.489257812 -88771090.361907959 0 -88771090.361907959 -20303560.989624023 0 0 0 0 -44678689.79006958 -69331432.050628662 0 -69331432.050628662 41443417.584960938 0 0 0 0 -45060003.80166626 -95077766.474365234 0 -95077766.474365234 -7531872.1463623047 0 0 0 0 -48885702.068634033 -119253590.94657898 0 -119253590.94657898 28045508.56854248 0 0 0 0 -18483252.246856689 -89456333.369010925 0 -89456333.369010925 -5206933.6667480469 0 0 0 0 -40836431.161407471 -106589865.80828857 0 -106589865.80828857 -17484500.621337891 0 0 0 0 -40115978.026412964 -120896866.26835632 0 -120896866.26835632 -53577391.960388184 0 0 0 0 -124870357.7693491 -119325819.24870872 0 -119325819.24870872 -29581982.446044922 0 0 0 0 15732180.334635772 -23229914.935395546 0 -23229914.935395546 2193593.1433318853 0 0 0 0 -6469216.3742828369 -99050172.48147583 0 -99050172.48147583 -40839486.564056396 0 0 0 0 -56651200.521759033 -109808084.89697266 0 -109808084.89697266 -25550360.573791504 0 0 0 0 -64019699.347381592 -92131671.921691895 0 -92131671.921691895 -33023821.673141479 0 0 0 0 -126757720.16227722 -92893958.583450317 0 -92893958.583450317 -10107121.679992676 0 0 0 0 -81715861.719451904 -58914812.048797607 0 -58914812.048797607 -20785495.156311035 0 0 0 0 -81687675.951583862 -115224328.27090454 0 -115224328.27090454 -45079758.116333008 0 0 0 0 -107526384.69258881 -126211837.32926178 0 -126211837.32926178 -39460197.508361816 0 0 0 0 -96435701.718170166 -111163631.6864624 0 -111163631.6864624 -45802713.497619629 0 0 0 0 -106189844.36515808 -127230004.8168335 0 -127230004.8168335 -72224313.622924805 0 0 0 0 21131402.456329346 -119078302.06137085 0 -119078302.06137085 -120876316.56944719 0 0 0 0 -40072190.67665863 -103629317.14238739 0 -103629317.14238739 -57803029.731811523 0 0 0 0 -52259205.002532959 -130392202.04748535 0 -130392202.04748535 -93845391.174377441 0 0 0 0 62754159.573944092 -71821952.185638428 0 -71821952.185638428 -65139108.361190796 0 0 0 0 21793564.915780067 -102477305.33681297 0 -102477305.33681297 -80931072.988769531 0 0 0 0 56154627.004272461 -63371232.270004272 0 -63371232.270004272 -9861600.9616394043 0 0 0 0 -3614729.4750823975 -87892859.027099609 0 -87892859.027099609 -25951716.918319702 0 0 0 0 10479203.201080322 -100115265.09899902 0 -100115265.09899902 -40980231.407440186 0 0 0 0 58815551.708435059 -53355120.48034668 0 -53355120.48034668 -109534643.12124634 0 0 0 0 152439571.36584473 -14491179.696655273 0 -14491179.696655273 -148851234.11044312 0 0 0 0 122565774.24168396 7163466.3487548828 0 7163466.3487548828 -58110759.221313477 0 0 0 0 118266646.26552461 3414793.4060977399 0 3414793.4060977399 -36537246.98614502 0 0 0 0 145788662.42333984 3267550.1123352051 0 3267550.1123352051 -108562675.74661255 0 0 0 0 102452773.57504272 -32442350.6277771 0 -32442350.6277771 -84149069.399581909 0 0 0 0 148458878.89098358 -5010719.1984863281 0 -5010719.1984863281 -77571385.944885254 0 0 0 0 112558777.89364624 -50145772.661392212 0 -50145772.661392212 -136342804.69238281 0 0 0 0 35535154.422088623 -59745119.30770874 0 -59745119.30770874 -76772299.825790405 0 0 0 0 38895898.424713135 -74034103.045715332 0 -74034103.045715332 -120894742.13062727 0 0 0 0 -3495780.1548919678 -100204375.83816528 0 -100204375.83816528 -127966013.76495361 0 0 0 0 -3536622.6642150879 -96896726.117584229 0 -96896726.117584229 -270370080.82785034 0 0 0 0 -123272756.28981018 -149974086.85652924 0 -149974086.85652924 -13152836.222290039 0 0 0 0 -99178294.908325195 -182530954.61206055 0 -182530954.61206055 -123494293.60565186 0 0 0 0 -125413961.79040527 -158306610.83538818 0 -158306610.83538818 -45466747.180938721 0 0 0 0 -64182672.434829712 -60551729.926300049 0 -60551729.926300049 -96775668.83380127 0 0 0 0 -91902147.657424927 -1297260.7496490479 0 -1297260.7496490479 -152029312.77278137 0 0 0 0 59930917.714294434 -48842683.67956543 0 -48842683.67956543 -182820732.00161743 0 0 0 0 23108291.619232178 -153494586.56082153 0 -153494586.56082153 -161053116.59214783 0 0 0 0 38080027.378417969 -86974863.097930908 0 -86974863.097930908 -116790284.26605225 0 0 0 0 -197377775.92080688 -121353693.82261658 0 -121353693.82261658 -40103599.666442871 0 0 0 0 228829968.18811035 11948753.959030151 0 11948753.959030151 -115292449.17675781 0 0 0 0 585342831.74565125 397548352.07803345 0 397548352.07803345 64505810.714057922 0 0 0 0 170987833.39321899 120878293.60342407 0 120878293.60342407 24161484.189331055 0 0 0 0 150682401.78166199 43511695.174987793 0 43511695.174987793 -86098336.126647949 0 0 0 0 111103024.34996033 40304819.158599854 0 40304819.158599854 70402583.741149902 0 0 0 0 -412172.31682572514 -6090125.8263482526 0 -6090125.8263482526 -5044748.6973787025 0 0 0 0 -26777519.061653804 -16149119.307263847 0 -16149119.307263847 -39520124.032745361 0 0 0 0 121559339.09643555 126067692.74481201 0 126067692.74481201 85072773.893981934 0 0 0 0 -3026070.2056097463 -3382349.7638167515 0 -3382349.7638167515 -4289522.772838451 0 0 0 0 -104865640.42351532 108246480.11317444 0 108246480.11317444 -241066792.35183716 0 0 0 0 -4303454.1143341064 -68330296.719970703 0 -68330296.719970703 -44849248.739267349 0 0 0 0 -145844309.54776254 116183927.29327261 0 116183927.29327261 -157268982.8137207 0 0 0 0 -113750827.55123901 203489503.32575989 0 203489503.32575989 -215812325.7605896 0 0 0 0 -159092118.65701294 142368446.85844421 0 142368446.85844421 -39919538.577850342 0 0 0 0 -144229731.78395844 329791701.92837524 0 329791701.92837524 51471578.575294495 0 0 0 0 61048014.539642334 611045360.83616638 0 611045360.83616638 1186021097.9365234 0 0 0 0 61805846.880187988 245525410.69662476 0 245525410.69662476 -261458800.25030518 0 0 0 0 -233125908.49307251 101654946.25222778 0 101654946.25222778 -170965553.09508514 0 0 0 0 1021422950.8403473 164969789.06845093 0 164969789.06845093 198109159.51501465 0 0 0 0 809963.26113560051 -1256078.2740179598 0 -1256078.2740179598 -2438157.0073605254 0 0 0 0 -60903523.52835083 -124566110.91453552 0 -124566110.91453552 279431486.30480957 0 0 0 0 264069240.25209045 -568749902.10374451 0 -568749902.10374451 -10798693.22442627 0 0 0 0 -1298510695.5825348 -948754669.96835327 0 -948754669.96835327 -38127311.760070801 0 0 0 0 8426123.5804138184 205874971.25152588 0 205874971.25152588 555221521.58694458 0 0 0 0 415892408.99998474 891695000.31884766 0 891695000.31884766 166532291.35805893 0 0 0 0 5241015.4636213258 -3772805.8455879893 0 -3772805.8455879893 -7991547.4324792176 0 0 0 0 -255170804.75560188 -831053519.95860672 0 -831053519.95860672 -1095663605.6566772 0 0 0 0 1528943028.410759 803952456.17221069 0 803952456.17221069 -2016421142.3273926 0 0 0 0 876548.48200957477 83318.08384424448 0 83318.08384424448 -2777551.9611117095 0 0 0 0 585991171.08496857 -394251147.7999649 0 -394251147.7999649 -1485324456.8262024 0 0 0 0 1191974173.2984314 763348961.98074341 0 763348961.98074341 -1134465174.0091095 0 0 0 0 -491182752.65365314 -1816981254.0090618 0 -1816981254.0090618 -23893482.970825195 0 0 0 0 2013268309.9730377 -931334863.01069641 0 -931334863.01069641 -169650038.44652557 0 0 0 0 -297822400.9246254 -890246343.30220795 0 -890246343.30220795 -1711915240.2075806 0 0 0 0 -1238761199.8848419 -158635896.48583984 0 -158635896.48583984 -276461392.53643799 0 0 0 0 10472655.109146584 -16294595.320793604 0 -16294595.320793604 14717043.504923344 0 0 0 0 -30703986.885486603 169134010.63414764 0 169134010.63414764 -549601725.94860077 0 0 0 0 -112379096.51499748 -144359804.86049557 0 -144359804.86049557 -25693762.449920654 0 0 0 0 -50085816.441947937 -497241454.36721039 0 -497241454.36721039 -535130989.58657837 0 0 0 0 -571946041.35155487 14965665.863815308 0 14965665.863815308 -207725048.29711914 0 0 0 0 -2465057.5062541962 -50924.953600540757 0 -50924.953600540757 1326143.7166965157 0 0 0 0 -99980754.324661255 16288790.939163208 0 16288790.939163208 85344779.871643066 0 0 0 0 -80661972.850734711 -90579304.351427078 0 -90579304.351427078 -15995130.925384521 0 0 0 0 16398563.108669411 -22092790.002176367 0 -22092790.002176367 5743488.3620296866 0 0 0 0 63810304.35774231 64117295.803543091 0 64117295.803543091 -35047131.372589111 0 0 0 0 7260556.6913447678 -7439440.9828532059 0 -7439440.9828532059 -1317106.9785679281 0 0 0 0 -69226537.082107544 23293766.378829956 0 23293766.378829956 78320696.829620361 0 0 0 0 75422228.324123383 -8799996.3805751801 0 -8799996.3805751801 -57314020.990509033 0 0 0 0 -80447301.069679737 -54210359.439422846 0 -54210359.439422846 -86541403.931091309 0 0 0 0 -38594530.073883057 -54489872.804725647 0 -54489872.804725647 -3728105.047668457 0 0 0 0 -132770829.94847107 2321582.3054199219 0 2321582.3054199219 -37134248.729431152 0 0 0 0 -83808472.532363892 26102126.376022339 0 26102126.376022339 -44081713.187805176 0 0 0 0 -326340505.32202148 -120841617.4037323 0 -120841617.4037323 45110067.970535278 0 0 0 0 17563049.973381042 -162708483.58093262 0 -162708483.58093262 -25642583.253845215 0 0 0 0 -38178933.179779053 -154484084.62644958 0 -154484084.62644958 23401923.644378662 0 0 0 0 -72265805.138948441 155835132.49910831 0 155835132.49910831 100665100.55380249 0 0 0 0 11947549.982780457 36768945.566314697 0 36768945.566314697 31071286.144931793 0 0 0 0 7847430.3306889385 -4202309.1244742274 0 -4202309.1244742274 -3922108.2118240744 0 0 0 0 112685754.54385376 -119124386.93630981 0 -119124386.93630981 -145535304.01421356 0 0 0 0 9030171.3811904751 -11696959.724520782 0 -11696959.724520782 9939374.4435719252 0 0 0 0 -327181920.56401062 -435569735.08554077 0 -435569735.08554077 109806288.12359619 0 0 0 0 1439042295.5966187 -512207813.87263489 0 -512207813.87263489 -260719711.77882385 0 0 0 0 -253796891.66416168 -3455674.0270309448 0 -3455674.0270309448 573142524.35211182 0 0 0 0 967884998.97564697 -281327405.30211639 0 -281327405.30211639 -11694605.21395874 0 0 0 0 4204490.6370297596 -1418412.0316261053 0 -1418412.0316261053 -2803692.975212127 0 0 0 0 176403823.9442358 322719963.30207348 0 322719963.30207348 354820742.71234131 0 0 0 0 -1853011.490650177 -731801353.20910263 0 -731801353.20910263 331139995.66468811 0 0 0 0 1483442927.4060516 -710528527.11213684 0 -710528527.11213684 439815693.9932251 0 0 0 0 124186897.6629982 -928753270.84299469 0 -928753270.84299469 602214897.61981201 0 0 0 0 -652291269.84596252 -970510509.84664917 0 -970510509.84664917 755381339.1566925 0 0 0 0 -275977558.39946747 -739494867.05412292 0 -739494867.05412292 345097849.17441177 0 0 0 0 -356917386.0772934 -630312493.34709167 0 -630312493.34709167 238109792.27827549 0 0 0 0 -361156592.43932343 -627673201.46157074 0 -627673201.46157074 237948208.48565674 0 0 0 0 -357328425.73973083 -430509327.99342346 0 -430509327.99342346 27266206.631652832 0 0 0 0 272873539.04526138 -560204651.53992081 0 -560204651.53992081 53957043.840164185 0 0 0 0 -436615165.03112793 -312794637.79612732 0 -312794637.79612732 3844732.6671600342 0 0 0 0 -136483999.89892578 -355693338.93383789 0 -355693338.93383789 -34308190.62789917 0 0 0 0 -305932430.88562775 -638998557.81489563 0 -638998557.81489563 -327315715.00432491 0 0 0 0 -548976178.16047096 -654328189.61735535 0 -654328189.61735535 -19147651.458984375 0 0 0 0 -322594368.80204773 -706698305.53850555 0 -706698305.53850555 -100372923.39215088 0 0 0 0 -194309790.94224548 -571545586.84605408 0 -571545586.84605408 -18563482.836654663 0 0 0 0 -1646248335.0002975 648422113.91195679 0 648422113.91195679 205036937.76094055 0 0 0 0 -1002280693.1788177 614360688.74584961 0 614360688.74584961 -122096191.48562622 0 0 0 0 -265547094.5171051 -86622484.755737305 0 -86622484.755737305 410550523.4602356 0 0 0 0 -1210360575.1781616 -305585756.64489746 0 -305585756.64489746 437334079.11044312 0 0 0 0 -443254359.23874855 -456305169.22410965 0 -456305169.22410965 75944557.784179688 0 0 0 0 -9243114.909085989 -3271834.5781641752 0 -3271834.5781641752 4163248.3967280239 0 0 0 0 -121402366.96365976 -793902457.31596088 0 -793902457.31596088 982224814.05366516 0 0 0 0 -2012546820.3171692 282274097.3486557 0 282274097.3486557 955561227.1434021 0 0 0 0 25721061.724411011 515861386.03329468 0 515861386.03329468 -217742062.69458008 0 0 0 0 -694515176.4199295 426330440.60262299 0 426330440.60262299 -1102217136.7440338 0 0 0 0 -4222844.1505136192 515245.88463872671 0 515245.88463872671 2341652.2311282679 0 0 0 0 -701538395.94643402 -416275677.12289429 0 -416275677.12289429 355103289.49565125 0 0 0 0 -1876978668.5736756 -479415804.43186355 0 -479415804.43186355 726525176.61523438 0 0 0 0 -441769148.48638344 -1240294453.41605 0 -1240294453.41605 1077436924.2141724 0 0 0 0 967113981.83491516 -1824388586.4040833 0 -1824388586.4040833 1268705283.1384583 0 0 0 0 -1008696327.5117702 224866103.90530205 0 224866103.90530205 2211466527.6266327 0 0 0 0 606397899.76454163 -1723933510.1063538 0 -1723933510.1063538 639766950.57141113 0 0 0 0 1946487589.5731049 1261800512.2006226 0 1261800512.2006226 -1824174783.4617767 0 0 0 0 3884438.3482838161 -4571329.2810605392 0 -4571329.2810605392 3909095.0045551807 0 0 0 0 2506603250.240387 -1008803158.8538971 0 -1008803158.8538971 -90960932.759376526 0 0 0 0 -599510860.70526886 -332747135.11795044 0 -332747135.11795044 -401412806.57631302 0 0 0 0 -1249370531.8734283 67955949.4792099 0 67955949.4792099 2606388417.7011414 0 0 0 0 -807515164.26381302 -115640638.59455872 0 -115640638.59455872 317912051.37759399 0 0 0 0 -798265564.85399628 -627486391.43933105 0 -627486391.43933105 2807227233.2728729 0 0 0 0 -13932361.396018587 -10870505.221087746 0 -10870505.221087746 6200683.0338785574 0 0 0 0 195442620.65393829 -344413395.18310547 0 -344413395.18310547 -1281679857.5118103 0 0 0 0 405456200.59362793 -568587684.97396851 0 -568587684.97396851 102351171.90084839 0 0 0 0 -459284826.01179504 -501830577.0869751 0 -501830577.0869751 149515826.94041443 0 0 0 0 -1866617.9315632954 -12198542.007257709 0 -12198542.007257709 9043359.8824080378 0 0 0 0 450182377.42800903 -434182117.10925102 0 -434182117.10925102 256678604.28787231 0 0 0 0 941160666.28588867 -322585182.00765991 0 -322585182.00765991 21483131.649276733 0 0 0 0 -539065610.05777359 -1279562655.551281 0 -1279562655.551281 -155620996.13900757 0 0 0 0 -8620229.7194614634 -8677744.6327745244 0 -8677744.6327745244 4821138.7844402567 0 0 0 0 275219175.76360321 35619321.623641968 0 35619321.623641968 -1318108530.3262787 0 0 0 0 222756193.61044312 -46471237.064910889 0 -46471237.064910889 -3134984743.3661346 0 0 0 0 -3074768.8750932515 -2278901.6849166453 0 -2278901.6849166453 1606880.2426330596 0 0 0 0 367330178.80087662 -495584694.61258316 0 -495584694.61258316 425363433.8744812 0 0 0 0 266734829.61832428 -144065445.84703064 0 -144065445.84703064 120230188.95848846 0 0 0 0 -410250621.91939545 -596524934.50973511 0 -596524934.50973511 339328314.54885864 0 0 0 0 -2709957.8837577403 -11878011.746973118 0 -11878011.746973118 12785132.87987119 0 0 0 0 370597611.55136108 -318870034.99240112 0 -318870034.99240112 256355851.62866211 0 0 0 0 -511471387.55804443 800607535.08400726 0 800607535.08400726 2516030205.998291 0 0 0 0 -510489.14832935482 -4021680.2102671564 0 -4021680.2102671564 4876985.6023031324 0 0 0 0 -295879568.97282791 -1522117413.6657639 0 -1522117413.6657639 3316594759.3746338 0 0 0 0 1327026907.8287201 1594003562.0450821 0 1594003562.0450821 860160935.29992676 0 0 0 0 -97527715.677597046 -112196792.6598053 0 -112196792.6598053 3768989949.8444824 0 0 0 0 2551950404.5433617 -1659951388.7249222 0 -1659951388.7249222 998474749.37524414 0 0 0 0 997193524.90925217 -983659589.34387207 0 -983659589.34387207 466962492.52044678 0 0 0 0 578738387.93624115 -330106341.62057495 0 -330106341.62057495 151588538.51983643 0 0 0 0 232223042.81462097 -1038899920.0166016 0 -1038899920.0166016 1137416394.5246096 0 0 0 0 -232732429.87918091 -13048019.302246094 0 -13048019.302246094 1058517241.8331003 0 0 0 0 -40685944.965234756 -171479544.41057587 0 -171479544.41057587 1082002685.7235413 0 0 0 0 -189276500.91553497 -162670363.69500732 0 -162670363.69500732 416755518.84857178 0 0 0 0 -504113904.18647766 49967832.681419373 0 49967832.681419373 442708351.2517395 0 0 0 0 51870270.205944061 -573720688.06267166 0 -573720688.06267166 143461550.27700806 0 0 0 0 639964457.0585022 -937898864.17978668 0 -937898864.17978668 364939868.16598511 0 0 0 0 412410569.36894989 -1083018205.5282288 0 -1083018205.5282288 276632975.5793457 0 0 0 0 83086168.704452515 -646799183.84721375 0 -646799183.84721375 345194875.47016907 0 0 0 0 -229639686.60357285 -1255894341.0798283 0 -1255894341.0798283 269316014.62182617 0 0 0 0 -98489514.918029785 -595683522.82029724 0 -595683522.82029724 614759091.72901917 0 0 0 0 2846857900.9385605 -729575679.65644073 0 -729575679.65644073 -1437959222.8954163 0 0 0 0 247916913.32360268 274813473.90771866 0 274813473.90771866 219355234.46429443 0 0 0 0 -547758815.67973328 -1543790367.5927925 0 -1543790367.5927925 -443213080.60125732 0 0 0 0 -265696085.09159851 -551126537.16020203 0 -551126537.16020203 496834807.51246643 0 0 0 0 986039835.53227997 -607136055.89499283 0 -607136055.89499283 334918051.01071167 0 0 0 0 3634265931.9753494 66515093.554153442 0 66515093.554153442 -239259349.55807495 0 0 0 0 3548530099.6375504 -19806264.052459717 0 -19806264.052459717 211508020.53594971 0 0 0 0 995305988.55599976 -662454706.47938919 0 -662454706.47938919 664825149.88757324 0 0 0 0 3351225511.7397919 -1670125667.2557068 0 -1670125667.2557068 1577991.6483154297 0 0 0 0 5220121511.3422318 -889374943.32779694 0 -889374943.32779694 -632474853.25656128 0 0 0 0 690348454.34370995 -1982250196.1674652 0 -1982250196.1674652 -2018072.9045715332 0 0 0 0 1369911303.4951859 -440697911.13221741 0 -440697911.13221741 697395072.73660278 0 0 0 0 -77654479.358901978 -1100423818.9859009 0 -1100423818.9859009 807889106.41324615 0 0 0 0 -930966498.38097763 563880919.43081665 0 563880919.43081665 -235374806.22695923 0 0 0 0 2051664.3602779657 -4031410.558735922 0 -4031410.558735922 -2137912.9435245991 0 0 0 0 -1658290310.0091629 -481947432.04707336 0 -481947432.04707336 939849309.14357567 0 0 0 0 6959885.0949401855 -11106960.35949707 0 -11106960.35949707 8874.7805830974212 0 0 0 0 1750673.3536148071 -6405674.1786193848 0 -6405674.1786193848 2085706.1088256836 0 0 0 0 -238092108.93702698 -58792513.212265015 0 -58792513.212265015 324170533.31228638 0 0 0 0 -105290895.74380493 -289752845.58581543 0 -289752845.58581543 195929864.2623291 0 0 0 0 -49419817.477775574 -255463331.25251007 0 -255463331.25251007 -68791660.569366455 0 0 0 0 -453315155.42476654 -678226356.67993164 0 -678226356.67993164 634298060.22518921 0 0 0 0 -409926983.12671661 -1106793808.3666534 0 -1106793808.3666534 378479499.47426605 0 0 0 0 -206788355.39142609 -424108443.85623169 0 -424108443.85623169 -68639615.498199463 0 0 0 0 572249593.88896942 -1166759743.9128265 0 -1166759743.9128265 -525690576.06103516 0 0 0 0 1237925736.7336044 -183417860.429245 0 -183417860.429245 -74343151.509918213 0 0 0 0 -1347843.5698227957 -1035859.4544855542 0 -1035859.4544855542 2019934.7050646544 0 0 0 0 -1797286408.2195435 -609736466.99455261 0 -609736466.99455261 -406903676.53510284 0 0 0 0 560366292.79789734 -458655281.44114685 0 -458655281.44114685 339633413.63977051 0 0 0 0 607670703.89288902 -641233546.7373085 0 -641233546.7373085 -239934145.33062744 0 0 0 0 -105086982.88360596 -387007647.14483643 0 -387007647.14483643 93170881.607269287 0 0 0 0 -787184983.60151672 -198764129.01242065 0 -198764129.01242065 -629741524.74389648 0 0 0 0 -402202040.68304443 -995565954.71295166 0 -995565954.71295166 -735251888.87432861 0 0 0 0 1306092168.8324585 617613159.47900391 0 617613159.47900391 597777836.98628235 0 0 0 0 1156697798.0832977 -477859197.56735229 0 -477859197.56735229 -982455645.13104248 0 0 0 0 3211585749.7254639 -730539132.85858154 0 -730539132.85858154 -2038234352.8818054 0 0 0 0 991997450.31362915 92247991.684143066 0 92247991.684143066 -422831632.02212524 0 0 0 0 531928162.70465851 -910983788.56305695 0 -910983788.56305695 -1582071541.9383545 0 0 0 0 -654392864.36001587 408344229.45779419 0 408344229.45779419 -858404457.44235229 0 0 0 0 931821141.51131439 -1858099597.5944366 0 -1858099597.5944366 -289325163.20703125 0 0 0 0 -2133350577.9389725 -1019636487.5247498 0 -1019636487.5247498 -295234659.98937988 0 0 0 0 3552256874.7145233 978661004.52789307 0 978661004.52789307 -1241604094.4113159 0 0 0 0 -3023404.5248622261 -4051015.3918764424 0 -4051015.3918764424 4850371.7064672112 0 0 0 0 -444348.78390144184 -3590715.8715924155 0 -3590715.8715924155 3073348.087443471 0 0 0 0 -1636601056.868988 -1124398052.8126221 0 -1124398052.8126221 -343861070.95925903 0 0 0 0 89063841.15959549 -77379109.330032349 0 -77379109.330032349 31306357.173828125 0 0 0 0 -161293601.06975365 55127805.984153748 0 55127805.984153748 -16546273.905181885 0 0 0 0 -707353.93858545274 -7339831.7972958088 0 -7339831.7972958088 -3193917.6300605834 0 0 0 0 -10770983.767570496 -13297286.615341187 0 -13297286.615341187 2956998.5759887695 0 0 0 0 -7299727.0598602295 -9256095.4701843262 0 -9256095.4701843262 2656473.7215270996 0 0 0 0 -5911083.9051818848 -12373637.019645691 0 -12373637.019645691 -4628.2075958251953 0 0 0 0 790947913.27327347 1431457576.0501537 0 1431457576.0501537 -1698073381.5178833 0 0 0 0 -7867010.8228342906 -1558000.3407630734 0 -1558000.3407630734 2349629.8215350211 0 0 0 0 703803325.53757477 856695920.25579834 0 856695920.25579834 -553918927.71014404 0 0 0 0 1265221275.9141998 -1486036525.8154602 0 -1486036525.8154602 917737273.24078369 0 0 0 0 -2645065.4944069833 -5476050.2692230791 0 -5476050.2692230791 -2506072.7413605154 0 0 0 0 1522229659.2331543 1421823092.3318481 0 1421823092.3318481 -233654013.27678061 0 0 0 0 1511880015.8358841 -986948587.79473877 0 -986948587.79473877 -3024285679.3449097 0 0 0 0 -6785240830.0266724 -487150448.65635681 0 -487150448.65635681 2794004034.7576904 0 0 0 0 348490259.40969849 -451885341.39775085 0 -451885341.39775085 -624830924.78730774 0 0 0 0 -3071895923.7561874 -1044253411.5873413 0 -1044253411.5873413 -98388639.142883301 0 0 0 0 -1471018593.6124725 -518487709.1809845 0 -518487709.1809845 2650056.4806628488 0 0 0 0 -1276423811.1088715 -1059207398.2584076 0 -1059207398.2584076 -559370250.16934204 0 0 0 0 7728217.8626861572 -153999526.83338928 0 -153999526.83338928 -384043649.64593506 0 0 0 0 -219172721.64842224 -270855506.00415039 0 -270855506.00415039 -196052155.53747559 0 0 0 0 -545476709.60794067 -1155938172.0938416 0 -1155938172.0938416 -991393861.54504395 0 0 0 0 33181581.526748657 64360957.806365967 0 64360957.806365967 130335890.82955933 0 0 0 0 -74755870.132873535 -113936766.55859375 0 -113936766.55859375 334267995.60580444 0 0 0 0 -6681679174.1259155 939214306.70483398 0 939214306.70483398 1165845375.1654053 0 0 0 0 -2370517.2799645215 -5317030.17505119 0 -5317030.17505119 -5339916.8654768318 0 0 0 0 -2241811.7818162888 -1869582.6304177344 0 -1869582.6304177344 -478404.1172067821 0 0 0 0 -571976804.3184433 231433735.59480286 0 231433735.59480286 -2459163652.5100098 0 0 0 0 -5943917440.2703552 -1362408221.3591919 0 -1362408221.3591919 2490449319.4835052 0 0 0 0 -1997987865.2022705 -1580128969.4513855 0 -1580128969.4513855 -1965217021.0394363 0 0 0 0 -3238864971.5977173 346834449.65411377 0 346834449.65411377 -2343783660.8146973 0 0 0 0 -2917745931.1474152 2495649111.1645203 0 2495649111.1645203 -1386025542.4534454 0 0 0 0 -4844752993.1899338 -52505605.823402405 0 -52505605.823402405 -80877159.814331055 0 0 0 0 -1474117284.1577911 45393770.621032715 0 45393770.621032715 -107017455.79108429 0 0 0 0 -1847100729.7289734 -229018215.31958008 0 -229018215.31958008 95550425.988494873 0 0 0 0 -2324557264.3838043 901573100.50585938 0 901573100.50585938 11291225.265533447 0 0 0 0 66977695.012664795 -199996563.79130554 0 -199996563.79130554 214162055.85723877 0 0 0 0 -1806360835.0550385 846258673.13951111 0 846258673.13951111 -436960159.05773926 0 0 0 0 -4638766.9783965237 -15724618.679206528 0 -15724618.679206528 -14619176.440357208 0 0 0 0 1258390660.7836561 910771607.19116783 0 910771607.19116783 288864310.4317627 0 0 0 0 1092685748.7208557 762951893.74661255 0 762951893.74661255 474173371.59753418 0 0 0 0 -903125.37230767496 5120011.6012609005 0 5120011.6012609005 -9504919.1358375549 0 0 0 0 -207973504.9344036 -168758282.60149479 0 -168758282.60149479 -130070584.12347412 0 0 0 0 -208208719.81421661 -192703917.46601868 0 -192703917.46601868 -89991609.221069336 0 0 0 0 1067783164.6196594 666980827.47698975 0 666980827.47698975 775763025.62341309 0 0 0 0 -238404618.60115051 -313313701.77493286 0 -313313701.77493286 -239356404.93261719 0 0 0 0 -75698295.275802612 -240815461.05194092 0 -240815461.05194092 -190053854.57495117 0 0 0 0 -181873358.17958069 -256548727.12298584 0 -256548727.12298584 -185838918.82559204 0 0 0 0 -99562252.376140594 -374365395.07843018 0 -374365395.07843018 -309231361.79577637 0 0 0 0 19656211.470413208 -296388892.09654236 0 -296388892.09654236 -262144333.81585693 0 0 0 0 6249604.0914850235 -397515202.01016235 0 -397515202.01016235 -294104421.33770752 0 0 0 0 186703966.15155792 -306553970.10105896 0 -306553970.10105896 -249466738.27528381 0 0 0 0 -85613075.801620483 -261730709.22042084 0 -261730709.22042084 -199224193.58630371 0 0 0 0 49866995.83807373 -236693474.23950195 0 -236693474.23950195 -205952910.31974792 0 0 0 0 55297481.737770081 -31087414.529937744 0 -31087414.529937744 3702123.2395019531 0 0 0 0 195331304.21655273 -132153486.78570557 0 -132153486.78570557 -132480954.9465332 0 0 0 0 338663709.61168671 1046176.2268676758 0 1046176.2268676758 -129689920.10121155 0 0 0 0 167521591.07515335 -292845431.10334778 0 -292845431.10334778 -259256359.84609985 0 0 0 0 397239232.0528717 -155143860.72998047 0 -155143860.72998047 -198339123.12843323 0 0 0 0 386060589.43523788 180244853.89254379 0 180244853.89254379 -279538284.54925537 0 0 0 0 755347084.28516006 37383111.093185425 0 37383111.093185425 -624911237.56272888 0 0 0 0 209954.03030324355 7509513.1572093442 0 7509513.1572093442 -17704788.257668465 0 0 0 0 -98871713.707038879 -94403937.513244629 0 -94403937.513244629 -14815553.239501953 0 0 0 0 1319843041.9168701 371191002.51608276 0 371191002.51608276 501879937.77587891 0 0 0 0 304643424.9888916 301711971.36651611 0 301711971.36651611 833174430.7480545 0 0 0 0 -211674.77537071705 -79414.093277283013 0 -79414.093277283013 107000.98851385713 0 0 0 0 658364246.96369171 -252537157.36486816 0 -252537157.36486816 -85550682.679077148 0 0 0 0 -626898936.25265503 -629636528.21759033 0 -629636528.21759033 -955424867.359375 0 0 0 0 149457292.33125305 -232915524.26483154 0 -232915524.26483154 -779136708.55526733 0 0 0 0 -119967521.37204742 49042405.409851074 0 49042405.409851074 -419895152.55395508 0 0 0 0 83921642.603401184 -335200829.03771973 0 -335200829.03771973 -851212981.42424774 0 0 0 0 1714859.7725156024 -5112283.982105583 0 -5112283.982105583 777060.5408577323 0 0 0 0 -119798841.34463501 -99005929.965240479 0 -99005929.965240479 -254271435.55718994 0 0 0 0 34332368.068817139 -90828704.079559326 0 -90828704.079559326 -714020437.97094727 0 0 0 0 -20725820.386199951 -71189623.842346191 0 -71189623.842346191 -422966169.49389648 0 0 0 0 -38738837.088653564 -153669434.10968018 0 -153669434.10968018 -482057644.91525269 0 0 0 0 -11952330.925354004 -75213576.511291504 0 -75213576.511291504 -511250091.19287109 0 0 0 0 -43162338.364868164 -94732058.36819458 0 -94732058.36819458 -231768344.71398926 0 0 0 0 -77031999.506790161 -169282670.69949341 0 -169282670.69949341 -218768192.02200317 0 0 0 0 -39088991.144226074 -138877290.79785156 0 -138877290.79785156 -398572945.00436401 0 0 0 0 -27337824.214771271 -425837219.07345581 0 -425837219.07345581 -657033290.2460022 0 0 0 0 -36843910.666152954 -27849048.325241089 0 -27849048.325241089 -735324180.74597168 0 0 0 0 167351728.69153404 -86581209.3565979 0 -86581209.3565979 -380179957.63739014 0 0 0 0 24539914.427993774 -259304546.62869263 0 -259304546.62869263 -433690307.06314087 0 0 0 0 -114755631.46955872 -114153375.26681519 0 -114153375.26681519 1347822.8312988281 0 0 0 0 -45339112.935882568 -320311529.17877197 0 -320311529.17877197 -135273368.03982544 0 0 0 0 -210646543.79889679 -379436879.08792114 0 -379436879.08792114 -366548997.58595276 0 0 0 0 -193010627.36019278 -26024164.432017326 0 -26024164.432017326 -384916808.81411743 0 0 0 0 16321864.307899475 14894634.07585144 0 14894634.07585144 -16661761.432952881 0 0 0 0 -2342798.6937866211 -39734915.817939758 0 -39734915.817939758 10665404.733978271 0 0 0 0 24464709.998718262 6811709.9900970459 0 6811709.9900970459 -38392224.979721069 0 0 0 0 17565353.35357666 3462172.4273681641 0 3462172.4273681641 -22968608.25213623 0 0 0 0 -1031918.0317886788 6061543.6091038305 0 6061543.6091038305 -3614543.6549681425 0 0 0 0 769252159.10766602 1483401347.9429932 0 1483401347.9429932 -218860583.57092285 0 0 0 0 2028993641.5948563 -163828763.96554565 0 -163828763.96554565 731556396.13606262 0 0 0 0 -451378.32514857128 1707223.4876188692 0 1707223.4876188692 -2660274.3518179357 0 0 0 0 12363982.74786377 10916809.241638184 0 10916809.241638184 10934851.87387085 0 0 0 0 77312288.088935852 17905311.647827148 0 17905311.647827148 10200353.796072006 0 0 0 0 43846798.429382324 -37268516.316894531 0 -37268516.316894531 8858321.2490386963 0 0 0 0 81603859.972793579 -47711673.754882812 0 -47711673.754882812 9575367.931854248 0 0 0 0 69406267.247657776 -33654045.866348267 0 -33654045.866348267 402990.30645751953 0 0 0 0 86204983.97892189 -58977655.218566895 0 -58977655.218566895 -5965046.940246582 0 0 0 0 107544956.24880981 -58152178.559753418 0 -58152178.559753418 -24654051.098083496 0 0 0 0 133411486.08842468 -21100926.956420898 0 -21100926.956420898 -19499096.462036133 0 0 0 0 114833477.20388603 -27531492.745880127 0 -27531492.745880127 -2307713.6424560547 0 0 0 0 148332229.88128662 15838500.301452637 0 15838500.301452637 -11902786.117611647 0 0 0 0 112119542.30714798 2322297.3819885254 0 2322297.3819885254 -9644513.5091552734 0 0 0 0 212617916.42448425 -10599714.077301025 0 -10599714.077301025 -40351507.791503906 0 0 0 0 131660792.45713806 -28269860.094207764 0 -28269860.094207764 -43055341.848266602 0 0 0 0 155647180.18960571 -52014225.704162598 0 -52014225.704162598 -23936080.089538574 0 0 0 0 188402522.49219513 -63483058.614532471 0 -63483058.614532471 -59047000.93927002 0 0 0 0 128813185.68328857 -77015185.506896973 0 -77015185.506896973 -41309171.235656738 0 0 0 0 112456709.33629608 3604729.4462890625 0 3604729.4462890625 -7337183.4349975586 0 0 0 0 -858944701.7436533 -868306638.25132561 0 -868306638.25132561 -936915732.11950684 0 0 0 0 1675710541.2276001 857083232.99761963 0 857083232.99761963 -1908032469.8598633 0 0 0 0 -2111842.0953994226 6150738.1272662152 0 6150738.1272662152 -4510081.7285696715 0 0 0 0 -925992511.52735901 1629250699.8562012 0 1629250699.8562012 1938501394.0917511 0 0 0 0 -530817368.94734955 1014732042.8999786 0 1014732042.8999786 -1473332877.774292 0 0 0 0 -276852868.07391357 -454567777.5305481 0 -454567777.5305481 -1966991592.8096924 0 0 0 0 -276647271.28956604 -236961215.34051514 0 -236961215.34051514 -755857381.15402222 0 0 0 0 -240228186.53533173 -140595366.06719971 0 -140595366.06719971 -572780887.34066772 0 0 0 0 -185805848.97346497 -293779819.48529053 0 -293779819.48529053 -354409548.04504395 0 0 0 0 -124969871.53882289 -298969734.91318274 0 -298969734.91318274 -737580284.07617188 0 0 0 0 -341152858.19855499 -369888849.0725708 0 -369888849.0725708 -586985488.67211914 0 0 0 0 -410004666.57774353 -587723773.60357666 0 -587723773.60357666 -1086764823.9715271 0 0 0 0 -329566962.42719269 -247759136.48490524 0 -247759136.48490524 -714137124.33355713 0 0 0 0 -892332374.10399532 -540726030.2150383 0 -540726030.2150383 -310846715.83886719 0 0 0 0 -592769981.83901978 -518153510.63604736 0 -518153510.63604736 -410429528.63409424 0 0 0 0 -223274671.95246887 -374203703.48251343 0 -374203703.48251343 -616001504.30957031 0 0 0 0 -275980501.87299347 -304069832.42654419 0 -304069832.42654419 -241573026.61938477 0 0 0 0 -294281373.05154419 -348082580.40036011 0 -348082580.40036011 -338559801.56445312 0 0 0 0 -724855583.78109741 -315735121.32858276 0 -315735121.32858276 -138506770.76818848 0 0 0 0 -339239652.80056763 -137131902.67074585 0 -137131902.67074585 -91686230.98449707 0 0 0 0 -655075373.49395752 -239254684.72253418 0 -239254684.72253418 -72696661.167724609 0 0 0 0 72480537.559539795 -384046345.33833313 0 -384046345.33833313 -350220264.82058716 0 0 0 0 -64592051.247406006 -465929707.1016922 0 -465929707.1016922 -362502830.19116211 0 0 0 0 -110908626.85700226 -317252303.11923218 0 -317252303.11923218 -322043555.94080353 0 0 0 0 -147530409.97725677 -387092445.85552216 0 -387092445.85552216 -448924204.21017456 0 0 0 0 -225610616.75643921 -342047946.41898346 0 -342047946.41898346 -416770309.92932129 0 0 0 0 -155547410.50463867 -308893042.20209503 0 -308893042.20209503 -385201255.57000732 0 0 0 0 95420620.920539856 -68723032.666770935 0 -68723032.666770935 -401973053.3059082 0 0 0 0 -119013954.4618988 -262385235.32366943 0 -262385235.32366943 -584817777.81967163 0 0 0 0 -123276357.63506794 -251441782.3444643 0 -251441782.3444643 -569497026.73175049 0 0 0 0 -87219211.131267548 -260910876.34886169 0 -260910876.34886169 -567092772.16851807 0 0 0 0 -168728558.57237625 -196637604.37316895 0 -196637604.37316895 -254716457.12704468 0 0 0 0 -1431783.8119735718 -349768044.70622253 0 -349768044.70622253 -136629821.92044067 0 0 0 0 2199965.8443756104 -387330431.68659973 0 -387330431.68659973 -528257097.38726807 0 0 0 0 343038649.84404755 -241637813.16789246 0 -241637813.16789246 -81359510.312530518 0 0 0 0 1056730.0671324898 -4783177.3569760621 0 -4783177.3569760621 -2379591.9421582222 0 0 0 0 -41126842.773902893 -298633167.19789124 0 -298633167.19789124 -164100465.6804657 0 0 0 0 281779157.85058212 -364200327.17002869 0 -364200327.17002869 -292890204.94003296 0 0 0 0 115198962.19529724 -219533230.50970459 0 -219533230.50970459 -125898720.02798462 0 0 0 0 192654793.53739166 -521038289.31806946 0 -521038289.31806946 -360286848.15492249 0 0 0 0 68550147.20937252 -463723728.3533597 0 -463723728.3533597 -316082913.29144287 0 0 0 0 -410973157.73239517 -76506043.031181335 0 -76506043.031181335 57377253.01625061 0 0 0 0 127728.44513587769 -16866466.702101663 0 -16866466.702101663 12018988.954245314 0 0 0 0 -197073176.72397995 -179328516.91594696 0 -179328516.91594696 -44239361.882064819 0 0 0 0 -43050389.446445465 -325630229.73718262 0 -325630229.73718262 -19227708.817459106 0 0 0 0 -49811909.063587189 -87121977.200271606 0 -87121977.200271606 -53553059.544158936 0 0 0 0 -442690965.69921112 -122711900.98397827 0 -122711900.98397827 -46655039.359888077 0 0 0 0 -490832688.03805161 -261771744.8745575 0 -261771744.8745575 -108078508.8261261 0 0 0 0 305705.41481292958 -15068698.051732214 0 -15068698.051732214 7147642.3932500035 0 0 0 0 -695302904.32501543 -251249650.59700611 0 -251249650.59700611 -39552390.234008789 0 0 0 0 -135721219.70282364 -391518664.09671783 0 -391518664.09671783 -166341003.35076904 0 0 0 0 -541357864.55805779 -392680090.64875412 0 -392680090.64875412 -161532864.3861084 0 0 0 0 -1395186988.2669716 -394495698.82945251 0 -394495698.82945251 34951453.736404419 0 0 0 0 632621.56779234612 -12103388.263430364 0 -12103388.263430364 2328480.8260577321 0 0 0 0 245082973.45861053 -469240069.61747742 0 -469240069.61747742 -367751718.91888428 0 0 0 0 137382704.21013641 -465524234.75241089 0 -465524234.75241089 -334163190.05734253 0 0 0 0 141950756.3129034 -478602971.47989273 0 -478602971.47989273 -370674930.80059814 0 0 0 0 86661743.434364319 -480572187.98338318 0 -480572187.98338318 -362213209.9989624 0 0 0 0 79460546.887214661 -457987965.32012939 0 -457987965.32012939 -338300651.27474976 0 0 0 0 -80640190.166618347 -648225772.61448669 0 -648225772.61448669 -322798570.96084595 0 0 0 0 -8999579.8988723755 -534010797.03739929 0 -534010797.03739929 -347541255.61195374 0 0 0 0 454243913.20195007 -443530213.63034058 0 -443530213.63034058 -375949256.89225006 0 0 0 0 138600990.3176918 -494646228.77276611 0 -494646228.77276611 -348614673.2767334 0 0 0 0 314323708.4253273 -357887515.45136261 0 -357887515.45136261 -354301818.19030762 0 0 0 0 815993539.33039093 -167022680.987854 0 -167022680.987854 -350353015.51171875 0 0 0 0 49374645.593849182 -620722797.33207703 0 -620722797.33207703 -309910839.14389038 0 0 0 0 546556946.2617569 -641987177.82204819 0 -641987177.82204819 -469567956.65161133 0 0 0 0 897177136.06614685 -366420708.79754639 0 -366420708.79754639 -413143944.10603333 0 0 0 0 15134977.400707245 -909173625.66363525 0 -909173625.66363525 53877479.214935303 0 0 0 0 1989986948.0218048 -310312267.39175415 0 -310312267.39175415 -224725175.68897247 0 0 0 0 1068809527.9515724 191152776.75609207 0 191152776.75609207 -165287419.5038147 0 0 0 0 1927904038.0691478 1000043494.8436146 0 1000043494.8436146 423370418.82391357 0 0 0 0 807267330.38040161 -366054860.7331543 0 -366054860.7331543 -162587746.62805176 0 0 0 0 -1025861774.281147 -319660158.49894714 0 -319660158.49894714 -282069674.91456604 0 0 0 0 -885065161.86308289 -869770506.2734375 0 -869770506.2734375 -18321372.279129028 0 0 0 0 -50994886.443481445 -686109568.75823975 0 -686109568.75823975 -592042054.76409912 0 0 0 0 674694.11411558976 -7234827.1760188565 0 -7234827.1760188565 285979.78846937418 0 0 0 0 -2803143947.9147224 -651833897.46234894 0 -651833897.46234894 275553801.2172699 0 0 0 0 -1626117665.1290817 -617352056.84231567 0 -617352056.84231567 -597604927.19076538 0 0 0 0 -1606103126.5076418 -1079145963.3958988 0 -1079145963.3958988 351671831.4546814 0 0 0 0 -69147505.757202148 -1189492439.6666565 0 -1189492439.6666565 -354672721.46520996 0 0 0 0 -818767449.87289429 -206558532.43367004 0 -206558532.43367004 225665837.69589233 0 0 0 0 -4807605190.4455185 -524679705.82912445 0 -524679705.82912445 789003186.59042358 0 0 0 0 -2146031923.4209213 -1512985453.8504333 0 -1512985453.8504333 -1540720.2864532471 0 0 0 0 600091.67469099152 -2510030.5657047275 0 -2510030.5657047275 54739.761835962534 0 0 0 0 2212360563.0046387 182212256.27799988 0 182212256.27799988 -160016208.45492554 0 0 0 0 3009631854.8260384 656565507.20717621 0 656565507.20717621 92431130.148010254 0 0 0 0 4919498.8082493441 -7599634.5860341266 0 -7599634.5860341266 -1269241.5296904445 0 0 0 0 -94342863.955066681 -110265579.99813843 0 -110265579.99813843 -39855569.409408569 0 0 0 0 2186948844.1595783 -104992339.3306942 0 -104992339.3306942 -17345756.930297852 0 0 0 0 358624.01144532859 -637951.0057984814 0 -637951.0057984814 -1027926.6274024397 0 0 0 0 1276609139.4661942 -130486665.86225891 0 -130486665.86225891 398023576.2371521 0 0 0 0 1517717436.3748093 -906099338.75042725 0 -906099338.75042725 -455713848.09347534 0 0 0 0 238832083.07732391 -569383379.93928528 0 -569383379.93928528 7055434.6316833496 0 0 0 0 981758148.65367699 -1370219382.8904572 0 -1370219382.8904572 2039109.2203369141 0 0 0 0 3877675395.3388367 -539230430.60501099 0 -539230430.60501099 -328993633.38420868 0 0 0 0 2002924321.7405262 -1248197998.0143738 0 -1248197998.0143738 -299977993.29150391 0 0 0 0 1237101.2696742937 -2355369.1205535531 0 -2355369.1205535531 -202806.01057356596 0 0 0 0 -151445698.93719864 -115585949.74786377 0 -115585949.74786377 -96925.071075439453 0 0 0 0 4906534885.8086834 1029393796.4426041 0 1029393796.4426041 -334427866.29360962 0 0 0 0 -49987973.245464325 -82586704.422058105 0 -82586704.422058105 -52330811.865570068 0 0 0 0 -43483364.89874649 -55460388.466140747 0 -55460388.466140747 -30168652.454956055 0 0 0 0 49731279.371635437 -145762243.57316589 0 -145762243.57316589 207084.33219490742 0 0 0 0 208499535.98691082 -25036182.763137817 0 -25036182.763137817 -63934437.305328369 0 0 0 0 10971443.343336105 -80662076.098121643 0 -80662076.098121643 -63277363.58782959 0 0 0 0 25051357.14923954 -94398392.183135986 0 -94398392.183135986 -93728734.731445312 0 0 0 0 -79203670.885063171 -85594901.267181396 0 -85594901.267181396 -26580837.432495117 0 0 0 0 128205958.1315155 -79371688.636734009 0 -79371688.636734009 -56735483.546539307 0 0 0 0 14484427.997866204 -22590128.067815222 0 -22590128.067815222 9740500.8453474045 0 0 0 0 752706968.19713593 241628223.47740173 0 241628223.47740173 -7607834.5720825195 0 0 0 0 5988485.0688371062 6671593.5305166859 0 6671593.5305166859 -28005077.005430371 0 0 0 0 53343888.965080261 71733853.411478043 0 71733853.411478043 8498449.9685668945 0 0 0 0 -18037361.510172844 -47484543.697799683 0 -47484543.697799683 58116365.081085205 0 0 0 0 -15262780.95662117 -55033025.541042328 0 -55033025.541042328 -65150857.878417969 0 0 0 0 35130797.331008911 -16485775.827178955 0 -16485775.827178955 -239939671.70484161 0 0 0 0 444770235.26184082 -18709953.55708313 0 -18709953.55708313 -64955902.338562012 0 0 0 0 312557840.45001221 -144775295.49078369 0 -144775295.49078369 -168234241.80480957 0 0 0 0 29401968.256855011 -30921354.786342621 0 -30921354.786342621 -27524945.338928223 0 0 0 0 142005990.39245415 -36181497.224590302 0 -36181497.224590302 -84887777.81463623 0 0 0 0 2975562.2115219254 -4286749.5479038768 0 -4286749.5479038768 -1435749.2105931491 0 0 0 0 -96428264.61328125 -6465136.0766296387 0 -6465136.0766296387 -138984640.56013489 0 0 0 0 -91844787.909828186 -26249693.939971924 0 -26249693.939971924 -5588550.0332336426 0 0 0 0 14082906.275241401 -24313396.531022459 0 -24313396.531022459 10808345.575550921 0 0 0 0 -70845529.422065735 -106919187.03315735 0 -106919187.03315735 -40002427.783660889 0 0 0 0 -129681124.07054138 -53244682.529846191 0 -53244682.529846191 -65081019.300292969 0 0 0 0 57092133.864944458 -30550633.242218018 0 -30550633.242218018 -86232857.631797791 0 0 0 0 10723446.382582812 -3813543.9144826774 0 -3813543.9144826774 -20528916.825925708 0 0 0 0 12678475.358301878 -11194461.24612236 0 -11194461.24612236 -6161466.0928649902 0 0 0 0 2963894.4919281006 -4879454.5430908203 0 -4879454.5430908203 -10224294.823516846 0 0 0 0 7583768.2439761162 -10133368.787155151 0 -10133368.787155151 -17910503.089881897 0 0 0 0 5219762.41451196 222922.34431028552 0 222922.34431028552 -12586560.684678763 0 0 0 0 81463511.73163414 17635604.774871826 0 17635604.774871826 -36876440.789413452 0 0 0 0 59646984.633928299 16821077.899841309 0 16821077.899841309 -26203560.015625 0 0 0 0 145197236.13989401 93297885.175033569 0 93297885.175033569 48847501.786529541 0 0 0 0 2795799.2579904171 -3942957.4091885574 0 -3942957.4091885574 -1515084.2451377511 0 0 0 0 -2363738.1542564854 -5963524.6759783477 0 -5963524.6759783477 -1825061.2944622226 0 0 0 0 -1497568.8248977661 -7540239.8154296875 0 -7540239.8154296875 -6722.0825500488281 0 0 0 0 6107605.2591524124 -5264859.0688171387 0 -5264859.0688171387 -26433469.692626953 0 0 0 0 1063170.7562262819 -9041636.16230762 0 -9041636.16230762 -964851.20340617374 0 0 0 0 -708833.37111854553 -10198110.996582031 0 -10198110.996582031 -11672221.138092041 0 0 0 0 -9398182.4861078262 -25065121.660766602 0 -25065121.660766602 -14983.646377563477 0 0 0 0 6806755.3655436253 -10174339.642738432 0 -10174339.642738432 368648.55314906687 0 0 0 0 34799306.218230724 1866094.6051940918 0 1866094.6051940918 -25110346.992462158 0 0 0 0 -10105421.562202454 -9255056.9899291992 0 -9255056.9899291992 -3992.3911944285387 0 0 0 0 -3612832.3445162387 -4227738.225296393 0 -4227738.225296393 3643556.8057741448 0 0 0 0 41987288.552627563 3537574.5793762207 0 3537574.5793762207 -31812310.21496582 0 0 0 0 8481404.4869585037 3500893.7237625122 0 3500893.7237625122 -7190413.5340576172 0 0 0 0 16436059.00017643 -10671801.002426147 0 -10671801.002426147 -50320523.08972168 0 0 0 0 -1293253.3739185333 -10289786.440536499 0 -10289786.440536499 -12882310.939483643 0 0 0 0 7840621.6569957733 -11717393.020431519 0 -11717393.020431519 -12792767.877532959 0 0 0 0 24110924.214183807 -15480508.281997681 0 -15480508.281997681 -6779.0880126953125 0 0 0 0 36976748.507854462 -20283137.226448059 0 -20283137.226448059 -6033924.8227539062 0 0 0 0 -6755580.7919311523 -16725028.989074707 0 -16725028.989074707 14566515.086853027 0 0 0 0 -40315531.473604202 -20180550.929588318 0 -20180550.929588318 28658011.014328003 0 0 0 0 -1944772.1158711631 -2301416.4953211173 0 -2301416.4953211173 1982048.8937355131 0 0 0 0 23641672.840805054 -11697669.94229126 0 -11697669.94229126 -8409972.9145278931 0 0 0 0 508551.18141555786 -1910941.8958435059 0 -1910941.8958435059 -6770226.6421508789 0 0 0 0 2269785.2276144028 -16034299.852676392 0 -16034299.852676392 5222687.4459228516 0 0 0 0 12539346.034372609 -11424640.699573919 0 -11424640.699573919 -34429.495526943356 0 0 0 0 31575432.70310688 -39887781.394515991 0 -39887781.394515991 -43894953.730636597 0 0 0 0 13726765.960766315 -28102923.502483368 0 -28102923.502483368 -7261901.3757324219 0 0 0 0 53792785.983070374 -13924034.90838623 0 -13924034.90838623 -3792334.2833099365 0 0 0 0 18519943.222110845 -12282936.901638046 0 -12282936.901638046 -2745978.9873453677 0 0 0 0 5511324.6755819321 -11866382.921504974 0 -11866382.921504974 4782310.160949707 0 0 0 0 -1682543.5149850845 -12969040.311904907 0 -12969040.311904907 8244140.9609222412 0 0 0 0 -8438324.1164913177 -17583995.869598389 0 -17583995.869598389 7628359.3648834229 0 0 0 0 1068264.7990234818 -1258838.1104230639 0 -1258838.1104230639 -572924.05118787289 0 0 0 0 13501336.027763367 -20889698.378417969 0 -20889698.378417969 4525092.5486068726 0 0 0 0 3912756.6469615074 -5066344.2492563128 0 -5066344.2492563128 -2349681.799927488 0 0 0 0 25493824.62518692 -6967696.9619064331 0 -6967696.9619064331 -11169629.129089355 0 0 0 0 59179179.698299408 8831854.6360626221 0 8831854.6360626221 -25093659.283233643 0 0 0 0 14933086.09116628 -8042161.8647544384 0 -8042161.8647544384 -12800323.682787031 0 0 0 0 58843147.069832399 -11095747.690515876 0 -11095747.690515876 -8198404.2633666992 0 0 0 0 7643853.3101978302 -7590944.4616928101 0 -7590944.4616928101 -3093591.7823486328 0 0 0 0 16849123.532419205 -27723980.67098999 0 -27723980.67098999 14808216.901077271 0 0 0 0 63960880.910074472 -11418409.164043427 0 -11418409.164043427 -8158857.6549072266 0 0 0 0 20887120.531088352 -10904475.801445007 0 -10904475.801445007 -12118013.02041626 0 0 0 0 18475884.842351913 -9775586.0319519043 0 -9775586.0319519043 -6849105.625038147 0 0 0 0 8232300.9318685532 -17836531.467651367 0 -17836531.467651367 2518466.1288833618 0 0 0 0 7276166.0674080849 -14648225.005554199 0 -14648225.005554199 -7663447.7633361816 0 0 0 0 13527045.866237123 -12432914.186451875 0 -12432914.186451875 -2003732.7040889934 0 0 0 0 -104924665.81009674 -72241465.991027832 0 -72241465.991027832 -33413510.096141815 0 0 0 0 56142024.508333206 -122919128.86993408 0 -122919128.86993408 -390822516.90335083 0 0 0 0 212698.10755649209 -5065918.0955382288 0 -5065918.0955382288 2278367.1090315878 0 0 0 0 32708780.81968689 -58291799.833091736 0 -58291799.833091736 -9642660.3240966797 0 0 0 0 -184749724.373806 -241919419.68922424 0 -241919419.68922424 -325581133.65425873 0 0 0 0 38883599.437080383 -229307031.17141724 0 -229307031.17141724 -776658663.93070984 0 0 0 0 118212003.70372391 -209623876.26254272 0 -209623876.26254272 -708139582.63117981 0 0 0 0 74434182.406650543 -282456202.54266357 0 -282456202.54266357 -490760033.33797455 0 0 0 0 -24558670.428539276 -190324502.74205017 0 -190324502.74205017 -225507536.2739563 0 0 0 0 -160105480.77957201 -21103877.447621346 0 -21103877.447621346 -411741748.8717041 0 0 0 0 77988683.715141296 -147603381.25375366 0 -147603381.25375366 -505908052.11230469 0 0 0 0 89224879.320716858 -57962383.456817627 0 -57962383.456817627 -388888230.30953979 0 0 0 0 12216163.543010712 -3660617.4259796143 0 -3660617.4259796143 -165857100.56152344 0 0 0 0 42833169.442100525 -71865838.325317383 0 -71865838.325317383 -99897005.216674805 0 0 0 0 15969009.035885811 -15412519.826797485 0 -15412519.826797485 -14537609.633865356 0 0 0 0 -35966153.870807648 42608015.143684387 0 42608015.143684387 -153357954.48895264 0 0 0 0 10202333.510326222 -11617456.683132373 0 -11617456.683132373 -411855.16579672694 0 0 0 0 -11117852.111999512 -43074550.836761475 0 -43074550.836761475 -39641613.408203125 0 0 0 0 830549.87733747251 -309164.25308725983 0 -309164.25308725983 -29234.052187889814 0 0 0 0 11490279.248922348 -4942110.0149536133 0 -4942110.0149536133 -10104246.950714111 0 0 0 0 5802016.4954891205 -2391237.5703125 0 -2391237.5703125 -3498504.1674194336 0 0 0 0 3623720.7142128944 -3948503.5614013672 0 -3948503.5614013672 -9509749.3000183105 0 0 0 0 8812560.5373727325 -4595299.0516035706 0 -4595299.0516035706 -3513942.6159258038 0 0 0 0 8375592.9411226213 1156900.1016826117 0 1156900.1016826117 -10415709.490737155 0 0 0 0 -39160880.519927979 27525028.051361084 0 27525028.051361084 -99701801.550262451 0 0 0 0 8556137.4317233376 -3153895.129608795 0 -3153895.129608795 -5383405.221735552 0 0 0 0 86744272.958122253 7709639.998840332 0 7709639.998840332 -25962850.805450439 0 0 0 0 84160230.870398045 -9984522.2871541977 0 -9984522.2871541977 5704140.3108520508 0 0 0 0 71663043.50157547 -26129660.634292603 0 -26129660.634292603 -1451278.1859588623 0 0 0 0 111393547.25617027 -42869755.546684265 0 -42869755.546684265 6863771.0483398438 0 0 0 0 1070777.7959872689 788751.37332964689 0 788751.37332964689 -1913413.0832711682 0 0 0 0 90369480.586702347 -5624278.9577560425 0 -5624278.9577560425 10930758.818878174 0 0 0 0 2574867.7183391461 635735.15101871546 0 635735.15101871546 -2110421.9905353785 0 0 0 0 -343735034.49433041 -436797555.90526962 0 -436797555.90526962 -180190634.09429932 0 0 0 0 -88478201.708282471 -51741024.14151001 0 -51741024.14151001 -131554139.22155762 0 0 0 0 -273839081.95110321 -228946893.62086487 0 -228946893.62086487 -295102558.93963623 0 0 0 0 -66878738.075622559 -154946789.29037476 0 -154946789.29037476 -337351727.89135742 0 0 0 0 93112859.947757721 -347431974.82090759 0 -347431974.82090759 -310713896.59829712 0 0 0 0 -907023784.74197197 -435281871.6556778 0 -435281871.6556778 65272815.373291016 0 0 0 0 -57520584.159902573 -575859975.17533112 0 -575859975.17533112 -216008330.20324707 0 0 0 0 -319058923.63967133 284238928.72203064 0 284238928.72203064 239512282.65653229 0 0 0 0 98044400.822668076 -422389417.18505859 0 -422389417.18505859 -126127303.78820801 0 0 0 0 200565.70753981266 1213992.8227198133 0 1213992.8227198133 71707.084510862827 0 0 0 0 259154607.43311691 -3348866.8059844971 0 -3348866.8059844971 -36919718.986038208 0 0 0 0 137092822.47892082 -48615395.687995553 0 -48615395.687995553 14896053.82409668 0 0 0 0 136846877.1771698 -6914396.1984863281 0 -6914396.1984863281 1262954.0125274658 0 0 0 0 -90104303.450363159 -285367778.96534729 0 -285367778.96534729 -183444805.43463135 0 0 0 0 199809713.45475769 -76525657.969909668 0 -76525657.969909668 -55697794.944854736 0 0 0 0 50272420.977416992 -107142700.49456787 0 -107142700.49456787 -231969993.5791626 0 0 0 0 -105594060.75000381 -171414681.28656006 0 -171414681.28656006 -404556473.68948364 0 0 0 0 -125149515.80027771 -153863637.66169739 0 -153863637.66169739 -154270711.04022217 0 0 0 0 78269624.670005798 -137391494.86871338 0 -137391494.86871338 -183123266.60913086 0 0 0 0 64118796.77148819 -233562413.47857285 0 -233562413.47857285 -76312091.775817871 0 0 0 0 64887291.29283905 -188372048.79840088 0 -188372048.79840088 -15829209.152282715 0 0 0 0 76730374.645805359 -237208054.50180054 0 -237208054.50180054 -3045371.3849182129 0 0 0 0 84475609.136032104 -156398811.25680542 0 -156398811.25680542 -53049652.723419189 0 0 0 0 74319902.309562683 -184496644.22363281 0 -184496644.22363281 -89441867.509216309 0 0 0 0 90015996.308555603 -183699767.75390625 0 -183699767.75390625 -39757852.588348389 0 0 0 0 119474485.88816833 -136037905.94595337 0 -136037905.94595337 -84937624.302154541 0 0 0 0 117396879.48542786 -130199678.3260498 0 -130199678.3260498 -60388895.241638184 0 0 0 0 139798532.16051102 -104727842.79740143 0 -104727842.79740143 -38826955.520629883 0 0 0 0 78151158.937133789 -121108603.49905396 0 -121108603.49905396 -17678706.804901123 0 0 0 0 79957211.916481972 -98563311.585100174 0 -98563311.585100174 1332650.8068237305 0 0 0 0 26046157.480613708 -144506308.00650024 0 -144506308.00650024 16470200.605026245 0 0 0 0 77422481.367066979 -144010754.86894989 0 -144010754.86894989 13719244.550598145 0 0 0 0 26155922.026432037 -182673196.47239685 0 -182673196.47239685 163067991.95401001 0 0 0 0 48900555.932617188 -111510084.86947632 0 -111510084.86947632 36386362.80178833 0 0 0 0 36219248.680336952 -73345809.94196701 0 -73345809.94196701 52385640.907348633 0 0 0 0 23086963.797317505 -38302894.948242188 0 -38302894.948242188 8099721.4091491699 0 0 0 0 4159796.4096946716 -51275980.175014496 0 -51275980.175014496 129044320.07583618 0 0 0 0 -88243927.454376221 -97302660.807571411 0 -97302660.807571411 528910721.99327087 0 0 0 0 -347962.44718162715 -2397996.4897793382 0 -2397996.4897793382 1368832.4010916725 0 0 0 0 -2195000.0372428894 -418754106.32173157 0 -418754106.32173157 273429067.4291687 0 0 0 0 -16284740.886606693 -19032107.871505737 0 -19032107.871505737 8834694.2294616699 0 0 0 0 -75689946.135816574 -65562225.003307343 0 -65562225.003307343 -5588106.3980102539 0 0 0 0 -70728797.00492692 -75357975.195281982 0 -75357975.195281982 11839547.385118008 0 0 0 0 -105975803.46264029 -94472398.827163696 0 -94472398.827163696 10737142.491466522 0 0 0 0 12080453.395307481 -57914080.784564972 0 -57914080.784564972 -189935061.01586914 0 0 0 0 1570148.6022428269 4022944.1794452183 0 4022944.1794452183 -2437531.2016752362 0 0 0 0 216081399.09411716 -93586055.544197083 0 -93586055.544197083 -14504398.374397278 0 0 0 0 10675797.39472723 -50215007.190292358 0 -50215007.190292358 38039395.460380554 0 0 0 0 29868742.012418747 -45856267.245765686 0 -45856267.245765686 7249151.9963226318 0 0 0 0 159072156.72399521 -56021068.415275574 0 -56021068.415275574 -53008110.756607056 0 0 0 0 105009601.85263419 -33169364.742771626 0 -33169364.742771626 22859774.255371094 0 0 0 0 102968862.75688934 -60344859.522766113 0 -60344859.522766113 13077176.462341309 0 0 0 0 1552891.116246531 4032157.7430033628 0 4032157.7430033628 -2228969.5761786401 0 0 0 0 69382242.839025527 -107696819.20282555 0 -107696819.20282555 -38326715.249053955 0 0 0 0 130256254.09443855 -21740032.968688965 0 -21740032.968688965 22137791.662053108 0 0 0 0 196271756.55733395 -47949114.173927307 0 -47949114.173927307 -1716632.1644897461 0 0 0 0 128452643.96572113 -36104408.237701416 0 -36104408.237701416 2738033.3665466309 0 0 0 0 122889699.77045822 -19066767.712158203 0 -19066767.712158203 28507507.063331604 0 0 0 0 124417954.29224205 -22762059.396911621 0 -22762059.396911621 -23965034.683303833 0 0 0 0 820501.17006685119 2198223.2364135794 0 2198223.2364135794 -1079720.1765339077 0 0 0 0 229913786.19171143 -39018789.119697571 0 -39018789.119697571 -49848285.791992188 0 0 0 0 -187919373.29177761 -116809732.64743042 0 -116809732.64743042 24626092.862464905 0 0 0 0 -39429162.258841991 -118873850.65221405 0 -118873850.65221405 14117384.943439484 0 0 0 0 6644483.3130061273 -42896.828184586018 0 -42896.828184586018 -2852899.4693127871 0 0 0 0 -66493614.311487675 -65348913.45255661 0 -65348913.45255661 -11984102.97769165 0 0 0 0 121439805.1657548 -6639953.214805603 0 -6639953.214805603 2927184.8721313477 0 0 0 0 -19832788.96701622 -18820508.821090698 0 -18820508.821090698 116294424.05226898 0 0 0 0 -6943137.0083186571 -568734.06377254426 0 -568734.06377254426 5236994.9947921485 0 0 0 0 9654487.9750511646 -199928378.65220642 0 -199928378.65220642 -20467839.257217407 0 0 0 0 6691447.9466807842 36717708.593704224 0 36717708.593704224 35009768.559137344 0 0 0 0 23987347.800772306 -30145702.81748575 0 -30145702.81748575 5271460.2109117024 0 0 0 0 119798630.24411273 -20180663.024997711 0 -20180663.024997711 -53679580.560012817 0 0 0 0 13941554.105825424 -93669054.627548218 0 -93669054.627548218 67908823.69921875 0 0 0 0 103657720.09457397 -25368368.995811462 0 -25368368.995811462 -36631775.590484619 0 0 0 0 95705222.707334518 -83579063.590484619 0 -83579063.590484619 -59662718.437515259 0 0 0 0 -60660420.428363085 -80797899.455947876 0 -80797899.455947876 -7969023.2082366943 0 0 0 0 35789157.048894905 -36052402.869774818 0 -36052402.869774818 7926908.8119354248 0 0 0 0 16424254.733825032 -15830203.952825278 0 -15830203.952825278 -10256122.579749033 0 0 0 0 36566854.453800201 -54698654.162765503 0 -54698654.162765503 -30609868.367332458 0 0 0 0 26162226.29592514 -19257078.832015991 0 -19257078.832015991 3793074.971862793 0 0 0 0 17050344.461418152 -27578003.7550354 0 -27578003.7550354 29929978.230880737 0 0 0 0 24118449.201661166 -28340694.914714858 0 -28340694.914714858 2083965.8451354541 0 0 0 0 6380948.0735056512 -3939547.7604132593 0 -3939547.7604132593 1863502.5479043275 0 0 0 0 26507990.708625793 -37402154.237876892 0 -37402154.237876892 -17941180.778808594 0 0 0 0 17721716.252441406 -37012454.901000977 0 -37012454.901000977 23398124.823883057 0 0 0 0 26595730.636558533 -16695077.464904785 0 -16695077.464904785 -4411037.2149047852 0 0 0 0 26860746.579345703 -21115335.874053955 0 -21115335.874053955 -29986.261630504847 0 0 0 0 31798722.451763153 -23063581.402885437 0 -23063581.402885437 72841.397247314453 0 0 0 0 21246836.150848389 -34855031.856277466 0 -34855031.856277466 253906.99670410156 0 0 0 0 19995462.055534363 -35086320.356689453 0 -35086320.356689453 3451145.184463501 0 0 0 0 22180149.535556793 -30411349.299118042 0 -30411349.299118042 12898991.29586792 0 0 0 0 26341391.394294739 -43788211.138687134 0 -43788211.138687134 12014.349395751953 0 0 0 0 20466374.354576111 -41547468.281188965 0 -41547468.281188965 603841.60791015625 0 0 0 0 17644789.897357047 -44044450.061807275 0 -44044450.061807275 6331445.1375732422 0 0 0 0 19058935.742160797 -42013129.561172485 0 -42013129.561172485 1655665.5254211426 0 0 0 0 18043840.726299286 -40464330.468009949 0 -40464330.468009949 -34397.464508056641 0 0 0 0 15391188.297187805 -42924205.129348755 0 -42924205.129348755 -2246055.9873886108 0 0 0 0 21063686.755638123 -35971053.064872742 0 -35971053.064872742 -6462331.9125671387 0 0 0 0 24939103.660652161 -30114604.661834717 0 -30114604.661834717 383596.19424438477 0 0 0 0 -74254987.458389282 -49903005.764228821 0 -49903005.764228821 50193867.156799316 0 0 0 0 946021.41164333746 -7146112.5970544368 0 -7146112.5970544368 8234794.709642455 0 0 0 0 34783748.140563965 -46847400.537719727 0 -46847400.537719727 -15573282.953445435 0 0 0 0 3592322.3817329407 -67079361.230304718 0 -67079361.230304718 -22685686.140686035 0 0 0 0 9160945.3121643066 -23203837.830032349 0 -23203837.830032349 6669015.1645202637 0 0 0 0 -38446566.062576294 -55353938.888511658 0 -55353938.888511658 39054.623992919922 0 0 0 0 66703535.317581177 -31523487.386566162 0 -31523487.386566162 -852934.94021606445 0 0 0 0 61427798.199836731 -49709609.973304749 0 -49709609.973304749 -26080.634246826172 0 0 0 0 66502735.050633281 -79882781.136034966 0 -79882781.136034966 30093911.510131836 0 0 0 0 -893907.67662461847 -1557513.2531080246 0 -1557513.2531080246 -699746.74235849828 0 0 0 0 20451943.794143677 5383741.990737915 0 5383741.990737915 -9427492.9559936523 0 0 0 0 53647157.411239624 -100942366.18795776 0 -100942366.18795776 11696375.075073242 0 0 0 0 79147870.447181702 -77964372.617660522 0 -77964372.617660522 -14259544.444824219 0 0 0 0 59682400.964279175 -18525753.689666748 0 -18525753.689666748 -28012268.964477539 0 0 0 0 -7554562.9999847412 -100892657.62860107 0 -100892657.62860107 43950618.480285645 0 0 0 0 -3509244.2262750864 -35720522.786239654 0 -35720522.786239654 15118358.930129737 0 0 0 0 -4213425.1555786133 -36520325.605262756 0 -36520325.605262756 50381465.059875488 0 0 0 0 843536.77488708496 -42891939.376708984 0 -42891939.376708984 30661800.185028076 0 0 0 0 16857519.044494629 -85578841.905883789 0 -85578841.905883789 9480806.8549194336 0 0 0 0 -24423756.436798096 -62260455.291183472 0 -62260455.291183472 18952547.525085449 0 0 0 0 12055558.67791748 -29150675.556396484 0 -29150675.556396484 -11179312.804729462 0 0 0 0 61859.511073201895 -631268.12752762437 0 -631268.12752762437 -1155844.0542179504 0 0 0 0 47248084.04989624 -56760342.02456665 0 -56760342.02456665 -28159474.393035889 0 0 0 0 1912783.6355743408 -39001642.841918945 0 -39001642.841918945 -14305789.412719727 0 0 0 0 4891774.0733100772 -16316378.17949935 0 -16316378.17949935 15592877.488951311 0 0 0 0 76022332.455955505 -45931420.646339417 0 -45931420.646339417 -215386985.13386536 0 0 0 0 -38112653.600666046 42308081.73273468 0 42308081.73273468 -209347893.89222717 0 0 0 0 -20728289.169904709 -108447339.3251152 0 -108447339.3251152 -68711689.074676514 0 0 0 0 -57983271.342926025 -18621814.803253174 0 -18621814.803253174 76220648.983451843 0 0 0 0 -2806520.0927661881 -3152063.3324309997 0 -3152063.3324309997 9272111.8271406889 0 0 0 0 -21318029.968948364 50731726.931350708 0 50731726.931350708 -183602376.19387817 0 0 0 0 8229407.0123138428 -13848313.254669189 0 -13848313.254669189 -46440174.327087402 0 0 0 0 16447923.505554199 -75045350.482543945 0 -75045350.482543945 -26260507.230781555 0 0 0 0 9513447.4597167969 -7460006.1949920654 0 -7460006.1949920654 -31879891.132265091 0 0 0 0 -21075753.690177917 -6780057.2477722168 0 -6780057.2477722168 20986697.33543396 0 0 0 0 44089326.712440491 -30829003.444244385 0 -30829003.444244385 -25546127.158203125 0 0 0 0 9343015.410085015 -20298503.179701641 0 -20298503.179701641 -2174520.8974871635 0 0 0 0 -7022090.7802639008 -33534831.044181824 0 -33534831.044181824 47953084.407043457 0 0 0 0 23244036.753020141 -33396105.356639452 0 -33396105.356639452 5756979.0770308338 0 0 0 0 11763238.846475601 -79950115.817901611 0 -79950115.817901611 5258483.5839233398 0 0 0 0 3936366.4414875749 -27245044.531852718 0 -27245044.531852718 6864715.8671371043 0 0 0 0 -3747688.1781722493 -38120035.701762602 0 -38120035.701762602 15406465.959867183 0 0 0 0 -11153245.050613403 -57515269.257751465 0 -57515269.257751465 39383117.416152954 0 0 0 0 211714.87968033552 -2535421.262232542 0 -2535421.262232542 -90323.254710493609 0 0 0 0 -1147810848.8245392 -862581087.62776947 0 -862581087.62776947 -652813708.51049805 0 0 0 0 164480462.51365662 131633877.29875183 0 131633877.29875183 -194522541.84182739 0 0 0 0 -2192642541.4611678 -447638230.52553535 0 -447638230.52553535 -45050138.605194092 0 0 0 0 3295335.9117926359 -3196065.2859556228 0 -3196065.2859556228 -3170513.100600332 0 0 0 0 -46441690.816738129 56704876.696544647 0 56704876.696544647 13941283.447662354 0 0 0 0 25013650.594360352 -95000277.224822998 0 -95000277.224822998 32838.286154610825 0 0 0 0 168591846.04003906 65229399.313476562 0 65229399.313476562 42793702.329589844 0 0 0 0 153748896.52561951 56234377.31942749 0 56234377.31942749 36786242.644592285 0 0 0 0 166510768.68364716 68479013.063705444 0 68479013.063705444 41498223.173492432 0 0 0 0 1135372.276832588 -6116663.584438514 0 -6116663.584438514 -3588139.585667327 0 0 0 0 -7467159.2845458984 7251966.4189605713 0 7251966.4189605713 13858631.136444092 0 0 0 0 -11270082.333831787 -35533286.53805542 0 -35533286.53805542 39893301.741645813 0 0 0 0 26023350.133903503 -26360672.845024109 0 -26360672.845024109 59665.199417114258 0 0 0 0 6345074.2499272451 -2032640.5852605514 0 -2032640.5852605514 -3097260.3031731099 0 0 0 0 36822045.633903503 -42717584.469924927 0 -42717584.469924927 23009917.350708008 0 0 0 0 35867561.731262207 -45988195.420227051 0 -45988195.420227051 12423982.165618896 0 0 0 0 4483280.4798278809 -18681154.987701416 0 -18681154.987701416 23837290.947262764 0 0 0 0 14438710.84815979 -47205271.85874939 0 -47205271.85874939 87144646.693588257 0 0 0 0 4205580.1919162571 -2565766.9729298167 0 -2565766.9729298167 -87393.846830070019 0 0 0 0 -5850977.3176223189 -9894152.9680005014 0 -9894152.9680005014 4061141.2329531088 0 0 0 0 5213997.2466918901 -10587270.111935183 0 -10587270.111935183 1498256.5483742058 0 0 0 0 3055680.5936584473 -1405976.1306762695 0 -1405976.1306762695 25777134.548736572 0 0 0 0 -1456373.6582870483 -4223818.4324493408 0 -4223818.4324493408 47898043.689315796 0 0 0 0 6917606.7222137451 -1219459.2783203125 0 -1219459.2783203125 24943570.485168457 0 0 0 0 -755311.29168701172 -7566123.7347717285 0 -7566123.7347717285 6954099.4622192383 0 0 0 0 714073.77474862337 -7520701.4914153144 0 -7520701.4914153144 5354989.0137024345 0 0 0 0 -326351.02243189514 -25458294.59918879 0 -25458294.59918879 5682229.3284229971 0 0 0 0 -8243345.8896789551 -396162.45927429199 0 -396162.45927429199 84873136.830596924 0 0 0 0 -3073256.428307347 -26210219.031345226 0 -26210219.031345226 8989298.7581723519 0 0 0 0 6517852.4701766968 -84473730.950660706 0 -84473730.950660706 -179339303.92097092 0 0 0 0 4838540.8152770996 -15240095.016082764 0 -15240095.016082764 49076895.715087891 0 0 0 0 3886325.7618713379 -8178821.0204772949 0 -8178821.0204772949 60315474.881652832 0 0 0 0 -5993568.8795776367 3188908.2185668945 0 3188908.2185668945 33148958.049926758 0 0 0 0 6731880.9055199623 -23784834.13414669 0 -23784834.13414669 57260678.596862793 0 0 0 0 -7739948.4756774902 4967428.5374755859 0 4967428.5374755859 33794415.343551636 0 0 0 0 715584.65687447786 -234444.38453715667 0 -234444.38453715667 -417626.7527859509 0 0 0 0 -9984894.2523193359 17601036.784118652 0 17601036.784118652 -24562355.704101562 0 0 0 0 7430690.7781624049 -15138923.690290935 0 -15138923.690290935 1349737.0017296411 0 0 0 0 -145945943.1640625 -77562993.505859375 0 -77562993.505859375 -21951211.454589844 0 0 0 0 -9726092.3947143555 781979.82122802734 0 781979.82122802734 39477240.20703125 0 0 0 0 -554176.15695380419 -5514182.2521293461 0 -5514182.2521293461 3596886.2906368226 0 0 0 0 -5767915.903717041 -18377543.970458984 0 -18377543.970458984 1281094.0033111572 0 0 0 0 10607358.46975708 -10044217.160079956 0 -10044217.160079956 41463390.41317749 0 0 0 0 17685040.032852173 -5848418.9630432129 0 -5848418.9630432129 40620203.272338867 0 0 0 0 1327221.4005467221 -6351872.9645659924 0 -6351872.9645659924 126050.47008610889 0 0 0 0 13855582.473999023 5905149.8439941406 0 5905149.8439941406 58591003.043491364 0 0 0 0 17610795.322353363 997076.85064315796 0 997076.85064315796 44230064.536834717 0 0 0 0 -5459026.7510080636 -25923186.098604545 0 -25923186.098604545 10192949.69628064 0 0 0 0 -7672703.2718582153 4751569.0600204468 0 4751569.0600204468 107143607.91136169 0 0 0 0 -12196676.518403053 7031652.4256420135 0 7031652.4256420135 10215141.710708618 0 0 0 0 2206415.746219635 -55494838.977165222 0 -55494838.977165222 -77399008.910461426 0 0 0 0 -7049993.4590911865 -42714145.910446167 0 -42714145.910446167 -32439286.69152832 0 0 0 0 11696469.724212646 -69989708.725837708 0 -69989708.725837708 -66673173.866867065 0 0 0 0 -5885640.3854064941 -93302768.339675903 0 -93302768.339675903 -96992524.462020874 0 0 0 0 -33541001.299415588 -79140513.589328766 0 -79140513.589328766 -29238194.165527344 0 0 0 0 -11571756.657676697 -49156670.892425537 0 -49156670.892425537 -41418251.313232422 0 0 0 0 -35390663.207107544 -42490353.324653625 0 -42490353.324653625 -18552822.103027344 0 0 0 0 -25195726.881744385 -12445676.540710449 0 -12445676.540710449 32780442.062038422 0 0 0 0 2228433.9266929626 -138077996.35923004 0 -138077996.35923004 4735352.7087860107 0 0 0 0 110159065.11930847 5305183.0464324951 0 5305183.0464324951 -176685075.92714691 0 0 0 0 -3157429.0712269545 -1768309.5834896043 0 -1768309.5834896043 2278253.5434319973 0 0 0 0 158966431.38113785 -35526335.085510254 0 -35526335.085510254 -15517456.610778809 0 0 0 0 107900400.74097824 51864861.997215271 0 51864861.997215271 29229149.393707275 0 0 0 0 34249736.989692688 -32647427.307197571 0 -32647427.307197571 -15430191.355102539 0 0 0 0 85130920.780899048 4574471.8767929077 0 4574471.8767929077 -54959618.294799805 0 0 0 0 11472032.396339558 -12383963.966523752 0 -12383963.966523752 -7905633.2898027897 0 0 0 0 2965497.2801055908 -13105188.302185059 0 -13105188.302185059 -10249603.321411133 0 0 0 0 7049902.782661438 -4011660.9988250732 0 -4011660.9988250732 -6544155.7150878906 0 0 0 0 49058400.886405945 -14118068.300262451 0 -14118068.300262451 -95539403.518798828 0 0 0 0 -6791532.0531158447 -6605112.8787384033 0 -6605112.8787384033 -56023506.986541748 0 0 0 0 16062517.130153514 -8954271.4407809228 0 -8954271.4407809228 -9715924.727898635 0 0 0 0 22869131.209308624 -1348923.9237823486 0 -1348923.9237823486 -10358651.215759277 0 0 0 0 41018771.298545837 24899377.177947998 0 24899377.177947998 -87059037.172332764 0 0 0 0 13306695.88230896 -7278947.3188934326 0 -7278947.3188934326 -8174439.3350219727 0 0 0 0 -15457404.581481934 15177869.165771484 0 15177869.165771484 -63886156.900848389 0 0 0 0 28312698.396774292 -3272518.9311981201 0 -3272518.9311981201 -58349281.433448792 0 0 0 0 13260156.87260437 73961.855377197266 0 73961.855377197266 12146226.518188477 0 0 0 0 185707.12180328369 -31515695.822792053 0 -31515695.822792053 -40285356.189300537 0 0 0 0 -602845.76171875 20831036.470710754 0 20831036.470710754 -22783702.210113525 0 0 0 0 -8327147.7901916504 -19238961.55682373 0 -19238961.55682373 -11745225.789764404 0 0 0 0 -2701494.3920503557 -3701765.0565833971 0 -3701765.0565833971 -713351.65706126392 0 0 0 0 3566383.066291891 -22494707.215478972 0 -22494707.215478972 -7246843.0419155769 0 0 0 0 14793641.964443371 -6143321.5531928316 0 -6143321.5531928316 -11952894.481658176 0 0 0 0 8143928.3697128296 -27465635.858657837 0 -27465635.858657837 -13524615.817321777 0 0 0 0 8806271.8532867432 -2873200.1308135986 0 -2873200.1308135986 -76356534.891479492 0 0 0 0 -23074635.792617798 -11103373.852722168 0 -11103373.852722168 31978728.413848877 0 0 0 0 591823.87801267579 -1036453.7792299241 0 -1036453.7792299241 -266260.33295489848 0 0 0 0 -405474.53768467903 -750623.25700324029 0 -750623.25700324029 1269769.2566982098 0 0 0 0 1156834.9706268311 -11738854.252799988 0 -11738854.252799988 -21804281.459095001 0 0 0 0 -1545402.4394607544 -3561517.2719116211 0 -3561517.2719116211 16918454.562210083 0 0 0 0 -763856.75818318129 -5605320.7023224086 0 -5605320.7023224086 -5658389.893607989 0 0 0 0 20146678.194488525 -28290623.208480835 0 -28290623.208480835 -51416643.793945312 0 0 0 0 4019367.6960974187 -15023232.776362985 0 -15023232.776362985 -2930782.0057715885 0 0 0 0 -3055251.801071167 -31276712.554733276 0 -31276712.554733276 -31401404.392822266 0 0 0 0 -4519690.6584320068 47918897.398773193 0 47918897.398773193 -42075029.440530777 0 0 0 0 42620476.519882202 11096487.319122314 0 11096487.319122314 -34402457.788513184 0 0 0 0 71651549.532867432 9150031.7686157227 0 9150031.7686157227 -46858278.42845726 0 0 0 0 21211277.027834892 -3760367.1745223999 0 -3760367.1745223999 -30447440.909454346 0 0 0 0 -27840973.643966675 23619849.907485962 0 23619849.907485962 -26505105.322540283 0 0 0 0 10135003.774536133 -6200680.5849914551 0 -6200680.5849914551 -10703798.125213623 0 0 0 0 7579177.2742528021 -10667699.446451612 0 -10667699.446451612 1168505.587131992 0 0 0 0 -44627044.831237793 46023443.079467773 0 46023443.079467773 -48368001.506286621 0 0 0 0 -7275262.1417198181 31236251.364006042 0 31236251.364006042 -75771760.686157227 0 0 0 0 -1701932.9450378418 -43128841.429168701 0 -43128841.429168701 -34742390.544998169 0 0 0 0 -132377887.74839401 -40314173.704135895 0 -40314173.704135895 -33063690.540008545 0 0 0 0 -39124467.483921051 -33065778.530163765 0 -33065778.530163765 -11245338.057983398 0 0 0 0 39913311.157196045 -29717261.334793091 0 -29717261.334793091 -201111487.03946304 0 0 0 0 39015870.846717834 45459004.752540588 0 45459004.752540588 439465.63018798828 0 0 0 0 -28063421.161148071 -74009372.814971924 0 -74009372.814971924 140303348.85305786 0 0 0 0 77857603.780105591 -122756929.11497498 0 -122756929.11497498 64569705.668731689 0 0 0 0 -30336035.471663952 -31200199.629152298 0 -31200199.629152298 12606983.899230957 0 0 0 0 -15432922.071907043 -18595557.132797241 0 -18595557.132797241 -16461593.182647705 0 0 0 0 15329097.25881958 -43663149.430633545 0 -43663149.430633545 -12204646.333427429 0 0 0 0 -18561655.669616699 -67153173.467773438 0 -67153173.467773438 75100901.733062744 0 0 0 0 -24125078.677261353 -91128054.780853271 0 -91128054.780853271 77684843.933418274 0 0 0 0 585696.71928405762 -119680355.8572998 0 -119680355.8572998 101824306.24032593 0 0 0 0 116662439.20948792 -87987175.506271362 0 -87987175.506271362 10311091.379226685 0 0 0 0 -185598.60623426363 171763.50777313858 0 171763.50777313858 1485523.1207154244 0 0 0 0 -49168162.046676636 -24495296.747772217 0 -24495296.747772217 25149729.46270752 0 0 0 0 -40739093.575027466 -66787864.365610123 0 -66787864.365610123 102120199.57617188 0 0 0 0 -72159425.920684814 318561056.16094971 0 318561056.16094971 -208800566.34008789 0 0 0 0 13691066.411193848 -63346408.999694824 0 -63346408.999694824 16563624.217025757 0 0 0 0 -11907127.130142212 -56763459.543731689 0 -56763459.543731689 21072230.836761475 0 0 0 0 -10564292.98034668 -85519823.914352417 0 -85519823.914352417 74579509.868865967 0 0 0 0 1642717.7848968506 -28645894.795043945 0 -28645894.795043945 -64892004.903747559 0 0 0 0 55310493.937515259 -34818435.178421021 0 -34818435.178421021 -53281907.555511475 0 0 0 0 -2108131.7249450684 -29432025.147125244 0 -29432025.147125244 -53410620.193237782 0 0 0 0 4556642.8609715439 1211053.0321965963 0 1211053.0321965963 -401124.82895459235 0 0 0 0 9898598.0507354736 -63385909.689483643 0 -63385909.689483643 -67018326.254678726 0 0 0 0 4093261.6221618652 31167875.996772766 0 31167875.996772766 -16590507.763793945 0 0 0 0 19175496.019908771 -22447126.071552217 0 -22447126.071552217 -8651179.4206125736 0 0 0 0 3060356.3145294189 -13214586.606018066 0 -13214586.606018066 -21400037.436386108 0 0 0 0 4296011.8236254547 -7500477.9914450571 0 -7500477.9914450571 -828129.68266425282 0 0 0 0 -5047925.3321533203 -14135867.065460205 0 -14135867.065460205 -15068401.853485107 0 0 0 0 11476297.180861168 825572.8944337219 0 825572.8944337219 -821923.90058533847 0 0 0 0 -16452470.021762848 -40229739.843078613 0 -40229739.843078613 -9419080.7007446289 0 0 0 0 -9033735.0428581238 -32885918.022872925 0 -32885918.022872925 36322746.748245239 0 0 0 0 12182623.590464735 -10772349.058242299 0 -10772349.058242299 3778264.8243559599 0 0 0 0 60339446.75352478 -71332039.751541138 0 -71332039.751541138 62678026.875839233 0 0 0 0 -22757546.045955658 -33988313.844223022 0 -33988313.844223022 10238216.835540771 0 0 0 0 -23244621.965621948 -15375033.711669922 0 -15375033.711669922 -21325572.697982788 0 0 0 0 -2293997.476554187 -1697585.8414653018 0 -1697585.8414653018 1470740.9714540243 0 0 0 0 -5450998.5019922722 -23141914.263914078 0 -23141914.263914078 -1670842.7272688411 0 0 0 0 14489758.194374084 -39817078.95111084 0 -39817078.95111084 -8031744.259552002 0 0 0 0 -3898238.4680271149 -51589878.942764282 0 -51589878.942764282 19339571.579025269 0 0 0 0 3598327.9719540812 -11872592.633895993 0 -11872592.633895993 -3755599.2227546796 0 0 0 0 4444092.7586050034 -26500723.232330322 0 -26500723.232330322 -20481015.791625977 0 0 0 0 7476420.1218290329 -31289611.329864502 0 -31289611.329864502 -21901841.290527344 0 0 0 0 134127428.29647827 -228591701.25759888 0 -228591701.25759888 263588896.72399902 0 0 0 0 9786664.5119095072 -10381330.886449531 0 -10381330.886449531 3622639.7640198916 0 0 0 0 -442323.34080314636 -50066043.666244507 0 -50066043.666244507 -48245322.675186157 0 0 0 0 -100202204.52064466 -44147995.820892334 0 -44147995.820892334 74623689.729980469 0 0 0 0 -2026181.6534252167 -21007295.0832901 0 -21007295.0832901 17490749.796737671 0 0 0 0 15225137.556260347 -52200551.786266327 0 -52200551.786266327 -376525855.15003967 0 0 0 0 1128023.2427049698 -3865690.1873168349 0 -3865690.1873168349 -1278886.4159494489 0 0 0 0 -23027369.138069153 -80589936.581310272 0 -80589936.581310272 -227820473.38311768 0 0 0 0 -33433520.686676502 -102641613.94615936 0 -102641613.94615936 -182415984.08435059 0 0 0 0 10751959.007980347 -83685608.369934082 0 -83685608.369934082 -225967644.32112122 0 0 0 0 -6328618.5632362366 -104216796.10583496 0 -104216796.10583496 -161249631.19407272 0 0 0 0 15906701.22008419 -63575938.746673584 0 -63575938.746673584 -154195032.25469971 0 0 0 0 11618957.400407791 -11460459.868423462 0 -11460459.868423462 -196071953.1723938 0 0 0 0 1257229.111738205 -33369240.849136353 0 -33369240.849136353 -125122327.17709351 0 0 0 0 16924689.130725861 -33781217.934814453 0 -33781217.934814453 -142732486.78363037 0 0 0 0 19262431.667876244 -20662275.59709549 0 -20662275.59709549 -84630784.422851562 0 0 0 0 12406359.936035156 -66024315.014984131 0 -66024315.014984131 -147324597.54113007 0 0 0 0 -3586289.0362510681 -20332618.594596863 0 -20332618.594596863 -17581826.414733887 0 0 0 0 7544138.3622866832 -6486178.6687818915 0 -6486178.6687818915 -2484534.0919981897 0 0 0 0 2230177.1847541351 892233.41974261403 0 892233.41974261403 -184238.8077673614 0 0 0 0 -2601816.1001739502 -13955242.768615723 0 -13955242.768615723 -36090479.301940918 0 0 0 0 -13193036.213157654 -49262149.745147705 0 -49262149.745147705 -74803767.652801514 0 0 0 0 19997334.641822815 -40294675.374816895 0 -40294675.374816895 -125047266.39672852 0 0 0 0 10240055.44985199 -57893842.982757568 0 -57893842.982757568 -128628854.32809448 0 0 0 0 9188004.846496582 -58763100.754302979 0 -58763100.754302979 -114210277.86090088 0 0 0 0 12056943.673782349 -61074121.142181396 0 -61074121.142181396 -112993540.30932617 0 0 0 0 -12365590.069970846 -68065759.469333649 0 -68065759.469333649 -110022392.65014648 0 0 0 0 11906829.186416626 -70049022.601348877 0 -70049022.601348877 -120777753.30136108 0 0 0 0 6927593.6615715027 -62133649.172889709 0 -62133649.172889709 -103573822.31079102 0 0 0 0 10426390.632667542 -73157866.25743103 0 -73157866.25743103 -134266245.53625488 0 0 0 0 10892035.268222809 -69815365.037200928 0 -69815365.037200928 -120644401.91540527 0 0 0 0 5700675.9629821777 -84301331.594070435 0 -84301331.594070435 -121992164.19268799 0 0 0 0 8534095.3688278198 -83070458.509429932 0 -83070458.509429932 -126346005.95637512 0 0 0 0 14639236.753921509 -72776506.721313477 0 -72776506.721313477 -143984785.81221771 0 0 0 0 15843316.17514801 -59241981.95703125 0 -59241981.95703125 -129160449.86505127 0 0 0 0 17385775.844459534 -63135637.578155518 0 -63135637.578155518 -146767086.73199463 0 0 0 0 11106004.823791504 -89936752.774993896 0 -89936752.774993896 -146757664.94074249 0 0 0 0 16815895.952198029 -71685014.291397095 0 -71685014.291397095 -144175521.21157837 0 0 0 0 16219545.727256775 -74610134.011444092 0 -74610134.011444092 -169588663.73059082 0 0 0 0 5269653.4156723022 -94435425.615509033 0 -94435425.615509033 -132987090.2883606 0 0 0 0 5087910.2374879122 -96970143.376403809 0 -96970143.376403809 -156900383.44799805 0 0 0 0 6841190.5294265747 -93408840.5965271 0 -93408840.5965271 -132317598.81747437 0 0 0 0 9889213.1506080627 -91703194.534339905 0 -91703194.534339905 -118570988.89575195 0 0 0 0 12381665.711040497 -84759748.555725098 0 -84759748.555725098 -126281947.42712402 0 0 0 0 9600475.5972976685 -89830038.132232666 0 -89830038.132232666 -130177301.13069153 0 0 0 0 6956325.0296401978 -94666991.065460205 0 -94666991.065460205 -124380354.41928101 0 0 0 0 -5034577.3233337402 -94397990.633163452 0 -94397990.633163452 -93677614.579650879 0 0 0 0 12648475.378013611 -85428851.287658691 0 -85428851.287658691 -116936495.14707947 0 0 0 0 -11010252.411863327 -108526414.75994873 0 -108526414.75994873 -111989562.89450073 0 0 0 0 -10911237.449291229 -108236775.39286804 0 -108236775.39286804 -117933338.42900085 0 0 0 0 16057827.503202558 -74387378.89274025 0 -74387378.89274025 -128519763.54925537 0 0 0 0 -71983764.427352905 -146646695.50820923 0 -146646695.50820923 -88415730.248886108 0 0 0 0 5209111.0714221457 -20425736.324572898 0 -20425736.324572898 -9089942.1026847661 0 0 0 0 -5220758.2067584991 -110797502.39613342 0 -110797502.39613342 -165189501.61334229 0 0 0 0 -20007960.679497719 -120106075.92515564 0 -120106075.92515564 -155132362.61686707 0 0 0 0 -30642780.918767631 -100653503.49437046 0 -100653503.49437046 -168048035.27975464 0 0 0 0 -27681688.309805155 -120004573.43414879 0 -120004573.43414879 -159486409.12826538 0 0 0 0 -15827418.50394249 -117268371.12837219 0 -117268371.12837219 -159915095.10742188 0 0 0 0 -15356491.843421936 -121814848.28053284 0 -121814848.28053284 -131884543.62472534 0 0 0 0 -5104349.4442825317 -103167092.48080444 0 -103167092.48080444 -184326726.27658081 0 0 0 0 10706397.069610596 -15455763.987960815 0 -15455763.987960815 -17660761.98928833 0 0 0 0 14351353.652111053 -23717702.014223099 0 -23717702.014223099 -24592830.055206299 0 0 0 0 13258509.3021698 -47356470.5050354 0 -47356470.5050354 -69472858.557693481 0 0 0 0 -20587697.185333252 -12194261.79864502 0 -12194261.79864502 -45368456.094161987 0 0 0 0 -959068.97043609619 -32318831.566472054 0 -32318831.566472054 -25093726.309997559 0 0 0 0 -3847291.2744522095 -16086209.010480881 0 -16086209.010480881 -13965575.317626953 0 0 0 0 -6315030.1850891113 -10966008.035331726 0 -10966008.035331726 12134258.501403809 0 0 0 0 2346697.0529785156 -22004608.315322876 0 -22004608.315322876 -38031142.813476562 0 0 0 0 -5555145.8428955078 -60971492.016113281 0 -60971492.016113281 -41301447.115386963 0 0 0 0 -19318890.045211792 -52384350.817398071 0 -52384350.817398071 -7895470.3788452148 0 0 0 0 12057186.737957001 -3470041.815656662 0 -3470041.815656662 -7364686.4405517578 0 0 0 0 28639082.619369507 -2849310.6023406982 0 -2849310.6023406982 -17825490.519699097 0 0 0 0 17777583.08880781 -2554962.1999578252 0 -2554962.1999578252 -9711045.8517687768 0 0 0 0 12564355.967712402 -19305429.90826416 0 -19305429.90826416 -20855746.868423462 0 0 0 0 26690215.954589844 26774562.915039062 0 26774562.915039062 -8218266.4174423218 0 0 0 0 -41904449.623275757 -78784653.988250732 0 -78784653.988250732 -52804133.136871338 0 0 0 0 -23166080.469100952 -42007795.780944824 0 -42007795.780944824 -38669156.835769653 0 0 0 0 68035946.341079712 4433152.7222900391 0 4433152.7222900391 -12858331.914352417 0 0 0 0 -30836716.213214874 -59847761.35483551 0 -59847761.35483551 -73721827.03314209 0 0 0 0 1695613.3241277933 1272502.1442713812 0 1272502.1442713812 806339.89344903827 0 0 0 0 3317076.5244936198 -10365311.218146041 0 -10365311.218146041 -7852506.0642470419 0 0 0 0 6812039.3950119019 -5250998.5723953247 0 -5250998.5723953247 -3263143.7312316895 0 0 0 0 8324417.998462677 -10875742.403589249 0 -10875742.403589249 -13174100.072937012 0 0 0 0 1741294.5000576489 -6920400.9502551854 0 -6920400.9502551854 -3464044.0255329758 0 0 0 0 8645888.6279966012 -891823.21980408579 0 -891823.21980408579 -1083367.450026378 0 0 0 0 50961437.083328247 -868994.50268554688 0 -868994.50268554688 -53514967.009155273 0 0 0 0 -798130.40579223633 -8114531.8994140625 0 -8114531.8994140625 -24370800.459411621 0 0 0 0 -18539659.195281982 -27552399.01348877 0 -27552399.01348877 -16266927.824890137 0 0 0 0 6910784.9365359098 -1413595.7865660116 0 -1413595.7865660116 -463538.89226029813 0 0 0 0 -3536211.7432861328 -35891483.243225098 0 -35891483.243225098 -65158356.795501709 0 0 0 0 30124703.7161026 -49332688.536315918 0 -49332688.536315918 -109260616.41278076 0 0 0 0 3118769.7640533447 -65027708.114227295 0 -65027708.114227295 -105649681.01074219 0 0 0 0 -18199757.883117676 -53674714.998352051 0 -53674714.998352051 -72423174.198242188 0 0 0 0 -12113498.135192871 -59531189.398040771 0 -59531189.398040771 -80732285.348693848 0 0 0 0 -14970208.169910431 -53349974.280937195 0 -53349974.280937195 -84085889.899597168 0 0 0 0 -17755647.122161865 -63656136.645874023 0 -63656136.645874023 -80172955.905151367 0 0 0 0 -21080608.241073608 -75924502.872589111 0 -75924502.872589111 -75307399.456542969 0 0 0 0 -4227056.7591552734 -77667603.009277344 0 -77667603.009277344 -99327481.339599609 0 0 0 0 -18144213.059173584 -95350360.681243896 0 -95350360.681243896 -102753554.53419876 0 0 0 0 -12979360.04069519 -85025027.148193359 0 -85025027.148193359 -104126751.72485352 0 0 0 0 -18010291.94103241 -93470869.072731018 0 -93470869.072731018 -94200372.742736816 0 0 0 0 -1813206.4089202881 -101438470.16508484 0 -101438470.16508484 -125835113.05627441 0 0 0 0 -4384759.5213851929 -114972682.33364868 0 -114972682.33364868 -144935812.3934021 0 0 0 0 15959031.515800476 -94556560.855266571 0 -94556560.855266571 -127168233.50799561 0 0 0 0 -230159892.16825104 -98698141.483261108 0 -98698141.483261108 -75639261.039154053 0 0 0 0 -59957228.933132172 -79064355.555099487 0 -79064355.555099487 -76311211.443695068 0 0 0 0 -67728539.525123596 -85307467.561004639 0 -85307467.561004639 -77060244.439880371 0 0 0 0 -52702882.799057007 -85204610.533416748 0 -85204610.533416748 -83951834.4112854 0 0 0 0 -60415272.538856506 -118622090.90489197 0 -118622090.90489197 -105419109.8755188 0 0 0 0 -39275229.354690552 -91631467.615356445 0 -91631467.615356445 -88532954.691375732 0 0 0 0 -37311664.799235344 -69207301.4661026 0 -69207301.4661026 -69609960.863037109 0 0 0 0 -86404326.349300385 -58633879.01966095 0 -58633879.01966095 -49975708.176208496 0 0 0 0 9800600.85845346 10947504.371686906 0 10947504.371686906 -6595515.0978023857 0 0 0 0 56981236.794801712 7517069.1257667542 0 7517069.1257667542 -27932481.779663086 0 0 0 0 18032338.053280465 -15248616.770266458 0 -15248616.770266458 -19076945.679816991 0 0 0 0 -50479374.963507652 -75962217.927434921 0 -75962217.927434921 -80618042.351989746 0 0 0 0 2341173.6573095312 4903280.5636888705 0 4903280.5636888705 -1903577.9660731852 0 0 0 0 39632179.476043701 45340037.848236084 0 45340037.848236084 -6501854.9534776211 0 0 0 0 48605986.36933136 36741737.16493988 0 36741737.16493988 -80726766.339172363 0 0 0 0 22738558.43157959 4138030.1047363281 0 4138030.1047363281 -6331417.1058472395 0 0 0 0 29513696.421238899 -24806238.510684967 0 -24806238.510684967 -55596522.239440918 0 0 0 0 -4798980.9628677368 -16047935.187950134 0 -16047935.187950134 26486910.076278687 0 0 0 0 1896562.8357543945 1120619.3187618256 0 1120619.3187618256 82950022.117378235 0 0 0 0 -13858722.797830097 -42564748.412948444 0 -42564748.412948444 -21201591.986809786 0 0 0 0 -10521493.464691162 -1593038.3982219696 0 -1593038.3982219696 155379210.2969017 0 0 0 0 -13779996.290654257 -5998880.6577790976 0 -5998880.6577790976 30849770.412354041 0 0 0 0 -34545916.360539027 -27550595.661505923 0 -27550595.661505923 51584367.951888315 0 0 0 0 338297583.67469549 26450836.378121018 0 26450836.378121018 -844979814.94287109 0 0 0 0 340428814.92758942 -229702955.2598114 0 -229702955.2598114 -97012353.428344727 0 0 0 0 -9722961.1324848831 -47507733.900637001 0 -47507733.900637001 -13408703.367139079 0 0 0 0 6088865.0668487549 -38820951.162021637 0 -38820951.162021637 24422371.656448364 0 0 0 0 -420412083.27217484 -328126054.3755722 0 -328126054.3755722 -133992073.00579834 0 0 0 0 -8302790.4349594116 85423101.087188721 0 85423101.087188721 -30841444.111419678 0 0 0 0 173137099.17816162 362985999.42068481 0 362985999.42068481 -1370891362.3164062 0 0 0 0 17042546.599403381 -49323915.386802673 0 -49323915.386802673 24157429.764570236 0 0 0 0 22666730.887405396 -42731730.589271545 0 -42731730.589271545 -13027879.185760498 0 0 0 0 608556.58761823177 -7589806.2636498548 0 -7589806.2636498548 7040705.7676569372 0 0 0 0 -15674827.15027019 -40411948.704691306 0 -40411948.704691306 -11084342.226819204 0 0 0 0 -700335009.72677612 -1163879055.9295959 0 -1163879055.9295959 1665795737.9890137 0 0 0 0 -4812674.5184173584 -14506412.296096802 0 -14506412.296096802 38093786.143981934 0 0 0 0 -16494867.153020173 -47101421.305852175 0 -47101421.305852175 -2705914.2480297778 0 0 0 0 5612002.9222968966 -27347074.264122434 0 -27347074.264122434 -22350912.019250069 0 0 0 0 -180627268.22003174 -24192051.81590271 0 -24192051.81590271 192044809.42378235 0 0 0 0 41419442.967651367 -7345471.0128479004 0 -7345471.0128479004 119906404.81211948 0 0 0 0 -11724992.687677905 -50411983.375997737 0 -50411983.375997737 -11741372.124668382 0 0 0 0 182370.48978069425 -2224130.0337473415 0 -2224130.0337473415 2201217.0022814469 0 0 0 0 21448133.312057495 -38637272.948867798 0 -38637272.948867798 -85425489.367645264 0 0 0 0 10476415.368835449 -41425458.977119446 0 -41425458.977119446 -3118922.9734191895 0 0 0 0 2825383.0835266113 -24549638.146621704 0 -24549638.146621704 -24935710.875297546 0 0 0 0 -13463125.788967133 -182074287.64608002 0 -182074287.64608002 -222223533.87518311 0 0 0 0 -149124617.64287186 111610099.61680603 0 111610099.61680603 135568418.91305542 0 0 0 0 87324431.738792419 -67989570.490917206 0 -67989570.490917206 -18647627.23853302 0 0 0 0 -3013614.3542098999 -65888632.458908081 0 -65888632.458908081 -64967745.306060791 0 0 0 0 52670027.881065369 -63854129.490219116 0 -63854129.490219116 -129202748.3713913 0 0 0 0 -14700461.792911835 -44369727.169625059 0 -44369727.169625059 5209083.9024118446 0 0 0 0 16071603.460922241 -62134037.073471069 0 -62134037.073471069 -33555115.393814087 0 0 0 0 12965861.568281174 -68180696.386760712 0 -68180696.386760712 -7508228.1625213623 0 0 0 0 3312239.030664444 -50301274.745928288 0 -50301274.745928288 -3992664.7452697754 0 0 0 0 1688714.0849914551 -41429449.992164612 0 -41429449.992164612 -16633962.963439941 0 0 0 0 2587907.9571075439 -54878968.462388039 0 -54878968.462388039 -2136734.3743286133 0 0 0 0 2832871.8530876637 -23944643.62825349 0 -23944643.62825349 -12670772.44549102 0 0 0 0 2309777.6437683105 -52454151.226730347 0 -52454151.226730347 9230261.6426849365 0 0 0 0 5535869.685508728 -49334055.264808655 0 -49334055.264808655 3476233.3103637695 0 0 0 0 -6020761.6673920304 -34185391.36281237 0 -34185391.36281237 -25501467.366141904 0 0 0 0 785498757.52319336 -405390682.48820877 0 -405390682.48820877 -12977086.105201721 0 0 0 0 676534440.60760498 -169837806.14815521 0 -169837806.14815521 315318374.70414734 0 0 0 0 298726890.86044312 -347026557.37593842 0 -347026557.37593842 287702135.5204258 0 0 0 0 2214191.0394009873 -4320767.9089786038 0 -4320767.9089786038 -3821182.3393880334 0 0 0 0 9206007.8084907532 -60753892.856272697 0 -60753892.856272697 8346354.5735168457 0 0 0 0 7066208.2080535889 -40730234.984825134 0 -40730234.984825134 6858062.8571166992 0 0 0 0 5207343.6106719971 -52725874.860641479 0 -52725874.860641479 -17560362.761425018 0 0 0 0 -525028774.10745239 -637138775.72240829 0 -637138775.72240829 584396500.52979279 0 0 0 0 -664517149.02210236 -476634291.99008942 0 -476634291.99008942 -32422207.760421753 0 0 0 0 -805709186.98828125 199567798.86579514 0 199567798.86579514 68942839.042877197 0 0 0 0 916251535.95404053 180428097.94923782 0 180428097.94923782 -706132274.20027161 0 0 0 0 917959672.29672241 -253716756.1556778 0 -253716756.1556778 -424464355.45437622 0 0 0 0 345308807.07116699 928256004.12511444 0 928256004.12511444 -956181585.37135315 0 0 0 0 -27543988.839324951 13177178.953712463 0 13177178.953712463 32330552.99420166 0 0 0 0 2012849.6640319824 -224956580.30331039 0 -224956580.30331039 196218592.93095398 0 0 0 0 222666276.82543945 -134009170.64322281 0 -134009170.64322281 37498942.154190063 0 0 0 0 215092673.69406128 -232057663.62200165 0 -232057663.62200165 203729424.42709351 0 0 0 0 455811543.49694824 -353519261.51203918 0 -353519261.51203918 251908931.53712463 0 0 0 0 151240177.39224243 -166043799.92739487 0 -166043799.92739487 98918464.610946655 0 0 0 0 189424945.88275146 -60294088.632766724 0 -60294088.632766724 359490352.64408302 0 0 0 0 -106195698.11248779 -215473226.50764465 0 -215473226.50764465 121616517.6944809 0 0 0 0 -31826557.068878174 -76753736.033847809 0 -76753736.033847809 222468263.62910652 0 0 0 0 -207001522.27590561 -285479981.48347092 0 -285479981.48347092 77837832.412734985 0 0 0 0 -241778368.059021 -127691214.43612671 0 -127691214.43612671 191324865.98733521 0 0 0 0 -33637876.758350372 -76305418.977403164 0 -76305418.977403164 66409012.348861694 0 0 0 0 -231187303.48388672 -264399703.0242691 0 -264399703.0242691 63745976.984184265 0 0 0 0 -252440315.84207153 -372499727.26217651 0 -372499727.26217651 -49957367.97492981 0 0 0 0 -261798559.97610474 -276956060.59334564 0 -276956060.59334564 144817062.95700073 0 0 0 0 -168721469.22090149 -272288387.53393936 0 -272288387.53393936 28720402.716148376 0 0 0 0 -198388466.28192139 -241913693.8936615 0 -241913693.8936615 103358577.44135284 0 0 0 0 -145036975.24659729 -194853882.15193558 0 -194853882.15193558 137288965.11413574 0 0 0 0 -220981757.34460449 -200050398.83294678 0 -200050398.83294678 64761977.081369579 0 0 0 0 -127064288.6738739 -215525837.66081429 0 -215525837.66081429 64888209.757286072 0 0 0 0 -102719433.93228149 -170125926.91522789 0 -170125926.91522789 -41163081.599773407 0 0 0 0 31346770.600317001 -58527217.418210745 0 -58527217.418210745 48639097.892555237 0 0 0 0 -31820212.038009644 -93064274.757724762 0 -93064274.757724762 142183702.53742599 0 0 0 0 53642892.42048645 -194329865.09775543 0 -194329865.09775543 -163934345.52761555 0 0 0 0 -83385264.617355347 -349323589.24309158 0 -349323589.24309158 -270680360.92305183 0 0 0 0 -3189164.1923499852 -2416057.7034452315 0 -2416057.7034452315 8316470.8391637038 0 0 0 0 84537093.265804291 -117693828.57065582 0 -117693828.57065582 -109902407.72199059 0 0 0 0 -74151647.261624575 -151399623.57686996 0 -151399623.57686996 -72222986.976531982 0 0 0 0 675620.90087626781 -51939994.253575787 0 -51939994.253575787 12659565.098918267 0 0 0 0 29799199.825330734 -101993129.7169342 0 -101993129.7169342 -62934648.671604156 0 0 0 0 4958008.9800025187 -45173371.756030887 0 -45173371.756030887 5028648.7234885991 0 0 0 0 -20009297.899083965 -45464432.415970117 0 -45464432.415970117 18706720.599376995 0 0 0 0 -41068094.298103333 -95464027.100006104 0 -95464027.100006104 -26409772.207839966 0 0 0 0 -31218377.598800659 -46850233.240074158 0 -46850233.240074158 -37289484.264039993 0 0 0 0 -7160496.4892616272 -78549101.611831665 0 -78549101.611831665 -94316151.387013435 0 0 0 0 -38635058.834934235 -44336343.187736511 0 -44336343.187736511 183180.00439453125 0 0 0 0 -24010246.617996216 -64317922.168579102 0 -64317922.168579102 5425010.4822845459 0 0 0 0 -5823040.7585144043 -51505540.745010376 0 -51505540.745010376 -7225503.1815567017 0 0 0 0 -28954306.525009155 -31572934.070297241 0 -31572934.070297241 -14431605.839630127 0 0 0 0 -30282097.404464722 -52186847.886154175 0 -52186847.886154175 -6900089.9944629669 0 0 0 0 -28234601.375766754 -46313326.049346924 0 -46313326.049346924 7559177.1641921997 0 0 0 0 -873555.3832868319 -29089626.354767598 0 -29089626.354767598 18333390.062556535 0 0 0 0 -4256767.5607261658 -35113027.257961273 0 -35113027.257961273 12750514.56918335 0 0 0 0 -12003583.989021301 -53186824.844436646 0 -53186824.844436646 7184460.1795272827 0 0 0 0 -10603474.630592346 -59476166.812210083 0 -59476166.812210083 -9382864.7725830078 0 0 0 0 9008389.8580322266 -40643122.960365295 0 -40643122.960365295 13023052.515594482 0 0 0 0 -5961646.479801178 -42071946.604354858 0 -42071946.604354858 31091605.405059814 0 0 0 0 -4152261.9416929316 -28910815.842988424 0 -28910815.842988424 23891934.525055446 0 0 0 0 -702709143.73040318 -100783368.20310593 0 -100783368.20310593 412299884.48142624 0 0 0 0 1619905.467414856 -41402805.939430237 0 -41402805.939430237 16080991.920650482 0 0 0 0 -167048127.95383883 -77567560.503356934 0 -77567560.503356934 -126206066.13488007 0 0 0 0 70420336.733560085 -564608377.96423531 0 -564608377.96423531 657793433.16955566 0 0 0 0 -438806238.49372017 -363514554.39072227 0 -363514554.39072227 112180821.05144501 0 0 0 0 42956006.024962425 -85979046.269802094 0 -85979046.269802094 -32355085.214401245 0 0 0 0 646687156.46197081 12985335.781766891 0 12985335.781766891 -94901380.069328308 0 0 0 0 405103.49806593731 -3936753.0271333996 0 -3936753.0271333996 -938104.67547433451 0 0 0 0 -252937737.02619743 323535252.1358242 0 323535252.1358242 859828272.14373016 0 0 0 0 -335013434.68200302 -86807072.683383942 0 -86807072.683383942 327496838.38508224 0 0 0 0 -170996487.64503479 -125258520.23790741 0 -125258520.23790741 376276508.61965752 0 0 0 0 -25252709.933185577 -348434936.92434692 0 -348434936.92434692 313229579.3115921 0 0 0 0 -332694305.18210506 -295748356.55238581 0 -295748356.55238581 389563640.96843719 0 0 0 0 44596046.284816742 -292461240.9889946 0 -292461240.9889946 143418655.53421116 0 0 0 0 -88332299.704933167 -242805603.31235123 0 -242805603.31235123 133049665.41078186 0 0 0 0 -301525787.76210845 -138971177.302068 0 -138971177.302068 194290697.59883881 0 0 0 0 1050781.4997096877 -13329852.08444941 0 -13329852.08444941 -4942434.3072101176 0 0 0 0 106603492.54130745 -49367098.858325958 0 -49367098.858325958 -78174080.29384613 0 0 0 0 -241267339.57966805 -176033385.39809799 0 -176033385.39809799 197710966.2021153 0 0 0 0 -210152783.30308723 -119035539.10331154 0 -119035539.10331154 15656929.183135986 0 0 0 0 -12910219.224144936 -160552518.91850281 0 -160552518.91850281 -116902284.88815689 0 0 0 0 -86221436.596567154 -195820133.51054764 0 -195820133.51054764 -105141065.09694862 0 0 0 0 11003849.092050275 -31651445.847141739 0 -31651445.847141739 -25699312.467453308 0 0 0 0 6764445.0621433258 -64892509.810293198 0 -64892509.810293198 -107919516.1678009 0 0 0 0 -13872203.07756424 -61809862.979637146 0 -61809862.979637146 -73717853.505284309 0 0 0 0 -23580673.767724991 -84766476.922080994 0 -84766476.922080994 -119514259.42914963 0 0 0 0 64570790.234769344 -59399200.683326721 0 -59399200.683326721 -112273981.08421326 0 0 0 0 18540811.823199272 -120668208.19000244 0 -120668208.19000244 -115259765.75593567 0 0 0 0 -21361591.14711237 -102574646.71854782 0 -102574646.71854782 -122785076.39244843 0 0 0 0 109106203.57316828 -85308462.248792648 0 -85308462.248792648 -101517517.59383392 0 0 0 0 -5480821.7528324127 -185737463.07131386 0 -185737463.07131386 -54354855.572914124 0 0 0 0 73321031.392097473 -153819496.50349426 0 -153819496.50349426 -46364377.217803955 0 0 0 0 110318476.78986359 -107158081.00955963 0 -107158081.00955963 -74779097.623535156 0 0 0 0 -7357978.1880931854 -60148719.110069275 0 -60148719.110069275 -66472613.904315948 0 0 0 0 23568056.47205925 -41640518.884292603 0 -41640518.884292603 -60992909.179153442 0 0 0 0 86259698.305487633 5186176.9595451355 0 5186176.9595451355 -40622490.347351074 0 0 0 0 -60181307.042495728 29800032.593673706 0 29800032.593673706 51687461.292053223 0 0 0 0 -38795597.068280697 -22907812.323770523 0 -22907812.323770523 5203727.3721084595 0 0 0 0 72916739.36939621 -3715260.9193725586 0 -3715260.9193725586 -36147630.551315308 0 0 0 0 78177040.909042358 127477024.10515594 0 127477024.10515594 34437333.174255371 0 0 0 0 250962016.4750309 72970461.789741516 0 72970461.789741516 -49101803.877334595 0 0 0 0 267156886.50013357 -100633773.59377384 0 -100633773.59377384 -22103664.767105103 0 0 0 0 520779084.31545067 107022611.97562408 0 107022611.97562408 34362224.108475566 0 0 0 0 198262206.58638573 -259492099.53032303 0 -259492099.53032303 41922135.786506653 0 0 0 0 246233772.58221626 -65646512.604923248 0 -65646512.604923248 -68787185.619468689 0 0 0 0 690647695.1232729 -118169722.67260742 0 -118169722.67260742 -34865670.406844139 0 0 0 0 42103139.155755997 -243416277.84146118 0 -243416277.84146118 103647387.57118607 0 0 0 0 -53806438.357694626 -374092408.08633423 0 -374092408.08633423 699563396.75350952 0 0 0 0 533935736.84041166 -559079329.7245369 0 -559079329.7245369 287131366.83391571 0 0 0 0 592919639.74519825 -503997238.70966721 0 -503997238.70966721 360845413.34985352 0 0 0 0 366325316.15718269 -104964029.58399963 0 -104964029.58399963 482891703.01934814 0 0 0 0 583867067.58001232 -503940391.07440948 0 -503940391.07440948 374250708.4548111 0 0 0 0 -279792377.05052698 -132355995.60801315 0 -132355995.60801315 132240702.85507202 0 0 0 0 -864442.10237397975 -636079.90371438302 0 -636079.90371438302 949195.25382949412 0 0 0 0 -567872.88673702814 -942945.10423126817 0 -942945.10423126817 443846.93737024441 0 0 0 0 -418272431.75599957 -474231353.51940155 0 -474231353.51940155 498031073.76560211 0 0 0 0 -996073626.78907156 -112083328.55238724 0 -112083328.55238724 -243089621.6841507 0 0 0 0 -968327865.43267226 -389126241.27120972 0 -389126241.27120972 182590020.69387054 0 0 0 0 -529337632.43683815 -266117242.27238464 0 -266117242.27238464 155890268.08162689 0 0 0 0 -328328222.26459587 -353201114.60060787 0 -353201114.60060787 -203694641.8540802 0 0 0 0 -1080871230.1707582 -367886402.58348465 0 -367886402.58348465 82402841.35276413 0 0 0 0 -1613188812.0130839 294622278.4224205 0 294622278.4224205 -203560322.58811092 0 0 0 0 403246.47442727722 600667.42694670521 0 600667.42694670521 -1621138.7536225282 0 0 0 0 2135206815.4141955 -1006913210.8519955 0 -1006913210.8519955 -253618606.0365448 0 0 0 0 -3192577290.2829113 -84498514.682723999 0 -84498514.682723999 345259409.2419548 0 0 0 0 -15014188.890118599 -22696271.468997955 0 -22696271.468997955 -29138641.626789093 0 0 0 0 -686090.35221258574 -3408272.4655970177 0 -3408272.4655970177 1014364.6238857619 0 0 0 0 -708310143.19365406 18425474.658721924 0 18425474.658721924 -401195763.00318909 0 0 0 0 -2082793.195497415 -2916657.4886821304 0 -2916657.4886821304 1126647.0416904464 0 0 0 0 -34246359.896609783 -32018374.126189232 0 -32018374.126189232 -2250086.92527771 0 0 0 0 -1090607007.6892977 -457818430.62914658 0 -457818430.62914658 -34854165.376998901 0 0 0 0 314159704.47295761 78825019.558368683 0 78825019.558368683 250932483.36615753 0 0 0 0 59263709.487304688 -283687380.94035339 0 -283687380.94035339 83249229.703332901 0 0 0 0 -24094261.050135612 84764974.626774788 0 84764974.626774788 178219137.52465057 0 0 0 0 1048037823.9311409 -393622663.80693054 0 -393622663.80693054 302941036.72554612 0 0 0 0 674417430.57297134 60161377.714805603 0 60161377.714805603 295233761.77493823 0 0 0 0 1598192205.8040562 -108594929.29351807 0 -108594929.29351807 -36754675.79642868 0 0 0 0 484906620.20187378 -179306311.10226631 0 -179306311.10226631 89179448.078178406 0 0 0 0 109332112.88968658 38215017.998596191 0 38215017.998596191 156111590.29167843 0 0 0 0 96550670.451267242 -123829211.20024109 0 -123829211.20024109 -102492802.01477432 0 0 0 0 340535061.32482815 -265305103.55529213 0 -265305103.55529213 69167555.60118866 0 0 0 0 480127365.30786705 -72604849.134702682 0 -72604849.134702682 -97355200.169593811 0 0 0 0 706804150.68824196 -316899955.88891792 0 -316899955.88891792 -238635586.9948349 0 0 0 0 175282257.22795224 -490437732.03645837 0 -490437732.03645837 -295285000.24863434 0 0 0 0 -568966551.28686905 -176505428.5265274 0 -176505428.5265274 -334248991.57977295 0 0 0 0 133122483.29395127 -41762530.63621068 0 -41762530.63621068 -259851538.72068787 0 0 0 0 68296355.211410999 -153928938.25975084 0 -153928938.25975084 -331461277.85384369 0 0 0 0 122905293.04528046 -191757823.46321869 0 -191757823.46321869 -437536397.25340652 0 0 0 0 67634586.078704834 -79310688.581260681 0 -79310688.581260681 -221914489.28062153 0 0 0 0 168914460.28991318 -39998081.824768066 0 -39998081.824768066 -240319981.23526001 0 0 0 0 4386387.6623637732 928441.18432767689 0 928441.18432767689 -708497.77620824426 0 0 0 0 -20671193.858729362 -28257255.158657074 0 -28257255.158657074 -40233245.163166046 0 0 0 0 8387267.8756604195 -6353312.6881685257 0 -6353312.6881685257 -25900437.664413452 0 0 0 0 -1448160987.5591931 -1275303336.5385923 0 -1275303336.5385923 -323379065.11206818 0 0 0 0 -495548954.88841438 -704200384.96194839 0 -704200384.96194839 -192270099.33819199 0 0 0 0 -1028438375.3466415 -298948588.59494781 0 -298948588.59494781 -459356906.71385384 0 0 0 0 78204180.600845337 -1200998947.6886444 0 -1200998947.6886444 -6370166.3181381226 0 0 0 0 -5844837.0157445166 -16317251.614128944 0 -16317251.614128944 -1318070.1205687746 0 0 0 0 41924685.691243172 9028493.5501403809 0 9028493.5501403809 22331240.685501099 0 0 0 0 50315021.445007324 57742578.518333435 0 57742578.518333435 -25234499.149909973 0 0 0 0 -115844562.52934837 -120559412.12190247 0 -120559412.12190247 -134065206.91249084 0 0 0 0 -27298590.997415066 -40864573.035867691 0 -40864573.035867691 -63706461.687095642 0 0 0 0 -625483.18688821793 -64832804.226701736 0 -64832804.226701736 -153545396.35800934 0 0 0 0 -65075545.249947548 -58676556.726097107 0 -58676556.726097107 -58660131.017887115 0 0 0 0 -20485036.059252739 -79246727.071388245 0 -79246727.071388245 -162412211.11589813 0 0 0 0 -16043441.392989649 -51374525.888856143 0 -51374525.888856143 20649751.959341958 0 0 0 0 -31532324.857741356 -75276965.104293823 0 -75276965.104293823 -155408016.11410141 0 0 0 0 -109636181.92514575 -173050184.13549757 0 -173050184.13549757 -164673953.63038635 0 0 0 0 1219466.5888746167 331393.72515616752 0 331393.72515616752 -151917.48426644877 0 0 0 0 -10576645.202365875 -147055656.30732727 0 -147055656.30732727 -241868226.18784332 0 0 0 0 -16460978.575687408 -79694910.380279541 0 -79694910.380279541 -248368604.50769043 0 0 0 0 -47705732.191583633 -84850130.382324219 0 -84850130.382324219 -189478167.68327332 0 0 0 0 -23286891.431285858 -94728502.106674194 0 -94728502.106674194 -211974924.68266296 0 0 0 0 -40957105.775831223 -133744968.79126358 0 -133744968.79126358 -284951527.83332443 0 0 0 0 -108322286.76970673 -269474838.47383976 0 -269474838.47383976 -323403924.51156998 0 0 0 0 7479040.3472043425 -33209812.889631465 0 -33209812.889631465 -27751961.03866256 0 0 0 0 -21884580.682514191 -398842732.63824368 0 -398842732.63824368 -457829728.06412745 0 0 0 0 -46957528.501685619 -56789524.683109283 0 -56789524.683109283 -123872821.60100937 0 0 0 0 51868391.714376286 -48309775.901608586 0 -48309775.901608586 -153592153.67498016 0 0 0 0 -23034474.483420469 -52640761.108721174 0 -52640761.108721174 24728889.364220411 0 0 0 0 -59001945.433830261 -99323241.337692261 0 -99323241.337692261 -232504098.45750427 0 0 0 0 -33394156.003730774 -75914101.107192993 0 -75914101.107192993 -211611305.20414734 0 0 0 0 -10989628.844866913 -64444836.085464239 0 -64444836.085464239 17031430.506576397 0 0 0 0 8668977.5145928748 -13690314.600521673 0 -13690314.600521673 -27512225.952493265 0 0 0 0 1264103156.3344078 131047673.17575073 0 131047673.17575073 -1454737597.2951965 0 0 0 0 25207614.603088379 -379659021.28790283 0 -379659021.28790283 -458217484.32348633 0 0 0 0 -106873255.93305779 -233598901.23429108 0 -233598901.23429108 -314188510.23965454 0 0 0 0 72051285.541755676 -154594046.69619751 0 -154594046.69619751 -234045876.42681885 0 0 0 0 220538570.54154205 -251708524.93658447 0 -251708524.93658447 -401904600.34777832 0 0 0 0 409678808.52267456 -225215417.93536377 0 -225215417.93536377 -552149042.64987183 0 0 0 0 98386137.212467194 -112175753.50839233 0 -112175753.50839233 -251100130.10626221 0 0 0 0 2436891.0609893799 -108748377.21179199 0 -108748377.21179199 -256010750.86782837 0 0 0 0 8350175.9226303101 -114440757.34954071 0 -114440757.34954071 -140667463.26519775 0 0 0 0 63023593.633708954 -144342486.15805054 0 -144342486.15805054 -184360097.68081665 0 0 0 0 84053214.455131531 -114796048.71536255 0 -114796048.71536255 -145891286.07281494 0 0 0 0 33452742.85212326 -68650910.91343689 0 -68650910.91343689 -204467425.04019165 0 0 0 0 95761920.073127747 -101143692.38795471 0 -101143692.38795471 -150343078.84490967 0 0 0 0 70045691.190505981 -141534452.5969696 0 -141534452.5969696 -213705991.13224792 0 0 0 0 145671090.08069611 -134371942.63665771 0 -134371942.63665771 -159543817.37451172 0 0 0 0 86825043.806661129 -149446040.48564625 0 -149446040.48564625 -90435081.804077148 0 0 0 0 186750164.94869518 -101778639.87411118 0 -101778639.87411118 -93168377.615905762 0 0 0 0 152094528.90420532 -110637440.68951416 0 -110637440.68951416 -94119815.558074951 0 0 0 0 240127788.66302013 -107005828.39615631 0 -107005828.39615631 -168957917.15618896 0 0 0 0 241926455.36167145 -76826752.860839844 0 -76826752.860839844 -158791151.11242676 0 0 0 0 188928654.00248718 -153972525.60006714 0 -153972525.60006714 -235020269.44931793 0 0 0 0 -34525362.607923508 -190926983.38078308 0 -190926983.38078308 -327231580.99813843 0 0 0 0 -3858406.686170578 -53512590.865646362 0 -53512590.865646362 -305363983.25753784 0 0 0 0 -3540594.6718120575 -85611799.512239456 0 -85611799.512239456 -257892793.12643433 0 0 0 0 -82635803.548858643 -87216036.38319397 0 -87216036.38319397 -207865867.04649353 0 0 0 0 15878618.80568409 -109535779.68159103 0 -109535779.68159103 -251763282.5072937 0 0 0 0 -59619360.132835388 -164475720.01219749 0 -164475720.01219749 -222155791.24328613 0 0 0 0 -236267070.28034782 -169158480.81369781 0 -169158480.81369781 -211684726.5279541 0 0 0 0 842570.6242136322 2199370.9239415303 0 2199370.9239415303 -1291892.6866726428 0 0 0 0 -186213556.13646889 -290335027.65887451 0 -290335027.65887451 -206528770.00054932 0 0 0 0 -25603672.358651638 -200406750.13525391 0 -200406750.13525391 -484053700.87069702 0 0 0 0 -177027654.68582916 -78190798.972564697 0 -78190798.972564697 -374314228.95681763 0 0 0 0 -152286137.49493098 -251319831.00317383 0 -251319831.00317383 -404060441.20758057 0 0 0 0 -29583506.894895077 -135234691.99897385 0 -135234691.99897385 -352611905.21850586 0 0 0 0 -100804700.63400078 -344709964.95820618 0 -344709964.95820618 -490469683.67726898 0 0 0 0 131960823.83764076 -171562397.22750854 0 -171562397.22750854 -463868728.73703003 0 0 0 0 128571071.43803589 10000025.16993165 0 10000025.16993165 -342514369.8364563 0 0 0 0 338217873.48848701 -10832949.862232208 0 -10832949.862232208 -343299907.53613281 0 0 0 0 143113129.44007277 105273253.98259735 0 105273253.98259735 -108370897.30880737 0 0 0 0 27893211.110651493 19055716.707885742 0 19055716.707885742 -204939766.37326813 0 0 0 0 28767413.20644474 -41838102.033203125 0 -41838102.033203125 -228914823.13421631 0 0 0 0 -76670887.174229622 -126655466.41227722 0 -126655466.41227722 -253832034.02355957 0 0 0 0 -69887937.478303745 -43180502.640023232 0 -43180502.640023232 -244267246.05410767 0 0 0 0 16065810.827620029 -75506893.288375854 0 -75506893.288375854 -233998595.05778503 0 0 0 0 22271293.639825821 -130301092.69287109 0 -130301092.69287109 -382284464.08390808 0 0 0 0 -32933474.835583925 -127196892.65490723 0 -127196892.65490723 -156457405.53665161 0 0 0 0 -31261524.47782135 -117572092.81109619 0 -117572092.81109619 -193778779.6362915 0 0 0 0 -31892792.547704697 -70458088.702194214 0 -70458088.702194214 -208730172.54325867 0 0 0 0 -10919800.965601871 -47085267.484509863 0 -47085267.484509863 17932114.830590159 0 0 0 0 -37474993.83598876 -77374174.473537445 0 -77374174.473537445 -80622390.826538086 0 0 0 0 9815198.9478244781 -107884965.58707428 0 -107884965.58707428 -138737660.55654526 0 0 0 0 32284888.565928459 -76215488.471038818 0 -76215488.471038818 -165768588.38921356 0 0 0 0 -10147240.41380652 -53141480.566024616 0 -53141480.566024616 19802953.379256807 0 0 0 0 9552779.8284974378 -23072952.376660623 0 -23072952.376660623 -35450551.139272392 0 0 0 0 -28033045.811941147 -108318656.75654602 0 -108318656.75654602 -175736476.01220703 0 0 0 0 4897089.9903354645 -33688893.965774536 0 -33688893.965774536 -92775039.735595703 0 0 0 0 107382366.99495888 64309827.814926147 0 64309827.814926147 -140213656.97723389 0 0 0 0 88873557.637264252 -6731634.794631958 0 -6731634.794631958 -223659233.43826294 0 0 0 0 -91901978.895962715 -158186495.73834229 0 -158186495.73834229 -216318491.54632568 0 0 0 0 -466992.89462696668 -5598331.2650464401 0 -5598331.2650464401 -7396029.8343554735 0 0 0 0 -24697732.049310684 -97955718.921899796 0 -97955718.921899796 -171284185.88577271 0 0 0 0 -3650630570.3547516 -3704290626.6983795 0 -3704290626.6983795 -2785274024.0291443 0 0 0 0 -4112977160.2858887 -212217281.96498108 0 -212217281.96498108 -774258990.05523682 0 0 0 0 1708885.3206023425 -3209253.1494560689 0 -3209253.1494560689 -2997907.6897328943 0 0 0 0 -2294201240.0309753 -1446018099.6894989 0 -1446018099.6894989 -241834906.39883423 0 0 0 0 -2593994886.0558472 -1747589808.2509766 0 -1747589808.2509766 -1492198337.4657478 0 0 0 0 -1438949.499710083 -1502747575.3821945 0 -1502747575.3821945 -2199320454.4940186 0 0 0 0 -1161138395.786377 -2715151031.1606827 0 -2715151031.1606827 -3460774628.5055542 0 0 0 0 -941224745.28967285 -889523547.37948608 0 -889523547.37948608 -1279146519.1199951 0 0 0 0 3294490.3288083524 -5885113.3797690123 0 -5885113.3797690123 -5121652.4949701279 0 0 0 0 -937801679.91671753 -857425234.89237404 0 -857425234.89237404 -995539225.91067505 0 0 0 0 -1061758046.6850891 -999254464.39857483 0 -999254464.39857483 -1012208895.6546936 0 0 0 0 -1060768085.6458435 -978874915.02799988 0 -978874915.02799988 -740732183.52102661 0 0 0 0 -1553046122.2188339 -811054909.54257011 0 -811054909.54257011 139937917.88824463 0 0 0 0 -1591793256.7553749 -1139049847.4703331 0 -1139049847.4703331 -260691199.2895813 0 0 0 0 -853822704.84411621 -625704012.06555176 0 -625704012.06555176 -140594275.2104187 0 0 0 0 -1406599039.2890015 -659417250.33154297 0 -659417250.33154297 220135549.33135986 0 0 0 0 -1154517712.319458 -904744916.40328979 0 -904744916.40328979 -357043935.16381836 0 0 0 0 -262051996.47433472 -522389410.14323425 0 -522389410.14323425 -304503161.41064453 0 0 0 0 -896126388.63562012 -419376350.3760376 0 -419376350.3760376 -24736969.932128906 0 0 0 0 1337012.9895324707 -322907717.81118011 0 -322907717.81118011 -283812523.06277466 0 0 0 0 -123520387.30383301 -308228220.58886719 0 -308228220.58886719 -132356906.39424896 0 0 0 0 -101223360.93292236 -414537296.68092346 0 -414537296.68092346 -164012000.99731445 0 0 0 0 33607182.241455078 -98636020.073257446 0 -98636020.073257446 158406623.88580322 0 0 0 0 -110167750.66043091 -317163817.1076355 0 -317163817.1076355 161898449.4732666 0 0 0 0 168308147.54800415 178855895.3735199 0 178855895.3735199 468138132.19966906 0 0 0 0 -376938707.10168457 696789904.73101807 0 696789904.73101807 1438152952.1188087 0 0 0 0 -450177164.28808594 -520834192.5793457 0 -520834192.5793457 -101152266.80222321 0 0 0 0 -1402223776.1555786 -186208518.03536987 0 -186208518.03536987 1082621071.2326355 0 0 0 0 -347428309.6864624 -276327980.64199066 0 -276327980.64199066 470455319.53045654 0 0 0 0 -1815858586.7449341 -4748563683.0967407 0 -4748563683.0967407 -4492649648.795929 0 0 0 0 -2143199.419596687 -509447.99887447059 0 -509447.99887447059 -2098356.4583227783 0 0 0 0 -2756005579.072052 -3116750435.5321503 0 -3116750435.5321503 -4824659059.3200073 0 0 0 0 31119975.939361572 159337444.34040833 0 159337444.34040833 382941109.89141846 0 0 0 0 91049842.349555969 -156555072.43429565 0 -156555072.43429565 214471971.17059326 0 0 0 0 -73344938.266204834 -102903669.95991516 0 -102903669.95991516 261794532.60760498 0 0 0 0 -7617385.4072570801 -159967019.87820435 0 -159967019.87820435 311088267.59609985 0 0 0 0 -3471512735.2437286 -4326872060.0390358 0 -4326872060.0390358 -4640478981.3480225 0 0 0 0 -10812816.89945583 -737243.23852929473 0 -737243.23852929473 -2571193.8908101618 0 0 0 0 -2737148271.4821777 -3053044398.6555481 0 -3053044398.6555481 -4732457102.4594116 0 0 0 0 -2544716664.5551758 -3378563978.9670563 0 -3378563978.9670563 -3961359515.0684052 0 0 0 0 -2723169771.2549133 -2627112637.4787903 0 -2627112637.4787903 -3299200642.1018219 0 0 0 0 -3867587310.2748108 -3258817784.2338943 0 -3258817784.2338943 -3765046722.529541 0 0 0 0 -2596810732.7558594 -3579885302.0300446 0 -3579885302.0300446 -3697250336.1039734 0 0 0 0 -1448809034.2005463 -2752092107.5764694 0 -2752092107.5764694 -4046355189.4205017 0 0 0 0 -696129.00720214844 -2296873498.6445847 0 -2296873498.6445847 -3743433925.8517761 0 0 0 0 -1278275174.8242798 -3158669358.1014977 0 -3158669358.1014977 -3411920598.1937408 0 0 0 0 -1348578223.8609619 -2467807982.5229187 0 -2467807982.5229187 -3253561713.5899887 0 0 0 0 -1034240.5665740967 -3856235246.9457092 0 -3856235246.9457092 -1853440062.5642548 0 0 0 0 -1492019336.2966537 -3511391258.2140875 0 -3511391258.2140875 -2664064115.8120422 0 0 0 0 -1917376354.3358765 -1910881597.1595306 0 -1910881597.1595306 -2148232945.3684082 0 0 0 0 -2511816.364066422 -4872131.6610721499 0 -4872131.6610721499 -1364215.1980580837 0 0 0 0 -2168703040.62146 -1849957257.9997559 0 -1849957257.9997559 751818701.36242676 0 0 0 0 -2828606195.9915619 -4487827304.4625626 0 -4487827304.4625626 3583878.5417709351 0 0 0 0 -4441557.3914576555 -5140726571.3326283 0 -5140726571.3326283 -4348905507.9382019 0 0 0 0 -7305533168.9387779 -2004254863.1369591 0 -2004254863.1369591 3246457904.2506409 0 0 0 0 -4849010.760058485 -5351947.808249332 0 -5351947.808249332 -860985.12121623755 0 0 0 0 -6812294432.3566284 -4715142266.5052338 0 -4715142266.5052338 4308187421.6664581 0 0 0 0 -1281404.9462358654 -3269710.5977785438 0 -3269710.5977785438 155396.2975936532 0 0 0 0 -4399987175.0173645 -5459135946.4880219 0 -5459135946.4880219 -3477420664.443985 0 0 0 0 1535611726.1539001 -381241730.9666748 0 -381241730.9666748 -1203634391.6426697 0 0 0 0 -5416552219.7661514 -1910690192.4499264 0 -1910690192.4499264 2824833219.8345947 0 0 0 0 -3034922633.8316345 -1982909340.0061264 0 -1982909340.0061264 -1720810311.0722961 0 0 0 0 -3336127836.3008652 -2473832143.5302658 0 -2473832143.5302658 -2005495915.9080505 0 0 0 0 -55666830.166412354 -2159309591.580719 0 -2159309591.580719 -2698090698.0642548 0 0 0 0 -2517159458.7380066 -2482395473.9699707 0 -2482395473.9699707 -2575682410.454277 0 0 0 0 -3029019882.4665527 -2643891113.9098206 0 -2643891113.9098206 -2040892816.0030899 0 0 0 0 -2963449138.008606 -2302531258.2429199 0 -2302531258.2429199 -1513491535.6018524 0 0 0 0 -3359841589.1094971 -3315219210.6758728 0 -3315219210.6758728 -2949478038.1458435 0 0 0 0 -2623648822.0508118 -2287359684.9960938 0 -2287359684.9960938 -2975618392.7243652 0 0 0 0 -3511136112.2677307 -2959325200.5592804 0 -2959325200.5592804 -3437315566.1140594 0 0 0 0 -2879636193.1870728 -3357244382.7148666 0 -3357244382.7148666 -3186734817.8173523 0 0 0 0 -23516940.893394008 784933.72412891686 0 784933.72412891686 -2216490.6175445765 0 0 0 0 -2874203677.3580933 -4666270499.8243561 0 -4666270499.8243561 -3252177945.2664433 0 0 0 0 -4161122568.4051514 -4255752770.0106201 0 -4255752770.0106201 -3207155797.9488983 0 0 0 0 -18270866.414176941 92790731.967727661 0 92790731.967727661 76294736.906616211 0 0 0 0 -147509031.40673828 -53891025.172714233 0 -53891025.172714233 57387736.917338848 0 0 0 0 -3532066579.624382 -2088752858.1851311 0 -2088752858.1851311 -1991482738.5262451 0 0 0 0 -40238676.342070103 969897.2800643295 0 969897.2800643295 382143.76022316515 0 0 0 0 -114879939.00991821 3638919.7738189697 0 3638919.7738189697 55792022.113228798 0 0 0 0 -2774672662.2525482 -3100471848.8770447 0 -3100471848.8770447 -6696996099.9938354 0 0 0 0 -6315246508.258728 -4737550577.4104919 0 -4737550577.4104919 -1638978907.8317261 0 0 0 0 -4750895009.2598839 -3492083847.3126802 0 -3492083847.3126802 -1610363305.4010925 0 0 0 0 -6355443600.2068176 -3371722325.543045 0 -3371722325.543045 753911640.92718506 0 0 0 0 2762830109.8224487 -4579172824.3944855 0 -4579172824.3944855 -2999755648.2955856 0 0 0 0 -3204915.0477902219 -4193453.2425562292 0 -4193453.2425562292 -2916151.7337092757 0 0 0 0 -1523429873.8042908 -5270466008.9013824 0 -5270466008.9013824 -2977872210.7940063 0 0 0 0 -2979579547.2539062 -751261294.20721436 0 -751261294.20721436 1873631341.0798798 0 0 0 0 -6210224284.8692627 -2878250477.4249573 0 -2878250477.4249573 1403528472.7051086 0 0 0 0 -4791572898.4021301 -3041495562.5759888 0 -3041495562.5759888 185865342.43508911 0 0 0 0 -5800665648.7959747 -2349873294.1561317 0 -2349873294.1561317 -317412160.42575073 0 0 0 0 -5738174103.7847824 -2631160371.672451 0 -2631160371.672451 943552364.71188354 0 0 0 0 -5789347913.1772003 -2746961398.2060242 0 -2746961398.2060242 -1351585.0550994873 0 0 0 0 -1494146318.3307495 -516328524.04116821 0 -516328524.04116821 270201018.16741943 0 0 0 0 3388166605.5526123 -1939728445.9616089 0 -1939728445.9616089 -573142859.23904419 0 0 0 0 -806547724.2633667 -2587368520.8739471 0 -2587368520.8739471 3039694.8496609358 0 0 0 0 36667515.108566284 -442557757.78842163 0 -442557757.78842163 -1404129.2979431152 0 0 0 0 -99377697.417388916 -122790870.45376587 0 -122790870.45376587 863364515.82263184 0 0 0 0 -20062388.096148815 -4643301.6029656455 0 -4643301.6029656455 -2447296.4075751007 0 0 0 0 -9702955284.0163574 -1910129625.474884 0 -1910129625.474884 1106047260.585968 0 0 0 0 240383391.28738403 -261267815.1446228 0 -261267815.1446228 150370697.69056702 0 0 0 0 -22448253.05717919 -9410863.579087548 0 -9410863.579087548 -8210785.7965682149 0 0 0 0 -4883158629.2514343 -2635828109.7074585 0 -2635828109.7074585 -233779044.22065735 0 0 0 0 -14709241.923675537 -68578536.677200317 0 -68578536.677200317 23791868.751922607 0 0 0 0 -10894937.628561586 -11353947.646193773 0 -11353947.646193773 1322976.600846082 0 0 0 0 -64002442.85244751 -69775664.007110596 0 -69775664.007110596 36944908.229782104 0 0 0 0 -119258241.37191772 329316137.34713745 0 329316137.34713745 122015689.82115173 0 0 0 0 -3495211.7173260152 -3548954.5960541368 0 -3548954.5960541368 626303.32203517854 0 0 0 0 -140607668.10968018 -111890163.55133057 0 -111890163.55133057 -73756162.381713867 0 0 0 0 4382911.7027893066 -194349183.94107056 0 -194349183.94107056 -98511159.848266602 0 0 0 0 5407656.043762207 -84518797.797729492 0 -84518797.797729492 -116002023.84295654 0 0 0 0 109759570.04644775 -157292631.9683075 0 -157292631.9683075 -157383457.65783691 0 0 0 0 153456105.00136185 45620506.147865295 0 45620506.147865295 -13570531.929443359 0 0 0 0 -53640385.996154785 -81174800.917022705 0 -81174800.917022705 -11308268.519470215 0 0 0 0 -51748536.402037621 -108093487.87463188 0 -108093487.87463188 -22419750.917724609 0 0 0 0 -174842265.87509155 -201129911.76008606 0 -201129911.76008606 -57944239.281402588 0 0 0 0 -91698767.397766113 -11576815.618453979 0 -11576815.618453979 28387728.475524902 0 0 0 0 81067743.757873535 -32116775.190948486 0 -32116775.190948486 -63188253.136047363 0 0 0 0 -9160171.1303726509 -27577114.683319956 0 -27577114.683319956 -13783290.369977087 0 0 0 0 16207126.837432861 -84361193.166870117 0 -84361193.166870117 -73308174.839263916 0 0 0 0 -32670410.822235107 -13260934.039337158 0 -13260934.039337158 -4546227.1406860352 0 0 0 0 -75868814.189819336 -108040812.83959961 0 -108040812.83959961 -23924072.172721863 0 0 0 0 -125496910.21957397 -70057489.481521606 0 -70057489.481521606 -13741403.137237549 0 0 0 0 -90030122.02746582 -130613513.52593231 0 -130613513.52593231 -32119805.256347656 0 0 0 0 -73149635.381713867 -83848060.998687744 0 -83848060.998687744 -10121052.512420654 0 0 0 0 -71313381.533935547 -94987304.928070068 0 -94987304.928070068 16844717.652709961 0 0 0 0 29489119.03036499 -127765870.4624939 0 -127765870.4624939 -186731945.65570068 0 0 0 0 -6483436.8621305972 -6462280.1123919263 0 -6462280.1123919263 1722860.1020259857 0 0 0 0 -88494413.178314209 -172288550.31231689 0 -172288550.31231689 8002606.3128051758 0 0 0 0 -99039295.573699951 -136908504.26475525 0 -136908504.26475525 -25644144.068725586 0 0 0 0 -77114501.347015381 -153416795.27653503 0 -153416795.27653503 -104517577.29516602 0 0 0 0 -4743847.8778673708 71380.923755414784 0 71380.923755414784 5482293.649974376 0 0 0 0 -36833606.926055908 34404624.794281006 0 34404624.794281006 75508117.117858887 0 0 0 0 -49900692.108825684 -101042390.77001953 0 -101042390.77001953 -107766079.72327232 0 0 0 0 -18132953.898071289 25123411.711090088 0 25123411.711090088 41503175.255126953 0 0 0 0 -22809727.669157237 -32564166.987476394 0 -32564166.987476394 -3417211.5071946792 0 0 0 0 -167797718.39003754 -56895640.767681122 0 -56895640.767681122 26132379.249938965 0 0 0 0 -81525127.884124756 -55083849.938514709 0 -55083849.938514709 34334908.165893555 0 0 0 0 -11196008.875718411 -35422748.505593754 0 -35422748.505593754 -6036891.5681754798 0 0 0 0 -7193537.7968444824 -19961460.304244995 0 -19961460.304244995 1082206.018737793 0 0 0 0 -9788984.4359130859 -19846917.333251953 0 -19846917.333251953 4336448.0546722412 0 0 0 0 -9999037.9726257324 -18774178.578521729 0 -18774178.578521729 483753.17004394531 0 0 0 0 -8558951.4629289955 -14948298.572225183 0 -14948298.572225183 -2991104.1349572539 0 0 0 0 -11607891.097885132 -19505602.353193283 0 -19505602.353193283 1322997.3732910156 0 0 0 0 -10970194.379486084 -15117874.289215088 0 -15117874.289215088 -3346627.4748535156 0 0 0 0 -77543750.822753906 -75198355.792144775 0 -75198355.792144775 -730336.78775024414 0 0 0 0 -15200311.512268066 -17333414.827133179 0 -17333414.827133179 -5742550.6311035156 0 0 0 0 -4842024.6397705078 -82482954.024459839 0 -82482954.024459839 -32603675.804321289 0 0 0 0 202257.92719661072 -32435466.053877249 0 -32435466.053877249 -5702032.6918773949 0 0 0 0 3107918.2448883057 -25473134.783920288 0 -25473134.783920288 3949724.5748901367 0 0 0 0 -133097.33697918057 -277999.24137955904 0 -277999.24137955904 186935.41523285955 0 0 0 0 -19530837.134155273 -23474750.953796387 0 -23474750.953796387 -11367561.212158203 0 0 0 0 -77341523.693878174 -210432974.57542419 0 -210432974.57542419 -51460274.192016602 0 0 0 0 -139526008.06628418 -33578910.447784424 0 -33578910.447784424 35557952.294769287 0 0 0 0 -65789425.825500488 -130264802.44835281 0 -130264802.44835281 127059817.68792725 0 0 0 0 -5804873.9220473655 -5487444.7218365222 0 -5487444.7218365222 -492190.70114140213 0 0 0 0 -6832401.7259672619 -28347150.496436693 0 -28347150.496436693 -18658209.574049264 0 0 0 0 -4593037.2296257019 -55602980.065937042 0 -55602980.065937042 -36723767.772155762 0 0 0 0 -67948544.826061249 -77953838.253781319 0 -77953838.253781319 -40647961.555847168 0 0 0 0 -82063204.531066895 -39298495.795135498 0 -39298495.795135498 -10550655.063537598 0 0 0 0 -64160068.835819274 -23252461.084226809 0 -23252461.084226809 15862880.665356271 0 0 0 0 -81902563.337890625 -19240257.670074463 0 -19240257.670074463 15156491.267868042 0 0 0 0 -302940687.48197937 -10053157.176208496 0 -10053157.176208496 109527251.0289917 0 0 0 0 -52475741.239837646 -140098899.69296265 0 -140098899.69296265 -153334797.3021698 0 0 0 0 -32701135.178535461 -72769284.870152473 0 -72769284.870152473 70784112.529327393 0 0 0 0 -4395925.1766158342 -11845061.813190788 0 -11845061.813190788 -1381251.219111573 0 0 0 0 49898632.709289551 -35982133.721542358 0 -35982133.721542358 -2663175.0301055908 0 0 0 0 -279080598.67773438 -124729321.94625854 0 -124729321.94625854 177933662.59893799 0 0 0 0 -75153818.523864746 -197401284.92565918 0 -197401284.92565918 44589162.260452271 0 0 0 0 -294013719.87052917 -80044001.927757263 0 -80044001.927757263 78448527.297302246 0 0 0 0 -302118834.53729248 -72022649.428497314 0 -72022649.428497314 141168413.89276123 0 0 0 0 -267932921.64349365 -6198008.3038482666 0 -6198008.3038482666 96555145.762237549 0 0 0 0 -262478539.92736816 -20739061.689712524 0 -20739061.689712524 13212328.605529785 0 0 0 0 -210823560.10540771 -232124981.23893738 0 -232124981.23893738 -158582632.35536194 0 0 0 0 -202599862.95179367 -166855611.93995094 0 -166855611.93995094 56190211.862426758 0 0 0 0 -51987261.79888916 -294972351.9395752 0 -294972351.9395752 -57406530.734466553 0 0 0 0 -22523973.828826904 -134891965.8543396 0 -134891965.8543396 -94366572.096382141 0 0 0 0 8311319.0930480957 -275210062.87509155 0 -275210062.87509155 -157297482.36979675 0 0 0 0 -40874408.770111084 -302463187.68566132 0 -302463187.68566132 -161155827.35955811 0 0 0 0 -421604023.99014282 -283867023.57347107 0 -283867023.57347107 -18061760.896774292 0 0 0 0 -273751436.08657837 -170430569.78934479 0 -170430569.78934479 -84601003.879898071 0 0 0 0 2664646.8066064939 -2878390.824642688 0 -2878390.824642688 -1799261.1468283236 0 0 0 0 55605844.917419434 -3539448.9290466309 0 -3539448.9290466309 2860414.7506027222 0 0 0 0 138117007.14340973 -11055207.836166382 0 -11055207.836166382 -61183574.432128906 0 0 0 0 411914.62932812236 -21070463.774852671 0 -21070463.774852671 -3789331.2090578824 0 0 0 0 -12984401.742819019 -28800577.517857984 0 -28800577.517857984 -5189788.241317153 0 0 0 0 -37703138.962432861 -28696895.908081055 0 -28696895.908081055 -1802126.5606918335 0 0 0 0 30957619.421859741 -35307754.85055542 0 -35307754.85055542 -34122852.191680908 0 0 0 0 -11155912.092987061 -25885959.743425369 0 -25885959.743425369 20071067.676025391 0 0 0 0 -17184636.408935547 -8526021.3358459473 0 -8526021.3358459473 3232809.9147949219 0 0 0 0 -29549594.775140926 -22688208.55896157 0 -22688208.55896157 -158864.52182325721 0 0 0 0 56284657.648956299 -105741801.6288147 0 -105741801.6288147 -170739919.59020996 0 0 0 0 28890063.646179199 -54916664.258056641 0 -54916664.258056641 -10793931.284698486 0 0 0 0 5809247.0353088379 -80056020.990646362 0 -80056020.990646362 -4675480.1228942871 0 0 0 0 16470380.407897949 -60681916.244094849 0 -60681916.244094849 24482320.353179932 0 0 0 0 898954.50344848633 -36333476.856704712 0 -36333476.856704712 22876111.243079185 0 0 0 0 45701595.020751953 -51536087.742950439 0 -51536087.742950439 -1440631.232208252 0 0 0 0 4001118.8649685718 -4911317.9299115837 0 -4911317.9299115837 848485.10103526711 0 0 0 0 -50162820.025924683 -25043900.181930542 0 -25043900.181930542 30983820.219543457 0 0 0 0 42891533.390182495 -36828665.069961548 0 -36828665.069961548 -6480532.1747894287 0 0 0 0 1174228.2896118164 -32589788.004058838 0 -32589788.004058838 -17417810.409057617 0 0 0 0 -30650339.244598389 -49949610.380706787 0 -49949610.380706787 26594196.082000732 0 0 0 0 -101197988.94320679 2044898.4183959961 0 2044898.4183959961 -5164033.1764526367 0 0 0 0 -190591332.56777954 -41440459.15788269 0 -41440459.15788269 45970185.672210693 0 0 0 0 1448876.6547243372 -366766.01375574619 0 -366766.01375574619 408.57563179731369 0 0 0 0 122458444.96897888 -34637289.826461792 0 -34637289.826461792 -41581146.09928894 0 0 0 0 -37907644.03125 -24549306.761520386 0 -24549306.761520386 1142106.2219009399 0 0 0 0 -12033930.997070312 -73385049.224975586 0 -73385049.224975586 92577815.225646973 0 0 0 0 -37899939.162994385 -85658274.224182129 0 -85658274.224182129 24657926.76361084 0 0 0 0 29554707.310882568 -67363472.665008545 0 -67363472.665008545 -18312977.24520874 0 0 0 0 31377323.326423645 -74982195.89691925 0 -74982195.89691925 -29061465.92175293 0 0 0 0 105274552.71606445 -127286360.16351318 0 -127286360.16351318 6845940.4049987793 0 0 0 0 180460334.57414246 -33362482.268630981 0 -33362482.268630981 -92219562.178527832 0 0 0 0 2023563.5913745761 -2172209.9116276652 0 -2172209.9116276652 -1913423.9837529548 0 0 0 0 597240956.58859253 -1447273889.407196 0 -1447273889.407196 179586217.60108948 0 0 0 0 -371873595.3538208 -176530453.27120972 0 -176530453.27120972 980611220.91349792 0 0 0 0 680291882.4630928 1049000771.9301357 0 1049000771.9301357 -970637852.79492188 0 0 0 0 589938769.06506348 -706932420.72306824 0 -706932420.72306824 289521535.5559845 0 0 0 0 214769032.42211914 -228794957.40667725 0 -228794957.40667725 -145809581.57579041 0 0 0 0 -831625614.95675659 -468651764.83908081 0 -468651764.83908081 -133311526.48413086 0 0 0 0 166440131.78881836 -517764239.07174683 0 -517764239.07174683 -839331163.26580811 0 0 0 0 56978120.745483398 20381303.268997192 0 20381303.268997192 -85281100.18006897 0 0 0 0 43343980.830688477 -58591938.429626465 0 -58591938.429626465 -14104890.584136963 0 0 0 0 112406478.1291523 -824652742.77108383 0 -824652742.77108383 -25138232.973693848 0 0 0 0 1182120.7322432399 -1445816.5798523203 0 -1445816.5798523203 977148.7956533581 0 0 0 0 341358352.36212158 -19955771.370391846 0 -19955771.370391846 117187030.85622406 0 0 0 0 301310987.67388153 293214232.15087128 0 293214232.15087128 175349163.99934387 0 0 0 0 -6018645.1109170467 -25308089.807086743 0 -25308089.807086743 2798131.0108870529 0 0 0 0 370540714.36547852 356014580.45083618 0 356014580.45083618 -595119362.13150024 0 0 0 0 -863137931.07202148 57372327.483978271 0 57372327.483978271 693756532.84542847 0 0 0 0 -8360294.2935941815 -24152045.113064356 0 -24152045.113064356 7163507.3209807463 0 0 0 0 29676174.316429138 -34932174.889732361 0 -34932174.889732361 -136685654.07815552 0 0 0 0 -8667373.4589996338 -14661390.634399414 0 -14661390.634399414 -65270311.741157532 0 0 0 0 -17017663.589981079 -26131798.771987915 0 -26131798.771987915 -68662015.185913086 0 0 0 0 -8031384.3964080811 -21637282.417007446 0 -21637282.417007446 -47763423.980209351 0 0 0 0 -2055982.4032592773 -27185407.955810547 0 -27185407.955810547 -62552337.147613525 0 0 0 0 1711271.352254834 -14173042.37150123 0 -14173042.37150123 -16662057.694576383 0 0 0 0 -1212384.6966635585 -3761587.2530414164 0 -3761587.2530414164 -3973211.1830494963 0 0 0 0 339951570.82055664 19021476.168060303 0 19021476.168060303 28187542.746292114 0 0 0 0 -252395.13104248047 -25000393.005523682 0 -25000393.005523682 -71212295.893173218 0 0 0 0 87366.006057730876 -4861572.9704525322 0 -4861572.9704525322 726387.3878480643 0 0 0 0 916527.26161438227 -4176469.435420692 0 -4176469.435420692 6586906.6928058863 0 0 0 0 5337104.7656555176 -11662499.603530884 0 -11662499.603530884 1722405.5255279541 0 0 0 0 2964876.8469230514 -9958711.1704179049 0 -9958711.1704179049 -765435.96103382111 0 0 0 0 -10242675.635223389 -13811339.944824219 0 -13811339.944824219 -2803905.5508956909 0 0 0 0 34669.438442513347 -19845445.837951496 0 -19845445.837951496 -4174271.0437081903 0 0 0 0 7521920.7093505859 -16756682.381622314 0 -16756682.381622314 -10091049.76461792 0 0 0 0 2961732.0807658732 -16883604.786523193 0 -16883604.786523193 -8076058.2397816852 0 0 0 0 6353453.5619984269 -11050597.362258933 0 -11050597.362258933 2217911.6064321101 0 0 0 0 7045042.551574707 -16232674.295822144 0 -16232674.295822144 2958699.2199707031 0 0 0 0 9974325.7283935547 -13316422.336120605 0 -13316422.336120605 2451066.2398071289 0 0 0 0 -3342909.8190916032 -13480427.879142616 0 -13480427.879142616 10648201.293231681 0 0 0 0 1541828.7548828125 -13894062.705444336 0 -13894062.705444336 6880694.6817626953 0 0 0 0 -9298569.3483982086 -16344393.372985013 0 -16344393.372985013 5679574.8953736871 0 0 0 0 6259603.0305786133 -16394354.133544922 0 -16394354.133544922 5015876.0801391602 0 0 0 0 -387612.01601959765 -11052886.884448275 0 -11052886.884448275 -11371187.414676853 0 0 0 0 7694746.2777404785 -14840130.891876221 0 -14840130.891876221 -1117856.5513305664 0 0 0 0 -7147951.0080096722 -18955688.259609938 0 -18955688.259609938 -12649062.737835947 0 0 0 0 1083868.9925537109 -13255915.252807617 0 -13255915.252807617 7432452.616607666 0 0 0 0 -8824727.517895665 -16262906.141195633 0 -16262906.141195633 5062105.7119888812 0 0 0 0 2025593.4462890625 -12426354.886352539 0 -12426354.886352539 2743939.5760498047 0 0 0 0 -148748932.15795898 -82223785.047058105 0 -82223785.047058105 -31136251.005249023 0 0 0 0 -2220883.3406012021 -5053986.5628603622 0 -5053986.5628603622 1138532.4279300869 0 0 0 0 -46861566.974937439 -67372798.121269226 0 -67372798.121269226 -26778824.708007812 0 0 0 0 1049415.830533497 -7164207.4302247018 0 -7164207.4302247018 -9775300.8190019131 0 0 0 0 -3761185.5838317871 -7643652.0669555664 0 -7643652.0669555664 -3587962.8008232117 0 0 0 0 -7719111.60267362 -7157945.2544655651 0 -7157945.2544655651 2915692.9345906079 0 0 0 0 -9258969.4279937744 -10046251.961364746 0 -10046251.961364746 -25377372.715209961 0 0 0 0 -13730534.601669312 1480300.3515014648 0 1480300.3515014648 -29911564.467407227 0 0 0 0 -6327631.3996887207 -7574067.5323562622 0 -7574067.5323562622 -39967015.756164551 0 0 0 0 -15153716.35508728 -2917012.6546630859 0 -2917012.6546630859 -7968842.8739624023 0 0 0 0 -20156148.385177612 -198428.04350280762 0 -198428.04350280762 -8523985.7515563965 0 0 0 0 -13730155.51272583 802770.95426940918 0 802770.95426940918 -13692209.35458374 0 0 0 0 -4629644.5778252706 -1359203.4574054405 0 -1359203.4574054405 2519130.4334443063 0 0 0 0 -10597895.795791626 -7100102.6641387939 0 -7100102.6641387939 -18059528.610107422 0 0 0 0 -492720988.37594604 -190013803.34487915 0 -190013803.34487915 -25478246.114501953 0 0 0 0 -200765642.50991821 -39539732.938369751 0 -39539732.938369751 -11968019.496231079 0 0 0 0 -880471.95361674204 -748889.49962773919 0 -748889.49962773919 -456431.14298434556 0 0 0 0 -204202639.10946655 -281308877.504776 0 -281308877.504776 -418785343.10516357 0 0 0 0 -6760493.037979126 -4936339.8597564697 0 -4936339.8597564697 11869928.941490173 0 0 0 0 -110444293.85153198 363601644.45388794 0 363601644.45388794 -477036603.31041527 0 0 0 0 -28030466.092300415 -1427435.1525268555 0 -1427435.1525268555 13086301.535614014 0 0 0 0 -10288315.687835693 -16650772.623672485 0 -16650772.623672485 -6482506.1701202393 0 0 0 0 -8049267.1559143066 -9849318.0956039429 0 -9849318.0956039429 11103941.117462158 0 0 0 0 282046.44020843506 -16076919.950202942 0 -16076919.950202942 11617967.482940674 0 0 0 0 -8395936.4568824768 -28277961.863124847 0 -28277961.863124847 12253457.296936035 0 0 0 0 -6235293.88438797 -3298472.3272666931 0 -3298472.3272666931 14337920.566070557 0 0 0 0 -1673521.0151679516 -7680604.9348667264 0 -7680604.9348667264 980984.95792716928 0 0 0 0 2891546.0008544922 -6868514.6672973633 0 -6868514.6672973633 139789.37460821299 0 0 0 0 -1512522657.1794052 -244858631.24671173 0 -244858631.24671173 1772555499.2027588 0 0 0 0 -3568065.8877912648 1077905.9800951928 0 1077905.9800951928 6042686.8741915375 0 0 0 0 -1011633935.0402832 392735130.56646729 0 392735130.56646729 -666243278.94091797 0 0 0 0 3965499.8505435716 -1486795.1666083261 0 -1486795.1666083261 311594.03241887689 0 0 0 0 24148130.996398926 -1077171404.956665 0 -1077171404.956665 228460561.28079224 0 0 0 0 -1011987.2203938812 -15309162.418346381 0 -15309162.418346381 4866550.389361009 0 0 0 0 25755644.611549377 -28047911.985145569 0 -28047911.985145569 9974515.281036377 0 0 0 0 -4042968830.9971695 -12537698064.625778 0 -12537698064.625778 -5702444652.9889526 0 0 0 0 55568176903.372498 121014734843.25153 0 121014734843.25153 -41055607151.555984 0 0 0 0 -56373987.513178267 32877881.907724164 0 32877881.907724164 -7193600.618250791 0 0 0 0 -1019104.7656933963 -4310717.2447781563 0 -4310717.2447781563 -2061752.0614015199 0 0 0 0 7883415.1073608398 -11134061.687606812 0 -11134061.687606812 9544689.5837402344 0 0 0 0 -8989488.196559906 9268682.4424629211 0 9268682.4424629211 451848411.77383423 0 0 0 0 6403856.0651092529 -13358113.452957153 0 -13358113.452957153 -6161843.2166748047 0 0 0 0 5613280.1343383789 -14507482.996505737 0 -14507482.996505737 13255366.74886322 0 0 0 0 45732132.37518692 -56737702.791267395 0 -56737702.791267395 23109117.026916504 0 0 0 0 32194859.713756561 -15181354.223419189 0 -15181354.223419189 -8608852.5196533203 0 0 0 0 -9945010.5894927979 -13222690.06861496 0 -13222690.06861496 -80932.667205810547 0 0 0 0 -19950553.040237427 1088822.8352661133 0 1088822.8352661133 -11691469.552703857 0 0 0 0 -12889583.905578613 -21742656.207252502 0 -21742656.207252502 -5767206.1624908447 0 0 0 0 18133696.220809937 -5172091.3969268799 0 -5172091.3969268799 -71897006.163482666 0 0 0 0 12575999.459350586 -5437044.5054092407 0 -5437044.5054092407 8905425.0448913574 0 0 0 0 2831654.3217085451 1324212.4329368491 0 1324212.4329368491 -1451404.8264922947 0 0 0 0 79504395.990936279 -36156601.7212677 0 -36156601.7212677 -86335398.023723602 0 0 0 0 -106116722.287323 -162533157.15510559 0 -162533157.15510559 103374580.30134583 0 0 0 0 -567767339.8671875 -29352099.863739014 0 -29352099.863739014 69564180.834106445 0 0 0 0 262044482.66909027 -418860475.57514191 0 -418860475.57514191 -1047204096.9820862 0 0 0 0 -403502912.04946899 548661844.88583374 0 548661844.88583374 -932836096.51186562 0 0 0 0 3781519.251451008 1687127.8486490566 0 1687127.8486490566 6293678.429510355 0 0 0 0 -136573495.50546265 -10771033814.518478 0 -10771033814.518478 -15709477001.721087 0 0 0 0 184028986.88819885 2262009555.2163467 0 2262009555.2163467 -14260629881.774261 0 0 0 0 511402004.27946472 -621386333.59342957 0 -621386333.59342957 -5978174244.4186707 0 0 0 0 -1000614058.5769653 -4079640649.0116119 0 -4079640649.0116119 -14135744.317028258 0 0 0 0 -938864411.39665413 -5883462604.7355967 0 -5883462604.7355967 -4190956202.3296204 0 0 0 0 -587007080.49608231 -7533341493.5724411 0 -7533341493.5724411 -7564037688.196167 0 0 0 0 -5256738888.5003662 -9573084871.0626526 0 -9573084871.0626526 22564426.899207059 0 0 0 0 -2181478779.1782174 -2040861455.5301952 0 -2040861455.5301952 -833352848.96640015 0 0 0 0 -1379116320.519104 -2864735390.5280457 0 -2864735390.5280457 3848226.1094207764 0 0 0 0 -1195940694.9767456 -3457216182.4948883 0 -3457216182.4948883 -1846211144.4173889 0 0 0 0 -265004286.11949158 -1970731137.2876434 0 -1970731137.2876434 -2812181292.9613419 0 0 0 0 385781739.00959778 -639414655.57656288 0 -639414655.57656288 -1442828676.0309448 0 0 0 0 -280621410.85197449 -1281915966.4372406 0 -1281915966.4372406 -539869238.56134796 0 0 0 0 -170230033.60940552 -49171257.027496338 0 -49171257.027496338 -4776309.43019104 0 0 0 0 25878608.500930786 -768253942.52020264 0 -768253942.52020264 -1182278987.7123108 0 0 0 0 -285575161.55937958 234267899.36450195 0 234267899.36450195 -58596212.64050293 0 0 0 0 -174329232.5605011 219382167.76293945 0 219382167.76293945 -56737890.938743591 0 0 0 0 -920597.24664782733 -2677044.0955067575 0 -2677044.0955067575 1974209.2044483721 0 0 0 0 46296751.38193512 18612929.855201721 0 18612929.855201721 119649353.79364014 0 0 0 0 -16346446.819168091 -1249345.7153320312 0 -1249345.7153320312 137054007.59846497 0 0 0 0 14432383.381595612 -82142397.419158936 0 -82142397.419158936 -125615536.70046997 0 0 0 0 73173056.439880371 -33718725.128364563 0 -33718725.128364563 -91034244.422988892 0 0 0 0 50497796.177490234 45436169.90965271 0 45436169.90965271 -366167142.56636429 0 0 0 0 42843947.006973267 -328295967.26835632 0 -328295967.26835632 -270167052.6862793 0 0 0 0 -7755981.0820954293 -25335631.457547054 0 -25335631.457547054 10318630.823536649 0 0 0 0 -20710845.521499634 -188208040.67223358 0 -188208040.67223358 158389566.27198792 0 0 0 0 52486538.347503662 -174032884.95489502 0 -174032884.95489502 60736996.487487793 0 0 0 0 -289202257.66796875 260701218.84397888 0 260701218.84397888 315061050.67411041 0 0 0 0 -9057647.0640334934 -24605528.580718294 0 -24605528.580718294 9433829.3988704532 0 0 0 0 -35964460.738830566 -58758549.462814331 0 -58758549.462814331 -89382324.612304688 0 0 0 0 280915868.26978302 -93904035.907371521 0 -93904035.907371521 -692043649.66654968 0 0 0 0 1813446.7660076618 246561.30910085142 0 246561.30910085142 -2312541.6515486389 0 0 0 0 -88017611.184555054 -457128644.93855286 0 -457128644.93855286 -233096404.78807831 0 0 0 0 -19083425.574859619 26993718.30280304 0 26993718.30280304 -34222671.452209473 0 0 0 0 20726303.294265747 -13211127.131500244 0 -13211127.131500244 -22136911.537261963 0 0 0 0 16333641.450057417 -11815767.152313359 0 -11815767.152313359 -3426688.7106047869 0 0 0 0 -356313337.81291962 243199945.46799088 0 243199945.46799088 -130886273.94287109 0 0 0 0 12865144.139315985 -12982510.451036662 0 -12982510.451036662 4709373.2332930863 0 0 0 0 -514569.90504062176 -6507276.6395161301 0 -6507276.6395161301 -257764.74107331783 0 0 0 0 -706561154.90118408 195558668.08178711 0 195558668.08178711 -45053480.575332642 0 0 0 0 57995583.215484619 44272258.070617676 0 44272258.070617676 -74962221.50666523 0 0 0 0 14168001.770080566 -36581384.32208252 0 -36581384.32208252 -70117599.63293457 0 0 0 0 14912632.507492065 -3489291.6167602539 0 -3489291.6167602539 -33697831.570666611 0 0 0 0 11026273.670791626 3453038.5979766846 0 3453038.5979766846 -33725203.774647653 0 0 0 0 11744573.500579834 264344.63734436035 0 264344.63734436035 -28192937.289104939 0 0 0 0 9839467.3529205322 -2470130.507270813 0 -2470130.507270813 -19859683.436477661 0 0 0 0 16754049.765686035 -7164118.5916595459 0 -7164118.5916595459 -28386774.289595604 0 0 0 0 1416394.8283691406 -6527801.7293624878 0 -6527801.7293624878 -21714497.54045105 0 0 0 0 9674837.4233179241 -12138834.343149386 0 -12138834.343149386 -3035169.961604692 0 0 0 0 22098994.777019501 -17905224.9632864 0 -17905224.9632864 -86774309.783050537 0 0 0 0 12299604.540176392 -10749874.565887451 0 -10749874.565887451 -21007950.077529907 0 0 0 0 780823.57302093506 -31502455.284790039 0 -31502455.284790039 17279953.842773438 0 0 0 0 5789561.022102356 -33266372.397644043 0 -33266372.397644043 -20647702.296844482 0 0 0 0 -932607.77920532227 -43863414.393600464 0 -43863414.393600464 -23696849.382080078 0 0 0 0 -3735833.4013519287 -37394771.913818359 0 -37394771.913818359 -30311952.202423096 0 0 0 0 -23066804.087371826 -47443889.811157227 0 -47443889.811157227 -9561323.511505127 0 0 0 0 -662585.70610443503 -558335.01025722176 0 -558335.01025722176 -206548.64030005038 0 0 0 0 -17204467.393676758 -31948463.001914978 0 -31948463.001914978 -3994837.1313667297 0 0 0 0 955905.66858372092 -2911765.3205232397 0 -2911765.3205232397 -981263.9459877722 0 0 0 0 9492610.0248718262 -7249475.1657562256 0 -7249475.1657562256 -9573063.7788085938 0 0 0 0 289531.71055629849 -1085005.8835134208 0 -1085005.8835134208 -160308.87975022569 0 0 0 0 14761509.550247192 27585175.256446838 0 27585175.256446838 17695516.029876709 0 0 0 0 -5198577.7733535767 -9812319.9916000366 0 -9812319.9916000366 46327805.608337402 0 0 0 0 4691893.1366577148 -51608679.213378906 0 -51608679.213378906 124435142.28282928 0 0 0 0 79967563.005065918 -106315301.35856628 0 -106315301.35856628 69635160.523651123 0 0 0 0 221867971.31607056 -28773376.942520142 0 -28773376.942520142 -18203260.620117188 0 0 0 0 38303492.43838501 -6074660.2110748291 0 -6074660.2110748291 -11442409.515655518 0 0 0 0 92906514.580818176 -75146036.252750397 0 -75146036.252750397 4501240.7235107422 0 0 0 0 39667496.519622803 -40795305.235748291 0 -40795305.235748291 -22508146.191711426 0 0 0 0 51938680.68951416 -40269688.69921875 0 -40269688.69921875 -22697306.878173828 0 0 0 0 39636596.407775879 -8111045.0101318359 0 -8111045.0101318359 -33001166.242492676 0 0 0 0 73546736.040798187 -10505854.056911469 0 -10505854.056911469 -22457959.34753418 0 0 0 0 30248801.088653564 -15606174.465637207 0 -15606174.465637207 -21564874.40222168 0 0 0 0 28917324.567321777 -19852081.898376465 0 -19852081.898376465 -32018583.479431152 0 0 0 0 11915632.953613281 -53426242.273864746 0 -53426242.273864746 41329460.158061981 0 0 0 0 30944023.61541748 -51894527.146331787 0 -51894527.146331787 44556411.982315063 0 0 0 0 28266320.668869019 -41411622.540863037 0 -41411622.540863037 16291769.034484863 0 0 0 0 47178750.180583954 -62001594.413856506 0 -62001594.413856506 1664068.0556640625 0 0 0 0 31442469.83694458 -42887438.049835205 0 -42887438.049835205 -15583001.043762207 0 0 0 0 33805948.095794678 -51889554.621765137 0 -51889554.621765137 -29387784.825836182 0 0 0 0 15420651.78956604 -46744347.251235962 0 -46744347.251235962 -30266588.048858643 0 0 0 0 23133646.988525391 -40260939.339996338 0 -40260939.339996338 -37910174.583496094 0 0 0 0 49003904.452758789 -46542311.987548828 0 -46542311.987548828 -36536980.28515625 0 0 0 0 7209996.235748291 -48246135.501434326 0 -48246135.501434326 -43450881.325531006 0 0 0 0 32361211.966194153 -47215056.091636658 0 -47215056.091636658 -43517290.416229248 0 0 0 0 3021295.1190643311 -24526418.419677734 0 -24526418.419677734 -56119013.545654297 0 0 0 0 9099510.2667236328 -15131439.179870605 0 -15131439.179870605 -41663806.920593262 0 0 0 0 38483115.211395264 -11994962.517028809 0 -11994962.517028809 -43298651.692962646 0 0 0 0 23636192.342773438 -8247674.0356750488 0 -8247674.0356750488 -57824664.960449219 0 0 0 0 29194559.725219727 -29774189.822998047 0 -29774189.822998047 -44623261.624679565 0 0 0 0 54266358.311920166 -37484722.946540833 0 -37484722.946540833 -46148863.715393066 0 0 0 0 2222330.8836975098 -21243370.054840088 0 -21243370.054840088 -45556081.514118195 0 0 0 0 40871585.24420166 -30499089.727249146 0 -30499089.727249146 -48631156.471984863 0 0 0 0 17857832.484985352 -14945121.123382568 0 -14945121.123382568 -65409937.325012207 0 0 0 0 10263385.33298111 -3128299.4080924988 0 -3128299.4080924988 -55561007.191040039 0 0 0 0 -11595463.107284546 -64645062.771240234 0 -64645062.771240234 -16076106.225082397 0 0 0 0 46741193.005645752 -17408944.611854553 0 -17408944.611854553 -53483579.748947144 0 0 0 0 62978164.151182175 -96652781.774541855 0 -96652781.774541855 -4535569.6723022461 0 0 0 0 3712566.7036830857 -32892753.535659023 0 -32892753.535659023 -13268219.427696116 0 0 0 0 23448272.984527588 -35998650.758529663 0 -35998650.758529663 -36443383.202056885 0 0 0 0 7138142.4616394043 -37358673.348968506 0 -37358673.348968506 -36108477.693767548 0 0 0 0 5744753.7128029317 -32750037.493000139 0 -32750037.493000139 -15226896.679950207 0 0 0 0 2704818.1604493335 -28887744.062040806 0 -28887744.062040806 -16241776.838608935 0 0 0 0 7299099.4324264526 -39112840.338951111 0 -39112840.338951111 -27072433.728485107 0 0 0 0 7237544.7890319824 -32940541.844970703 0 -32940541.844970703 -19305969.218978882 0 0 0 0 -4165301.3278923035 -41846355.643558502 0 -41846355.643558502 -12528348.328674316 0 0 0 0 -1371188.7797241211 -29459094.347091675 0 -29459094.347091675 1280604.4232177734 0 0 0 0 932404.99934031069 -29481567.543548793 0 -29481567.543548793 -13562303.46274849 0 0 0 0 -5043715.1475219727 -45967746.087463379 0 -45967746.087463379 -30167454.884765625 0 0 0 0 -46720945.36807251 -67081350.411972046 0 -67081350.411972046 -21934988.150726318 0 0 0 0 -39840209.152526855 -32290607.078704834 0 -32290607.078704834 -19455921.202140808 0 0 0 0 14728779.781528473 -52904467.881906509 0 -52904467.881906509 -56488333.999206543 0 0 0 0 15262077.955688477 -9206770.5430297852 0 -9206770.5430297852 -20289404.325805664 0 0 0 0 13777214.596927874 -11117731.287963793 0 -11117731.287963793 -25081285.270315439 0 0 0 0 -28880486.538276672 -70406541.99949646 0 -70406541.99949646 -47458417.264953613 0 0 0 0 23826316.656829834 -30089462.703948975 0 -30089462.703948975 -77183365.688972473 0 0 0 0 2080959.8722884655 -1119457.6219171267 0 -1119457.6219171267 459908.90048721433 0 0 0 0 9322867.1303148083 -33213731.23782843 0 -33213731.23782843 -29505458.870485932 0 0 0 0 7761820.3072967529 -37444965.819564819 0 -37444965.819564819 7588808.8200378418 0 0 0 0 76973086.124172211 -4968913.6643028259 0 -4968913.6643028259 -48915673.051116943 0 0 0 0 173551.65316772461 -28244196.288116455 0 -28244196.288116455 8079855.2606434822 0 0 0 0 22754530.030914307 -33981001.518127441 0 -33981001.518127441 -40042082.45664978 0 0 0 0 -481502.5205078125 -31740143.785057068 0 -31740143.785057068 19676693.218612671 0 0 0 0 -2733530.8059692383 -21917089.699020386 0 -21917089.699020386 7140759.7125549316 0 0 0 0 -6303443.1595017835 -20916187.760917179 0 -20916187.760917179 10942793.731062472 0 0 0 0 -39446315.799118042 -23111579.881801605 0 -23111579.881801605 100405376.00691795 0 0 0 0 199314.21590907872 -5274344.9620586112 0 -5274344.9620586112 -558241.69692008849 0 0 0 0 -28760575.522125244 -57723007.796905518 0 -57723007.796905518 84742507.048749924 0 0 0 0 7633221.9616394043 -17664528.193572998 0 -17664528.193572998 32223593.207099915 0 0 0 0 -2269565.4811057895 -30613490.177241199 0 -30613490.177241199 -7266382.0053978208 0 0 0 0 -1183536.0909738243 -21117535.023620069 0 -21117535.023620069 -12301892.538413469 0 0 0 0 -8130876.8679504395 -18245319.115158081 0 -18245319.115158081 27890993.152839661 0 0 0 0 -9121345.2065127268 -12038850.929391734 0 -12038850.929391734 37562037.470990315 0 0 0 0 -8740465.1456222534 -37609882.04020834 0 -37609882.04020834 61928483.686454773 0 0 0 0 -114351765.7504425 -26175049.699987411 0 -26175049.699987411 62541355.168588638 0 0 0 0 9219358.4708404541 -19240358.381633759 0 -19240358.381633759 40551212.227344513 0 0 0 0 2268320.554590933 -5734817.4822834674 0 -5734817.4822834674 1798616.3153719828 0 0 0 0 -46722933.210006714 -10608423.119533539 0 -10608423.119533539 39876329.963303566 0 0 0 0 -39857625.373283386 -29228620.431440353 0 -29228620.431440353 13496944.597114563 0 0 0 0 -39132615.824630737 -34005766.083948135 0 -34005766.083948135 85922433.744919777 0 0 0 0 -2823494.3290939331 -8976634.5944976807 0 -8976634.5944976807 74318192.97713089 0 0 0 0 -5894215.7823457569 -11472749.578915711 0 -11472749.578915711 18169011.399245743 0 0 0 0 3064508.4596710205 -76129528.357759476 0 -76129528.357759476 100293505.98395348 0 0 0 0 45899645.453582764 -93211800.410713196 0 -93211800.410713196 -164986.41445159912 0 0 0 0 18984905.187026978 -38826726.030250549 0 -38826726.030250549 -61833655.340744019 0 0 0 0 -1233574.8365466297 -29203878.241928793 0 -29203878.241928793 -346194.44490255043 0 0 0 0 -21728761.602428436 -22314906.507927895 0 -22314906.507927895 77433129.685501099 0 0 0 0 -30822878.228622437 -59562403.347442627 0 -59562403.347442627 32772240.231498718 0 0 0 0 -7784416.3631330952 -21541784.906390477 0 -21541784.906390477 11587489.853941962 0 0 0 0 -573118.88074998558 -2467743.4283220842 0 -2467743.4283220842 -6150226.8612765744 0 0 0 0 -20811768.995361328 -136629873.7101593 0 -136629873.7101593 -6001013.6956558228 0 0 0 0 -109715542.58483887 -94399431.534439087 0 -94399431.534439087 47726730.95513916 0 0 0 0 -67559510.566461563 -78607698.589811325 0 -78607698.589811325 8409402.6420288086 0 0 0 0 -4042378.8901341632 -25064498.754372157 0 -25064498.754372157 13484820.66807802 0 0 0 0 -18378676.897857666 39467359.118736267 0 39467359.118736267 -68941699.356784821 0 0 0 0 -22207724.232391357 -83369681.331697464 0 -83369681.331697464 -23329821.302230835 0 0 0 0 -9627146.7516326904 -62351730.241012573 0 -62351730.241012573 11065099.841415405 0 0 0 0 8007794.9535675049 39430785.389428139 0 39430785.389428139 -81552626.008300781 0 0 0 0 -4964671.2406153232 -3665597.5247519556 0 -3665597.5247519556 11761381.704931624 0 0 0 0 -61377829.095413208 -14674748.251396179 0 -14674748.251396179 66802575.650428772 0 0 0 0 -22827826.710708618 -40838349.300519943 0 -40838349.300519943 85860204.436683655 0 0 0 0 -6908536.0653769225 -31122231.911231972 0 -31122231.911231972 14972664.111109881 0 0 0 0 -1570739.5347824097 -34347910.568845749 0 -34347910.568845749 68008314.90961647 0 0 0 0 20343846.533966064 -67593362.687602997 0 -67593362.687602997 -20276153.086471558 0 0 0 0 67851882.144989014 -81796370.408187866 0 -81796370.408187866 -18642134.506175995 0 0 0 0 62567.012350007892 -19796058.088451043 0 -19796058.088451043 25280109.251712527 0 0 0 0 62606618.04095459 8259781.1406364441 0 8259781.1406364441 30226317.58599472 0 0 0 0 17972870.696014404 -38000502.425344467 0 -38000502.425344467 -1707046.2021064758 0 0 0 0 -10445344.946417227 -35706800.013312101 0 -35706800.013312101 22542336.599042356 0 0 0 0 -16258078.734588623 -47618350.951248169 0 -47618350.951248169 21455802.517360687 0 0 0 0 -13650558.655433655 -28771417.729928493 0 -28771417.729928493 95506827.297603607 0 0 0 0 -27400716.099441528 -18796899.686561584 0 -18796899.686561584 -27688059.510131836 0 0 0 0 1483042.0161160231 -38315024.508091629 0 -38315024.508091629 22997443.475369982 0 0 0 0 -3173675.3068695068 -14947544.182121277 0 -14947544.182121277 8127235.0846557617 0 0 0 0 -2030473.0969446227 -35461294.330092542 0 -35461294.330092542 23639040.930579215 0 0 0 0 -55430487.771728516 -79363026.943088531 0 -79363026.943088531 48787359.758270264 0 0 0 0 -13745644.981231689 -16789640.090286255 0 -16789640.090286255 14958779.997344971 0 0 0 0 -18607242.764710024 -21462296.979107819 0 -21462296.979107819 1395162.2731780633 0 0 0 0 43862562.346633911 -60667916.541202545 0 -60667916.541202545 -47595185.698661804 0 0 0 0 9185930.4990539551 -106076263.27479935 0 -106076263.27479935 -70701803.279983521 0 0 0 0 -2640176.8843145072 -33695623.447074942 0 -33695623.447074942 38360668.831817903 0 0 0 0 6526896.4221408069 -2834654.0792319402 0 -2834654.0792319402 -8676859.0759617388 0 0 0 0 21216835.263122559 -71634984.556472778 0 -71634984.556472778 -16254532.722045898 0 0 0 0 13378827.887207031 -141690649.51031494 0 -141690649.51031494 93869750.5990448 0 0 0 0 6862473.0312677324 -37451773.137465268 0 -37451773.137465268 345832.4322411567 0 0 0 0 -257900570.72961426 -9004157.380859375 0 -9004157.380859375 34012472.520935059 0 0 0 0 7739267.644205898 -1574022.5065387189 0 -1574022.5065387189 -1749476.1872822866 0 0 0 0 -10237944.762254484 -24464760.051026128 0 -24464760.051026128 3410109.3131735772 0 0 0 0 -10279071.339385986 -59361333.237197876 0 -59361333.237197876 -1505462.0438232422 0 0 0 0 -3965501.7119750977 -55687616.544555664 0 -55687616.544555664 -23112175.157371521 0 0 0 0 -39902097.286148071 -63528945.285453796 0 -63528945.285453796 -15812669.270843506 0 0 0 0 -63624819.485488892 -49994496.125976562 0 -49994496.125976562 -2236871.3457183838 0 0 0 0 2504557.9446140118 -49549913.526042573 0 -49549913.526042573 -6105730.1388927996 0 0 0 0 16689464.020469666 -71902483.965965271 0 -71902483.965965271 -24731897.445510864 0 0 0 0 -113649320.02789307 -102244162.34694672 0 -102244162.34694672 10674187.626281738 0 0 0 0 -19384392.085220337 -70514153.571914673 0 -70514153.571914673 11674764.794616699 0 0 0 0 108901489.13592529 -92962123.138031006 0 -92962123.138031006 -27422046.33656311 0 0 0 0 -477352.37070199102 -41046660.638204202 0 -41046660.638204202 -14966547.484996349 0 0 0 0 -418863.59718322754 -123490621.23100281 0 -123490621.23100281 -4563208.814239502 0 0 0 0 111719954.16378021 -17163869.908309937 0 -17163869.908309937 -15095676.674804688 0 0 0 0 -97278512.90222168 -68031836.604812622 0 -68031836.604812622 33780890.833648682 0 0 0 0 -132185783.59390259 -87894121.117492676 0 -87894121.117492676 24356464.655059814 0 0 0 0 -123696896.53567505 -223120457.96734619 0 -223120457.96734619 -165762689.86022949 0 0 0 0 -233000268.89373779 -91052530.712646484 0 -91052530.712646484 60478254.190338135 0 0 0 0 -57392344.343078613 -124991367.52154541 0 -124991367.52154541 -31104569.398147583 0 0 0 0 -5337484.3340148926 -138533757.08859253 0 -138533757.08859253 -35357358.902355194 0 0 0 0 -62879985.523529053 -74877437.041183472 0 -74877437.041183472 34626030.60824585 0 0 0 0 -19718401.352554321 -68354936.041465759 0 -68354936.041465759 -1258075.2625732422 0 0 0 0 -41778809.102706909 -25465813.263542175 0 -25465813.263542175 24466922.397140503 0 0 0 0 -72374151.475296021 -57414561.435623169 0 -57414561.435623169 7169739.2291345596 0 0 0 0 -544498.50661007315 -31390179.724926546 0 -31390179.724926546 16327596.14007856 0 0 0 0 -11780845.622711182 -64758304.306869507 0 -64758304.306869507 45469174.255072594 0 0 0 0 -22874262.878509521 9328331.8217468262 0 9328331.8217468262 -54434510.628936768 0 0 0 0 -26888038.709014893 5592981.7886199951 0 5592981.7886199951 -11408245.71257019 0 0 0 0 -29397175.14074707 14938370.377929688 0 14938370.377929688 -60104701.737762451 0 0 0 0 479238.14757172763 -722535.80012305081 0 -722535.80012305081 -1467143.8883241117 0 0 0 0 -28575910.037368774 9444259.4231948853 0 9444259.4231948853 -23308321.359771729 0 0 0 0 -12102477.259153135 -16217713.425262172 0 -16217713.425262172 13632704.322154805 0 0 0 0 -54967866.641815186 -33777693.104141235 0 -33777693.104141235 25979868.014463425 0 0 0 0 -74805963.760635376 70726215.314308167 0 70726215.314308167 67869625.789306641 0 0 0 0 -97059573.765396118 -28073519.361480713 0 -28073519.361480713 -8748338.6078987122 0 0 0 0 -517305733.94619942 -2550770.9958276749 0 -2550770.9958276749 8777301.4569091797 0 0 0 0 -275953212.91881371 -474706964.20427608 0 -474706964.20427608 -412999674.63494873 0 0 0 0 11905048.438400179 -10919367.245174155 0 -10919367.245174155 -3893648.9169182181 0 0 0 0 -1737824.2779604048 84760.280970744789 0 84760.280970744789 1332720.9546441287 0 0 0 0 616536.74383470416 -639385.8346443139 0 -639385.8346443139 -122620.03297784925 0 0 0 0 -483820452.78677368 -202769703.53773499 0 -202769703.53773499 -188161303.43231201 0 0 0 0 -286328882.58517456 -286696532.66503906 0 -286696532.66503906 -603165424.40527344 0 0 0 0 -60811911.774276733 63987855.603874207 0 63987855.603874207 36874020.675354004 0 0 0 0 12222125.252464294 19194261.775627136 0 19194261.775627136 -26285974.9190979 0 0 0 0 51841275.591552734 6901875.965423584 0 6901875.965423584 -22861831.249183655 0 0 0 0 -2561362.1449699402 -230167090.77451992 0 -230167090.77451992 34842738.547088623 0 0 0 0 43343447.575256348 82245530.457305908 0 82245530.457305908 10133583.920318604 0 0 0 0 -741907715.49539185 -177537538.08511353 0 -177537538.08511353 132266662.75604248 0 0 0 0 12705984.995907344 -12405248.005128235 0 -12405248.005128235 2527858.7048366815 0 0 0 0 -242511424.69882202 -177286866.15737915 0 -177286866.15737915 -142822273.62811279 0 0 0 0 -56763551.774475098 -106032203.52151489 0 -106032203.52151489 -231091660.40045166 0 0 0 0 90432136.143615723 -381829071.54940796 0 -381829071.54940796 -581923958.00387573 0 0 0 0 197048468.80096436 -145884542.46472168 0 -145884542.46472168 -538278145.67175293 0 0 0 0 285831038.10822296 153370214.03689575 0 153370214.03689575 -249044484.42205811 0 0 0 0 -99947566.108627319 207887102.72769928 0 207887102.72769928 313067514.47122192 0 0 0 0 5940041.3962925673 -8778670.2232529595 0 -8778670.2232529595 -5796472.8955945186 0 0 0 0 -183702191.46911621 16391503.870819092 0 16391503.870819092 29192665.141082764 0 0 0 0 18065969.547088623 -90742978.225494385 0 -90742978.225494385 78849683.25604248 0 0 0 0 39809947.010070801 -21270589.543182373 0 -21270589.543182373 -58723914.456588745 0 0 0 0 204920602.98010254 32097081.474151611 0 32097081.474151611 -53744622.219535828 0 0 0 0 5502086.4483642131 -25122746.28592515 0 -25122746.28592515 -7915672.1459453106 0 0 0 0 -21462620.13092041 -35735112.8646698 0 -35735112.8646698 -22121840.665771484 0 0 0 0 109887076.69055176 98513496.876663208 0 98513496.876663208 78906965.906829834 0 0 0 0 -18535749.04699707 -50675179.302032471 0 -50675179.302032471 -4637879.0620269775 0 0 0 0 -70618020.700744629 -111136635.65615082 0 -111136635.65615082 -57765966.972106934 0 0 0 0 102664528.88702393 80284180.803405762 0 80284180.803405762 -18544164.801345825 0 0 0 0 181309759.54395294 114560400.01517487 0 114560400.01517487 -32703370.211608887 0 0 0 0 132468896.76086044 -24240119.72291255 0 -24240119.72291255 -147814550.59362793 0 0 0 0 187403360.7270813 -29594699.794258118 0 -29594699.794258118 -84146559.443435669 0 0 0 0 132941688.54972053 822940.96873497963 0 822940.96873497963 42582130.919281006 0 0 0 0 48840186.608596802 -124260071.64893341 0 -124260071.64893341 -172549671.0880127 0 0 0 0 58213616.527252197 -30985981.591278076 0 -30985981.591278076 -106955532.71731567 0 0 0 0 42689997.004364014 -113925019.57220459 0 -113925019.57220459 -327198244.16610718 0 0 0 0 -103321713.61578369 -138216022.40002441 0 -138216022.40002441 -152496279.75493622 0 0 0 0 -532705201.63945198 -333934029.87333584 0 -333934029.87333584 -120186105.17071533 0 0 0 0 -146653521.90643311 -271846268.22598267 0 -271846268.22598267 -524518356.05749512 0 0 0 0 -116315512.10310364 -68170274.67477417 0 -68170274.67477417 -169571396.35870361 0 0 0 0 -148684447.13000488 24711417.359222412 0 24711417.359222412 -431490820.1531601 0 0 0 0 56190917.430908203 -2128674.7831115723 0 -2128674.7831115723 -193877098.08273315 0 0 0 0 -7097655.3538589999 -13386798.166515529 0 -13386798.166515529 -282893.63275660574 0 0 0 0 -45305999.523040771 -46600934.498001099 0 -46600934.498001099 -20349778.553596497 0 0 0 0 -599539.20963352546 -41318704.643752143 0 -41318704.643752143 -21530020.501570746 0 0 0 0 -8249532.8443908691 -19048657.488494873 0 -19048657.488494873 -10166019.937156677 0 0 0 0 -32366355.807792664 -28538157.56961441 0 -28538157.56961441 3079058.0385131836 0 0 0 0 -34598469.631862119 -27566512.612537026 0 -27566512.612537026 3925377.4472478107 0 0 0 0 -2773195.3133162856 -24891740.621529534 0 -24891740.621529534 -10066975.945970491 0 0 0 0 27533028.581207275 -21336963.289634705 0 -21336963.289634705 5930379.0900707245 0 0 0 0 -1212692.713068977 -27274600.139980018 0 -27274600.139980018 -5780629.0520446897 0 0 0 0 -71096161.656494141 -109391313.57815552 0 -109391313.57815552 -107430274.14143372 0 0 0 0 43510850.951690674 -15239463.92048645 0 -15239463.92048645 -7419919.8405609131 0 0 0 0 7329964.8171885982 -4842733.6182381511 0 -4842733.6182381511 -3865348.1169849783 0 0 0 0 138939779.24020386 34179008.896080017 0 34179008.896080017 -39411218.741691589 0 0 0 0 2010616.752386719 -374598.31829447299 0 -374598.31829447299 -1834023.5631985553 0 0 0 0 -29302600.31652832 -30179407.682815552 0 -30179407.682815552 -13092718.434448242 0 0 0 0 -1599920.6610981226 -17478692.19094158 0 -17478692.19094158 -4025144.7125906684 0 0 0 0 -45755895.465423584 -40006121.07103157 0 -40006121.07103157 -11234315.224151611 0 0 0 0 919582.32950319722 -7423734.2502834797 0 -7423734.2502834797 -491439.5942568481 0 0 0 0 -17654007.12361145 -14581419.992649078 0 -14581419.992649078 -35109888.726547241 0 0 0 0 101914721.59537888 -204839708.3426342 0 -204839708.3426342 363394793.25009155 0 0 0 0 438290882.52380371 -413821315.53423309 0 -413821315.53423309 39852684.206871033 0 0 0 0 1209217294.6970596 -404391713.29640007 0 -404391713.29640007 -142000388.93206787 0 0 0 0 512471.68196130544 -2666569.1236311048 0 -2666569.1236311048 -151155.60310633481 0 0 0 0 136443048.32159424 -820723357.54510498 0 -820723357.54510498 159201159.13762665 0 0 0 0 -172258193.79806519 -136245913.68774414 0 -136245913.68774414 -23947761.924682617 0 0 0 0 -133247752.30718994 -86813617.837364197 0 -86813617.837364197 65055554.126434326 0 0 0 0 -3576180.9805087373 -6321034.2070067972 0 -6321034.2070067972 1305786.6256408542 0 0 0 0 -69762046.369812012 -67876376.227493286 0 -67876376.227493286 -98094364.169281006 0 0 0 0 -76390397.817565918 -41066409.560287476 0 -41066409.560287476 27854592.617172241 0 0 0 0 -12474012.016296387 -86705940.176704407 0 -86705940.176704407 -53937807.272415161 0 0 0 0 -66574351.886581421 -62634280.775020599 0 -62634280.775020599 -35488957.163330078 0 0 0 0 -116445692.71350098 -52808397.101737976 0 -52808397.101737976 -20378765.820541382 0 0 0 0 -60340199.45916748 -48333743.661626816 0 -48333743.661626816 -13209485.872024536 0 0 0 0 -22963500.773712158 -30685406.717597961 0 -30685406.717597961 -38432378.221374512 0 0 0 0 -14337485.656829834 -19972264.08732605 0 -19972264.08732605 -26052059.234197617 0 0 0 0 -121941734.27238083 -36307428.886851311 0 -36307428.886851311 115966436.62237549 0 0 0 0 63794352.495910645 -34586744.61126709 0 -34586744.61126709 -29527390.1524086 0 0 0 0 -10588167.588806152 -46402683.914245605 0 -46402683.914245605 32468968.38381958 0 0 0 0 246725265.47033691 -82882086.745880127 0 -82882086.745880127 29656081.175842285 0 0 0 0 17527070.284210205 74624395.001876831 0 74624395.001876831 181565617.74694824 0 0 0 0 4746741.1543579102 -129291650.7542572 0 -129291650.7542572 112264233.7102356 0 0 0 0 -201927274.88555908 -73185148.105926514 0 -73185148.105926514 147002654.26425934 0 0 0 0 -31514488.140045166 -220943640.61411285 0 -220943640.61411285 252210494.86935425 0 0 0 0 -198964379.49492645 -45633201.292362213 0 -45633201.292362213 386180819.69909668 0 0 0 0 -104970041.84783936 -189346810.96891785 0 -189346810.96891785 181066544.98208618 0 0 0 0 -55763046.800445557 -250014383.94798279 0 -250014383.94798279 255846396.03359985 0 0 0 0 -101338948.50073242 -177074911.45178223 0 -177074911.45178223 16693733.925201416 0 0 0 0 -423709807.28369141 -227588885.01611328 0 -227588885.01611328 257560605.27971649 0 0 0 0 -352401842.60232544 50672397.770851135 0 50672397.770851135 -169394735.16094971 0 0 0 0 2353718.4434814453 -316949621.52658081 0 -316949621.52658081 -76751062.854232788 0 0 0 0 -555536564.63977051 -128176240.70469666 0 -128176240.70469666 189867096.54556274 0 0 0 0 646784312.3795166 -51421589.96105957 0 -51421589.96105957 -128690206.46575928 0 0 0 0 7332031.7126097605 -5575533.9579340369 0 -5575533.9579340369 -3204755.1500344574 0 0 0 0 333152117.56207275 -377320377.06002808 0 -377320377.06002808 42822804.392559052 0 0 0 0 -112132385.22558594 -217663596.87057495 0 -217663596.87057495 70813228.458679199 0 0 0 0 286140754.92913818 9882993.6171875 0 9882993.6171875 -15651740.259279251 0 0 0 0 328242425.04955292 -265005931.89274406 0 -265005931.89274406 28359224.350830078 0 0 0 0 18205375.231750488 -128567203.8380127 0 -128567203.8380127 8649686.5535888672 0 0 0 0 43296212.720254213 -53650427.789438218 0 -53650427.789438218 5281945.8223959496 0 0 0 0 107145557.59350586 -83785954.1512146 0 -83785954.1512146 -40801029.931167603 0 0 0 0 110451924.4072876 -82153069.300842285 0 -82153069.300842285 -40603769.590099335 0 0 0 0 37699753.144348145 -88341960.673555374 0 -88341960.673555374 -86670391.112726212 0 0 0 0 133913991.75 -141624284.84814453 0 -141624284.84814453 4865617.4299621582 0 0 0 0 115290447.32888794 -81284831.456352234 0 -81284831.456352234 -43138821.254806519 0 0 0 0 121798918.16271973 -29644675.528503418 0 -29644675.528503418 -17588026.018104553 0 0 0 0 113380795.2442627 -83610888.702026367 0 -83610888.702026367 -45806693.943603516 0 0 0 0 234726100.94836426 -85730851.097000122 0 -85730851.097000122 -45785332.405792236 0 0 0 0 71419488.945495605 -65320897.223876953 0 -65320897.223876953 -13722584.262786865 0 0 0 0 40469144.55267334 -493656730.90458679 0 -493656730.90458679 354294694.72409058 0 0 0 0 233267610.55700684 -328339290.4006958 0 -328339290.4006958 -408111030.12405396 0 0 0 0 26274153.891202703 -22114303.00467898 0 -22114303.00467898 -13640148.337293565 0 0 0 0 -17337612.640380859 -412151894.2359314 0 -412151894.2359314 59100606.032897949 0 0 0 0 -36797986.927734375 -380325368.74043274 0 -380325368.74043274 29334726.167480469 0 0 0 0 -76564163.196228027 -364288549.08538818 0 -364288549.08538818 52743160.729980469 0 0 0 0 -64348160.057434082 -378215735.4609375 0 -378215735.4609375 51437163.825145721 0 0 0 0 -16605089.203012466 83717287.342029572 0 83717287.342029572 -128560621.12188721 0 0 0 0 15678345.85195975 -1191976.8243260682 0 -1191976.8243260682 -16406090.221818484 0 0 0 0 -85087991.977111816 -183174888.42616177 0 -183174888.42616177 -16997380.915504456 0 0 0 0 168884380.27008057 -105825726.77925301 0 -105825726.77925301 -76395821.674430847 0 0 0 0 24326098.058109999 -23648294.753465597 0 -23648294.753465597 -15892904.2584242 0 0 0 0 39510085.960031956 -47337257.790003844 0 -47337257.790003844 24834480.130322643 0 0 0 0 -35419379.371948242 1433046.1594581604 0 1433046.1594581604 -73276500.174278259 0 0 0 0 20352409.604248047 -82809139.398014069 0 -82809139.398014069 -35151761.974380493 0 0 0 0 71316658.964378357 -113015788.91461468 0 -113015788.91461468 -85266627.796567917 0 0 0 0 12402774.611993641 -14715413.429965928 0 -14715413.429965928 4713085.5201147217 0 0 0 0 122194213.73052979 28648952.634185791 0 28648952.634185791 -294419071.56404114 0 0 0 0 4215730.2988586426 -13049101.585731506 0 -13049101.585731506 523042.29412078857 0 0 0 0 2483093.3365080655 -19797072.189562798 0 -19797072.189562798 21450748.886140242 0 0 0 0 12497296.911897674 -21955983.29127112 0 -21955983.29127112 13793804.249144733 0 0 0 0 4070892.174987793 -12144129.603111267 0 -12144129.603111267 -5130071.1465778351 0 0 0 0 16446516.106731012 -27578572.732840993 0 -27578572.732840993 22951599.40877926 0 0 0 0 38662903.617393494 -230707800.19451523 0 -230707800.19451523 -64514294.225494385 0 0 0 0 177198680.43798828 -160971149.57792664 0 -160971149.57792664 -392289882.48681641 0 0 0 0 -64602565.173958778 -114776065.98573995 0 -114776065.98573995 -169632419.08834839 0 0 0 0 365547200.38684082 -317295040.22373962 0 -317295040.22373962 -77905645.97819519 0 0 0 0 334827800.50695801 5831403.2066192627 0 5831403.2066192627 -184946307.47608948 0 0 0 0 -26786781.421554565 -1430621.2924194336 0 -1430621.2924194336 -174367267.86380005 0 0 0 0 36808621.483520508 152750785.53020477 0 152750785.53020477 78785097.413696289 0 0 0 0 121590187.50537109 95567422.162094116 0 95567422.162094116 72595508.943847656 0 0 0 0 394288867.67303467 403318703.266922 0 403318703.266922 319231767.89733887 0 0 0 0 8066361.0172958374 -360450837.14269257 0 -360450837.14269257 249276811.40280151 0 0 0 0 192599516.50595093 -50258899.01965332 0 -50258899.01965332 -81811589.090270996 0 0 0 0 1022781141.3584595 -173775689.10148621 0 -173775689.10148621 -71837604.895019531 0 0 0 0 255988892.34194946 -614434997.18684387 0 -614434997.18684387 639188326.89840698 0 0 0 0 -13066621.568481445 -211106099.87921143 0 -211106099.87921143 167970555.09610748 0 0 0 0 -217843760.40330505 -68643951.623977661 0 -68643951.623977661 409519523.19995117 0 0 0 0 1140238118.149704 -351135511.40739441 0 -351135511.40739441 -6685082.1137390137 0 0 0 0 -904745.08270451427 -2042275.5567816198 0 -2042275.5567816198 568149.4619704634 0 0 0 0 -159297147.01815796 39464879.588096619 0 39464879.588096619 109955356.56152344 0 0 0 0 430556255.2210083 272837452.58019257 0 272837452.58019257 -386076875.1321106 0 0 0 0 1015638197.4942322 -461704220.98606873 0 -461704220.98606873 365219121.86385441 0 0 0 0 -428224522.89970398 -129333608.68778229 0 -129333608.68778229 242966350.24629211 0 0 0 0 -1543024.1153868735 2099383.1470266953 0 2099383.1470266953 -687018.96023434773 0 0 0 0 -98554890.339294434 -117213072.00952148 0 -117213072.00952148 -136512143.2563324 0 0 0 0 60346408.729309082 -37220707.742706299 0 -37220707.742706299 -504937342.69369984 0 0 0 0 -15192169.192687988 -3597914.0337219238 0 -3597914.0337219238 -4164634.4078826904 0 0 0 0 -107951500.85797882 11531388.792867661 0 11531388.792867661 -5491584.1844024658 0 0 0 0 -139402269.89775085 52112249.128128052 0 52112249.128128052 79433940.914932251 0 0 0 0 878350.34808349609 182799334.36593628 0 182799334.36593628 198255065.85111809 0 0 0 0 46875426.480209351 135669433.57386208 0 135669433.57386208 -76353908.954574585 0 0 0 0 -52405893.747314453 87337498.220947266 0 87337498.220947266 -83335140.869203568 0 0 0 0 685130.59891545773 -12562962.033701953 0 -12562962.033701953 7484514.0969590992 0 0 0 0 380649.35936635733 -6332975.7482115403 0 -6332975.7482115403 4273421.3624452278 0 0 0 0 20309273.595336914 -28275672.398136139 0 -28275672.398136139 14594119.730911255 0 0 0 0 30160665.201667786 -48296933.979562759 0 -48296933.979562759 44011305.642868042 0 0 0 0 -1348172.4380686283 -3950832.9714912549 0 -3950832.9714912549 3478950.2470223866 0 0 0 0 -17253778.824584961 -28208014.5414505 0 -28208014.5414505 115936011.50368118 0 0 0 0 1595248.4807739258 -33135776.510795593 0 -33135776.510795593 49795976.564453125 0 0 0 0 88111.000228881836 -34750433.817092896 0 -34750433.817092896 54189135.023605347 0 0 0 0 1853449.4978637695 -42229227.590522766 0 -42229227.590522766 75423313.868049622 0 0 0 0 17651661.016113281 -35984515.838157654 0 -35984515.838157654 39435490.002132416 0 0 0 0 8519098.0635681152 -35567528.867538452 0 -35567528.867538452 51753504.849006653 0 0 0 0 -15649.354598999023 -28500031.542076111 0 -28500031.542076111 46203066.189743042 0 0 0 0 13986455.329208374 -31046612.407745361 0 -31046612.407745361 39555420.174057007 0 0 0 0 7431537.9154968262 -24346482.095375061 0 -24346482.095375061 39307446.870463848 0 0 0 0 -452897.43909430504 -1859287.6280335896 0 -1859287.6280335896 4985346.6721136868 0 0 0 0 -4671400.9074653983 5795563.9581473991 0 5795563.9581473991 -2047021.5526035735 0 0 0 0 -12741468.990722656 47721353.397979736 0 47721353.397979736 -429710782.40597916 0 0 0 0 -25824961.944137573 6473464.8988609314 0 6473464.8988609314 -4749569.7360229492 0 0 0 0 575463.41066125035 5457416.5765427127 0 5457416.5765427127 -2346011.2145539201 0 0 0 0 7449426.5317382812 -21914215.69203949 0 -21914215.69203949 50332191.270080566 0 0 0 0 -9396713.9219970703 138686499.24826813 0 138686499.24826813 -1330068712.6439362 0 0 0 0 3294.8170166015625 -7002398.0713043213 0 -7002398.0713043213 -851940.68745231628 0 0 0 0 -5783100.083929956 -510175.95347970724 0 -510175.95347970724 5269965.5241661072 0 0 0 0 -99272178.360137939 -492307720.93912506 0 -492307720.93912506 -289858835.02864075 0 0 0 0 1290221.815246582 -784074491.50745392 0 -784074491.50745392 -1115477198.4884605 0 0 0 0 -491152271.17913818 -711563329.89904785 0 -711563329.89904785 -385151049.89660645 0 0 0 0 -5000014.5554504395 -1037326875.845459 0 -1037326875.845459 -173418940.63999939 0 0 0 0 -323505871.92825317 -415740904.06057739 0 -415740904.06057739 16870436.092987061 0 0 0 0 -443639779.168396 -533114741.4644928 0 -533114741.4644928 -55548613.489356995 0 0 0 0 -154996069.44192505 -259323481.36909485 0 -259323481.36909485 -718007818.37623596 0 0 0 0 -33132535.606185913 -3384875.5510292053 0 -3384875.5510292053 -199931042.64582825 0 0 0 0 -158893072.62945557 53343212.893028259 0 53343212.893028259 -28105975.050094604 0 0 0 0 523619914.22180176 -300917136.3105011 0 -300917136.3105011 -58980428.544678688 0 0 0 0 77015470.057113647 27566167.293289185 0 27566167.293289185 103729457.36773682 0 0 0 0 -246351211.96636963 -317563515.3274231 0 -317563515.3274231 -264413740.99352646 0 0 0 0 -448344882.44335938 -415526560.25187683 0 -415526560.25187683 -85195836.225112915 0 0 0 0 190495982.3213501 -661555189.23127747 0 -661555189.23127747 6631699.1523284912 0 0 0 0 -439072709.65054321 -284399708.30184937 0 -284399708.30184937 370439703.80387115 0 0 0 0 466849032.20431519 -211837390.40167236 0 -211837390.40167236 -308881653.05160522 0 0 0 0 156305091.80450439 -224377368.87902832 0 -224377368.87902832 -239291015.41836548 0 0 0 0 -437342655.09222412 -389912233.77206421 0 -389912233.77206421 -245456759.2310257 0 0 0 0 7493515.4261779785 -551856418.87902069 0 -551856418.87902069 -272596218.46520996 0 0 0 0 -1410076975.5304565 -363211112.85415649 0 -363211112.85415649 -302774184.10906982 0 0 0 0 -751541824.11251831 -682852682.94643402 0 -682852682.94643402 -301265997.67724609 0 0 0 0 -976943028.66131592 -526248788.23379517 0 -526248788.23379517 -280454658.03723526 0 0 0 0 -443323799.70166016 -380877113.58978653 0 -380877113.58978653 -307271407.44680786 0 0 0 0 -1043446151.3707428 -768026628.60371399 0 -768026628.60371399 -812282025.06604004 0 0 0 0 -1924932628.6666107 -1098226428.581955 0 -1098226428.581955 36629448.983032227 0 0 0 0 -957383.6277923584 -210465146.82158661 0 -210465146.82158661 -209545398.35908508 0 0 0 0 3131478.4006651193 -5747211.1868918389 0 -5747211.1868918389 -5291649.3300191611 0 0 0 0 -980708345.86447144 -1157167302.153244 0 -1157167302.153244 -38956468.754348755 0 0 0 0 -839496801.065979 -447653269.8132019 0 -447653269.8132019 -2884165.8652648926 0 0 0 0 -978456548.18374634 -704865758.55080414 0 -704865758.55080414 -114333033.02148438 0 0 0 0 18302085.429138184 -154546766.18359375 0 -154546766.18359375 327062270.55892181 0 0 0 0 -8749126.2065124512 -183814041.5664978 0 -183814041.5664978 388986796.40515137 0 0 0 0 8284175.5432739258 -148375993.59358025 0 -148375993.59358025 485071487.40335083 0 0 0 0 49732298.128601074 -256848697.5284729 0 -256848697.5284729 426500233.03880692 0 0 0 0 36845121.343994141 -215158345.12757874 0 -215158345.12757874 344813396.72273254 0 0 0 0 19104720.716850281 -167382237.42500687 0 -167382237.42500687 282570824.44206238 0 0 0 0 -51398.067413330078 -188106167.91815948 0 -188106167.91815948 351723483.72407532 0 0 0 0 2521769.2858276367 -95008411.671863556 0 -95008411.671863556 250682323.55211639 0 0 0 0 -68521146.219909668 -138236809.86639786 0 -138236809.86639786 227497374.70187378 0 0 0 0 -40496747.529785156 -138723220.71825027 0 -138723220.71825027 350183669.28312683 0 0 0 0 71639091.738830566 -193153217.34575653 0 -193153217.34575653 189885228.31497192 0 0 0 0 -31549903.427490234 -148002601.2862854 0 -148002601.2862854 178896334.95748329 0 0 0 0 41741547.675872803 -213090795.40552902 0 -213090795.40552902 200599524.70930862 0 0 0 0 152130003.18112183 -300473568.21158981 0 -300473568.21158981 249627164.14249802 0 0 0 0 150543485.80117798 -96301422.729923248 0 -96301422.729923248 300409617.99752045 0 0 0 0 66619793.532867432 -183415485.59783936 0 -183415485.59783936 250989026.57987976 0 0 0 0 58577672.655181885 -269466932.33159256 0 -269466932.33159256 114319036.48283386 0 0 0 0 -23487043.440347746 -7635536.5317679495 0 -7635536.5317679495 5667906.3656362966 0 0 0 0 5942202.4714813232 -177601387.36259747 0 -177601387.36259747 251326071.27278137 0 0 0 0 -5397695.9255981445 -9501813.8040351868 0 -9501813.8040351868 3272207.273235321 0 0 0 0 -12233670.299224854 -14254590.293388367 0 -14254590.293388367 14660809.05109787 0 0 0 0 -18052216.093243569 -11993679.356276058 0 -11993679.356276058 11110221.505938824 0 0 0 0 -3608306.6949563324 -1679580.7078253925 0 -1679580.7078253925 1949074.7322199605 0 0 0 0 -18213383.770629883 -161316684.25547028 0 -161316684.25547028 595976557.96166992 0 0 0 0 245441686.85116577 -202293750.94768143 0 -202293750.94768143 122777828.17919922 0 0 0 0 -17185738.491394043 -25037084.312240601 0 -25037084.312240601 -13332668.053527832 0 0 0 0 -13918582.60425292 -14767892.256900627 0 -14767892.256900627 -279846.1644802466 0 0 0 0 -6138807.5728759766 -28620856.866119385 0 -28620856.866119385 -43637410.120491028 0 0 0 0 65512687.869750977 112220423.5772438 0 112220423.5772438 -26040050.725959778 0 0 0 0 -104897.88921403885 -4146441.4938110597 0 -4146441.4938110597 -854762.67740128422 0 0 0 0 -3685623.2130737305 -17501248.203643799 0 -17501248.203643799 -31805754.515487671 0 0 0 0 -25189155.129211426 -31510739.385543823 0 -31510739.385543823 -17747157.462432861 0 0 0 0 -22040074.908531189 -24739164.39563179 0 -24739164.39563179 -12279907.60383606 0 0 0 0 -34487136.960464478 -13840894.529441833 0 -13840894.529441833 42392102.481239319 0 0 0 0 -45652750.551818848 -46246112.645751953 0 -46246112.645751953 -14008284.817579269 0 0 0 0 -20440879.046089143 -6426350.825500302 0 -6426350.825500302 10611341.555891369 0 0 0 0 155323330.4895494 24836428.314276129 0 24836428.314276129 12864211.11240387 0 0 0 0 428324.4614302218 1607759.4062703066 0 1607759.4062703066 2052899.0427223518 0 0 0 0 64307876.869873047 -279391968.2638855 0 -279391968.2638855 971199826.10063553 0 0 0 0 161060164.30975342 402603855.57234573 0 402603855.57234573 564427260.57141876 0 0 0 0 -250528658.54614258 78244904.740493774 0 78244904.740493774 767530417.53090894 0 0 0 0 -184347792.84951019 458681828.07705307 0 458681828.07705307 1088888666.6640167 0 0 0 0 -227438821.4019165 339930434.13220215 0 339930434.13220215 772619821.69022346 0 0 0 0 -49812029.847930908 206930353.5024147 0 206930353.5024147 685311062.3768158 0 0 0 0 191562052.26025391 442958984.01065063 0 442958984.01065063 782953552.17712402 0 0 0 0 -230644965.37210083 200149370.99573517 0 200149370.99573517 965622070.70469284 0 0 0 0 -775138.70525251329 -7407764.1169518679 0 -7407764.1169518679 -2608643.9981675665 0 0 0 0 -233387.76995849609 -407113.42460823059 0 -407113.42460823059 -2559688.4926376343 0 0 0 0 -58075078.152587891 -358861768.92778778 0 -358861768.92778778 -177117838.65522003 0 0 0 0 12243892.524261475 -185133667.19915009 0 -185133667.19915009 325455592.97043228 0 0 0 0 -5448484.7193260938 -7591403.1726835594 0 -7591403.1726835594 994209.74997132272 0 0 0 0 6206631.3949584961 -4706758.4378433228 0 -4706758.4378433228 -16164109.790283203 0 0 0 0 27825077.070877075 -131186172.84239101 0 -131186172.84239101 435529770.5713501 0 0 0 0 906597.10737469792 -4575018.7135445941 0 -4575018.7135445941 1877290.7474083677 0 0 0 0 76335.958251953125 -22594544.421844482 0 -22594544.421844482 -2413743.6750211716 0 0 0 0 169963.58911114931 -3327095.6664589308 0 -3327095.6664589308 -3176684.3933595037 0 0 0 0 5989047451.0960083 2152905379.6555099 0 2152905379.6555099 -2776630108.6149292 0 0 0 0 -2568619.6390533447 -1531980939.6476746 0 -1531980939.6476746 1823933759.76754 0 0 0 0 -138543596.56161499 1311036545.6556396 0 1311036545.6556396 2167567684.5645885 0 0 0 0 2940275.4524898976 -4618230.6012208536 0 -4618230.6012208536 5614589.0376861766 0 0 0 0 -1526506266.8282166 -543636482.08847809 0 -543636482.08847809 2576240840.8818359 0 0 0 0 659820785.57239532 -135797096.37382793 0 -135797096.37382793 -75258167.49080658 0 0 0 0 558034.47979736328 -63574074.534591675 0 -63574074.534591675 37183309.594959259 0 0 0 0 9887448.8401924223 -14111158.055542491 0 -14111158.055542491 14711490.529362306 0 0 0 0 345168.99766540527 -67644722.392219543 0 -67644722.392219543 -23828596.30329895 0 0 0 0 1204380.4504852295 -42555766.548789978 0 -42555766.548789978 7216826.8322219849 0 0 0 0 11794799.570373535 -29040582.451919556 0 -29040582.451919556 15527433.879999161 0 0 0 0 2797053.8373413086 -33774884.488632202 0 -33774884.488632202 17614702.3542099 0 0 0 0 7861989.3987426758 -43452284.109113693 0 -43452284.109113693 -3386129.8157196045 0 0 0 0 31021159.533172607 -17887732.367324829 0 -17887732.367324829 47371303.57963562 0 0 0 0 4389822.9724960327 -40827555.207580566 0 -40827555.207580566 32190269.547271729 0 0 0 0 -323118.83784484863 -35648433.937931061 0 -35648433.937931061 48789941.398040771 0 0 0 0 -15590181.280036926 -59350324.307887077 0 -59350324.307887077 27603628.349853516 0 0 0 0 -5481050.1303405762 -33035912.446678162 0 -33035912.446678162 25369017.982894897 0 0 0 0 -6623984.7545776367 -29399256.060007095 0 -29399256.060007095 30371037.513122559 0 0 0 0 5989033.7731628418 -65813610.543411255 0 -65813610.543411255 56368436.319702148 0 0 0 0 -662213.46682739258 -22016354.328414917 0 -22016354.328414917 14321643.105979919 0 0 0 0 8368103.222946167 -56205337.382760048 0 -56205337.382760048 -17668616.624328613 0 0 0 0 -23290442.65725708 -75058177.957305908 0 -75058177.957305908 -12087643.920368195 0 0 0 0 -212877849.1115303 79436270.900220037 0 79436270.900220037 214752828.82698059 0 0 0 0 -180327277.37316751 -622442006.47034335 0 -622442006.47034335 -324374529.46237183 0 0 0 0 17696653.33288531 -23236062.316921413 0 -23236062.316921413 20318437.769406557 0 0 0 0 -20231629.940979004 -30767018.579605103 0 -30767018.579605103 -8442029.8404541016 0 0 0 0 -409813883.28442383 -415830051.18501282 0 -415830051.18501282 561823420.23594666 0 0 0 0 -502743537.98854828 -205141378.60735798 0 -205141378.60735798 1364924698.3030243 0 0 0 0 -43605908.896377563 404436663.55033302 0 404436663.55033302 1464272163.7933884 0 0 0 0 516740111.40377808 39696755.354797363 0 39696755.354797363 -275893739.1295836 0 0 0 0 -153810844.84654236 229478809.53510666 0 229478809.53510666 956160173.94024658 0 0 0 0 -59633434.534942627 170212294.12692261 0 170212294.12692261 576946319.40641022 0 0 0 0 -147801861.8772583 265645647.08997345 0 265645647.08997345 1132798445.8485184 0 0 0 0 -51425812.063812256 479683900.09599686 0 479683900.09599686 1564076506.1166382 0 0 0 0 -2596193.1232430339 -2098529.2389263585 0 -2098529.2389263585 3588152.9154669344 0 0 0 0 -36176859.673919678 383140828.88482285 0 383140828.88482285 930996359.25662994 0 0 0 0 7046737.8252601624 -58172991.58382082 0 -58172991.58382082 618873066.86401367 0 0 0 0 1180770.74792099 -63214928.059945107 0 -63214928.059945107 1406475238.8917007 0 0 0 0 259033547.61723328 -68703549.200298309 0 -68703549.200298309 87247652.2527771 0 0 0 0 302523765.02764893 -287113371.11991692 0 -287113371.11991692 703609003.33798981 0 0 0 0 -171232493.52294922 -111307005.42407227 0 -111307005.42407227 461681674.52205467 0 0 0 0 -29147496.849121094 -86416293.110622406 0 -86416293.110622406 635622091.02674675 0 0 0 0 9434239.8759765625 -111031834.46359253 0 -111031834.46359253 120022923.17615509 0 0 0 0 26179513.84202233 -32189166.758937262 0 -32189166.758937262 21406552.517124452 0 0 0 0 -148427858.90802002 -370427306.50737381 0 -370427306.50737381 -279346259.26569176 0 0 0 0 -24450758.748168945 85224914.236745834 0 85224914.236745834 -67414701.081764221 0 0 0 0 -36427501.261779785 -340854861.77401733 0 -340854861.77401733 -313411441.02013397 0 0 0 0 112729511.28295135 -24142227.089422226 0 -24142227.089422226 -118607096.84044647 0 0 0 0 -292649225.24584961 -225488445.35004044 0 -225488445.35004044 -161182644.24067211 0 0 0 0 111252935.76895142 -98322310.186870575 0 -98322310.186870575 95239456.988490105 0 0 0 0 403671304.20205688 -150435601.79350853 0 -150435601.79350853 -223491060.35729599 0 0 0 0 90894033.118347168 -173069830.882967 0 -173069830.882967 -129948423.45624542 0 0 0 0 -367164523.73095703 -300597245.94329834 0 -300597245.94329834 -151710044.13641167 0 0 0 0 543311136.25204468 137120241.47319317 0 137120241.47319317 -157773748.55667114 0 0 0 0 231605821.53691101 63369116.530239105 0 63369116.530239105 -316265584.8857193 0 0 0 0 40623781.627960205 -131800230.37490463 0 -131800230.37490463 10863569.421020508 0 0 0 0 -146907986.10995197 -269350108.15819949 0 -269350108.15819949 -569285297.31324768 0 0 0 0 357707.55782708526 -2020194.2014052011 0 -2020194.2014052011 3355483.7061456405 0 0 0 0 123105731.52558899 -120124556.2531929 0 -120124556.2531929 -26803738.34116745 0 0 0 0 58386716.922763824 -82398211.327105522 0 -82398211.327105522 81036859.879951477 0 0 0 0 86613224.82510376 -138432026.96286917 0 -138432026.96286917 -50528107.758457184 0 0 0 0 4451511.5327662081 -2672924.6241115108 0 -2672924.6241115108 -2009605.6962249577 0 0 0 0 -24602553.488174438 -179941199.59105301 0 -179941199.59105301 245353381.97425461 0 0 0 0 -256414907.98519897 -38883267.168016434 0 -38883267.168016434 164670726.7302475 0 0 0 0 249008313.40501404 17998067.54863739 0 17998067.54863739 69171340.955867767 0 0 0 0 -347526893.8523407 532898261.75705338 0 532898261.75705338 334595393.49684906 0 0 0 0 46091388.702270508 95157297.583126068 0 95157297.583126068 226502296.94203067 0 0 0 0 549136896.68182373 337553007.63948441 0 337553007.63948441 291290930.81054688 0 0 0 0 -120379916.98608398 30076351.372737885 0 30076351.372737885 1080159796.01931 0 0 0 0 -95040576.253124237 -44682006.181124687 0 -44682006.181124687 -15326060.719291687 0 0 0 0 -51366860.661222458 -281680230.05587101 0 -281680230.05587101 234802965.37982941 0 0 0 0 -48397995.865774155 -304285492.78086948 0 -304285492.78086948 258595507.16042328 0 0 0 0 -128675751.3500824 -99485895.807758331 0 -99485895.807758331 126640759.99236727 0 0 0 0 138439671.22891235 -227333715.3770256 0 -227333715.3770256 114782621.45772266 0 0 0 0 454324507.69911194 -313755837.19353485 0 -313755837.19353485 23770533.846206665 0 0 0 0 240148419.22146606 -601866021.03347397 0 -601866021.03347397 556478952.9558754 0 0 0 0 28073444.771469116 -101794258.34957123 0 -101794258.34957123 84125643.843048096 0 0 0 0 312172296.98709106 -72608704.969997406 0 -72608704.969997406 -56249078.233810425 0 0 0 0 -111951361.79373407 -36681238.953982741 0 -36681238.953982741 54611419.572525024 0 0 0 0 -38219953.808837891 343620780.28939438 0 343620780.28939438 819474410.91883087 0 0 0 0 76169788.978607178 -214778215.25687027 0 -214778215.25687027 488490045.14596558 0 0 0 0 -7051532.9882174581 -6026276.6381841525 0 -6026276.6381841525 8951747.4087960869 0 0 0 0 -111760860.1545682 -16070774.136315867 0 -16070774.136315867 9004979.2922210693 0 0 0 0 -8594089.6849975586 -9587246.986656189 0 -9587246.986656189 3924253.3311157227 0 0 0 0 -8332087.2459411621 -7125396.4225692749 0 -7125396.4225692749 3685233.1493835449 0 0 0 0 -4809313.2008370608 -6393171.5191641189 0 -6393171.5191641189 -162041.45082137361 0 0 0 0 -33165886.964859009 -6563551.3276138306 0 -6563551.3276138306 3384244.275806427 0 0 0 0 -3397723.8331743442 1409946.5500886738 0 1409946.5500886738 -374106.38501505554 0 0 0 0 -116990264.74649048 2570461.1971168518 0 2570461.1971168518 67928439.043762207 0 0 0 0 94178990.619384766 -11097247.838638306 0 -11097247.838638306 -32143266.338623047 0 0 0 0 -6305714.1163330078 -7347958.880947113 0 -7347958.880947113 3119935.2018737793 0 0 0 0 -17622035.61941649 -18501704.087391458 0 -18501704.087391458 -3247956.4595252965 0 0 0 0 -583218.78720092773 -14625516.005622864 0 -14625516.005622864 7816915.956237793 0 0 0 0 57310406.125488281 -143075275.73876953 0 -143075275.73876953 78659024.290935516 0 0 0 0 45127745.255939484 16554100.019553185 0 16554100.019553185 -74099415.864151001 0 0 0 0 6500339.8282477036 33315.447466872633 0 33315.447466872633 -3925421.1587689705 0 0 0 0 -20324403.922312845 -9438417.5313076526 0 -9438417.5313076526 -1569481.6148398444 0 0 0 0 -210808965.67475891 50689260.120277405 0 50689260.120277405 945751.3186416626 0 0 0 0 -162078168.00994873 -21605043.606567383 0 -21605043.606567383 -22665461.473029137 0 0 0 0 -120235321.28860474 -101348873.16196442 0 -101348873.16196442 -63400995.623550415 0 0 0 0 -263444746.44871521 -85525309.055408478 0 -85525309.055408478 102450585.66625977 0 0 0 0 -137617137.08197784 -176882734.14297104 0 -176882734.14297104 291622468.67305756 0 0 0 0 -72818607.469184875 -136820925.2279377 0 -136820925.2279377 65935566.185668945 0 0 0 0 -28761277.457870483 -28120525.683088303 0 -28120525.683088303 -16741644.524246216 0 0 0 0 -49031468.307739258 -106349043.11338806 0 -106349043.11338806 101318438.21209145 0 0 0 0 -96981286.903182983 -268951320.67998886 0 -268951320.67998886 421760017.37381744 0 0 0 0 -19698051.596038818 -175873997.69111252 0 -175873997.69111252 65299094.870358467 0 0 0 0 -160568062.10189819 -148894424.53555679 0 -148894424.53555679 79011367.269800186 0 0 0 0 -75628463.282180786 -188702466.04025269 0 -188702466.04025269 75467496.56978035 0 0 0 0 -63058158.425994873 -209501001.88388062 0 -209501001.88388062 31686514.024291992 0 0 0 0 -155876213.50846863 -141001396.60918045 0 -141001396.60918045 103370051.40031242 0 0 0 0 -169396908.7209053 -104145375.88298607 0 -104145375.88298607 39032680.676803589 0 0 0 0 -52604122.628143311 -250588661.30887604 0 -250588661.30887604 205436970.59308243 0 0 0 0 -492268313.6490097 89704189.661491394 0 89704189.661491394 180872167.63238525 0 0 0 0 -272856053.90649414 -125322174.89283943 0 -125322174.89283943 407668499.42358398 0 0 0 0 -221262611.24395752 -101560144.55112457 0 -101560144.55112457 250903356.87003613 0 0 0 0 -148238374.99649811 -296113958.35444927 0 -296113958.35444927 266976966.95753098 0 0 0 0 -24064750.750411987 -123840131.5197258 0 -123840131.5197258 77963716.558963776 0 0 0 0 322998099.28260803 -494466505.78809547 0 -494466505.78809547 340419883.27941132 0 0 0 0 2040839.5517988876 1190635.1682629474 0 1190635.1682629474 -1638952.9121127091 0 0 0 0 15867794.471435547 -206580627.18307495 0 -206580627.18307495 284908306.44067383 0 0 0 0 -43617689.166687012 -288831856.19750214 0 -288831856.19750214 229785676.83431435 0 0 0 0 -184828024.8394928 -305742279.75894356 0 -305742279.75894356 409943965.21961212 0 0 0 0 -238329035.53108215 -136824832.65705299 0 -136824832.65705299 271448076.88352633 0 0 0 0 3368312.6604983956 2105243.3906689435 0 2105243.3906689435 -2379997.7761930376 0 0 0 0 -93353744.655590057 -196681119.68455935 0 -196681119.68455935 225997256.18455505 0 0 0 0 -142566806.70650482 -57564109.146654129 0 -57564109.146654129 207525579.15744781 0 0 0 0 25236704.866134644 -140798472.36306 0 -140798472.36306 222358154.24116421 0 0 0 0 -12275071.0858078 -198980122.36205101 0 -198980122.36205101 307690502.16597748 0 0 0 0 2121894.1636091918 1339796.5716408454 0 1339796.5716408454 -1524049.5296939313 0 0 0 0 133131839.08029938 -333586026.35201359 0 -333586026.35201359 552845767.32590485 0 0 0 0 66585765.788635254 110841262.30148697 0 110841262.30148697 475039798.92196035 0 0 0 0 66265157.519920349 -64670604.446425438 0 -64670604.446425438 74171856.972595215 0 0 0 0 48295556.383834839 -70140343.697010994 0 -70140343.697010994 236214154.16893005 0 0 0 0 137359444.19226074 -9169675.6282310486 0 -9169675.6282310486 37109186.809432983 0 0 0 0 -17024541.391174316 -40081038.591236115 0 -40081038.591236115 40920068.214572906 0 0 0 0 30701422.78137207 -37515967.118083954 0 -37515967.118083954 179347920.40433502 0 0 0 0 7370270.8355164528 -7286667.4034119509 0 -7286667.4034119509 5224219.9938161224 0 0 0 0 -55386278.438293457 -13640189.332946777 0 -13640189.332946777 63065412.802284241 0 0 0 0 104161538.06382751 -276666733.24248695 0 -276666733.24248695 321377297.15493393 0 0 0 0 56244542.939117432 -184730558.70212936 0 -184730558.70212936 297557308.46791077 0 0 0 0 -132650680.9473877 -1420095.3151931763 0 -1420095.3151931763 36681444.769393921 0 0 0 0 6258489.9010498822 -2419501.0910010636 0 -2419501.0910010636 -558603.46303611249 0 0 0 0 21098835.54637146 -200164004.11315918 0 -200164004.11315918 300696425.22421455 0 0 0 0 39160947.227035522 -177073475.86767769 0 -177073475.86767769 211734435.73719406 0 0 0 0 330480044.04102325 -469367998.97340012 0 -469367998.97340012 311337885.95547485 0 0 0 0 42969229.386779785 -253954977.89767075 0 -253954977.89767075 129804787.96039581 0 0 0 0 -224537390.36637878 -241545554.43067646 0 -241545554.43067646 139847053.85490417 0 0 0 0 -465504891.83847809 13840844.55847168 0 13840844.55847168 13324708.988964081 0 0 0 0 2835028.0317203179 -369541.71766977757 0 -369541.71766977757 -1234250.3681434765 0 0 0 0 -31312048.121871948 -50862396.162679672 0 -50862396.162679672 15774519.3508479 0 0 0 0 -105196946.82498169 -198982438.4219842 0 -198982438.4219842 -92868696.397727966 0 0 0 0 53172231.992450714 -154338177.26700974 0 -154338177.26700974 76707073.535736084 0 0 0 0 85977710.376022339 -46510523.976924896 0 -46510523.976924896 12361969.714911461 0 0 0 0 -270128395.20926571 34324380.495994806 0 34324380.495994806 26349875.705871582 0 0 0 0 -552314258.26098633 33025956.550392151 0 33025956.550392151 32625263.504042625 0 0 0 0 1776314.7570351809 -1784827.8296201061 0 -1784827.8296201061 -987200.10913028568 0 0 0 0 118347627.06697273 -188160783.97516823 0 -188160783.97516823 -320856659.98518372 0 0 0 0 -327411696.98512268 -458711754.49042892 0 -458711754.49042892 -226672929.53213882 0 0 0 0 -19793926.253417969 -173273487.24248123 0 -173273487.24248123 370891505.89637566 0 0 0 0 -1278279.9511408061 -1995460.9168185107 0 -1995460.9168185107 1295304.1254626354 0 0 0 0 -7621867.8716378212 -294620780.01823443 0 -294620780.01823443 -143325012.99098587 0 0 0 0 -6462570.6170349121 -311957842.73164368 0 -311957842.73164368 -25963406.459815979 0 0 0 0 -73157410.761016846 -191628033.91119003 0 -191628033.91119003 370283510.41011047 0 0 0 0 -12663196.2719841 -29290264.517580032 0 -29290264.517580032 496444421.09912491 0 0 0 0 67172829.228271484 -162858823.95772552 0 -162858823.95772552 342429958.51076508 0 0 0 0 495654878.7772522 -513881919.38617325 0 -513881919.38617325 439939131.30672288 0 0 0 0 -42735480.371253967 -156072007.8690052 0 -156072007.8690052 468815116.15550232 0 0 0 0 34403451.58265686 -123954444.86979485 0 -123954444.86979485 275717825.36569595 0 0 0 0 -70481702.268508911 -373004451.47098541 0 -373004451.47098541 334652701.79759216 0 0 0 0 483716.76885204762 1124161.9804868251 0 1124161.9804868251 -517476.78634633124 0 0 0 0 -475931140.3151474 93528379.977378845 0 93528379.977378845 172413717.48976898 0 0 0 0 -153976796.97236633 -88863843.813049316 0 -88863843.813049316 44906049.210514069 0 0 0 0 -125058105.81646729 -116055214.44847107 0 -116055214.44847107 41961749.955944061 0 0 0 0 -143233752.05473328 -80206244.817592621 0 -80206244.817592621 34247748.379245758 0 0 0 0 -167288330.80177498 -51459152.376348495 0 -51459152.376348495 25261698.692260742 0 0 0 0 -157249889.9677887 9109848.9669532776 0 9109848.9669532776 17944865.172134399 0 0 0 0 -7389237.910984464 -1836991.8274959028 0 -1836991.8274959028 6393015.9753964841 0 0 0 0 223353394.09295654 -444293706.39422226 0 -444293706.39422226 610736139.64772797 0 0 0 0 184635543.76519775 -278492866.4984169 0 -278492866.4984169 295216840.02244604 0 0 0 0 548088850.53964233 -321203645.33332062 0 -321203645.33332062 138228831.17108154 0 0 0 0 241800543.79209137 -143718517.19902611 0 -143718517.19902611 592206099.90535736 0 0 0 0 241993983.20334625 -155117526.38299561 0 -155117526.38299561 79032995.423179626 0 0 0 0 282483546.2747345 -326458589.14196396 0 -326458589.14196396 296732445.71875 0 0 0 0 53349632.763290405 16260127.51367569 0 16260127.51367569 9983566.7904663086 0 0 0 0 58148055.740921021 17853385.547567368 0 17853385.547567368 -12212602.178985596 0 0 0 0 24627853.600070953 7537501.9347963333 0 7537501.9347963333 14661803.250717163 0 0 0 0 61189493.266448975 11091269.680992126 0 11091269.680992126 -21779915.287002563 0 0 0 0 59253781.22845459 24158063.110916138 0 24158063.110916138 23080781.383636475 0 0 0 0 -1621801.4226813018 -2745253.6793893874 0 -2745253.6793893874 -292262.15509063005 0 0 0 0 55213534.200622559 32350622.891326904 0 32350622.891326904 40057593.845001221 0 0 0 0 58761769.18939209 10934115.999515533 0 10934115.999515533 -18253552.603286743 0 0 0 0 15998529.657615043 3930171.9593811706 0 3930171.9593811706 -10984985.824865464 0 0 0 0 169213768.38841248 -25241388.126750946 0 -25241388.126750946 57517383.337427139 0 0 0 0 604050398.8012619 -163992875.3758316 0 -163992875.3758316 -41095019.368888855 0 0 0 0 570232557.60417938 -567696420.25982666 0 -567696420.25982666 325755055.21748352 0 0 0 0 251917442.65748596 -412796955.90087128 0 -412796955.90087128 252236789.52952576 0 0 0 0 785688613.09456635 -251997968.72314453 0 -251997968.72314453 -3744620.5593261719 0 0 0 0 -3301549.0610639304 -2500700.528317973 0 -2500700.528317973 -460130.45610025525 0 0 0 0 -5128368.6229858398 34766472.378612518 0 34766472.378612518 17744478.553359985 0 0 0 0 54543868.322387695 -43980096.505783081 0 -43980096.505783081 -42923761.993835449 0 0 0 0 -29008860.539143272 -31301848.614849776 0 -31301848.614849776 -20853427.834838644 0 0 0 0 -100232905.72544861 -50009495.259872437 0 -50009495.259872437 26325907.638652802 0 0 0 0 -92741355.41394043 -48060058.870800018 0 -48060058.870800018 25411371.020828247 0 0 0 0 -72968923.564483643 -72517074.525608063 0 -72517074.525608063 -1687455.4063777924 0 0 0 0 -136688952.35324097 -89356375.409519196 0 -89356375.409519196 7641450.785774231 0 0 0 0 -80713215.743331909 -96325693.142087936 0 -96325693.142087936 -74659148.614837646 0 0 0 0 53503698.137115479 38140090.146507263 0 38140090.146507263 -14241636.767669678 0 0 0 0 -128314669.77270508 -108539963.3069334 0 -108539963.3069334 -60487406.312800884 0 0 0 0 -55254277.269375466 -30069505.378740899 0 -30069505.378740899 12540871.620522503 0 0 0 0 20300392.536831811 -16190900.838147938 0 -16190900.838147938 -44455302.33985348 0 0 0 0 46159864.582489014 17316458.196933746 0 17316458.196933746 -4955936.7746963501 0 0 0 0 69511839.210281372 4494375.1726989746 0 4494375.1726989746 -61177633.870788574 0 0 0 0 68557373.734588623 -174430.96250915527 0 -174430.96250915527 -57154587.715133667 0 0 0 0 -137397057.46844482 -148977354.87542152 0 -148977354.87542152 -134506916.92692113 0 0 0 0 18620405.218780041 -14158797.086215146 0 -14158797.086215146 -44846729.067382365 0 0 0 0 -5031252.9928741455 -59812204.941060066 0 -59812204.941060066 -143064686.69572067 0 0 0 0 -168385264.5592041 -168728118.9297266 0 -168728118.9297266 -109607598.95465183 0 0 0 0 -137088586.69848633 -153041073.28318787 0 -153041073.28318787 -178555524.81959534 0 0 0 0 66696280.570426941 8490166.8786754608 0 8490166.8786754608 -55076072.70425415 0 0 0 0 64781708.65788269 -6815586.4188690186 0 -6815586.4188690186 -67358518.24420166 0 0 0 0 61130163.741851807 -9939734.0081596375 0 -9939734.0081596375 -42438377.257125854 0 0 0 0 646578.03667620569 1250687.1858152226 0 1250687.1858152226 -175563.40767748468 0 0 0 0 66217973.499526978 13145327.511566162 0 13145327.511566162 -85853722.214538574 0 0 0 0 63605217.262969971 3652895.5730438232 0 3652895.5730438232 -58493344.61391449 0 0 0 0 65990217.341949463 8860683.1814422607 0 8860683.1814422607 -66218023.069412231 0 0 0 0 71304493.795593262 -13008600.447227478 0 -13008600.447227478 -75293807.99520874 0 0 0 0 64380526.976402283 -8656013.3650093079 0 -8656013.3650093079 -75796784.371124268 0 0 0 0 70533772.937713623 -17657797.121788025 0 -17657797.121788025 -102825232.36945724 0 0 0 0 57677937.347351074 2655173.2681350708 0 2655173.2681350708 -73360686.428894043 0 0 0 0 33526837.499008179 37907208.126678467 0 37907208.126678467 -115068012.33205414 0 0 0 0 50694037.945083618 31667780.736793518 0 31667780.736793518 -64968779.920490265 0 0 0 0 19201271.212417603 13858747.207384109 0 13858747.207384109 -21864171.284385681 0 0 0 0 6576373.2837814465 1323390.1314013042 0 1323390.1314013042 -4911358.0776496008 0 0 0 0 2412974.5232543945 45649691.141651154 0 45649691.141651154 -78752212.149215698 0 0 0 0 27030094.338933945 15361250.620302677 0 15361250.620302677 -102482704.60340881 0 0 0 0 -604249.14073181152 63681201.602310181 0 63681201.602310181 -139126869.59656525 0 0 0 0 110853063.68948364 1887089.1960449219 0 1887089.1960449219 -367883285.81713867 0 0 0 0 126133963.70071411 -55417369.830429077 0 -55417369.830429077 -153026964.55269623 0 0 0 0 88543641.807884216 -74806866.18857193 0 -74806866.18857193 -109167258.79501343 0 0 0 0 91492793.935707092 -11821216.355166435 0 -11821216.355166435 -181367107.33700562 0 0 0 0 25233933.864089966 -208626637.65727997 0 -208626637.65727997 93189248.187988281 0 0 0 0 25777329.678604722 -131831306.47259542 0 -131831306.47259542 -63732886.552932739 0 0 0 0 248300305.04985046 -243245557.68989563 0 -243245557.68989563 -206358339.59140778 0 0 0 0 155997784.35003662 15295995.334892273 0 15295995.334892273 -312264380.42471313 0 0 0 0 158532598.04347229 -269331608.33254242 0 -269331608.33254242 318393031.15705872 0 0 0 0 1477665.5381735116 -3070472.8964214735 0 -3070472.8964214735 -8523003.586197082 0 0 0 0 -78040016.851379395 -73539589.970397949 0 -73539589.970397949 45765684.71975708 0 0 0 0 3554808.219367221 -8185743.0446973965 0 -8185743.0446973965 -6312766.8845400736 0 0 0 0 -11882504.921142578 -91193531.760536194 0 -91193531.760536194 -12214844.60194397 0 0 0 0 3774931.9926147461 -69812623.242031097 0 -69812623.242031097 -67904171.615966797 0 0 0 0 269992399.88175964 -17789583.797231674 0 -17789583.797231674 -167712595.39718246 0 0 0 0 14721449.173707411 -39348870.944440037 0 -39348870.944440037 -11350472.15836305 0 0 0 0 -471893692.7395668 -317060389.71868277 0 -317060389.71868277 -1277790233.3213043 0 0 0 0 519221627.13214111 -204164360.52998376 0 -204164360.52998376 -40160082.142631054 0 0 0 0 8238708.4064351469 13780966.284994185 0 13780966.284994185 -58171400.001163892 0 0 0 0 -1276686604.429718 -927335790.74297333 0 -927335790.74297333 -496539824.92617798 0 0 0 0 -2556804923.8736877 -1115292359.5254211 0 -1115292359.5254211 -1030386624.7423401 0 0 0 0 -678756876.2596283 -1595710889.4261856 0 -1595710889.4261856 -1404658149.2479935 0 0 0 0 -53420480.112686157 -88074880.048052788 0 -88074880.048052788 -4894011.9057309628 0 0 0 0 817893.89724586904 -55336793.336094171 0 -55336793.336094171 -7399070.4540528711 0 0 0 0 -76285233.270571709 -121145267.49243306 0 -121145267.49243306 136425536.34537315 0 0 0 0 -76140967.021499634 -125426613.37693214 0 -125426613.37693214 163493740.9057312 0 0 0 0 8916966.8805541992 -52453369.469436646 0 -52453369.469436646 -91215277.656173706 0 0 0 0 -18573909.96150589 -66069620.528388977 0 -66069620.528388977 -67314839.939941406 0 0 0 0 8445499.8330688477 -58836489.852607727 0 -58836489.852607727 -72401395.189826965 0 0 0 0 12631089.118252877 -33254817.944483437 0 -33254817.944483437 -55986390.655083284 0 0 0 0 19524125.768432617 -50503833.764202118 0 -50503833.764202118 -66154633.259124756 0 0 0 0 62779488.330474854 -36159481.861618042 0 -36159481.861618042 -77735766.239562988 0 0 0 0 40129056.719482422 -86471562.999069214 0 -86471562.999069214 -60313722.465419769 0 0 0 0 33468046.304962158 -108713755.32394409 0 -108713755.32394409 -117608355.57343292 0 0 0 0 60550103.560180664 -55335730.530723572 0 -55335730.530723572 -119139548.19271851 0 0 0 0 61277212.068637848 -39360261.76176095 0 -39360261.76176095 -82142608.136245728 0 0 0 0 67603659.507995605 -29097074.076332092 0 -29097074.076332092 -94345390.036735535 0 0 0 0 87813433.918144226 -26323545.886198044 0 -26323545.886198044 -100007166.11172485 0 0 0 0 14381693.532651033 -22304842.764296085 0 -22304842.764296085 -56554924.487645552 0 0 0 0 58241626.816864014 -33252433.47641468 0 -33252433.47641468 -73154172.002929688 0 0 0 0 62405964.13772583 -28660967.020217896 0 -28660967.020217896 -65839271.451858521 0 0 0 0 64249551.38848877 -23544018.887741089 0 -23544018.887741089 -57819758.790588379 0 0 0 0 11642407.508815765 -46243405.132963359 0 -46243405.132963359 -82008500.19171524 0 0 0 0 -6726770.3985341787 -12578917.100572161 0 -12578917.100572161 -10998745.966852313 0 0 0 0 -79186187.964477539 -282849801.18776321 0 -282849801.18776321 -71180239.679916143 0 0 0 0 -134220662.6394043 -165759681.13936138 0 -165759681.13936138 -122678693.48102379 0 0 0 0 4993718.1358032227 -240987829.15634918 0 -240987829.15634918 -195880548.13488197 0 0 0 0 365886395.75579834 -158454910.70236683 0 -158454910.70236683 -267205898.4174943 0 0 0 0 48591671.554573059 -421616202.6182735 0 -421616202.6182735 -131221115.1673317 0 0 0 0 153243885.22123718 -547412397.27491593 0 -547412397.27491593 -347283246.85432243 0 0 0 0 -62693104.674407959 -188106860.58981323 0 -188106860.58981323 60238799.623548508 0 0 0 0 -2640789.4868973792 -3801676.2612993792 0 -3801676.2612993792 -2564157.5726862475 0 0 0 0 210074976.16571045 -466428280.80942488 0 -466428280.80942488 56859128.611585423 0 0 0 0 158954002.07595062 1685914.5203032494 0 1685914.5203032494 -76915032.564569473 0 0 0 0 -58294787.301391602 -52105886.019699097 0 -52105886.019699097 -17160552.502996445 0 0 0 0 223626322.20175171 -108927109.37513494 0 -108927109.37513494 -22233014.139170974 0 0 0 0 116293173.03116417 -21182144.42016688 0 -21182144.42016688 -81229539.363018036 0 0 0 0 624815129.83139038 29233017.764264941 0 29233017.764264941 -314778289.1592176 0 0 0 0 197678794.54165268 -260201250.8069008 0 -260201250.8069008 -360058613.43668747 0 0 0 0 -165730294.55279541 513063182.60103703 0 513063182.60103703 316218707.7323029 0 0 0 0 313037393.01448059 -1172825775.8439445 0 -1172825775.8439445 -248754731.65927458 0 0 0 0 333637090.58609009 -303945439.11503363 0 -303945439.11503363 129829404.97484457 0 0 0 0 -2178621.3367845267 -20586543.747591071 0 -20586543.747591071 -3550305.5781431301 0 0 0 0 273384775.24490356 148013352.42129838 0 148013352.42129838 100415943.41052747 0 0 0 0 -627333549.69616699 -134990662.78005958 0 -134990662.78005958 -83162383.104918003 0 0 0 0 -219128882.46954346 135376188.7566762 0 135376188.7566762 56574790.105099678 0 0 0 0 1678831.3055082858 -558595.97899125516 0 -558595.97899125516 -1773907.664735266 0 0 0 0 -2696803673.0473022 -787574609.74881887 0 -787574609.74881887 713874040.36163199 0 0 0 0 9301.4651900604367 1682087.369494997 0 1682087.369494997 -2464909.4903125777 0 0 0 0 534830198.27642822 -265710218.63442767 0 -265710218.63442767 -464535478.72394109 0 0 0 0 -807369888.69747925 -538454770.17341137 0 -538454770.17341137 -140920827.55077744 0 0 0 0 -929431352.03555298 52851633.526149511 0 52851633.526149511 -507260707.40813351 0 0 0 0 -34843225.733139038 10702740.086904049 0 10702740.086904049 135362310.18260956 0 0 0 0 37204715.173675537 -42378956.091926575 0 -42378956.091926575 -1304657.3369216919 0 0 0 0 -22147511.448425293 -9994821.2528897524 0 -9994821.2528897524 46421688.024059296 0 0 0 0 -9789632.6298061013 -7724008.1382620446 0 -7724008.1382620446 9882165.0793197975 0 0 0 0 -24717662.977966309 -6017896.400138855 0 -6017896.400138855 43491257.998550415 0 0 0 0 1012937.7799049346 -577781.27549184114 0 -577781.27549184114 -8477548.2689004466 0 0 0 0 -1279332027.1452026 -248015114.70823526 0 -248015114.70823526 266570078.4459095 0 0 0 0 -1056148.8382008523 -577221.48858059943 0 -577221.48858059943 494742.46475462709 0 0 0 0 -885188393.05966187 -161648947.19498158 0 -161648947.19498158 314141308.54560947 0 0 0 0 -980880365.24609375 -453039855.54348373 0 -453039855.54348373 -459062469.3940506 0 0 0 0 -368189431.05361938 -108598687.8530035 0 -108598687.8530035 -3257001.8966445923 0 0 0 0 90673753.903408051 71830051.88953346 0 71830051.88953346 -15077408.427850723 0 0 0 0 -3770141.2645093608 -797847.24430148304 0 -797847.24430148304 2872311.2513236911 0 0 0 0 -917830841.35430908 208036297.72934723 0 208036297.72934723 157330880.53537178 0 0 0 0 -500792626.13122559 -603147019.06740952 0 -603147019.06740952 -187351773.4500103 0 0 0 0 -105579623.76574707 219328935.2023592 0 219328935.2023592 -61379470.170578003 0 0 0 0 -300530867.53234863 -338350950.07085991 0 -338350950.07085991 -81299015.155479431 0 0 0 0 -377887820.41278076 -106383683.85277176 0 -106383683.85277176 11521864.918834686 0 0 0 0 -29977886.111236572 -22467068.296515942 0 -22467068.296515942 59824248.103683472 0 0 0 0 -23879607.863876343 -17127040.275801182 0 -17127040.275801182 39407459.03950119 0 0 0 0 -23187419.991577148 3401362.7325363159 0 3401362.7325363159 49116115.141097069 0 0 0 0 -44677295.344116211 -4165965.3504419327 0 -4165965.3504419327 66366877.770082474 0 0 0 0 -57410732.336242676 -21162099.833306313 0 -21162099.833306313 72278694.641771317 0 0 0 0 -95784112.495849609 -6141647.4941387177 0 -6141647.4941387177 75012516.031112671 0 0 0 0 -26452084.361053467 -46936202.74451828 0 -46936202.74451828 74344887.589828372 0 0 0 0 -101979227.69858551 159616309.02204043 0 159616309.02204043 109529892.95153046 0 0 0 0 -106228323.79839325 -130268469.44824648 0 -130268469.44824648 -27605879.691939354 0 0 0 0 -7947511.9498306066 -620743.13661712408 0 -620743.13661712408 13680438.770750562 0 0 0 0 -225389207.08505249 -211135054.44080353 0 -211135054.44080353 -267521800.81510162 0 0 0 0 -41917195.010248885 -34624751.439209633 0 -34624751.439209633 11532460.78038211 0 0 0 0 -126384988.45655823 -119319090.56750488 0 -119319090.56750488 -227896862.90989685 0 0 0 0 287440389.3021698 377313284.71611261 0 377313284.71611261 22820276.057886124 0 0 0 0 -57670267.200317383 -110020980.73347473 0 -110020980.73347473 -210447304.13925171 0 0 0 0 -77767005.387130737 -88953056.217323303 0 -88953056.217323303 -219735226.46031189 0 0 0 0 214429735.375 182645801.20035124 0 182645801.20035124 144004748.14063072 0 0 0 0 -130775232.3444519 -135921421.46450567 0 -135921421.46450567 356373507.5934248 0 0 0 0 62626651.572992325 -187718593.71485585 0 -187718593.71485585 61779920.443225861 0 0 0 0 -1175290.5093253702 56373.236948251724 0 56373.236948251724 900028.9550731713 0 0 0 0 -225922638.03469849 -119518745.22088242 0 -119518745.22088242 789286505.07447433 0 0 0 0 -169267715.04864502 -127901570.81218052 0 -127901570.81218052 88392826.644638062 0 0 0 0 -149569352.71990967 -64407776.922855377 0 -64407776.922855377 10475774.451367229 0 0 0 0 -134124216.02479553 -112070235.96462989 0 -112070235.96462989 -13325354.373467445 0 0 0 0 -101620731.81814575 -95690787.07201767 0 -95690787.07201767 -11030958.275768802 0 0 0 0 -81172679.373123169 -261766535.11068726 0 -261766535.11068726 -9121355.6972932816 0 0 0 0 -243158617.38957405 -171816551.43292463 0 -171816551.43292463 -157833230.51937485 0 0 0 0 -150419875.62997437 -227130469.64355469 0 -227130469.64355469 -156553555.3114624 0 0 0 0 -193938706.64970398 -97871949.186460733 0 -97871949.186460733 -67710830.304368973 0 0 0 0 -104993854.35705566 -106945950.34009457 0 -106945950.34009457 -175175728.514256 0 0 0 0 -136889941.71356201 -81640353.684548378 0 -81640353.684548378 -13677180.768088341 0 0 0 0 -134527707.12290955 -15453003.646965027 0 -15453003.646965027 21357764.437454224 0 0 0 0 -86784810.068206787 -68022915.706913948 0 -68022915.706913948 -82332764.359836578 0 0 0 0 -42501658.327090025 -27496141.049682312 0 -27496141.049682312 12933286.191965982 0 0 0 0 -45340543.694030762 -8810576.4437327385 0 -8810576.4437327385 3856932.0707712173 0 0 0 0 23274765.644104004 1651080.7319087982 0 1651080.7319087982 -122851738.59002495 0 0 0 0 -31814329.178482056 -105646504.33694839 0 -105646504.33694839 -209734113.32395935 0 0 0 0 -88472187.0519104 -93082407.671836853 0 -93082407.671836853 -113975072.68148041 0 0 0 0 -47271523.61741069 -25906717.906172782 0 -25906717.906172782 13131841.876492104 0 0 0 0 -63449011.462554932 -118266884.27573395 0 -118266884.27573395 -98841207.866230011 0 0 0 0 -97906644.583221436 -135539801.39940262 0 -135539801.39940262 -1780616.6820602417 0 0 0 0 -97995702.206401825 -137931224.99986064 0 -137931224.99986064 -44293356.349685669 0 0 0 0 -31954012.548027039 -165996810.80867195 0 -165996810.80867195 -72954701.098312378 0 0 0 0 -48416962.11529541 -158701215.90811157 0 -158701215.90811157 -93406550.587516785 0 0 0 0 -80458913.598022461 -133019390.953022 0 -133019390.953022 -74094190.078872681 0 0 0 0 -118872228.22216797 -100536524.06707764 0 -100536524.06707764 -108264768.79873657 0 0 0 0 -28934289.731613159 -166658158.99406815 0 -166658158.99406815 -126663066.94984436 0 0 0 0 -146324450.20497131 -142996109.17136765 0 -142996109.17136765 -173933648.01756287 0 0 0 0 -262187814.85379028 -138513623.56194305 0 -138513623.56194305 -200176330.40109253 0 0 0 0 -132968658.0534668 -88426207.880157471 0 -88426207.880157471 -194895846.51712036 0 0 0 0 -74523698.695983887 -100563532.06791687 0 -100563532.06791687 -174726926.29372025 0 0 0 0 -85276700.654342651 -125681423.19324112 0 -125681423.19324112 -211149708.55552673 0 0 0 0 -44279033.851318359 -143306672.9613266 0 -143306672.9613266 -167102844.53328705 0 0 0 0 -195840435.66105652 -174777329.36434555 0 -174777329.36434555 -132628217.03495789 0 0 0 0 -374763182.3886261 -125622194.76998901 0 -125622194.76998901 16801190.001533508 0 0 0 0 -16661033.836715698 23209488.946804047 0 23209488.946804047 -3287297.6455993652 0 0 0 0 -243030889.48324585 -150752685.0210495 0 -150752685.0210495 94352559.127895355 0 0 0 0 -245376701.82113647 -196836315.8085022 0 -196836315.8085022 -104177303.37189484 0 0 0 0 -373437174.47561646 -53362590.052799225 0 -53362590.052799225 -118343817.2011795 0 0 0 0 -282749281.74072266 -113581519.06533813 0 -113581519.06533813 -84818322.55065155 0 0 0 0 -189756581.209095 -26523870.716015816 0 -26523870.716015816 -266337107.04144287 0 0 0 0 -325981058.64935303 -207672756.33730316 0 -207672756.33730316 -118251169.86518097 0 0 0 0 -363191472.35232544 39598306.073791504 0 39598306.073791504 -35063433.341844559 0 0 0 0 9434381.4999538213 -7685536.7485248838 0 -7685536.7485248838 -9225238.4813461415 0 0 0 0 -232462982.2394104 90084031.694534302 0 90084031.694534302 -59472055.294670105 0 0 0 0 7367010.7847595215 -101544701.67812347 0 -101544701.67812347 -144223635.11428833 0 0 0 0 90681470.601959229 -45132059.151538849 0 -45132059.151538849 -160794564.29121399 0 0 0 0 71515117.371047974 -44634360.78074646 0 -44634360.78074646 -84709594.808166504 0 0 0 0 -25639998.35683402 -28148320.476088777 0 -28148320.476088777 -15307947.089496303 0 0 0 0 143908328.52664185 -171176115.71963501 0 -171176115.71963501 84522998.810150146 0 0 0 0 267887619.14175415 -326910608.47267532 0 -326910608.47267532 227500872.59906769 0 0 0 0 186399954.31515503 -168776968.49298477 0 -168776968.49298477 42101497.563827515 0 0 0 0 11728015.80880931 -4453646.5082437024 0 -4453646.5082437024 -8137159.5973508954 0 0 0 0 200119000.65393066 -374997716.80707359 0 -374997716.80707359 320168040.36392975 0 0 0 0 490377707.90570068 -390386334.25175476 0 -390386334.25175476 320252285.30325699 0 0 0 0 -3433288.9922611956 -2378501.4859738052 0 -2378501.4859738052 678502.7166955173 0 0 0 0 103248767.07409668 -308649204.13054657 0 -308649204.13054657 490987026.47527313 0 0 0 0 290783314.98896027 -91209993.654640675 0 -91209993.654640675 307608063.49201584 0 0 0 0 -2264559.1946465075 1144801.9790782966 0 1144801.9790782966 1393029.5068878895 0 0 0 0 110407525.25561523 -166086588.59720993 0 -166086588.59720993 303823042.47197437 0 0 0 0 -15302119.986434937 -187858534.83814073 0 -187858534.83814073 570942135.68653107 0 0 0 0 -4299452.2709350586 -97752544.110649109 0 -97752544.110649109 248596013.40447235 0 0 0 0 -78103267.039367676 539225098.06130219 0 539225098.06130219 -101733771.5555954 0 0 0 0 -246519417.83599854 144467298.11865997 0 144467298.11865997 505572881.32924652 0 0 0 0 13647246.506652832 -81994105.563053131 0 -81994105.563053131 -811491008.08249283 0 0 0 0 335110317.67736816 -20555578.900835037 0 -20555578.900835037 -864786274.67466736 0 0 0 0 26747729.868377686 -534997568.10049629 0 -534997568.10049629 -977716864.60894775 0 0 0 0 -1139133039.8204346 -575989100.07602692 0 -575989100.07602692 -981561035.45877838 0 0 0 0 -676353470.35205078 -225222839.34307861 0 -225222839.34307861 -750313403.26404572 0 0 0 0 -178472367.19262695 -708787060.97267532 0 -708787060.97267532 -1326711658.0297089 0 0 0 0 92084462.885826111 -172954040.25409687 0 -172954040.25409687 -2019933753.4305725 0 0 0 0 -563008741.45129395 -1080127033.3708229 0 -1080127033.3708229 -2138013274.2375793 0 0 0 0 -436378668.54681396 -750988473.54330826 0 -750988473.54330826 -1329032465.3203278 0 0 0 0 97194717.680194855 -364922551.02019548 0 -364922551.02019548 -2762243861.1385193 0 0 0 0 -225771.00201438367 -927139.33609399199 0 -927139.33609399199 722985.86484350637 0 0 0 0 -940304043.18432617 -1149200486.2838669 0 -1149200486.2838669 -1454091107.249361 0 0 0 0 -1557450828.0332642 -788486554.39643097 0 -788486554.39643097 -357309569.16014862 0 0 0 0 -1147135.9818379879 -1466250.7739211842 0 -1466250.7739211842 1844567.0605355026 0 0 0 0 -345699541.90368652 84785463.620693207 0 84785463.620693207 -1672970465.2276611 0 0 0 0 -351196094.67346191 -20068487.467466354 0 -20068487.467466354 -734320166.27778625 0 0 0 0 -515284868.60198975 -496907419.31890488 0 -496907419.31890488 -453106352.21479034 0 0 0 0 -36272436.006225586 -374430064.61792374 0 -374430064.61792374 -1248544406.3108749 0 0 0 0 -54310594.814086914 -335623071.15429688 0 -335623071.15429688 -1160632666.5770111 0 0 0 0 -67102820.021453857 -560697139.52951241 0 -560697139.52951241 -1156102216.4824333 0 0 0 0 -3221394.5588378906 -15167340.619757652 0 -15167340.619757652 27282595.388607502 0 0 0 0 11096907.056390405 -20392155.737168904 0 -20392155.737168904 -3498790.7287707641 0 0 0 0 -119721249.74932861 -578021124.19481277 0 -578021124.19481277 -923885931.58390045 0 0 0 0 -113594579.21936035 -278422720.28061676 0 -278422720.28061676 -956874353.87831879 0 0 0 0 -178945135.40930176 -596111947.14620972 0 -596111947.14620972 -987531440.03454208 0 0 0 0 -5617318.333190918 -25619347.659783363 0 -25619347.659783363 27611528.818704605 0 0 0 0 -92850093.905899048 -360115587.22160053 0 -360115587.22160053 -655509999.70789719 0 0 0 0 10363121.057956696 -31825948.716637298 0 -31825948.716637298 -2200952.278094681 0 0 0 0 -8583750.254699707 -22961222.957054138 0 -22961222.957054138 30619228.948655605 0 0 0 0 14121407.221969604 -735478663.63302898 0 -735478663.63302898 -603975864.22294617 0 0 0 0 -404516290.24917603 -492863729.58436203 0 -492863729.58436203 411754009.6146698 0 0 0 0 -33632137.198690012 -35405686.612346634 0 -35405686.612346634 -3439426.4806645885 0 0 0 0 106551842.84701538 -506351098.47836304 0 -506351098.47836304 392249797.29085541 0 0 0 0 -290775176.92105103 -166989863.0692215 0 -166989863.0692215 -135378126.33890533 0 0 0 0 -287445391.22427368 -159396633.81946564 0 -159396633.81946564 -137250879.66539001 0 0 0 0 -44188973.42012091 -39107441.397732243 0 -39107441.397732243 7102509.5482653901 0 0 0 0 -6024412.5446166992 -26707229.755738735 0 -26707229.755738735 31600880.911798477 0 0 0 0 -7199563.0815429688 -38673626.81856823 0 -38673626.81856823 52174768.716168404 0 0 0 0 -8256839.7699890137 -25382506.655757904 0 -25382506.655757904 37068529.372272491 0 0 0 0 -16199183.988708496 -15400919.07861948 0 -15400919.07861948 40819955.239729345 0 0 0 0 -9245989.5000762939 -10253227.772392452 0 -10253227.772392452 18822852.705120087 0 0 0 0 -1546320.4729919434 -17473263.928961754 0 -17473263.928961754 27872703.025156021 0 0 0 0 -5062476.3105163574 -16769414.169137955 0 -16769414.169137955 28175752.051102638 0 0 0 0 -14594968.770301387 -9237184.2071921229 0 -9237184.2071921229 12169660.077857215 0 0 0 0 -17250697.016848564 -5502650.6426026579 0 -5502650.6426026579 20150584.229735851 0 0 0 0 -15805772.788482666 -8737001.9237685204 0 -8737001.9237685204 21309704.326354027 0 0 0 0 -17048021.04309082 -14808763.981523871 0 -14808763.981523871 15981172.461833477 0 0 0 0 -17137928.17277205 -7937166.3879060298 0 -7937166.3879060298 14176537.820710456 0 0 0 0 -30627966.829650879 6584038.777279377 0 6584038.777279377 28017574.755333424 0 0 0 0 -1461246.9547124505 -1088799.4705775604 0 -1088799.4705775604 3900867.5547658284 0 0 0 0 1631040.4724812508 -10057144.924770508 0 -10057144.924770508 6241261.770118393 0 0 0 0 -14789591.721405029 -39375100.306763649 0 -39375100.306763649 11733864.993247986 0 0 0 0 60254002.751159668 -204328528.48762 0 -204328528.48762 1011673902.1181494 0 0 0 0 -767251108.07035828 990141953.19040632 0 990141953.19040632 2203377646.2990379 0 0 0 0 122813867.91568756 -1999283358.6786275 0 -1999283358.6786275 1413131758.6388617 0 0 0 0 1443665537.7146301 53954824.01333347 0 53954824.01333347 942528051.74778366 0 0 0 0 1844810.8539013267 -1691472.8497782573 0 -1691472.8497782573 595103.90989147685 0 0 0 0 261432737.95733643 14295167.826306343 0 14295167.826306343 -91639775.115308762 0 0 0 0 96888233.694122314 1573972753.2493839 0 1573972753.2493839 2118105925.288815 0 0 0 0 -26794666.198242188 -6376346.6190299988 0 -6376346.6190299988 106195642.1423111 0 0 0 0 483617453.70274353 -301335855.10133243 0 -301335855.10133243 71699878.952407837 0 0 0 0 -12105482.067565918 -114632005.83212447 0 -114632005.83212447 74294856.080593109 0 0 0 0 -80593650.526000977 -187556016.11036491 0 -187556016.11036491 6021957.7957763672 0 0 0 0 56171174.410217285 -12520703.172036886 0 -12520703.172036886 22030709.108823776 0 0 0 0 -115966961.43383789 -18866051.499914169 0 -18866051.499914169 30194355.549383163 0 0 0 0 -4955403.6503601074 -14574616.298725128 0 -14574616.298725128 27811565.505172729 0 0 0 0 -94301161.364868164 -79206716.507537842 0 -79206716.507537842 -30886409.058616638 0 0 0 0 -12580421.155257031 -2499534.8018641397 0 -2499534.8018641397 18092791.273938198 0 0 0 0 -59536013.19140625 -235555539.02781677 0 -235555539.02781677 -191377952.44160271 0 0 0 0 -172278872.31243896 -269203053.44567585 0 -269203053.44567585 -66094181.583999634 0 0 0 0 -87581846.017410278 -35124105.502960205 0 -35124105.502960205 -19279695.106170654 0 0 0 0 -440148761.33270264 -195214333.86117172 0 -195214333.86117172 -77744292.064182281 0 0 0 0 -61185714.020652771 193518845.33283377 0 193518845.33283377 72544639.630142212 0 0 0 0 -287254457.36541748 -412571140.8888588 0 -412571140.8888588 -443525196.99757385 0 0 0 0 -294108766.0340271 -381536377.86206436 0 -381536377.86206436 -270590668.45812225 0 0 0 0 29536420.707763672 -325350248.39839554 0 -325350248.39839554 -676233698.90853119 0 0 0 0 31733777.217041016 -295829354.82826233 0 -295829354.82826233 -372943115.88499832 0 0 0 0 86360918.896362305 -290619114.38690758 0 -290619114.38690758 -382445072.56031418 0 0 0 0 -100229629.28033447 -316720249.38459969 0 -316720249.38459969 -143167174.31849289 0 0 0 0 117324174.52676392 -218840402.35545921 0 -218840402.35545921 -274077132.15258789 0 0 0 0 86438328.358680725 -273434933.16267347 0 -273434933.16267347 -140304284.24096298 0 0 0 0 88413441.517021179 -350622466.12869167 0 -350622466.12869167 -475076.13537216187 0 0 0 0 119771811.06546021 -313450433.2009182 0 -313450433.2009182 -140263858.25098419 0 0 0 0 98036021.812866211 -384895833.99350166 0 -384895833.99350166 57233945.999595165 0 0 0 0 78267295.16192627 -299001356.72431183 0 -299001356.72431183 -143325202.35136414 0 0 0 0 34562910.757019043 -313844364.56013107 0 -313844364.56013107 28824419.632904053 0 0 0 0 169454027.25671387 -193203379.16344261 0 -193203379.16344261 4567379.2156102657 0 0 0 0 108460941.44018555 -276302387.87750959 0 -276302387.87750959 172960180.13256168 0 0 0 0 230862569.99601746 -565947198.96047819 0 -565947198.96047819 486122845.59652615 0 0 0 0 59618236.842288971 -418549133.97202921 0 -418549133.97202921 259323349.20744896 0 0 0 0 25149902.931289673 -214725381.1472218 0 -214725381.1472218 318919561.55810237 0 0 0 0 -31286930.947799683 -205596232.22068262 0 -205596232.22068262 371443637.8826313 0 0 0 0 63985741.296386719 -32288402.573381424 0 -32288402.573381424 1149974582.4875965 0 0 0 0 -55398482.690536499 -229068072.3460654 0 -229068072.3460654 351969788.08392096 0 0 0 0 -56197239.66569519 -203350512.30804956 0 -203350512.30804956 201798452.65381145 0 0 0 0 -60094.820770263672 -189765069.34503806 0 -189765069.34503806 127886759.99710274 0 0 0 0 8671790.0098571777 -300053710.71041393 0 -300053710.71041393 213262764.49441659 0 0 0 0 32727.551300048828 -226665670.12184238 0 -226665670.12184238 57148483.738855362 0 0 0 0 10250302.172821045 -280285254.58142757 0 -280285254.58142757 93582392.945444107 0 0 0 0 73795508.399154663 -209656429.17657423 0 -209656429.17657423 -94761606.940597534 0 0 0 0 100171670.1725769 -240810318.69860077 0 -240810318.69860077 -59489929.566260338 0 0 0 0 54189262.745056152 -242898843.89344597 0 -242898843.89344597 45583375.133183479 0 0 0 0 57874.87978342217 -193412858.25823694 0 -193412858.25823694 481559.64815139771 0 0 0 0 6501208.2243347168 -133074148.09415054 0 -133074148.09415054 92164017.925081253 0 0 0 0 -6690276.7062072754 -147311918.78282547 0 -147311918.78282547 -160338426.95964813 0 0 0 0 1985196.0122229457 4910353.3608963639 0 4910353.3608963639 -1985240.2154970802 0 0 0 0 -18642211.222457886 -65618422.354911804 0 -65618422.354911804 -87466253.830680847 0 0 0 0 52618531.716186523 -113607318.31228638 0 -113607318.31228638 -56182297.640380859 0 0 0 0 125072386.17956543 -70544307.537374496 0 -70544307.537374496 -278156668.64070129 0 0 0 0 134495668.35272217 -108020903.02687454 0 -108020903.02687454 -244260959.44386292 0 0 0 0 146046744.96282959 -7123289.3390693665 0 -7123289.3390693665 -185745446.52399826 0 0 0 0 93290000.359619141 -76258814.24001503 0 -76258814.24001503 -166726156.2399292 0 0 0 0 100838282.95349121 -14788103.696960449 0 -14788103.696960449 -163860626.89642024 0 0 0 0 128200450.47381592 -164024371.34823227 0 -164024371.34823227 -740404221.88513947 0 0 0 0 -2552279.6270141602 -221809362.84464645 0 -221809362.84464645 -582602561.228302 0 0 0 0 159609699.69189453 -87543177.878196716 0 -87543177.878196716 -554176676.01839828 0 0 0 0 135321305.85467529 -118848192.43164444 0 -118848192.43164444 -299374587.00628662 0 0 0 0 154605715.13592529 11843458.789352417 0 11843458.789352417 -388045768.33216095 0 0 0 0 45912021.704864502 -10215959.022079468 0 -10215959.022079468 -118819237.21424866 0 0 0 0 46329404.297142029 166680028.19390845 0 166680028.19390845 -433891788.58675385 0 0 0 0 34910821.731445312 30122353.419013977 0 30122353.419013977 -266394305.45420074 0 0 0 0 96941615.912902832 -78118918.663749695 0 -78118918.663749695 108948828.05313873 0 0 0 0 -4147128.1291798651 2355555.4280959107 0 2355555.4280959107 2810927.631334018 0 0 0 0 -164474063.6015625 -138646974.22393036 0 -138646974.22393036 472785155.51167679 0 0 0 0 -43230091.544921875 124041151.93118858 0 124041151.93118858 -24758651.240661621 0 0 0 0 -59390912.921203613 174148050.36699295 0 174148050.36699295 -177765946.90904236 0 0 0 0 81482648.731079102 -116415774.35449219 0 -116415774.35449219 180167780.34468842 0 0 0 0 49265387.777282715 -18295390.520778656 0 -18295390.520778656 45321927.104949951 0 0 0 0 158696211.64855957 -162141978.6920929 0 -162141978.6920929 141118048.30742645 0 0 0 0 39132272.370117188 -91906206.581878662 0 -91906206.581878662 157439129.3369751 0 0 0 0 239934604.62487793 -37631058.147186279 0 -37631058.147186279 166430062.36688995 0 0 0 0 57988273.234466553 -24756036.386285782 0 -24756036.386285782 -123719505.05224609 0 0 0 0 1108241.6094985902 2673810.9754396267 0 2673810.9754396267 -1069778.2582326122 0 0 0 0 -20487865.513793945 -103379954.64056396 0 -103379954.64056396 173156179.99609756 0 0 0 0 79826203.115966797 -17957462.624568939 0 -17957462.624568939 -121863869.20787048 0 0 0 0 106411862.46870422 35930727.415857315 0 35930727.415857315 -141153532.09074402 0 0 0 0 100069832.15875244 -16989205.352470398 0 -16989205.352470398 -152300996.90593719 0 0 0 0 164439802.99108887 4765889.6843414307 0 4765889.6843414307 224528318.04862976 0 0 0 0 120441442.68054199 -68687960.831283569 0 -68687960.831283569 -58680246.498374939 0 0 0 0 -32660035.499450684 -91011474.018474579 0 -91011474.018474579 235179090.30969858 0 0 0 0 -2346129.5101900548 1683776.0179414619 0 1683776.0179414619 1855500.8789596856 0 0 0 0 76764443.804580688 -58111783.522182465 0 -58111783.522182465 -314479526.41582489 0 0 0 0 148783637.90441895 -141231104.20178223 0 -141231104.20178223 23100573.844985962 0 0 0 0 78879836.311889648 -188078251.49872589 0 -188078251.49872589 145889391.9808197 0 0 0 0 -10250353.447692871 -56591523.654722214 0 -56591523.654722214 -42832332.315086365 0 0 0 0 31097456.045959473 -152217808.60177994 0 -152217808.60177994 119919693.32662964 0 0 0 0 93182579.211364746 -214064235.22829437 0 -214064235.22829437 58499806.288328171 0 0 0 0 79945587.025100708 -204176392.03646088 0 -204176392.03646088 79851687.719413757 0 0 0 0 5865842.0928344727 -283890821.97686005 0 -283890821.97686005 -189888289.76264572 0 0 0 0 9734446.3090515137 -172663944.64374924 0 -172663944.64374924 6006856.7893829346 0 0 0 0 67107864.496704102 -254570461.31824493 0 -254570461.31824493 -32820584.655608892 0 0 0 0 59129049.147674561 -273765636.16277313 0 -273765636.16277313 44993943.50176239 0 0 0 0 38623625.767211914 -168691905.26247978 0 -168691905.26247978 7163704.6482696533 0 0 0 0 -177921728.30737305 -128734614.3330574 0 -128734614.3330574 1431442.7293901443 0 0 0 0 20919.350594849293 -160651498.86899838 0 -160651498.86899838 13607352.217536926 0 0 0 0 -7515526.5731201172 -93823505.227825165 0 -93823505.227825165 -41091889.562644958 0 0 0 0 -22212.52603741884 -155955782.02481648 0 -155955782.02481648 -149241961.78997803 0 0 0 0 -69836304.646392822 -119467782.45861053 0 -119467782.45861053 216327663.55221558 0 0 0 0 -54707751.240539551 -170792846.25185394 0 -170792846.25185394 -143183319.79055786 0 0 0 0 2379136.2191390991 -116606675.66451025 0 -116606675.66451025 -197018703.52323914 0 0 0 0 -1243839750.5313718 -825624732.60356998 0 -825624732.60356998 305110667.97619629 0 0 0 0 -788355106.53151894 -334045215.36767197 0 -334045215.36767197 158031069.71535492 0 0 0 0 -3124737.8428324675 1271234.7009606026 0 1271234.7009606026 4763721.6986733004 0 0 0 0 -962441824.68674946 100475124.3517189 0 100475124.3517189 1270065327.0716934 0 0 0 0 246939358.32710314 -856316923.01166534 0 -856316923.01166534 66328619.856046677 0 0 0 0 168654901.10818934 -273327458.83074856 0 -273327458.83074856 -918122125.53161621 0 0 0 0 118904608.96223491 -174312284.3816452 0 -174312284.3816452 -508826273.1240387 0 0 0 0 -186544761.34664249 -796064575.79651642 0 -796064575.79651642 -633295768.95259285 0 0 0 0 -54811708.577614784 -544431193.04852295 0 -544431193.04852295 -470937793.14289188 0 0 0 0 -716305725.08237267 -417459778.67647171 0 -417459778.67647171 104738211.5147171 0 0 0 0 -746570017.09127045 -499688822.74476624 0 -499688822.74476624 340508848.41085815 0 0 0 0 -25786233.048789978 -541401505.06139374 0 -541401505.06139374 113853094.36129951 0 0 0 0 -292088715.64484787 -40200792.047840118 0 -40200792.047840118 12029505.723312378 0 0 0 0 -418741.82386904955 88961319.77846384 0 88961319.77846384 42542877.508300781 0 0 0 0 -656940467.56622696 -102447124.49569702 0 -102447124.49569702 -105241372.35301208 0 0 0 0 -241325519.10567284 11903540.099617004 0 11903540.099617004 -83924129.859512329 0 0 0 0 -439342604.26677513 -404819053.86665344 0 -404819053.86665344 80026513.248203278 0 0 0 0 -738464709.51345634 -199286784.92311478 0 -199286784.92311478 -48297983.422653198 0 0 0 0 -702397786.1244936 -360235959.15651894 0 -360235959.15651894 -182915192.04615784 0 0 0 0 -623025538.76805115 -98007372.682701111 0 -98007372.682701111 -127370894.22730637 0 0 0 0 -3582027.8044564021 1898953.7434861772 0 1898953.7434861772 4309765.3175695539 0 0 0 0 -597643111.32816076 111557703.62875128 0 111557703.62875128 -134310158.39884949 0 0 0 0 -627632310.68799877 -153352970.94943118 0 -153352970.94943118 -253095064.38804626 0 0 0 0 -805592455.07962179 275186223.43372154 0 275186223.43372154 -515509937.03479004 0 0 0 0 -885099158.80830407 -150237618.90508318 0 -150237618.90508318 -215998473.04125977 0 0 0 0 -885276144.36532021 -222531311.20156097 0 -222531311.20156097 -71465595.141670227 0 0 0 0 -884267962.54885435 -30447911.391155243 0 -30447911.391155243 -1198705741.2224121 0 0 0 0 -802484462.6877141 97763929.696456909 0 97763929.696456909 -86066288.299743652 0 0 0 0 -898091863.30686855 -37913350.446876526 0 -37913350.446876526 -232780687.41804123 0 0 0 0 -525101934.07392621 -345593117.72719574 0 -345593117.72719574 -113909747.78858948 0 0 0 0 178437.65587210655 -435596202.31335831 0 -435596202.31335831 -143349759.96839905 0 0 0 0 -473829820.68044281 -212896979.21452332 0 -212896979.21452332 211870051.69983101 0 0 0 0 -415893547.66629505 -145128571.5480957 0 -145128571.5480957 -404648070.5626297 0 0 0 0 -522356886.74370515 -388728159.55421734 0 -388728159.55421734 -138889097.28651428 0 0 0 0 -1357442127.6864567 -395688098.87693024 0 -395688098.87693024 -468202779.04314423 0 0 0 0 -204023519.21713871 -734285427.74125671 0 -734285427.74125671 -1828637067.1653137 0 0 0 0 10615862.956552505 -224580935.05113602 0 -224580935.05113602 -696982803.58499146 0 0 0 0 252051491.73488343 -84857270.093892813 0 -84857270.093892813 -586622387.23135376 0 0 0 0 252029648.36155319 -79053024.227630615 0 -79053024.227630615 -1152338093.4091339 0 0 0 0 147627315.38448095 -410365888.2644043 0 -410365888.2644043 -849583143.09723663 0 0 0 0 304953393.0694809 -284858117.78583527 0 -284858117.78583527 -664679340.19608307 0 0 0 0 251234886.47046661 -108857180.95223999 0 -108857180.95223999 -638319847.84394073 0 0 0 0 145172083.08493805 -160341334.50227356 0 -160341334.50227356 -512621160.57441711 0 0 0 0 234255805.66997528 -200871423.441185 0 -200871423.441185 -564731052.42841339 0 0 0 0 254542293.16430187 -148087037.99791908 0 -148087037.99791908 -566782564.78909302 0 0 0 0 216972722.17132473 -325626064.32951355 0 -325626064.32951355 -200922410.79829407 0 0 0 0 199520747.31005383 -477987915.48440361 0 -477987915.48440361 175543153.36906815 0 0 0 0 408523789.57948208 -333422666.04531479 0 -333422666.04531479 -205952177.14511108 0 0 0 0 -116844130.28791094 -256169199.27660561 0 -256169199.27660561 912383112.70674133 0 0 0 0 347910720.14093208 -106838721.49679947 0 -106838721.49679947 -27533770.378387451 0 0 0 0 137161768.08687043 -401943845.9241209 0 -401943845.9241209 -187751264.82037354 0 0 0 0 27549224.81936264 -386531833.33041382 0 -386531833.33041382 -611846258.65341187 0 0 0 0 -50759839.496490479 -241650996.98600769 0 -241650996.98600769 -488114071.348526 0 0 0 0 -173382033.61175537 -345155991.87834167 0 -345155991.87834167 -128202543.95291138 0 0 0 0 -153226567.97279835 -218178646.07848716 0 -218178646.07848716 -307618582.83410645 0 0 0 0 -69020066.234668732 -432483528.74659729 0 -432483528.74659729 -408737401.3956604 0 0 0 0 -91635359.408721924 -365472659.43709564 0 -365472659.43709564 -278516687.12584114 0 0 0 0 -70631061.343322754 -453795965.53160095 0 -453795965.53160095 -320347250.28743362 0 0 0 0 -25043375.806873322 -480799962.43179321 0 -480799962.43179321 -463804960.91873169 0 0 0 0 132132706.53403854 -223446756.23839569 0 -223446756.23839569 -229781249.19803619 0 0 0 0 57471938.164855957 -271352956.77830505 0 -271352956.77830505 -73603688.875984192 0 0 0 0 357840872.57192993 -227790970.42590332 0 -227790970.42590332 72969001.427307129 0 0 0 0 158710136.93292236 -28148335.950836182 0 -28148335.950836182 -117567588.88492966 0 0 0 0 161095231.41738892 -149577645.08085632 0 -149577645.08085632 -374186052.58029175 0 0 0 0 25145262.836975098 -395237736.05464172 0 -395237736.05464172 -310866380.00992775 0 0 0 0 77330658.829573631 -439763607.47138596 0 -439763607.47138596 -275256521.23599243 0 0 0 0 -64770619.406230927 -706825752.69438744 0 -706825752.69438744 -550134142.46517944 0 0 0 0 1654490.1075012162 -11275766.679256681 0 -11275766.679256681 -3653324.5115738744 0 0 0 0 119940824.12965393 -185328033.72684479 0 -185328033.72684479 -912522804.19284439 0 0 0 0 62813942.345275879 -525744554.00076294 0 -525744554.00076294 -830413941.68395615 0 0 0 0 -78306946.877922058 -520006804.04585266 0 -520006804.04585266 -391715202.1917572 0 0 0 0 -7956118.3770904541 -406298442.46478271 0 -406298442.46478271 -377589296.85333252 0 0 0 0 22444682.480020523 -394052653.57432365 0 -394052653.57432365 -438323559.43276978 0 0 0 0 -126688326.28466797 20464404.674499512 0 20464404.674499512 -209967775.85552979 0 0 0 0 84627427.249923706 -81067617.039825439 0 -81067617.039825439 -432225272.92114258 0 0 0 0 -146651483.02384949 -559845929.38093567 0 -559845929.38093567 -149891021.74828911 0 0 0 0 385381776.16844559 -657813193.03318787 0 -657813193.03318787 376245032.5061264 0 0 0 0 327782837.61188126 -573457993.76435852 0 -573457993.76435852 270719923.63269043 0 0 0 0 33900153.546964169 -27254007.752044678 0 -27254007.752044678 -52706246.765739441 0 0 0 0 -16551759.221481681 -40242719.220199585 0 -40242719.220199585 -26314574.094268799 0 0 0 0 -25757256.074816227 -250347203.66692543 0 -250347203.66692543 543395015.00797653 0 0 0 0 1368911.0548116481 -4999267.8537107706 0 -4999267.8537107706 -4859642.3927555904 0 0 0 0 -659221487.25421143 -147931115.89709473 0 -147931115.89709473 712761729.42675781 0 0 0 0 46902.107597881462 -162793.17647890747 0 -162793.17647890747 86251.558249980211 0 0 0 0 193395830.7624054 285466932.3126297 0 285466932.3126297 415905360.98968506 0 0 0 0 -9564243.8048583269 6653482.2481155396 0 6653482.2481155396 -39124146.06842041 0 0 0 0 1520418202.4399414 1150402438.9615097 0 1150402438.9615097 -426278713.39767456 0 0 0 0 1336213470.3919678 1287230221.8369293 0 1287230221.8369293 18355334.605529785 0 0 0 0 -925363072.70425034 -688852607.66402054 0 -688852607.66402054 143747636.63537598 0 0 0 0 -420405.61840113346 182286.05522764847 0 182286.05522764847 180384.1997243762 0 0 0 0 1469768877.8163471 -786871159.67860794 0 -786871159.67860794 412227640.34127045 0 0 0 0 2405745747.2895889 -100952500.04689789 0 -100952500.04689789 -307106784.77149963 0 0 0 0 951759681.74920654 -539970747.71298218 0 -539970747.71298218 185574191.62872314 0 0 0 0 8468247.3397356272 -170832450.70165253 0 -170832450.70165253 -443272779.19290543 0 0 0 0 -291257957.69241905 -938567317.35408401 0 -938567317.35408401 1373707041.4810486 0 0 0 0 3645492.0012714369 -2476469.6013969891 0 -2476469.6013969891 -1438855.1690028254 0 0 0 0 11634809.716856668 -6088714.6608556286 0 -6088714.6608556286 -4545711.5058502238 0 0 0 0 -77580852.402665138 -34613025.429267883 0 -34613025.429267883 -17370205.703102112 0 0 0 0 -184457149.93256158 -298610952.71264648 0 -298610952.71264648 -181632913.35857064 0 0 0 0 -598817.85725945234 -95171402.912908554 0 -95171402.912908554 -178442179.86524963 0 0 0 0 -193247340.14296389 -86825841.9646492 0 -86825841.9646492 -639112.90790367126 0 0 0 0 -327509686.10529363 -379459661.13559914 0 -379459661.13559914 362072588.43231201 0 0 0 0 -173923102.3521868 -488613064.05826569 0 -488613064.05826569 -290345913.14871216 0 0 0 0 -338457750.82306647 -313629146.11522675 0 -313629146.11522675 35768507.364115715 0 0 0 0 -151799987.3149274 -398996659.82530594 0 -398996659.82530594 20245329.942260742 0 0 0 0 -142815452.81328964 -211203785.97800827 0 -211203785.97800827 -6525174.0843963623 0 0 0 0 -367180950.85740066 -211661917.73752594 0 -211661917.73752594 -6025849.4500951767 0 0 0 0 -450324279.50672579 -42522021.742034912 0 -42522021.742034912 -20587439.033754349 0 0 0 0 -259970575.58640599 -114078756.11325073 0 -114078756.11325073 3504753.4224243164 0 0 0 0 -523707971.97908068 -221516063.75124359 0 -221516063.75124359 109669268.45074081 0 0 0 0 -304981444.64148533 -319887211.62029648 0 -319887211.62029648 20793072.205696106 0 0 0 0 -321972910.22792959 -285447275.987854 0 -285447275.987854 83065051.184028625 0 0 0 0 92334202.945854187 -36524442.581329346 0 -36524442.581329346 129198878.50387955 0 0 0 0 1711992080.5394983 234972719.19318867 0 234972719.19318867 -96204102.931594849 0 0 0 0 391336.39182405174 -2355389.9744394086 0 -2355389.9744394086 1110224.4187353626 0 0 0 0 80623.031203775085 -5306969.9890660373 0 -5306969.9890660373 -3220903.0240371227 0 0 0 0 1959085753.1854897 -1505330594.7967529 0 -1505330594.7967529 311083108.09207439 0 0 0 0 1199916883.8791046 -672381833.8955822 0 -672381833.8955822 21342683.252700806 0 0 0 0 -256008605.61619258 -116368488.22743988 0 -116368488.22743988 -2057798.712387085 0 0 0 0 961915019.12680435 -513650086.36535263 0 -513650086.36535263 359953265.83922577 0 0 0 0 590446489.17802429 28149908.697807312 0 28149908.697807312 -63534023.25920105 0 0 0 0 472939651.93425369 -39512056.805622101 0 -39512056.805622101 -64813968.79120636 0 0 0 0 45152.976966839284 -2927599.805686444 0 -2927599.805686444 -790495.44658737816 0 0 0 0 468055253.26378632 -35241169.874969482 0 -35241169.874969482 115772869.58145905 0 0 0 0 -78945.085488031385 -4033319.574088736 0 -4033319.574088736 -4052423.5504038818 0 0 0 0 1796036802.7369652 -694355297.02675247 0 -694355297.02675247 -403427065.08562469 0 0 0 0 932146912.8341465 254565339.32461357 0 254565339.32461357 103195670.50115204 0 0 0 0 2120658413.3209076 -276719281.64357758 0 -276719281.64357758 -229859299.5447464 0 0 0 0 217331687.35513306 -420421443.25871086 0 -420421443.25871086 100926373.04928589 0 0 0 0 83857610.343921661 -161265119.16739655 0 -161265119.16739655 -400705053.73337364 0 0 0 0 -294003033.81037259 -295611744.37833595 0 -295611744.37833595 4788308.3392715454 0 0 0 0 -680861705.65862083 -271918675.76667786 0 -271918675.76667786 82861046.126777649 0 0 0 0 -623975209.93886292 -144479612.0474968 0 -144479612.0474968 -44474344.808609009 0 0 0 0 -829185724.13975978 -75279572.467025757 0 -75279572.467025757 97417353.866725922 0 0 0 0 293743.12121403287 -1298055.7825690098 0 -1298055.7825690098 -3551790.1468988545 0 0 0 0 -1554251662.384027 88618602.775731087 0 88618602.775731087 111584069.77311707 0 0 0 0 -866832055.3803581 -192000657.3793335 0 -192000657.3793335 25902263.948554993 0 0 0 0 -292638252.15158284 -445724383.43089676 0 -445724383.43089676 -14890705.064247131 0 0 0 0 -448454595.04995751 -636464660.30282974 0 -636464660.30282974 343653771.78305054 0 0 0 0 -293597981.98353922 -450108249.23251534 0 -450108249.23251534 -24577246.262413025 0 0 0 0 -55546007.078700781 -400681882.69602013 0 -400681882.69602013 -48059788.259124756 0 0 0 0 416005658.17651033 -132711527.11201668 0 -132711527.11201668 181145924.47477722 0 0 0 0 588495909.35861921 -858894202.28977203 0 -858894202.28977203 206100585.61715126 0 0 0 0 66923064.940897942 -188757500.16956329 0 -188757500.16956329 -158432012.83709335 0 0 0 0 -107392511.81945682 -412426285.09243965 0 -412426285.09243965 284941949.57646179 0 0 0 0 466303231.6985445 -211293719.17491913 0 -211293719.17491913 -210078661.24158096 0 0 0 0 93525490.228070736 -369771125.91121292 0 -369771125.91121292 -99029852.31362915 0 0 0 0 143391722.75364327 -206935282.84928131 0 -206935282.84928131 -212337271.75391388 0 0 0 0 -54893658.188123226 -183912833.67049408 0 -183912833.67049408 94619104.206707001 0 0 0 0 -86333622.393664837 -414148663.4950676 0 -414148663.4950676 349871524.57279205 0 0 0 0 -256833032.4751687 -156894347.87600708 0 -156894347.87600708 31089793.246959686 0 0 0 0 -281868128.08111811 125702786.60258389 0 125702786.60258389 3570915.7439422607 0 0 0 0 -1046657038.7793128 -133396957.46404552 0 -133396957.46404552 601782434.16437531 0 0 0 0 -810665143.19217062 289459107.00849056 0 289459107.00849056 342302344.97486115 0 0 0 0 -1286207.961103318 430660.14750537556 0 430660.14750537556 2166793.0622426122 0 0 0 0 -638899697.40409184 -53674211.468940258 0 -53674211.468940258 -745468167.43109131 0 0 0 0 -166417880.92298961 -627541183.02259064 0 -627541183.02259064 -180810769.47792816 0 0 0 0 -231510271.18136096 -568152129.32773399 0 -568152129.32773399 202739521.1198349 0 0 0 0 53770468.682352066 -479803694.94585514 0 -479803694.94585514 352897370.54117966 0 0 0 0 -159456783.73003578 -26117582.653636932 0 -26117582.653636932 372160312.15331745 0 0 0 0 107803.13590688817 -1620522.2955187522 0 -1620522.2955187522 -1650727.1088714004 0 0 0 0 -506883107.9373436 257794422.30409622 0 257794422.30409622 335779151.47885513 0 0 0 0 -153992.18396691605 -3005793.5410956163 0 -3005793.5410956163 -2878107.5086654983 0 0 0 0 -66864884.764247894 -206338794.04138565 0 -206338794.04138565 408163091.83260345 0 0 0 0 -907893827.52089453 -189430108.52623463 0 -189430108.52623463 322970466.6612587 0 0 0 0 138540448.56641603 -168509583.35192108 0 -168509583.35192108 -708249371.12206268 0 0 0 0 -174424391.40938091 390673009.84765244 0 390673009.84765244 -404251310.12937546 0 0 0 0 -595734841.05491352 -537818034.46877289 0 -537818034.46877289 -24031994.743110657 0 0 0 0 -808058661.56487966 -905887.39439678192 0 -905887.39439678192 330715844.87307739 0 0 0 0 -139703558.48652411 56061309.480588913 0 56061309.480588913 -752790806.25524521 0 0 0 0 -1840272.9177311864 -3055251.1543114483 0 -3055251.1543114483 1540313.9173990525 0 0 0 0 147484341.27580166 -707651201.79983521 0 -707651201.79983521 180397495.82058144 0 0 0 0 353411676.47254372 39524734.493263245 0 39524734.493263245 -685588611.30477142 0 0 0 0 186594445.84396362 -440708301.97805214 0 -440708301.97805214 -1820098.9141750336 0 0 0 0 390014.76052485406 -1760310.8663684372 0 -1760310.8663684372 -1905992.898506986 0 0 0 0 70476613.997757554 384662596.69165802 0 384662596.69165802 -524396015.74403381 0 0 0 0 -199764222.42298889 -314686524.75014114 0 -314686524.75014114 -39848375.410881042 0 0 0 0 347991265.62972736 1002654521.3896675 0 1002654521.3896675 560221243.63497424 0 0 0 0 -5545074.1333443196 -14033358.702955566 0 -14033358.702955566 5265858.3762314403 0 0 0 0 -18430655.437965393 -20146091.106407166 0 -20146091.106407166 3375387.1002349854 0 0 0 0 3322363.089050293 -15197467.556175232 0 -15197467.556175232 -11000542.239896774 0 0 0 0 1533585.6120740175 -23796713.380383328 0 -23796713.380383328 -4109110.5275626248 0 0 0 0 8545425.8830871582 -10225127.419065475 0 -10225127.419065475 -3990782.2537231445 0 0 0 0 339294846.88761139 265969153.03989792 0 265969153.03989792 -535650057.70594788 0 0 0 0 -554448609.02450943 -283445228.05422592 0 -283445228.05422592 259047830.4241333 0 0 0 0 -5393031.7197694741 -16010701.003044609 0 -16010701.003044609 2560337.2672013603 0 0 0 0 -66455872.591988564 -118465009.57978058 0 -118465009.57978058 96543927.859382629 0 0 0 0 -266134767.67752266 48664319.492763519 0 48664319.492763519 -1757559.1347064972 0 0 0 0 -8141017.2308213357 -13513537.759415612 0 -13513537.759415612 1074536.4541840777 0 0 0 0 6867367.1852340698 -24841450.087146759 0 -24841450.087146759 2872027.5383014679 0 0 0 0 3612286.6174148098 -14954731.271171749 0 -14954731.271171749 -12507445.660330676 0 0 0 0 -2791212.6509475708 10296725.361562729 0 10296725.361562729 35079719.31855011 0 0 0 0 -12254872.916997131 -18041373.381020099 0 -18041373.381020099 -4491170.412442036 0 0 0 0 19336901.583305359 -35563430.779317856 0 -35563430.779317856 -64588444.533683777 0 0 0 0 -69349137.348297119 -65656862.516700745 0 -65656862.516700745 13591521.306134224 0 0 0 0 13267762.525226893 -4412943.4849714655 0 -4412943.4849714655 -9589872.476468794 0 0 0 0 -267445236.84457779 59023170.600646973 0 59023170.600646973 151552849.76616287 0 0 0 0 -192323856.88379669 138895928.3507843 0 138895928.3507843 161295527.87634754 0 0 0 0 29783282.971359253 -92602300.792633057 0 -92602300.792633057 207891770.29853439 0 0 0 0 -424939254.0222435 100915929.859375 0 100915929.859375 136030893.22158432 0 0 0 0 -117937984.28050041 109530928.39531994 0 109530928.39531994 121349266.34539795 0 0 0 0 -48228225.643959045 53988473.536930084 0 53988473.536930084 -58786740.204978943 0 0 0 0 32522259.135742188 129068444.83255386 0 129068444.83255386 -656303806.10743523 0 0 0 0 -463148780.46389961 -351416008.27342844 0 -351416008.27342844 -160666100.35531616 0 0 0 0 -160903294.5632019 -172434372.55972672 0 -172434372.55972672 -56759629.89333725 0 0 0 0 -303373242.46831894 -240043584.3483479 0 -240043584.3483479 62258668.608306885 0 0 0 0 -115900275.07775879 -182316381.57659912 0 -182316381.57659912 18782483.175758362 0 0 0 0 -153857936.76322937 -145405941.59764385 0 -145405941.59764385 45706156.572463989 0 0 0 0 -85218559.706123352 -202094487.29799461 0 -202094487.29799461 -15517635.117263794 0 0 0 0 46648138.614379883 -142977342.88536453 0 -142977342.88536453 10394898.348930359 0 0 0 0 -108014549.38801575 -144872865.30549717 0 -144872865.30549717 147723178.40623474 0 0 0 0 80528719.942626953 -67551894.367927551 0 -67551894.367927551 121717630.12130547 0 0 0 0 235879286.07281494 -218369561.65925789 0 -218369561.65925789 -12415121.169204712 0 0 0 0 41578601.181886196 -110756233.82167286 0 -110756233.82167286 24959097.603637695 0 0 0 0 44796729.766586304 -3458613.5844421387 0 -3458613.5844421387 -233287756.753088 0 0 0 0 343212811.48202515 -42420645.154811859 0 -42420645.154811859 -329104607.83106422 0 0 0 0 146767280.88379669 -181575179.37931633 0 -181575179.37931633 42821389.778560638 0 0 0 0 -726572.15912947059 -1754179.2980782986 0 -1754179.2980782986 1068193.2250820529 0 0 0 0 245106280.20132446 -226324274.69848633 0 -226324274.69848633 -3983653.9280185699 0 0 0 0 -14582217.953766674 -20039889.496531591 0 -20039889.496531591 -4143246.9269052297 0 0 0 0 227097547.52444458 -130287480.33646011 0 -130287480.33646011 -63784886.859287262 0 0 0 0 254506783.01087189 -223378021.08799314 0 -223378021.08799314 17832211.265636444 0 0 0 0 451282492.98519897 -118029683.52589798 0 -118029683.52589798 23585710.038536072 0 0 0 0 242259275.89248657 -235239908.77586746 0 -235239908.77586746 9903764.3062438965 0 0 0 0 250166787.19527817 -234679414.09806013 0 -234679414.09806013 -818182.93096923828 0 0 0 0 21760740.858985901 -28400475.06879425 0 -28400475.06879425 1051640.7169246674 0 0 0 0 -2517869.3866462708 -17313968.55049324 0 -17313968.55049324 8989637.0599517822 0 0 0 0 -5768292.6734586358 -16471609.278804641 0 -16471609.278804641 -9430181.6813155077 0 0 0 0 172379858.75178528 29381650.036827087 0 29381650.036827087 106016292.16455078 0 0 0 0 25532417.456634521 -36584163.633302689 0 -36584163.633302689 3636285.2877655029 0 0 0 0 237022698.46032715 -226884628.37775421 0 -226884628.37775421 4921259.858833313 0 0 0 0 224216416.2598877 -103729323.83012009 0 -103729323.83012009 -70612813.815673828 0 0 0 0 282859420.85897827 -2281963.5284347534 0 -2281963.5284347534 -130351301.06091309 0 0 0 0 95267062.963241577 -73792655.731800079 0 -73792655.731800079 -72968812.250648499 0 0 0 0 167990278.28715515 31862543.762720108 0 31862543.762720108 -132018044.26531982 0 0 0 0 413737651.83625793 169307942.40934753 0 169307942.40934753 -65183927.550498962 0 0 0 0 -126864563.60871124 172236354.20740032 0 172236354.20740032 208256078.5391922 0 0 0 0 672209808.79382324 497793569.21701813 0 497793569.21701813 118719032.88168335 0 0 0 0 301474333.72088623 -106219107.31051636 0 -106219107.31051636 128642987.64784864 0 0 0 0 1002517602.2621002 -365661646.19429016 0 -365661646.19429016 130342277.30080628 0 0 0 0 -67344506.606888771 -362480940.65223908 0 -362480940.65223908 1026757539.6687851 0 0 0 0 130079651.38150024 104812129.18457699 0 104812129.18457699 -120480392.97831726 0 0 0 0 -81771623.799854279 -241757853.04846954 0 -241757853.04846954 209084650.66989899 0 0 0 0 -96755285.012985229 -121955733.61504745 0 -121955733.61504745 675288193.88115311 0 0 0 0 3610871.1522521973 58424269.642608643 0 58424269.642608643 381845197.25610542 0 0 0 0 -12994988.335708618 -211784576.94731522 0 -211784576.94731522 393163159.87630463 0 0 0 0 -142031337.65129089 3781218.247253418 0 3781218.247253418 220855870.35507202 0 0 0 0 -1599912.4628199711 -3152222.498285871 0 -3152222.498285871 1960999.4009011462 0 0 0 0 113257193.64385223 -245993391.82480621 0 -245993391.82480621 -209441534.92586517 0 0 0 0 -109864430.82199097 199210972.14377213 0 199210972.14377213 224558604.16624832 0 0 0 0 206344867.72933197 -176310247.94390869 0 -176310247.94390869 97758679.634101868 0 0 0 0 273146.61222748738 2081349.640004009 0 2081349.640004009 385483.7907840237 0 0 0 0 -43592771.53629303 -195286496.0896492 0 -195286496.0896492 633350818.42670631 0 0 0 0 -15957446.443984985 34262652.690315247 0 34262652.690315247 4811061.0179862976 0 0 0 0 -35891767.649177551 -11782409.127971649 0 -11782409.127971649 38972250.944541931 0 0 0 0 -21668284.843429565 -32260895.864070892 0 -32260895.864070892 -86131824.000892639 0 0 0 0 -242685347.37583923 140443294.89229393 0 140443294.89229393 212210244.67511749 0 0 0 0 -166661814.55430222 -99733412.624404907 0 -99733412.624404907 885064372.98143768 0 0 0 0 138131112.07543945 -1132967739.0645409 0 -1132967739.0645409 722053997.16321182 0 0 0 0 22464203.706207275 -1004208204.1942444 0 -1004208204.1942444 1096809369.6709709 0 0 0 0 65441186.526673794 -279773276.07857442 0 -279773276.07857442 308376899.04972839 0 0 0 0 1173125914.4649582 -565539893.71847153 0 -565539893.71847153 343379145.93649292 0 0 0 0 786203.1063962318 2047826.5733479261 0 2047826.5733479261 2310824.0849347413 0 0 0 0 343985734.31903839 -1511638411.6260433 0 -1511638411.6260433 704855865.63193512 0 0 0 0 1240419181.6195374 -1718562939.8493042 0 -1718562939.8493042 295861730.05275726 0 0 0 0 -430799818.13884354 1065739481.966197 0 1065739481.966197 689244069.95645905 0 0 0 0 -153393067.02904129 -37049690.051965714 0 -37049690.051965714 4411963.6967697144 0 0 0 0 1822965.3144250102 4765206.5235956982 0 4765206.5235956982 3654621.0830177441 0 0 0 0 -66715530.896270752 24884582.849918365 0 24884582.849918365 48242485.475364685 0 0 0 0 -77958026.951873779 -10239579.9635849 0 -10239579.9635849 -26725425.124603271 0 0 0 0 430557.15220372379 3367230.112957716 0 3367230.112957716 859122.16965191066 0 0 0 0 -60295390.385787964 -24855369.436882019 0 -24855369.436882019 -15625160.641109467 0 0 0 0 282321163.7502594 -157877253.49743652 0 -157877253.49743652 -64827422.640228271 0 0 0 0 -301088574.21334076 -29408607.523803711 0 -29408607.523803711 214209203.84397507 0 0 0 0 40688515.577661514 43502600.085439205 0 43502600.085439205 14044363.774223328 0 0 0 0 -253434052.12796021 208259361.85250854 0 208259361.85250854 -78984497.629476547 0 0 0 0 5680136.0670366343 -1728364.4734390862 0 -1728364.4734390862 -5208525.0891210884 0 0 0 0 -224134596.23187447 137313043.07984161 0 137313043.07984161 -133250232.05177307 0 0 0 0 -171452499.28464222 128518898.09342384 0 128518898.09342384 -143129359.55278015 0 0 0 0 -138924185.81645584 100261902.79844666 0 100261902.79844666 -70112941.910682678 0 0 0 0 35286459.747217178 -16708955.310512543 0 -16708955.310512543 -12543232.255081177 0 0 0 0 7590584.9236849546 -2082776.9482033476 0 -2082776.9482033476 -6290149.2998054996 0 0 0 0 2313191494.4944305 -977780492.42802048 0 -977780492.42802048 -40309672.401069641 0 0 0 0 -3868712.2206076235 -2992126.5943635143 0 -2992126.5943635143 2239100.9360603243 0 0 0 0 -28124336.264392853 -44450837.798197269 0 -44450837.798197269 891322207.70613861 0 0 0 0 65717418.095531464 -50582543.660163879 0 -50582543.660163879 -5112643.3165636063 0 0 0 0 -11426987.09431446 -18888196.506984614 0 -18888196.506984614 -13380207.631978497 0 0 0 0 371157940.02838135 -692026188.59550858 0 -692026188.59550858 764031800.57517242 0 0 0 0 150225731.33625793 -601331340.88581085 0 -601331340.88581085 885104356.41814649 0 0 0 0 468576755.9237175 -594942658.41217613 0 -594942658.41217613 412937252.34111786 0 0 0 0 281094017.56031799 -21491292.400341034 0 -21491292.400341034 -267326307.39081192 0 0 0 0 82258525.393157959 -319343181.86865997 0 -319343181.86865997 1017577941.7861824 0 0 0 0 154903169.54443741 -133244360.84798813 0 -133244360.84798813 454264934.82178497 0 0 0 0 -89628853.464141846 -264293535.21074677 0 -264293535.21074677 1620585405.0151591 0 0 0 0 -11720369.122017376 -17033637.436758753 0 -17033637.436758753 -14368826.707909487 0 0 0 0 82278910.123458862 -269760580.39397049 0 -269760580.39397049 -63033984.788642883 0 0 0 0 289889932.33857918 -1076673076.6080213 0 -1076673076.6080213 1575416401.9193344 0 0 0 0 2376787.5271385675 -93231.577115323395 0 -93231.577115323395 -2421231.89927499 0 0 0 0 -575650690.00451756 22852328.320169449 0 22852328.320169449 -238678182.8527565 0 0 0 0 -8173604.2091822997 -14215754.84351939 0 -14215754.84351939 -14974315.066391975 0 0 0 0 -117033578.65090942 -701297975.4515686 0 -701297975.4515686 -445732174.02897644 0 0 0 0 85216366.746875763 220855363.88574982 0 220855363.88574982 332768419.29042435 0 0 0 0 771360629.01060486 -1984381704.771759 0 -1984381704.771759 991022039.40066528 0 0 0 0 89887794.759922028 -2428881562.9286175 0 -2428881562.9286175 2764296914.5096283 0 0 0 0 275493770.30489922 130324250.34439945 0 130324250.34439945 437457174.69277954 0 0 0 0 -293819188.7584095 -2146259786.040556 0 -2146259786.040556 -1770164781.9842224 0 0 0 0 1584576947.6045189 -1554699059.7575417 0 -1554699059.7575417 -5876854575.8211746 0 0 0 0 -2166103454.2372894 -2279675475.101963 0 -2279675475.101963 -1763340643.0530014 0 0 0 0 -213840505.92862701 45940517.48905468 0 45940517.48905468 -2892655946.8531723 0 0 0 0 -1912197144.9579926 704591813.09508514 0 704591813.09508514 -420688825.65853882 0 0 0 0 370467315.13309669 29258839.789582253 0 29258839.789582253 635028678.13308716 0 0 0 0 -49121815.008789062 -427896656.99960709 0 -427896656.99960709 141556160.45204926 0 0 0 0 115445293.86935425 493039304.10936165 0 493039304.10936165 -432890423.02642059 0 0 0 0 -480341888.9468689 265706614.7511673 0 265706614.7511673 509402566.79640818 0 0 0 0 126672124.00111389 392199684.10443878 0 392199684.10443878 -144849467.28954697 0 0 0 0 -289818024.66239929 79919349.851089478 0 79919349.851089478 -121916759.25292969 0 0 0 0 -431679699.83731079 -739358334.69951248 0 -739358334.69951248 -413705093.57659912 0 0 0 0 28026033.833946228 -796412953.84156418 0 -796412953.84156418 -890018841.18107224 0 0 0 0 1287296.1058607325 2495384.465052709 0 2495384.465052709 -758641.19079311192 0 0 0 0 -614400250.05447388 -962975996.26672363 0 -962975996.26672363 -309269101.14469528 0 0 0 0 -801303246.73817444 -721689574.36058044 0 -721689574.36058044 -4554284.4276275635 0 0 0 0 -934143388.56350708 -830008257.99221039 0 -830008257.99221039 -88631297.242538452 0 0 0 0 -1639875202.440918 -1134781832.6858978 0 -1134781832.6858978 -85171262.983771205 0 0 0 0 -794247025.95803833 -680982947.93791962 0 -680982947.93791962 -11879072.672836304 0 0 0 0 -1128619195.0458679 -615422474.5827446 0 -615422474.5827446 298890139.46520996 0 0 0 0 -855972636.43771362 -414464263.42112732 0 -414464263.42112732 266397734.12826061 0 0 0 0 -3033280.3324318565 -6835403.1173805296 0 -6835403.1173805296 -2724812.1843439937 0 0 0 0 483967246.3167572 -92322190.163391113 0 -92322190.163391113 -100815893.57806396 0 0 0 0 -377643482.29432678 26498534.559860229 0 26498534.559860229 150285224.15177917 0 0 0 0 797491030.90396118 -148359849.35777283 0 -148359849.35777283 228911723.04957581 0 0 0 0 -320795593.8689518 548572738.36440563 0 548572738.36440563 -110296409.1378479 0 0 0 0 -8820868.2533057258 -6657012.8933767267 0 -6657012.8933767267 5983631.7371750595 0 0 0 0 -2054851363.3270416 314526880.43721008 0 314526880.43721008 734179089.33081818 0 0 0 0 -1259741928.2523804 -2062808850.9719391 0 -2062808850.9719391 -2003747079.8891602 0 0 0 0 -587950745.75949097 -1126503175.9989319 0 -1126503175.9989319 -1166733235.2693481 0 0 0 0 -1164456028.963974 -516294335.36421204 0 -516294335.36421204 28032227.803649902 0 0 0 0 -2852155463.9552765 -1462268014.204731 0 -1462268014.204731 -193761483.414505 0 0 0 0 160020630.30284119 -147184540.23170853 0 -147184540.23170853 320985132.49681616 0 0 0 0 289997505.62213898 -193584348.34482956 0 -193584348.34482956 37899419.058265686 0 0 0 0 172308240.49221039 -397828028.52089691 0 -397828028.52089691 333564458.39792633 0 0 0 0 226043272.7217865 -395457952.32256508 0 -395457952.32256508 292461531.27082062 0 0 0 0 264636.03890149388 1882552.685331203 0 1882552.685331203 380987.16130542755 0 0 0 0 -105345243.92511272 51481948.51957798 0 51481948.51957798 108532819.13381958 0 0 0 0 274495622.50386047 -284308653.94884491 0 -284308653.94884491 206173054.52160645 0 0 0 0 -117010168.26531982 -72742283.697551727 0 -72742283.697551727 383164230.36440849 0 0 0 0 -83718823.719352722 -51579476.041559219 0 -51579476.041559219 75115716.363479614 0 0 0 0 2218903.7291097958 4931055.7005117685 0 4931055.7005117685 723525.22949197888 0 0 0 0 -3372076.2217235565 -136589355.15011597 0 -136589355.15011597 153427273.62324524 0 0 0 0 366484618.01181602 -239046106.53916454 0 -239046106.53916454 -197376720.37249756 0 0 0 0 -245776204.43925476 -580053748.56626892 0 -580053748.56626892 -329185894.45708847 0 0 0 0 -56388774.359573364 -256048867.68917465 0 -256048867.68917465 116712206.81060791 0 0 0 0 51667186.947372437 -442998248.25302219 0 -442998248.25302219 -423872019.38638306 0 0 0 0 -69778049.983037472 -116586414.40787649 0 -116586414.40787649 125028523.80994415 0 0 0 0 239641134.08537292 -163343590.72024536 0 -163343590.72024536 -8579609.4245891571 0 0 0 0 -159004643.67814636 -166850135.69401169 0 -166850135.69401169 18300483.789737701 0 0 0 0 168757235.86292267 -103830441.97519302 0 -103830441.97519302 46247624.353790283 0 0 0 0 -453051958.3214798 -105689143.68658829 0 -105689143.68658829 -324744080.93083954 0 0 0 0 -78514971.883255005 -249046923.40083313 0 -249046923.40083313 -600334113.15705872 0 0 0 0 -95081462.683303833 254935876.33393478 0 254935876.33393478 -498837398.97061157 0 0 0 0 2391817.9081000984 693498.57821496949 0 693498.57821496949 -2124635.0645851716 0 0 0 0 26522678.663864136 -457835457.44545555 0 -457835457.44545555 -279816646.02075958 0 0 0 0 -622907523.46852112 -494059169.00124359 0 -494059169.00124359 -714904907.40035248 0 0 0 0 -201993342.43991089 -189748704.67949677 0 -189748704.67949677 -521097835.75845337 0 0 0 0 -313678669.00117493 -613304056.91699409 0 -613304056.91699409 -639534864.89875793 0 0 0 0 -314042066.13757324 -454688883.32154846 0 -454688883.32154846 -820101803.08961487 0 0 0 0 -396576346.02845764 -503950404.28269196 0 -503950404.28269196 -419616026.09930944 0 0 0 0 -216388927.00893784 -533048362.88285637 0 -533048362.88285637 -681054955.43188477 0 0 0 0 -233253836.28862 -449163599.87280273 0 -449163599.87280273 -1076512040.6743088 0 0 0 0 -417620591.20014954 -623722200.62802887 0 -623722200.62802887 -715534277.61587906 0 0 0 0 -17396632.534779824 6844405.8692480102 0 6844405.8692480102 17425840.866382077 0 0 0 0 -288724975.90597534 -738249420.35090256 0 -738249420.35090256 -1268062953.841156 0 0 0 0 -591849648.27490234 395081617.11452484 0 395081617.11452484 527726930.97760391 0 0 0 0 -699754791.91241455 -216910206.1657238 0 -216910206.1657238 67169541.639297485 0 0 0 0 -1050484432.9603958 679320456.21474266 0 679320456.21474266 -57216221.54447937 0 0 0 0 750998072.63873291 82707431.565231323 0 82707431.565231323 -1431407010.2784805 0 0 0 0 69914085.230621338 5337670.8282775879 0 5337670.8282775879 342353711.66723633 0 0 0 0 435951832.26959229 10497205.429130554 0 10497205.429130554 482508697.04733276 0 0 0 0 295321828.86453247 338736060.1155777 0 338736060.1155777 -213852862.04800415 0 0 0 0 940718823.9906311 -616902273.35513306 0 -616902273.35513306 119322629.00421524 0 0 0 0 -375015508.91836929 -389981242.71653557 0 -389981242.71653557 -1026733199.8762512 0 0 0 0 -555465877.43405151 -620317329.53366089 0 -620317329.53366089 -894794226.95897293 0 0 0 0 -756932771.24313354 -1272662467.9187813 0 -1272662467.9187813 -1700202500.2639503 0 0 0 0 -8500178.2499885857 2804638.4522811845 0 2804638.4522811845 6744278.3333802074 0 0 0 0 70044406.822021484 -62938386.692070007 0 -62938386.692070007 468965452.17281723 0 0 0 0 -479110638.83154297 326884760.38587952 0 326884760.38587952 1364221528.3275757 0 0 0 0 -1646799.261374712 928140.2317936942 0 928140.2317936942 1213778.2368898205 0 0 0 0 843603398.4644165 -551493526.08488464 0 -551493526.08488464 -3099540489.8736172 0 0 0 0 -339740154.06045532 -2375598034.4170761 0 -2375598034.4170761 -3408423624.1331577 0 0 0 0 -1140408780.8368416 -518148017.31905365 0 -518148017.31905365 -315076369.62039185 0 0 0 0 -164238513.09388733 -527769525.56935883 0 -527769525.56935883 120694315.78350449 0 0 0 0 -142957361.18235779 -456168606.34195709 0 -456168606.34195709 -766684981.66262054 0 0 0 0 -19819080.383488655 -405077102.95770764 0 -405077102.95770764 -402756600.54263306 0 0 0 0 -34717185.424343109 1800113.5095846653 0 1800113.5095846653 -449043160.37167358 0 0 0 0 -236225730.4385376 -122627085.42414856 0 -122627085.42414856 -188292101.11514282 0 0 0 0 -53616391.946563721 -104708096.78200722 0 -104708096.78200722 -67936746.097585678 0 0 0 0 -15407295.931044564 -38511818.522572562 0 -38511818.522572562 -33276155.422534958 0 0 0 0 -3230635.0662656091 -87428238.991996765 0 -87428238.991996765 1896388.2355704904 0 0 0 0 -69979947.283065155 -27929284.944683157 0 -27929284.944683157 100086532.21158098 0 0 0 0 -322134675.237854 -125930655.4692688 0 -125930655.4692688 23346348.057579041 0 0 0 0 -326351168.94775391 -182991344.32095337 0 -182991344.32095337 62678013.917053223 0 0 0 0 -182114832.21380615 -206635175.63970947 0 -206635175.63970947 -516897379.43465424 0 0 0 0 1235982.3302949965 2526217.9602838196 0 2526217.9602838196 4754600.3292033076 0 0 0 0 -53651689.827060699 -103903872.2317009 0 -103903872.2317009 -48483337.770095825 0 0 0 0 -52020941.778259277 -101246560.45777702 0 -101246560.45777702 -29376558.07144165 0 0 0 0 -39041208.857318878 -112404445.74444342 0 -112404445.74444342 -56875453.540267944 0 0 0 0 -44033265.301269531 -128104399.44615936 0 -128104399.44615936 -72423060.176742554 0 0 0 0 -43650091.393768311 -122565589.92610168 0 -122565589.92610168 -82466906.600349426 0 0 0 0 -3047226.8212738037 -179857058.73305511 0 -179857058.73305511 -304456787.43397522 0 0 0 0 -12058559.080633566 -47233286.181289159 0 -47233286.181289159 29235083.878801025 0 0 0 0 -51666560.564476013 -139488881.72437859 0 -139488881.72437859 -74943257.814219475 0 0 0 0 -58246008.616567612 -128405214.9950037 0 -128405214.9950037 -58606478.762283325 0 0 0 0 -302515957.47846985 -358071487.9409256 0 -358071487.9409256 -234019071.2406311 0 0 0 0 -2122935.3901796415 -31946516.826711081 0 -31946516.826711081 -18751978.709294602 0 0 0 0 -13200451.290922146 -14383661.593502786 0 -14383661.593502786 14786986.629149005 0 0 0 0 -892441267.00330353 -465452340.42707062 0 -465452340.42707062 -110354742.48294067 0 0 0 0 -751030242.4188385 -579494156.87618256 0 -579494156.87618256 -202426679.92282104 0 0 0 0 -429543662.03329468 -699703229.03955078 0 -699703229.03955078 -465996219.73488617 0 0 0 0 -481370858.86340332 -647570123.21315002 0 -647570123.21315002 -269626195.2922821 0 0 0 0 -471044457.64102173 -652648662.3300972 0 -652648662.3300972 -342130799.19589233 0 0 0 0 -127695188.94035339 -562338782.31903458 0 -562338782.31903458 -460294677.09908295 0 0 0 0 -139768530.00238037 -832311913.40401077 0 -832311913.40401077 -405535924.67210388 0 0 0 0 -307216826.44974136 -661285365.87870026 0 -661285365.87870026 -512563894.77348328 0 0 0 0 -207757085.18386841 -625693367.21564484 0 -625693367.21564484 -685030948.94351196 0 0 0 0 -257921629.99452972 -663260944.56591415 0 -663260944.56591415 -465893432.20455933 0 0 0 0 -321081900.99925232 -477659915.34275818 0 -477659915.34275818 -675909114.53446484 0 0 0 0 -282649942.5927887 -535825127.68590546 0 -535825127.68590546 -588530443.48326111 0 0 0 0 -26651880.844457112 11800187.53785859 0 11800187.53785859 41456795.692232385 0 0 0 0 -351883877.35107422 -544617280.82199097 0 -544617280.82199097 -589333384.67961884 0 0 0 0 -376879922.88111877 -459779370.36162567 0 -459779370.36162567 -405984696.58466339 0 0 0 0 114317113.17892456 -239006350.78419495 0 -239006350.78419495 -414606230.78555298 0 0 0 0 -5064430.6789914966 -11428576.106528409 0 -11428576.106528409 -9933498.1332253292 0 0 0 0 -22054538.09360534 -46770856.254211694 0 -46770856.254211694 59604055.772202268 0 0 0 0 -270627837.30340576 -426902499.33029175 0 -426902499.33029175 -193869241.29830933 0 0 0 0 483461970.7076416 117495079.44759369 0 117495079.44759369 -220583048.01702118 0 0 0 0 -170423500.74029541 -93737445.077537537 0 -93737445.077537537 408418166.59927368 0 0 0 0 -371108035.58982849 -348931755.7517395 0 -348931755.7517395 -368287891.9546814 0 0 0 0 -346651512.3638916 -549231182.81221771 0 -549231182.81221771 -453452051.46575928 0 0 0 0 -9193872.1320597082 -43674533.572028741 0 -43674533.572028741 64407506.670915134 0 0 0 0 -261123889.40919495 -441165453.24696732 0 -441165453.24696732 -291126367.08111572 0 0 0 0 -175944879.47689819 -79787448.102622986 0 -79787448.102622986 -144856353.63266659 0 0 0 0 50378671.639417648 -27472659.175750732 0 -27472659.175750732 4569233.3204345703 0 0 0 0 17917783.192840576 -279071492.58113098 0 -279071492.58113098 -532591114.63479614 0 0 0 0 63622220.284865923 -47260380.109692752 0 -47260380.109692752 -21630764.881722189 0 0 0 0 -436903285.01692963 -381196190.00323868 0 -381196190.00323868 -11082060.744171143 0 0 0 0 -620657127.26309204 -626775708.9924469 0 -626775708.9924469 -231335015.61762238 0 0 0 0 -471453630.81600952 -273681448.18168068 0 -273681448.18168068 74508190.186355591 0 0 0 0 130682919.86981201 -204341191.49134827 0 -204341191.49134827 -138894042.59231567 0 0 0 0 28256166.985989243 -7276168.6917516887 0 -7276168.6917516887 -21909502.434248112 0 0 0 0 -545338585.60726929 -326167907.14925194 0 -326167907.14925194 59565584.670654297 0 0 0 0 -519407343.76478577 -454410391.01623917 0 -454410391.01623917 -71065971.22744751 0 0 0 0 -40668058.492443085 -83069557.564523697 0 -83069557.564523697 -33374048.86101532 0 0 0 0 -52699502.941181183 -105152503.16167831 0 -105152503.16167831 -47979667.092926025 0 0 0 0 35560913.164459229 -5470462.1065673828 0 -5470462.1065673828 -17664256.612121582 0 0 0 0 34974835.86168579 -47508702.204461254 0 -47508702.204461254 -26121464.522733647 0 0 0 0 34149456.113007344 -30442957.189567886 0 -30442957.189567886 -18232889.115122296 0 0 0 0 9472970.1298557855 -18078521.65259077 0 -18078521.65259077 -24050216.808885928 0 0 0 0 -44783266.89201355 -58298232.514404297 0 -58298232.514404297 -125497365.82891083 0 0 0 0 48703496.092220306 -19079278.340745926 0 -19079278.340745926 -9734815.3985748291 0 0 0 0 50212677.311134338 -24387534.589233398 0 -24387534.589233398 -17286986.204761505 0 0 0 0 44827152.255037792 -16866189.540102847 0 -16866189.540102847 -24819841.657272514 0 0 0 0 45324075.392275073 -7722128.7324497364 0 -7722128.7324497364 -26008488.587024871 0 0 0 0 107303310.36219025 -204277496.57236946 0 -204277496.57236946 -330248229.72507042 0 0 0 0 30759390.822532654 -1082452.4950904846 0 -1082452.4950904846 -24350448.555679321 0 0 0 0 -1344130459.470768 -349725129.91029114 0 -349725129.91029114 59436072.615071565 0 0 0 0 -681967414.09044647 -1095882785.9402368 0 -1095882785.9402368 -476751717.24009717 0 0 0 0 -10790817.184803009 -681312336.28493631 0 -681312336.28493631 -1807063587.7526307 0 0 0 0 -1190837763.1798706 -312522191.73666108 0 -312522191.73666108 276841880.07849187 0 0 0 0 20922327.221984863 -80580107.492336273 0 -80580107.492336273 -48057893.124542236 0 0 0 0 117943915.5241394 40276808.112442017 0 40276808.112442017 -37446092.65874958 0 0 0 0 210657231.9299469 -88658182.781974792 0 -88658182.781974792 -151455230.72061157 0 0 0 0 12729444.597592158 -37415133.260842592 0 -37415133.260842592 -32710136.946933046 0 0 0 0 -836402.20924579352 -3097764.3884636397 0 -3097764.3884636397 -5232533.5025801659 0 0 0 0 217374328.54026031 -478785168.80289489 0 -478785168.80289489 -241464035.49090588 0 0 0 0 109784705.6486969 -178154570.24091721 0 -178154570.24091721 121915330.62928343 0 0 0 0 -46718054.153839111 57477099.309542656 0 57477099.309542656 -407146539.85762215 0 0 0 0 -7115848.2962266095 -3871535.8510174733 0 -3871535.8510174733 4859199.6769153792 0 0 0 0 -2838380.5089967325 -6187686.0387902707 0 -6187686.0387902707 1298474.1033392777 0 0 0 0 -105157014.04485321 -823868527.13652992 0 -823868527.13652992 -349762353.00467205 0 0 0 0 -774295491.02925873 -1601928428.6066411 0 -1601928428.6066411 -1253083579.016561 0 0 0 0 -3122991.545343399 -360910959.33697176 0 -360910959.33697176 464216906.42557061 0 0 0 0 -167027827.47703362 -827493121.31966805 0 -827493121.31966805 -208231194.39475083 0 0 0 0 -82033982.55141449 -658324070.68528831 0 -658324070.68528831 23394955.063718885 0 0 0 0 145127798.32527161 -525319293.59821081 0 -525319293.59821081 -1936150344.3733354 0 0 0 0 -415423722.60997391 -954158639.63976157 0 -954158639.63976157 225386562.52548692 0 0 0 0 -322507624.60913467 -1279917215.4788287 0 -1279917215.4788287 -277676352.96267247 0 0 0 0 -81312619.178947449 -725478973.37116504 0 -725478973.37116504 -436899129.9657855 0 0 0 0 133846505.73043084 -349105707.60407048 0 -349105707.60407048 121757495.60075188 0 0 0 0 581691868.11116028 494789871.30140686 0 494789871.30140686 -531377043.99241638 0 0 0 0 -846248380.08992767 516030949.51079988 0 516030949.51079988 -164046783.5303812 0 0 0 0 30499705.831443787 -74337259.019521713 0 -74337259.019521713 -64347609.097251892 0 0 0 0 -17220400.639907837 -123799191.91519356 0 -123799191.91519356 -53504506.770343781 0 0 0 0 -38812058.557250977 -115484532.44750214 0 -115484532.44750214 -15344914.699172974 0 0 0 0 -9729454.2606124878 -138910112.14141846 0 -138910112.14141846 -32605315.28742218 0 0 0 0 260948070.64813232 328225272.01975322 0 328225272.01975322 259047502.68895704 0 0 0 0 18419087.821232185 -34196988.934150875 0 -34196988.934150875 -22009873.410131276 0 0 0 0 -143034954.17298126 -44430873.33115387 0 -44430873.33115387 80016278.751491547 0 0 0 0 22048268.809712157 -37379790.737823963 0 -37379790.737823963 -14040820.140959471 0 0 0 0 -84903263.234951019 -87290486.712562561 0 -87290486.712562561 -48458483.008327484 0 0 0 0 -22610896.866172791 -100153208.26826286 0 -100153208.26826286 -64614842.174459696 0 0 0 0 -54729208.32169342 -76120204.849645615 0 -76120204.849645615 -61836004.450271606 0 0 0 0 -64177013.286567688 -98277521.532592773 0 -98277521.532592773 -64633397.423861578 0 0 0 0 -2137250.9546118379 -40430155.174133487 0 -40430155.174133487 25455196.853930265 0 0 0 0 8094223.4401931763 -527100625.49596977 0 -527100625.49596977 -155954118.66436768 0 0 0 0 335400604.80495071 -560309898.5879879 0 -560309898.5879879 98896149.130340576 0 0 0 0 -396340912.39341736 -36912772.878288269 0 -36912772.878288269 268014149.74269104 0 0 0 0 134086759.89135742 -288383159.65234756 0 -288383159.65234756 -247121085.40072632 0 0 0 0 -293825103.65653992 -337110927.44482422 0 -337110927.44482422 803522175.31277466 0 0 0 0 -79878833.811454773 -81553961.199976921 0 -81553961.199976921 -36841560.905667782 0 0 0 0 -335084489.7276535 -2181706.5805892944 0 -2181706.5805892944 92485018.434593201 0 0 0 0 -15287525.534370653 -41301921.572141379 0 -41301921.572141379 29886723.574435927 0 0 0 0 -63925161.435540676 -95337639.781634569 0 -95337639.781634569 -45675809.557830811 0 0 0 0 51225245.168056488 -2597475.4761612415 0 -2597475.4761612415 110792777.25712681 0 0 0 0 -229533758.51698303 167339563.68140602 0 167339563.68140602 304212926.65982056 0 0 0 0 -503067463.90520096 -397623176.22134089 0 -397623176.22134089 380637789.43569374 0 0 0 0 7273200.7894592285 -40254811.471374512 0 -40254811.471374512 115906012.53918076 0 0 0 0 142958642.11118317 122108811.31871414 0 122108811.31871414 287066291.18290901 0 0 0 0 -81931245.886732101 -88843882.247550726 0 -88843882.247550726 -41341706.424207687 0 0 0 0 28307572.837867565 -50161183.162194446 0 -50161183.162194446 -13111576.850801032 0 0 0 0 208457.38563537598 -61168420.172660828 0 -61168420.172660828 -1530551.857925415 0 0 0 0 -34636484.971767426 -41536790.927400589 0 -41536790.927400589 -11983260.694568038 0 0 0 0 -40139313.410211317 -47073002.868657276 0 -47073002.868657276 44912251.670785286 0 0 0 0 1305174931.6988411 197707661.40452576 0 197707661.40452576 -517918772.73246765 0 0 0 0 -16357949.375636276 -32362887.987959176 0 -32362887.987959176 12822527.561734736 0 0 0 0 35446011.194406763 -39884356.852606997 0 -39884356.852606997 -22621562.708364546 0 0 0 0 38770072.284305573 -25386090.41065979 0 -25386090.41065979 -24867479.584179044 0 0 0 0 90444510.832820892 -49743153.727653503 0 -49743153.727653503 -144720704.4519043 0 0 0 0 -30408799.334592819 -37538008.452739716 0 -37538008.452739716 24200855.498111725 0 0 0 0 35819565.378226124 -24194178.075539164 0 -24194178.075539164 -24535479.233637337 0 0 0 0 838808.06597820623 -1489897.2699955215 0 -1489897.2699955215 -1410822.7784439623 0 0 0 0 63782865.148153305 204048880.04699707 0 204048880.04699707 -12820306.817047119 0 0 0 0 -4709909.6851387024 -17239762.816345215 0 -17239762.816345215 -74695370.542167664 0 0 0 0 9088527.7516055107 60531068.122070312 0 60531068.122070312 -151124430.66064453 0 0 0 0 1912115.4561248126 -123340.05828598142 0 -123340.05828598142 -2445270.4640378579 0 0 0 0 -941063.47191733797 -5662733.2559911376 0 -5662733.2559911376 2858409.1244100034 0 0 0 0 -866926617.35571671 -1180285136.8701744 0 -1180285136.8701744 -475636542.7081604 0 0 0 0 -563251802.68532181 404014002.87852478 0 404014002.87852478 -331360328.10406494 0 0 0 0 16694092.73927784 421222841.40402222 0 421222841.40402222 -1429023935.8388481 0 0 0 0 -10670110.288595319 260532886.11219788 0 260532886.11219788 -325429846.61633301 0 0 0 0 -786009996.35560799 -710435646.53784561 0 -710435646.53784561 -657458456.50711823 0 0 0 0 -1005136066.5633049 -902385576.36129761 0 -902385576.36129761 -145050382.86807632 0 0 0 0 -750746022.24233437 -792091031.05733109 0 -792091031.05733109 -553904809.21569824 0 0 0 0 -689368410.21364594 -1009498793.3043518 0 -1009498793.3043518 -1198147428.9253514 0 0 0 0 -2244807563.0116425 -77644164.617897034 0 -77644164.617897034 82231348.657783508 0 0 0 0 -829693615.11719036 -658642601.05259132 0 -658642601.05259132 17085737.94593811 0 0 0 0 -1994809.8517076625 1199814.8209892046 0 1199814.8209892046 1873894.1244595945 0 0 0 0 -4429953997.198967 -1438777250.2984924 0 -1438777250.2984924 27766178.144146442 0 0 0 0 -1365221354.9192429 1164688290.3002548 0 1164688290.3002548 -231458911.42897034 0 0 0 0 384263759.52605438 284844048.31073761 0 284844048.31073761 -611303048.68843079 0 0 0 0 2026560831.590744 613106257.97555542 0 613106257.97555542 1345668181.87677 0 0 0 0 1056970733.9298668 -1608058963.1818104 0 -1608058963.1818104 -714757529.77453613 0 0 0 0 -3416347937.8117294 1139331974.871376 0 1139331974.871376 183004589.27684021 0 0 0 0 1928568753.8835945 -2212855053.8456383 0 -2212855053.8456383 -1391938478.8939209 0 0 0 0 -1618336.7739917152 -5981055.4816096835 0 -5981055.4816096835 -8631172.969138965 0 0 0 0 2557034421.4909363 -1640269229.2161713 0 -1640269229.2161713 -2355120298.6744995 0 0 0 0 1843219724.5148239 252423622.15065765 0 252423622.15065765 -3163185960.6659813 0 0 0 0 774377905.49252319 -874499157.84751129 0 -874499157.84751129 -1581110275.25634 0 0 0 0 1696652224.2542815 -1803562953.76227 0 -1803562953.76227 -2518819669.0817261 0 0 0 0 -28300109.693932325 -18778022.492074553 0 -18778022.492074553 22433554.39856736 0 0 0 0 -6445101431.1732788 -1894815530.7673035 0 -1894815530.7673035 -238518316.3435173 0 0 0 0 -3359138148.2692986 -6763126898.4270782 0 -6763126898.4270782 -4251907023.1548004 0 0 0 0 -6068080100.4055977 -1200609209.1387482 0 -1200609209.1387482 930698304.74661255 0 0 0 0 -1269817168.3173981 -1134509095.3841896 0 -1134509095.3841896 -165572154.5181427 0 0 0 0 -874715469.9551239 -1373320914.5809326 0 -1373320914.5809326 -895117101.30065155 0 0 0 0 13543288.057220459 -55050112.928565979 0 -55050112.928565979 -108231050.34362888 0 0 0 0 33780462.092080571 -26887143.959270742 0 -26887143.959270742 3876748.7068192661 0 0 0 0 -691223857.51370239 -518459222.62420654 0 -518459222.62420654 -720532083.95058537 0 0 0 0 -1060462715.312561 -334859053.07891083 0 -334859053.07891083 694031198.5555954 0 0 0 0 1036382465.4587021 63797197.132539749 0 63797197.132539749 35018680.131370544 0 0 0 0 -1010699983.2163239 14490020.600780487 0 14490020.600780487 1116807602.8602943 0 0 0 0 -904938.00026839226 -7794967.0109910183 0 -7794967.0109910183 2891261.0130634694 0 0 0 0 -16339695.030612946 -63099514.74697876 0 -63099514.74697876 75026667.09703064 0 0 0 0 29338768.13185025 -17875213.104384929 0 -17875213.104384929 -91684.046407502145 0 0 0 0 550600136.8942585 -1930142393.1686258 0 -1930142393.1686258 -1907771026.6867447 0 0 0 0 -182960625.40871429 -248155571.07142258 0 -248155571.07142258 -130150584.84944153 0 0 0 0 94025891.839637756 -278941635.12974548 0 -278941635.12974548 -517709514.16801453 0 0 0 0 197783803.75193405 -86005124.948699951 0 -86005124.948699951 -506661755.89813232 0 0 0 0 93258845.198760986 -123038415.3710022 0 -123038415.3710022 -346533754.37135315 0 0 0 0 163183550.55995941 -166989620.02655029 0 -166989620.02655029 -355335977.01512146 0 0 0 0 35226382.951288223 313543674.62079239 0 313543674.62079239 -513323202.32897949 0 0 0 0 210308790.96277809 -68607727.336265564 0 -68607727.336265564 -590215771.43486023 0 0 0 0 88111313.575742722 -48341430.411895752 0 -48341430.411895752 -318305427.92384338 0 0 0 0 90358853.97394371 80720952.864013672 0 80720952.864013672 -419760108.0565033 0 0 0 0 42614591.603899956 49090752.788009644 0 49090752.788009644 -262833425.05685425 0 0 0 0 74342261.290157318 1542046.3983917236 0 1542046.3983917236 -270905699.4823761 0 0 0 0 37508841.706081152 120352574.50572777 0 120352574.50572777 -439306169.59817505 0 0 0 0 5019728.7721748352 -45028922.133666992 0 -45028922.133666992 4985874.3354644775 0 0 0 0 54202347.692877829 -27661890.128770757 0 -27661890.128770757 -19458871.462736476 0 0 0 0 35435498.354349136 -41935190.885215759 0 -41935190.885215759 -156966347.16386414 0 0 0 0 59820221.450892448 14378355.88274765 0 14378355.88274765 -126334069.71844482 0 0 0 0 -12430013.711509705 -144351105.31458282 0 -144351105.31458282 -139557910.58003235 0 0 0 0 52097317.338396072 -93479092.021583557 0 -93479092.021583557 -160615968.35493088 0 0 0 0 85128705.492003441 -58408949.650617599 0 -58408949.650617599 -170207570.17498779 0 0 0 0 -491689730.23654175 -533572989.55638123 0 -533572989.55638123 -413607267.8088913 0 0 0 0 46425791.856010675 -10653905.326663494 0 -10653905.326663494 5336679.8465270996 0 0 0 0 38880824.10929244 -32312874.214584015 0 -32312874.214584015 1414567.9082219005 0 0 0 0 -695561357.60855865 -258463810.90426159 0 -258463810.90426159 34177257.191192627 0 0 0 0 -469515321.57870483 -198728048.3032074 0 -198728048.3032074 -6285882.6716384888 0 0 0 0 -180620255.64790344 -253567585.41287422 0 -253567585.41287422 -77189142.161720276 0 0 0 0 -276230922.45336914 -261917694.62230301 0 -261917694.62230301 -77917342.700340271 0 0 0 0 9636608.0442744717 4374810.2156164842 0 4374810.2156164842 -7152091.0533632971 0 0 0 0 -442268479.35089111 -142516069.17318726 0 -142516069.17318726 101903571.24018097 0 0 0 0 32562265.181503296 -61508972.086681366 0 -61508972.086681366 -35877131.165880203 0 0 0 0 146074865.14682007 -27407573.758834839 0 -27407573.758834839 -27380710.873056412 0 0 0 0 24380677.71804902 -24872218.279379096 0 -24872218.279379096 -24666328.193418004 0 0 0 0 240899198.30270004 -329733705.35418081 0 -329733705.35418081 309932645.39929199 0 0 0 0 39985827.542236328 -77377331.91651535 0 -77377331.91651535 -63608036.639259338 0 0 0 0 -265636174.21672058 -34212922.190210342 0 -34212922.190210342 39651720.728847504 0 0 0 0 -226374905.31321716 -19111687.95630455 0 -19111687.95630455 45439494.994965553 0 0 0 0 -368334326.70755005 -133070582.32269478 0 -133070582.32269478 98372069.088122368 0 0 0 0 -478523357.94087982 16314503.962561607 0 16314503.962561607 195968338.97465515 0 0 0 0 -442489753.55220032 115325754.93853569 0 115325754.93853569 214445629.71036148 0 0 0 0 -430619533.75692749 112758559.5418396 0 112758559.5418396 120708160.05537224 0 0 0 0 -488905030.4393158 37138267.968712807 0 37138267.968712807 321834623.722435 0 0 0 0 -646743900.17449951 -124488974.96196651 0 -124488974.96196651 239800274.80046463 0 0 0 0 -337720669.06203461 104637815.87561607 0 104637815.87561607 279141541.60641289 0 0 0 0 -328924748.85211182 10887026.968194962 0 10887026.968194962 702595393.32447815 0 0 0 0 -263586836.83325958 -161341056.46385956 0 -161341056.46385956 -131380446.74565125 0 0 0 0 323185051.83946228 205156716.31452179 0 205156716.31452179 91151432.65779686 0 0 0 0 164761351.48030043 -4646468.2124627829 0 -4646468.2124627829 -396743747.64216232 0 0 0 0 -978703531.54510498 7366863.9555482864 0 7366863.9555482864 89895700.82755661 0 0 0 0 -172468430.90464401 -451294350.20846367 0 -451294350.20846367 -1037266107.4723129 0 0 0 0 -758589714.33654785 -1160482843.5676517 0 -1160482843.5676517 -1711436768.9171867 0 0 0 0 -123118695.78770447 -295684827.30673218 0 -295684827.30673218 -612513688.58074093 0 0 0 0 325508078.3086586 -178179838.55212736 0 -178179838.55212736 -1054418529.4513283 0 0 0 0 894252588.23953247 -328831321.85360676 0 -328831321.85360676 -497893063.85656512 0 0 0 0 -521216173.82090473 -1187163880.8066578 0 -1187163880.8066578 -1016642328.5358794 0 0 0 0 10353744.558388758 -13171527.047574587 0 -13171527.047574587 -18270857.785952117 0 0 0 0 -291783546.11412048 68588622.65089035 0 68588622.65089035 9937311.9774990082 0 0 0 0 2962186.5315766186 -3935412.8133138455 0 -3935412.8133138455 -7224721.3720359141 0 0 0 0 -1395308163.2577209 -573138277.84569359 0 -573138277.84569359 -427001911.40908909 0 0 0 0 126844366.97702408 1572114781.8322353 0 1572114781.8322353 -1243161768.9019203 0 0 0 0 1080133.6493143216 -1796424.0031052325 0 -1796424.0031052325 -4950707.7307888344 0 0 0 0 660286673.05521393 1078501435.4397264 0 1078501435.4397264 -1658970783.0168133 0 0 0 0 694088738.66811371 -481239013.1761446 0 -481239013.1761446 -471250039.25415039 0 0 0 0 701300793.03681183 -272233274.66263938 0 -272233274.66263938 -9676178.4460124969 0 0 0 0 6680.0618018656969 -4673884.3885586709 0 -4673884.3885586709 -7968821.7241368825 0 0 0 0 -1557176541.3594971 1899905842.3903608 0 1899905842.3903608 -624094486.90667343 0 0 0 0 1136862278.8033752 -2676012962.7135792 0 -2676012962.7135792 -1896814112.0537302 0 0 0 0 -3270772.8638579808 -5571078.9660260528 0 -5571078.9660260528 -3617516.2955038734 0 0 0 0 137046612.9797821 -1344143587.963757 0 -1344143587.963757 532998986.43424988 0 0 0 0 516353048.94158936 -1128959958.8377931 0 -1128959958.8377931 -423197847.54135323 0 0 0 0 233187323.15310287 -414504195.09576279 0 -414504195.09576279 -3076964.9226646423 0 0 0 0 395232784.1594696 -719739163.0141983 0 -719739163.0141983 286500013.05604935 0 0 0 0 404084138.45199585 -684260117.71431065 0 -684260117.71431065 317490257.48511314 0 0 0 0 184571821.36859131 262060850.43391895 0 262060850.43391895 -830891837.61748648 0 0 0 0 508339341.05978394 303650231.12104416 0 303650231.12104416 -2792133388.9739084 0 0 0 0 174131004.77866364 174469175.36259556 0 174469175.36259556 -1280914648.8398056 0 0 0 0 -658147738.90858459 71389001.076246262 0 71389001.076246262 1356501776.0603218 0 0 0 0 -699280326.9029541 1017991077.6238871 0 1017991077.6238871 -404467424.27627468 0 0 0 0 143510408.91564941 -800517750.10845089 0 -800517750.10845089 1058429774.0987859 0 0 0 0 -193022805.7260437 415009091.65999794 0 415009091.65999794 -137176550.09191132 0 0 0 0 73102243.323074341 89682904.510787964 0 89682904.510787964 211111580.83329678 0 0 0 0 -212403611.18205261 140239023.36274052 0 140239023.36274052 518446081.80510235 0 0 0 0 -23261474.949638367 -28239871.252178669 0 -28239871.252178669 297794969.47940731 0 0 0 0 -22633006.397605836 60971042.148717284 0 60971042.148717284 203177340.36446571 0 0 0 0 -8371531.3084106445 15853512.310108185 0 15853512.310108185 254702644.82641029 0 0 0 0 -236027785.36954689 -1088557669.3749566 0 -1088557669.3749566 -107734711.79836464 0 0 0 0 254686642.70402527 -165503181.4969368 0 -165503181.4969368 19303323.684802055 0 0 0 0 -512296937.68731213 -57420016.137770861 0 -57420016.137770861 35693421.252896786 0 0 0 0 -5955157.4165189043 -7095454.8839298077 0 -7095454.8839298077 -310708.53668023588 0 0 0 0 2239390.6299350224 -4805242.1455723811 0 -4805242.1455723811 -2416440.0232426533 0 0 0 0 2108537.9592641741 -8080937.0616590716 0 -8080937.0616590716 -4322629.3918032059 0 0 0 0 174408895.76985931 -159268521.72087091 0 -159268521.72087091 570945889.72197247 0 0 0 0 -76315561.412010193 -345124852.92139077 0 -345124852.92139077 1455099886.7356958 0 0 0 0 1125904934.75177 578582387.56257892 0 578582387.56257892 270686535.42718744 0 0 0 0 1258434178.3528748 2043196851.6099846 0 2043196851.6099846 1060644983.3460693 0 0 0 0 -52932282.93687439 -1113044814.1229119 0 -1113044814.1229119 1138581642.9734926 0 0 0 0 2245820426.4312782 170855315.90266812 0 170855315.90266812 -512533916.09370923 0 0 0 0 1808507556.7507324 -1490024077.6757765 0 -1490024077.6757765 -714017743.22534704 0 0 0 0 1115896694.1762543 -488730574.78206325 0 -488730574.78206325 -334716937.60504341 0 0 0 0 926670462.0597229 -493087230.80106449 0 -493087230.80106449 -332153096.09134638 0 0 0 0 941573885.27137756 -274337272.02470243 0 -274337272.02470243 -453181351.24447441 0 0 0 0 1275061553.4567413 87274937.038942218 0 87274937.038942218 -126281441.85448313 0 0 0 0 42611984.289642334 168863291.79512239 0 168863291.79512239 186816275.57623756 0 0 0 0 -189258038.89044189 114502195.66675949 0 114502195.66675949 304805647.57747841 0 0 0 0 -3980583.593245998 -18148472.152684994 0 -18148472.152684994 -13053375.594025781 0 0 0 0 335821580.24681854 -205141650.55422664 0 -205141650.55422664 -124004016.32274437 0 0 0 0 465485695.91143799 -132717473.78931522 0 -132717473.78931522 -186037424.42185879 0 0 0 0 321672870.72486877 -79552636.444153786 0 -79552636.444153786 -79309531.577019691 0 0 0 0 -10752576.933315158 -14759509.420482578 0 -14759509.420482578 10007360.232184734 0 0 0 0 15927123.814458847 -21405481.139568329 0 -21405481.139568329 -4425976.8659667969 0 0 0 0 -4618029.0936431885 -90403049.340053558 0 -90403049.340053558 40413873.663513184 0 0 0 0 -3753512.6554641351 -18670910.573653527 0 -18670910.573653527 -22052167.214767441 0 0 0 0 957132155.73652649 -764790340.82858658 0 -764790340.82858658 144521940.00642967 0 0 0 0 276116535.45776367 -385116156.47644615 0 -385116156.47644615 -13412274.266245842 0 0 0 0 984844505.34895325 -380676119.21921253 0 -380676119.21921253 -165512080.54785919 0 0 0 0 -100098098.98361206 -281416408.37376976 0 -281416408.37376976 -215021372.71801758 0 0 0 0 -3365781.5408055447 -11083049.603262536 0 -11083049.603262536 -13484397.303813329 0 0 0 0 814556470.29478455 50734903.137569427 0 50734903.137569427 544350295.13302135 0 0 0 0 90920826.719047546 86657967.935857773 0 86657967.935857773 87424507.876037598 0 0 0 0 2266694.1826068228 -1721100.8878426924 0 -1721100.8878426924 -23251033.373515591 0 0 0 0 11071729.790159125 790738.66103528813 0 790738.66103528813 -7661081.1876761951 0 0 0 0 102312743.08158112 59298237.227485657 0 59298237.227485657 20234116.737106323 0 0 0 0 357156920.92167187 -265458243.4738245 0 -265458243.4738245 178242737.44288635 0 0 0 0 -370177604.19837952 -1018399608.1282291 0 -1018399608.1282291 -896368095.67978001 0 0 0 0 -1788748045.406311 -2103891465.8712177 0 -2103891465.8712177 -1500713552.9755917 0 0 0 0 -3246350.3586510792 -2955688.1740396488 0 -2955688.1740396488 712334.26976216445 0 0 0 0 -73592791.513851166 -339955056.34495872 0 -339955056.34495872 -1669509600.9629135 0 0 0 0 -15437520.565140724 312136987.77452856 0 312136987.77452856 -310019579.48045349 0 0 0 0 3639504.9609658718 -5545200.2031761706 0 -5545200.2031761706 -2220715.0158166215 0 0 0 0 353100065.82553101 -104377612.85086298 0 -104377612.85086298 -145345046.08320045 0 0 0 0 1728837.6164854318 -1873249.6159373149 0 -1873249.6159373149 -1197941.1773578292 0 0 0 0 1623948150.8115845 -959873.13629150391 0 -959873.13629150391 -143718620.56931758 0 0 0 0 -229689640.90784073 -508469804.42690992 0 -508469804.42690992 420405115.03200531 0 0 0 0 993435231.8515625 -460429051.95009995 0 -460429051.95009995 3000901.4701385498 0 0 0 0 -847011580.27503967 -1052856683.5177917 0 -1052856683.5177917 503484289.14217758 0 0 0 0 -366319584.90466309 -1435318210.0267658 0 -1435318210.0267658 287573904.71206403 0 0 0 0 -1189907489.9606152 -1673251586.8178735 0 -1673251586.8178735 -184523570.6494751 0 0 0 0 -1106036542.7589264 -1774304124.582325 0 -1774304124.582325 -334091176.07450962 0 0 0 0 -753122583.74286652 -1130683005.4565897 0 -1130683005.4565897 60291678.283855438 0 0 0 0 -1887761844.6992722 -1059822321.2373037 0 -1059822321.2373037 -562051360.34120941 0 0 0 0 -879781736.78118896 -1670078250.5839767 0 -1670078250.5839767 -1380108646.9589405 0 0 0 0 -1910456703.9016647 -2178159172.6041851 0 -2178159172.6041851 327564907.03074265 0 0 0 0 -1248978311.9017448 -1909557462.7337084 0 -1909557462.7337084 165465183.19289017 0 0 0 0 -2762350.044562012 -7332897.7837222591 0 -7332897.7837222591 1011113.5963290837 0 0 0 0 -81954982.821041107 -67168737.842640877 0 -67168737.842640877 4927255.8568534851 0 0 0 0 68676375.356384277 1393301434.2570791 0 1393301434.2570791 -2693277320.196969 0 0 0 0 -605229326.51655579 -2089957497.7981539 0 -2089957497.7981539 -1620895829.0218334 0 0 0 0 1061377050.8600922 -977306407.88761139 0 -977306407.88761139 -4429522564.3072052 0 0 0 0 810708723.07489014 -894357532.10719299 0 -894357532.10719299 -2071701396.3243027 0 0 0 0 125414790.61991882 246441224.56748962 0 246441224.56748962 -2364862555.7414246 0 0 0 0 -2207036738.1123657 -1497740542.5409374 0 -1497740542.5409374 358063513.14792919 0 0 0 0 -1115425.1629213579 -3682500.9659724087 0 -3682500.9659724087 -5012711.7458503321 0 0 0 0 -1651533691.5043488 -420582306.61824846 0 -420582306.61824846 96299491.842979431 0 0 0 0 4610520.0535990186 119752.04760522675 0 119752.04760522675 -3596297.4591075107 0 0 0 0 -195495231.00263977 -395943554.90471649 0 -395943554.90471649 -1501362699.0978546 0 0 0 0 -362959552.3494873 619275189.10598755 0 619275189.10598755 126606591.05236816 0 0 0 0 -8290293.9890365601 280491180.5023942 0 280491180.5023942 -146919402.07021713 0 0 0 0 -1653719142.4403152 -1833662448.5604725 0 -1833662448.5604725 -1748698147.9342384 0 0 0 0 1531103.3719098112 2614004.3380958047 0 2614004.3380958047 -9793465.6991334036 0 0 0 0 1299019081.6979389 -248192569.57400846 0 -248192569.57400846 -3177747172.2649765 0 0 0 0 -708685025.54154968 -818857593.94673347 0 -818857593.94673347 -660189983.75212765 0 0 0 0 -481970647.53085327 -1464494243.1262856 0 -1464494243.1262856 -1832979662.6959763 0 0 0 0 44750838.603607178 -1052130991.7374573 0 -1052130991.7374573 -1535500245.7340181 0 0 0 0 277058140.21525574 -1217795454.1703548 0 -1217795454.1703548 -2420338500.9391465 0 0 0 0 288574338.9789505 -1345563187.3902626 0 -1345563187.3902626 -2423727123.3745918 0 0 0 0 111018261.7015686 462847854.03520012 0 462847854.03520012 -1743337532.1852484 0 0 0 0 258235057.77238464 -936403919.76312447 0 -936403919.76312447 -1638246884.1853561 0 0 0 0 352444685.02808952 -1058246300.4010358 0 -1058246300.4010358 -4409520957.0417328 0 0 0 0 -466285666.44876099 1765575469.3138428 0 1765575469.3138428 -3265895578.7350235 0 0 0 0 -318073222.57340622 956782073.63503361 0 956782073.63503361 233638222.26113892 0 0 0 0 -285916575.94155884 254668367.25270844 0 254668367.25270844 -247959025.70455551 0 0 0 0 -418326372.39619446 25926291.017705917 0 25926291.017705917 272475284.28687668 0 0 0 0 -273461832.01787186 486700313.04985476 0 486700313.04985476 432106131.33282852 0 0 0 0 1702710409.3911819 -715650503.38550854 0 -715650503.38550854 -2928496201.5766602 0 0 0 0 1517525719.9785385 -1405653109.1158142 0 -1405653109.1158142 -4231763869.105526 0 0 0 0 -1952854617.8308258 -1884085574.0569191 0 -1884085574.0569191 -1268641477.5389557 0 0 0 0 -2847099031.2243195 1022262240.6517143 0 1022262240.6517143 256934585.67829895 0 0 0 0 -612989786.41708374 -16070595.254549026 0 -16070595.254549026 368262744.97293854 0 0 0 0 -944731014.18508911 -328914348.24964905 0 -328914348.24964905 2595189189.7275314 0 0 0 0 -1406051617.5737762 577659645.8123703 0 577659645.8123703 3727623999.0673828 0 0 0 0 681034577.77842712 67395372.079748154 0 67395372.079748154 82782546.408416748 0 0 0 0 412723992.10899353 -240742683.49352074 0 -240742683.49352074 1726023528.2768707 0 0 0 0 -7428498.996632874 -11029201.563063171 0 -11029201.563063171 -4456297.2447076607 0 0 0 0 -164987512.12689972 -476208907.43493462 0 -476208907.43493462 1692515988.2746458 0 0 0 0 -545193375.31191254 290044271.78443623 0 290044271.78443623 56003236.63240242 0 0 0 0 31131452.273719788 12740332.141291618 0 12740332.141291618 36750596.277071953 0 0 0 0 -3605602.2964934781 2139193.449402106 0 2139193.449402106 6637036.5703434814 0 0 0 0 -827986833.69656372 -1585967589.3002033 0 -1585967589.3002033 3954275390.6662111 0 0 0 0 -25724458.018990308 -11604773.311764373 0 -11604773.311764373 24277923.130508021 0 0 0 0 -25218503.851802826 -37142035.530296326 0 -37142035.530296326 -180215.05635070801 0 0 0 0 2086208.3401794434 -24411666.561078072 0 -24411666.561078072 596549335.13384104 0 0 0 0 152225564.31532288 132344769.16563702 0 132344769.16563702 725827191.33366203 0 0 0 0 -12146375.197868124 -30038826.538184933 0 -30038826.538184933 -1604457.5092588356 0 0 0 0 526235336.10217285 -325602007.28038406 0 -325602007.28038406 1151106867.4487019 0 0 0 0 68976510.03338623 -1302935825.1964264 0 -1302935825.1964264 1149232992.6850977 0 0 0 0 -450521869.49551392 319474418.6870575 0 319474418.6870575 1408364823.5329056 0 0 0 0 464764313.65048218 -1078287234.6139221 0 -1078287234.6139221 2147657506.9412165 0 0 0 0 796733854.02963257 390050350.95383453 0 390050350.95383453 2857433235.7417603 0 0 0 0 -135755.18633211032 -664508.28163124621 0 -664508.28163124621 -503096.08897776157 0 0 0 0 -25374126.930685043 -34841561.094118118 0 -34841561.094118118 17398108.349655151 0 0 0 0 -62513516.492912292 -17908472.580385208 0 -17908472.580385208 13070759.354709625 0 0 0 0 -9544390.3962394148 -16133487.638302147 0 -16133487.638302147 8749518.6583857909 0 0 0 0 203768827.28057861 517522503.01710558 0 517522503.01710558 533746353.78281355 0 0 0 0 -75703362.824310303 -34707628.093016624 0 -34707628.093016624 -4104132.183013916 0 0 0 0 -368255412.85561752 -1180521951.5805511 0 -1180521951.5805511 173051958.00260544 0 0 0 0 -200758151.39842224 444948330.88707542 0 444948330.88707542 728903822.72275162 0 0 0 0 143177495.77462959 -523364036.47779846 0 -523364036.47779846 -365435925.61603928 0 0 0 0 -633202162.99752617 900092508.86170769 0 900092508.86170769 1081665087.5675373 0 0 0 0 1167574419.1227951 -433167999.69660401 0 -433167999.69660401 -2679872948.8801084 0 0 0 0 631765610.12973976 716182072.37914753 0 716182072.37914753 932254646.83543396 0 0 0 0 -4764860.4315239843 5614855.9489475712 0 5614855.9489475712 1128349.1940352619 0 0 0 0 -421682076.5953722 -1175118147.7519021 0 -1175118147.7519021 -1100544450.1131649 0 0 0 0 -23045362.571487427 -967995857.1349802 0 -967995857.1349802 -532062494.59421062 0 0 0 0 304272574.53620911 -464866580.49410439 0 -464866580.49410439 -388211173.92210007 0 0 0 0 -406218972.23353004 314077914.95797539 0 314077914.95797539 264784961.25806427 0 0 0 0 -439343016.832901 159008294.65989685 0 159008294.65989685 -132502784.90999603 0 0 0 0 435235.57457599975 -841557.08207081538 0 -841557.08207081538 -5194544.7753573824 0 0 0 0 -37292952.663167953 -847656895.1411972 0 -847656895.1411972 -1355051487.7280731 0 0 0 0 -2596936367.409668 -368033231.10612488 0 -368033231.10612488 -303620623.56067276 0 0 0 0 -1058441693.2984009 270777978.21078491 0 270777978.21078491 -104694401.63692856 0 0 0 0 -1300881629.494256 -1115275588.6949944 0 -1115275588.6949944 -651337842.87985992 0 0 0 0 206350071.53770161 -838094926.15492272 0 -838094926.15492272 -878853624.3691597 0 0 0 0 -36810098.830488205 -822692462.5565033 0 -822692462.5565033 -672436543.77575302 0 0 0 0 908863973.58626747 -544534046.84083557 0 -544534046.84083557 -1416624957.6047859 0 0 0 0 8816569.0763620138 694718925.40272141 0 694718925.40272141 214131125.44536591 0 0 0 0 178762738.75210953 902717947.1196785 0 902717947.1196785 -2505777942.661387 0 0 0 0 -1523885836.0919266 -2090074580.6570091 0 -2090074580.6570091 -2343578127.9186783 0 0 0 0 -1363452782.6798534 4264597.6229972839 0 4264597.6229972839 657799174.01486206 0 0 0 0 -124039328.57730103 -260218050.38130951 0 -260218050.38130951 645095915.56076431 0 0 0 0 949514083.32597351 608849926.73556519 0 608849926.73556519 138989130.38131332 0 0 0 0 -235334773.90138245 -455005557.9278717 0 -455005557.9278717 -203652392.98147583 0 0 0 0 -7856415.113498535 9965104.0846099891 0 9965104.0846099891 42581.489622056484 0 0 0 0 38690445.619169235 -1021883563.86689 0 -1021883563.86689 -367450945.90101624 0 0 0 0 1160015116.2616978 -397645454.50323486 0 -397645454.50323486 -768386167.377388 0 0 0 0 365833081.92514563 -1030182400.2845459 0 -1030182400.2845459 -1324860493.6590881 0 0 0 0 1753801866.8038836 1200856174.9201508 0 1200856174.9201508 -602730940.15796661 0 0 0 0 -8267294.2458669273 10663184.374680944 0 10663184.374680944 -124006.24081619829 0 0 0 0 1257687035.2986512 107517906.44553757 0 107517906.44553757 -877308473.15335464 0 0 0 0 825617933.10417747 -132626164.69391632 0 -132626164.69391632 -726132442.33985138 0 0 0 0 635822750.42935562 599599048.14839172 0 599599048.14839172 -3389380883.4203491 0 0 0 0 -1569158210.79426 -2563417143.7668839 0 -2563417143.7668839 -2214402599.1098709 0 0 0 0 -103990263.9688549 -979985666.22693634 0 -979985666.22693634 -525822228.23014832 0 0 0 0 -107257888.2393589 -878077005.42098999 0 -878077005.42098999 -486854629.49403381 0 0 0 0 -159696073.64915466 -700502591.78938293 0 -700502591.78938293 -1073727890.1456451 0 0 0 0 21327265.838497162 -1086101877.47258 0 -1086101877.47258 -554112974.14389038 0 0 0 0 -180493056.74244881 -859373606.23545837 0 -859373606.23545837 -609856131.67755127 0 0 0 0 144119346.34031248 -69230990.744903564 0 -69230990.744903564 428848484.95451355 0 0 0 0 -381655647.49347687 -360502223.08650208 0 -360502223.08650208 -606123929.98128128 0 0 0 0 -260941818.43001616 115769021.99693489 0 115769021.99693489 806516567.54574585 0 0 0 0 -3200152.9929201147 -3011570.4071428664 0 -3011570.4071428664 2365410.1657546014 0 0 0 0 39728207.9713974 -78346808.406036377 0 -78346808.406036377 467098218.39929199 0 0 0 0 -111039989.10577965 -1706859529.5665817 0 -1706859529.5665817 -1592217144.8161187 0 0 0 0 348835195.71806145 -805510861.1553421 0 -805510861.1553421 -1623235254.2063141 0 0 0 0 -610116600.83229828 -549100248.84869385 0 -549100248.84869385 -290211285.30645752 0 0 0 0 -5201188.1196479099 -2422261.4679407179 0 -2422261.4679407179 3222685.0193518288 0 0 0 0 -1449012367.7378883 -1526385011.2593765 0 -1526385011.2593765 -237014838.27817297 0 0 0 0 401958256.4954192 294463660.48374748 0 294463660.48374748 557212046.4223175 0 0 0 0 272388361.92249441 -92857887.680168152 0 -92857887.680168152 289470056.95346069 0 0 0 0 -507324506.56377411 10705625.83895874 0 10705625.83895874 469878807.59784222 0 0 0 0 -700586191.95811081 -343295733.38923645 0 -343295733.38923645 142924855.52053833 0 0 0 0 -1179134264.8637056 -976653668.91898441 0 -976653668.91898441 -241262618.52124023 0 0 0 0 -1161115902.4436216 -389298089.09575796 0 -389298089.09575796 276947420.59973145 0 0 0 0 -52058946.363178253 192773989.61297607 0 192773989.61297607 180826398.28442383 0 0 0 0 -166596305.79297256 -153412206.55096436 0 -153412206.55096436 36174459.508071899 0 0 0 0 -335730063.08821869 323973646.14981079 0 323973646.14981079 210156280.88240814 0 0 0 0 -348310515.8166008 -95250557.631065369 0 -95250557.631065369 928742570.90963745 0 0 0 0 70782765.367322445 395255625.04431915 0 395255625.04431915 1123981293.7583618 0 0 0 0 -839400956.46548653 230180556.08711243 0 230180556.08711243 266833493.15479279 0 0 0 0 -4140205.4143287879 -10230531.447246164 0 -10230531.447246164 -8179350.2209557407 0 0 0 0 -56992675.269405365 -121538.1957244873 0 -121538.1957244873 861267586.6937561 0 0 0 0 -424325477.06537056 13178072.203077316 0 13178072.203077316 415335004.14227295 0 0 0 0 -1301108.2977161487 1583371.7960341284 0 1583371.7960341284 505154.93774241954 0 0 0 0 107991607.48440552 -4768945.2619018555 0 -4768945.2619018555 -53129934.45662117 0 0 0 0 -1062521319.4979486 -1142554005.3367271 0 -1142554005.3367271 -1538161867.7207336 0 0 0 0 1227509316.2932396 65443035.377326965 0 65443035.377326965 619221822.41064453 0 0 0 0 -4048576.2518355842 4667792.0138434693 0 4667792.0138434693 1017696.7647426799 0 0 0 0 726609632.28484714 537864979.0553937 0 537864979.0553937 194746147.43833923 0 0 0 0 1075995707.6193848 -640257828.6115036 0 -640257828.6115036 -2666429058.1420898 0 0 0 0 -229700388.26247472 -1154073345.2691894 0 -1154073345.2691894 -1639266932.3658447 0 0 0 0 -628687682.56648636 -1501304108.9459877 0 -1501304108.9459877 -1242980468.1641846 0 0 0 0 -1218412600.2370491 -851992778.80079651 0 -851992778.80079651 -440847643.87216187 0 0 0 0 -256271647.41827393 -287808072.85952759 0 -287808072.85952759 -218950287.42518902 0 0 0 0 -545152361.20045662 -158060073.37770844 0 -158060073.37770844 -263499275.27789307 0 0 0 0 -76915305.595405579 1083642209.3861694 0 1083642209.3861694 144816841.40586853 0 0 0 0 968891609.69441605 29611048.63293457 0 29611048.63293457 -2038060224.5431824 0 0 0 0 451421090.80569077 1558687460.6269531 0 1558687460.6269531 -299062341.84446716 0 0 0 0 33762599.374786377 273691944.14813232 0 273691944.14813232 1995242106.260437 0 0 0 0 10788065.924194336 -24829149.689987183 0 -24829149.689987183 -864862.09963989258 0 0 0 0 -39752090.963041306 -127734505.68496704 0 -127734505.68496704 -17473729.894643784 0 0 0 0 -7159140.3309249282 -12810219.680787964 0 -12810219.680787964 4208476.6978052258 0 0 0 0 2608842.7467797603 -19147832.932980947 0 -19147832.932980947 -27228026.777047791 0 0 0 0 3442027.5560417175 -8472389.7758307457 0 -8472389.7758307457 -871237.82466888428 0 0 0 0 -11553325.632063255 -22510496.637887869 0 -22510496.637887869 -15781151.684398364 0 0 0 0 2821148.8896400779 -8617237.9562261328 0 -8617237.9562261328 -6713472.5080689341 0 0 0 0 6052082.5918273926 -20399351.199111938 0 -20399351.199111938 -2941051.5101470947 0 0 0 0 5140920.4368438721 -21590484.891937256 0 -21590484.891937256 -1856171.9307937622 0 0 0 0 5592351.6438789368 -22747976.243801594 0 -22747976.243801594 -3418824.8094177246 0 0 0 0 -7787503.7246409208 -28304138.269654363 0 -28304138.269654363 -32339100.031114884 0 0 0 0 -10506405.695050461 -45164820.958734825 0 -45164820.958734825 -28672606.976594832 0 0 0 0 -33564892.195037842 -18156899.559698343 0 -18156899.559698343 23142965.434650898 0 0 0 0 -17964815.608016826 -35518324.61165157 0 -35518324.61165157 -30445462.961248182 0 0 0 0 -1365164.7342376709 -19260762.247938156 0 -19260762.247938156 4413112.4391937256 0 0 0 0 -15965468.176907621 -26155133.09840025 0 -26155133.09840025 1308985.5973886847 0 0 0 0 304398596.9439621 -664730026.25674438 0 -664730026.25674438 2304767833.3411636 0 0 0 0 -6983337.9499309519 -27383390.899102896 0 -27383390.899102896 -10280726.650472455 0 0 0 0 233973005.2541275 52499432.882263184 0 52499432.882263184 1095771858.5550995 0 0 0 0 -43426658.740376472 -124670122.80181305 0 -124670122.80181305 -4876364.2500959635 0 0 0 0 -79563990.838493347 -121372297.20077902 0 -121372297.20077902 -386373.54085230827 0 0 0 0 -21946074.596277673 -18063086.243643746 0 -18063086.243643746 20516554.363341551 0 0 0 0 -138071299.23719025 -80878953.569429919 0 -80878953.569429919 23673807.022066593 0 0 0 0 -3887325.4965698104 -8494316.1824345849 0 -8494316.1824345849 2336094.3918169206 0 0 0 0 -87956349.626979828 -24247979.787718058 0 -24247979.787718058 52042728.339733124 0 0 0 0 -7804571.3620300293 -22326372.191568375 0 -22326372.191568375 6396649.7369117737 0 0 0 0 -53943857.858825684 -53441900.569145203 0 -53441900.569145203 50958358.867285728 0 0 0 0 -10349660.56137085 -71527629.766039848 0 -71527629.766039848 38446278.924755096 0 0 0 0 -10556092.371388426 -22590999.531617854 0 -22590999.531617854 -2289812.3576403121 0 0 0 0 -20080278.627304077 -16975654.081180573 0 -16975654.081180573 13049185.764100075 0 0 0 0 -1001017295.6540174 49187800.510650635 0 49187800.510650635 -797387652.96871185 0 0 0 0 -1252850825.193691 -1247728315.529273 0 -1247728315.529273 -1087593297.1448212 0 0 0 0 -141854789.47633433 -566564776.56563568 0 -566564776.56563568 -386775104.2940979 0 0 0 0 -417752781.51034927 511572343.21376038 0 511572343.21376038 1102907013.8131447 0 0 0 0 222187593.65002108 -257164562.37819672 0 -257164562.37819672 -99539774.299324036 0 0 0 0 -3453259.7105900571 -20895792.399746574 0 -20895792.399746574 -20177031.115592089 0 0 0 0 194815746.25154877 175184665.01972961 0 175184665.01972961 49161974.975257874 0 0 0 0 359241921.94545054 170513479.18180466 0 170513479.18180466 -516602859.28744507 0 0 0 0 187515396.41968966 -459447452.97569275 0 -459447452.97569275 -715632350.76471329 0 0 0 0 -287952070.64756775 -188055971.77630275 0 -188055971.77630275 33128651.192670345 0 0 0 0 -345814093.26882696 -377262674.224617 0 -377262674.224617 -176402378.46920776 0 0 0 0 3782093.577918943 -49816566.004779324 0 -49816566.004779324 -36969558.247135438 0 0 0 0 -897185320.34232569 -1026640813.961731 0 -1026640813.961731 -123806069.80754089 0 0 0 0 -927146470.15229464 -1304661123.6434326 0 -1304661123.6434326 -1391029081.8347702 0 0 0 0 1101700.4027011835 -3369540.0702203214 0 -3369540.0702203214 1500318.7851393297 0 0 0 0 -2482613993.8151913 -698438390.02750397 0 -698438390.02750397 -88014915.590545654 0 0 0 0 -616836216.78587019 -451971142.54530334 0 -451971142.54530334 -58461328.495758057 0 0 0 0 -3285134.5105429981 -42567131.302579775 0 -42567131.302579775 -290234.48491939157 0 0 0 0 93225512.603339672 -116221320.30039597 0 -116221320.30039597 -34299288.282577515 0 0 0 0 -972920592.92681456 -1207418433.5195656 0 -1207418433.5195656 -1358633219.2559509 0 0 0 0 9400169.8871684931 -5904241.9658127297 0 -5904241.9658127297 -8992107.8419893533 0 0 0 0 285069947.0042963 134972039.11669922 0 134972039.11669922 -154984780.50239563 0 0 0 0 -313787603.37198257 -864955370.00241089 0 -864955370.00241089 -871398503.16519737 0 0 0 0 216770719.26735497 -85798847.834938049 0 -85798847.834938049 -765134097.40786457 0 0 0 0 -23179099.902722359 -163590018.87870598 0 -163590018.87870598 -149385281.09622192 0 0 0 0 -195670752.06939697 -213976682.05199432 0 -213976682.05199432 -266922330.38989639 0 0 0 0 61426457.410851032 -31525903.626624323 0 -31525903.626624323 -17437529.59088435 0 0 0 0 -224455106.45425129 -459200130.39581299 0 -459200130.39581299 -394124914.54779053 0 0 0 0 56128093.096218854 -21134182.256614238 0 -21134182.256614238 -19099274.146065094 0 0 0 0 13355531.795991659 -16542472.742074013 0 -16542472.742074013 -173613573.36118317 0 0 0 0 -33308306.925457001 -265961923.41088867 0 -265961923.41088867 -323979149.28660583 0 0 0 0 -159494899.35563183 -353215842.77967834 0 -353215842.77967834 -168976093.36145401 0 0 0 0 19979507.747134209 -140913376.75261021 0 -140913376.75261021 -147396152.60874176 0 0 0 0 -121385682.48197746 -228711897.48137283 0 -228711897.48137283 -156936200.31781006 0 0 0 0 -129727390.57397461 -187183800.31199265 0 -187183800.31199265 -166905178.34939957 0 0 0 0 -103627171.34657669 -234089388.69358063 0 -234089388.69358063 -181595206.35675049 0 0 0 0 -127943336.8063035 -258083640.46373177 0 -258083640.46373177 -89395400.879699707 0 0 0 0 -198781162.42036629 -193046526.41812134 0 -193046526.41812134 680151786.95411682 0 0 0 0 -198734678.15564156 -199537659.91777802 0 -199537659.91777802 -128572804.29100418 0 0 0 0 -173200853.99412346 94315787.771331787 0 94315787.771331787 998928070.78067017 0 0 0 0 307573131.36793518 -244830160.52052307 0 -244830160.52052307 -649511548.4663353 0 0 0 0 182985126.7357254 -78933964.23789978 0 -78933964.23789978 141691930.91629791 0 0 0 0 -6548414.5161507297 -4418360.337525446 0 -4418360.337525446 3635527.2440642007 0 0 0 0 -187568713.20148683 433398410.269804 0 433398410.269804 527857242.59216309 0 0 0 0 305446845.21569824 433421346.42227173 0 433421346.42227173 223647096.26714325 0 0 0 0 -2430389.0395994806 -3580160.6448813714 0 -3580160.6448813714 -1635787.6983329505 0 0 0 0 -470772208.75959015 -683977932.56904602 0 -683977932.56904602 -392984438.05732727 0 0 0 0 97765293.522457123 609473418.0975647 0 609473418.0975647 1073474447.2681122 0 0 0 0 328216341.55696869 212651452.40446472 0 212651452.40446472 611278221.85559082 0 0 0 0 220272771.05748558 -93433536.727813721 0 -93433536.727813721 -1213035289.1578598 0 0 0 0 -600775608.87723446 -890049389.65560913 0 -890049389.65560913 -517390464.42533875 0 0 0 0 -267005581.10763788 -733085813.79340172 0 -733085813.79340172 -696771553.16546631 0 0 0 0 -654165399.14765167 -63249681.150363922 0 -63249681.150363922 -435663988.34751129 0 0 0 0 220628233.9803772 -148174516.52767181 0 -148174516.52767181 -135528765.42897797 0 0 0 0 -12820970.253234863 -140315379.73292542 0 -140315379.73292542 -118882471.67756271 0 0 0 0 8687695.7706532702 -4558373.5965184197 0 -4558373.5965184197 -6334173.8725056611 0 0 0 0 123066067.38212585 131097913.44867325 0 131097913.44867325 -76732218.490638733 0 0 0 0 38214435.827964783 -31639608.650131226 0 -31639608.650131226 476470430.0009613 0 0 0 0 6946521.4729709625 -235590746.70743752 0 -235590746.70743752 669219754.53012085 0 0 0 0 -101001487.38163757 274916029.41969299 0 274916029.41969299 1283319610.6709747 0 0 0 0 -163421518.26837158 119095641.77960205 0 119095641.77960205 700942748.95565414 0 0 0 0 -50528499.969497681 -91540162.46216011 0 -91540162.46216011 906223005.41965485 0 0 0 0 27822520.900997162 24375673.523645401 0 24375673.523645401 744321863.18455505 0 0 0 0 -415761620.19719982 -725151393.51414084 0 -725151393.51414084 -704830793.89700317 0 0 0 0 245617368.46232605 -1090875718.4293976 0 -1090875718.4293976 -482095292.51446533 0 0 0 0 -3014498.2496385649 -40353617.497618929 0 -40353617.497618929 65850727.092312917 0 0 0 0 -228356071.77192211 -511419242.45878267 0 -511419242.45878267 -462332404.52449036 0 0 0 0 -438313250.55586243 -399418248.91131592 0 -399418248.91131592 -495442901.96934032 0 0 0 0 4255409.6764448881 -926963.32328264415 0 -926963.32328264415 -3261206.2561718449 0 0 0 0 421418250.99890137 -458941146.61729431 0 -458941146.61729431 905931269.9283371 0 0 0 0 -3755799.8709465936 -42203589.632875726 0 -42203589.632875726 66312814.598771326 0 0 0 0 635699039.26177979 -1839209017.7336121 0 -1839209017.7336121 489118714.9258728 0 0 0 0 -1339242405.9761963 59240361.362007141 0 59240361.362007141 -999202847.67243195 0 0 0 0 -382286003.42604065 -620163627.19274139 0 -620163627.19274139 -528517949.43887329 0 0 0 0 -395691378.15122986 -368676332.15847778 0 -368676332.15847778 -416643529.2720089 0 0 0 0 -251311460.24740601 -244334181.6807251 0 -244334181.6807251 -361585499.24314499 0 0 0 0 -94163180.563926697 -233531340.4720192 0 -233531340.4720192 -199831713.26691437 0 0 0 0 -106700180.374897 -66502748.331314087 0 -66502748.331314087 -29876207.227737427 0 0 0 0 49152647.387150958 -13686388.190660737 0 -13686388.190660737 -23502770.4293226 0 0 0 0 -252963769.61521912 -223643288.55264282 0 -223643288.55264282 -414596033.26971436 0 0 0 0 -206947996.50898552 -438842919.11220169 0 -438842919.11220169 -667706410.53016663 0 0 0 0 -553800423.96260071 -548284976.63597107 0 -548284976.63597107 -430053102.98154402 0 0 0 0 -3358112.2501220703 -159303775.15703583 0 -159303775.15703583 -454995936.85425425 0 0 0 0 -368104032.58460999 -933429686.01686287 0 -933429686.01686287 -924978115.5448761 0 0 0 0 -353917551.16827393 -525921702.46255493 0 -525921702.46255493 -742801959.23738861 0 0 0 0 -42885611.717254639 -504152013.71955109 0 -504152013.71955109 -321577308.02249908 0 0 0 0 -5629619.6391146034 -38284596.952001497 0 -38284596.952001497 64611505.619915694 0 0 0 0 97974552.532577515 203075905.09177399 0 203075905.09177399 -669949064.71166992 0 0 0 0 29427055.503515638 -8655419.7940028459 0 -8655419.7940028459 -35046898.690903157 0 0 0 0 -43463430.423766136 -701728462.928895 0 -701728462.928895 -650339016.34417725 0 0 0 0 -243184616.40396118 -328267733.9720459 0 -328267733.9720459 -10569351.732910156 0 0 0 0 40853878.155874982 -8876668.2520493623 0 -8876668.2520493623 -29403672.019360103 0 0 0 0 -155843474.2986908 150056121.08160019 0 150056121.08160019 86967212.673179626 0 0 0 0 -519642859.14678192 -400064360.35149765 0 -400064360.35149765 -174355245.48066902 0 0 0 0 -1384617.8132209778 95428648.255298615 0 95428648.255298615 -749780673.63597107 0 0 0 0 -2764359.4473990612 -1059972.2364750654 0 -1059972.2364750654 746407.95208787918 0 0 0 0 -118732236.72571182 -586133561.04985809 0 -586133561.04985809 -851530652.82739258 0 0 0 0 -189176354.86471558 -113303622.42864227 0 -113303622.42864227 -433596382.06841278 0 0 0 0 -64358409.220337391 -306248973.18656492 0 -306248973.18656492 -237513186.53499603 0 0 0 0 -104187064.56825352 -325510293.890872 0 -325510293.890872 -442632343.38160706 0 0 0 0 -6560499.4746475238 -2296945.9393450823 0 -2296945.9393450823 1958514.7743264977 0 0 0 0 -191703320.34940338 -614505088.75247955 0 -614505088.75247955 -1034995358.7238007 0 0 0 0 267699127.82995224 -280834579.71421814 0 -280834579.71421814 -1219906815.7539978 0 0 0 0 -270194937.03834534 -437715641.61479187 0 -437715641.61479187 -1196619585.2264557 0 0 0 0 -424400561.50235748 -216269546.29615974 0 -216269546.29615974 -1509060526.1035461 0 0 0 0 -597092731.67711067 -573883846.28233337 0 -573883846.28233337 -1159509009.2404327 0 0 0 0 -4395833.9768701624 -1308192.4723754628 0 -1308192.4723754628 -1075250.1118010432 0 0 0 0 192275143.74006653 433388272.4749527 0 433388272.4749527 -367251542.991745 0 0 0 0 -456806517.06365967 -526377277.84188843 0 -526377277.84188843 -642715083.78637695 0 0 0 0 -1297434699.8816299 -1222395337.9855347 0 -1222395337.9855347 -872230776.9264679 0 0 0 0 -193504608.61627197 -661931461.92251587 0 -661931461.92251587 -1763616907.5336304 0 0 0 0 -325391060.17307281 -566720430.46109009 0 -566720430.46109009 -1057958953.3995209 0 0 0 0 -163352480.25028229 -362419001.53832245 0 -362419001.53832245 -866072658.2443161 0 0 0 0 -164429741.2248764 -374483521.49702454 0 -374483521.49702454 -561935448.40307617 0 0 0 0 -15839172.416215897 -174393643.42475891 0 -174393643.42475891 -880183551.86333466 0 0 0 0 225055507.31558895 63258488.713633537 0 63258488.713633537 -1050140585.8051605 0 0 0 0 22018352.236740112 -217902627.40092468 0 -217902627.40092468 -1374052747.4763031 0 0 0 0 -28225979.359642029 -237347909.7477951 0 -237347909.7477951 -1120743957.7674561 0 0 0 0 -223976835.19069672 -85981268.586078644 0 -85981268.586078644 -878107873.46085358 0 0 0 0 -41153659.13860321 -258477759.58958435 0 -258477759.58958435 -907065107.09643745 0 0 0 0 -105708312.43893433 -408787590.51785851 0 -408787590.51785851 -717692561.69448853 0 0 0 0 131294008.71783447 -471073441.29615021 0 -471073441.29615021 -857622224.53658199 0 0 0 0 -271766211.21591663 -324562244.50957441 0 -324562244.50957441 -742657241.96476746 0 0 0 0 159661562.44835091 1037935107.1029072 0 1037935107.1029072 -312352808.99337769 0 0 0 0 105723353.17053604 -566961295.9937439 0 -566961295.9937439 -1063289020.2531052 0 0 0 0 -357750196.2657547 -1511870932.5324936 0 -1511870932.5324936 -2640955455.9727116 0 0 0 0 965951969.00900269 732306130.05099487 0 732306130.05099487 -3183638311.0339794 0 0 0 0 -1898208149.8392277 -51125200.648376465 0 -51125200.648376465 1142631491.8962097 0 0 0 0 -10552365.471779406 -2741174.2834869958 0 -2741174.2834869958 4804506.2914455943 0 0 0 0 -533003974.31560516 -134356515.92408752 0 -134356515.92408752 -169059941.58764648 0 0 0 0 -3592338022.2540131 -1103633902.7786407 0 -1103633902.7786407 1002836068.5089417 0 0 0 0 -8641245.7289340943 -1053153.9180389419 0 -1053153.9180389419 2714743.2302795798 0 0 0 0 438741761.18119431 -392653776.43848801 0 -392653776.43848801 -612918766.61727524 0 0 0 0 -129037747.12071419 -193845006.52580643 0 -193845006.52580643 -143893436.7478714 0 0 0 0 -548917704.22274399 41800602.997093201 0 41800602.997093201 108440380.03833008 0 0 0 0 -7740326.7058449332 -3412065.1983861253 0 -3412065.1983861253 2991981.6171909943 0 0 0 0 -110098059.68714523 -166800984.32603073 0 -166800984.32603073 -266948965.34676743 0 0 0 0 313317013.68023682 -545517774.38886261 0 -545517774.38886261 -607363098.2245636 0 0 0 0 -502894640.65777206 369492965.44152832 0 369492965.44152832 -76856418.316020966 0 0 0 0 188183139.64429092 -294340784.76185226 0 -294340784.76185226 -1587484834.9319534 0 0 0 0 -3080865.318325229 -566880.76858467795 0 -566880.76858467795 967216.3325599283 0 0 0 0 280081570.45665741 -464935688.15266228 0 -464935688.15266228 -1338685532.0467072 0 0 0 0 7135852.0665168762 -452916923.44509888 0 -452916923.44509888 -1328461173.7186279 0 0 0 0 -468849807.80537033 -453374419.88446808 0 -453374419.88446808 -1099461288.5565262 0 0 0 0 -314109226.7353363 -149946772.99649811 0 -149946772.99649811 -1278033439.2680893 0 0 0 0 96660813.654624939 -187002397.44908142 0 -187002397.44908142 -1292027949.6173973 0 0 0 0 193411856.79994202 -216151016.40332031 0 -216151016.40332031 -1484133861.1174345 0 0 0 0 -21222205.70010376 -584543086.94168091 0 -584543086.94168091 -1499423624.1911774 0 0 0 0 -150640128.73117256 -317322250.34341431 0 -317322250.34341431 -1074521730.7178345 0 0 0 0 137864999.01605225 91670871.335464478 0 91670871.335464478 -963514001.12479401 0 0 0 0 23629213.887330055 -145576804.33443928 0 -145576804.33443928 -580665966.65646362 0 0 0 0 287923815.29497528 21897705.406303406 0 21897705.406303406 -491682354.04310608 0 0 0 0 64928401.216957092 -347197849.9523468 0 -347197849.9523468 -174312238.1060276 0 0 0 0 5648996.3024902344 -212737009.65331268 0 -212737009.65331268 -897620855.4203949 0 0 0 0 19206075.691802979 -193243854.80693054 0 -193243854.80693054 -970704316.29566956 0 0 0 0 -198328279.7685051 -223883553.53873444 0 -223883553.53873444 -546385229.05258179 0 0 0 0 81499693.529865265 82120174.607013702 0 82120174.607013702 -692760843.43325806 0 0 0 0 -63574687.683357239 -158612293.35224152 0 -158612293.35224152 -428918405.50087738 0 0 0 0 -110341237.73210907 -27480970.307792664 0 -27480970.307792664 -431462736.57046509 0 0 0 0 -603596684.19389343 -275248411.70578003 0 -275248411.70578003 -291827602.57638168 0 0 0 0 -218073744.19351578 -295693982.32968521 0 -295693982.32968521 -754915276.77313232 0 0 0 0 -68491232.315361023 -458490063.10852051 0 -458490063.10852051 -792951725.96852875 0 0 0 0 -432876840.30553818 -946575000.06700516 0 -946575000.06700516 -1360694548.2200775 0 0 0 0 145670603.54313278 -500195828.41116714 0 -500195828.41116714 -1363951608.2374725 0 0 0 0 -1319241.8055742318 2986332.4418851435 0 2986332.4418851435 -11642762.690627053 0 0 0 0 -620738491.49335289 1172648762.7408028 0 1172648762.7408028 -300205174.47730255 0 0 0 0 -2161235053.8352528 -1242030444.141058 0 -1242030444.141058 -796701197.31011963 0 0 0 0 -1026822244.8160896 -373728514.88407898 0 -373728514.88407898 -181209821.9078598 0 0 0 0 -492035699.31879139 3289731.2647533417 0 3289731.2647533417 -140768154.29161072 0 0 0 0 -354930916.01718521 -6934821.3368988037 0 -6934821.3368988037 -198998855.21578217 0 0 0 0 -388110377.16683388 -51218.714576721191 0 -51218.714576721191 -71549254.208740234 0 0 0 0 -5779995.8159468947 158226.53860101849 0 158226.53860101849 -31109181.410159264 0 0 0 0 -354481948.6870966 68876458.789228439 0 68876458.789228439 -15381553.657089233 0 0 0 0 -337938563.61881256 -14053037.432262421 0 -14053037.432262421 68624101.315635681 0 0 0 0 -176331997.7611351 -121060924.78194427 0 -121060924.78194427 78979042.35918808 0 0 0 0 -270131648.96172333 -11071629.510284424 0 -11071629.510284424 58157967.140007019 0 0 0 0 -444472496.8468399 -32028425.564029694 0 -32028425.564029694 -20971642.377746582 0 0 0 0 -294647401.89342308 -63665092.763886452 0 -63665092.763886452 -14742497.361656189 0 0 0 0 -280002964.00416946 -56788767.268501282 0 -56788767.268501282 -217246110.49807167 0 0 0 0 -305477962.49993038 -174913270.09943199 0 -174913270.09943199 -141456066.19766235 0 0 0 0 -159197822.57675171 -37054765.514656067 0 -37054765.514656067 -27957686.396003723 0 0 0 0 -42029807.109325409 -277704397.61360359 0 -277704397.61360359 114839318.96746826 0 0 0 0 19618185.725906372 -158436011.70252991 0 -158436011.70252991 108906685.64793396 0 0 0 0 -16464873.560157776 117362192.54846191 0 117362192.54846191 -54364175.7237854 0 0 0 0 379890592.40718079 -168947494.87485504 0 -168947494.87485504 95969.842926025391 0 0 0 0 -4373504.9175406424 -5762934.6448801588 0 -5762934.6448801588 -1466701.7309308127 0 0 0 0 -1869067.9971618652 -16196819.03062439 0 -16196819.03062439 2446033.5831604004 0 0 0 0 -24724748.913367771 -26514271.279877841 0 -26514271.279877841 -13362497.368575893 0 0 0 0 50897140.297721863 -207350194.10773468 0 -207350194.10773468 14181382.280452728 0 0 0 0 3885504.2189407349 -1074560.3238353729 0 -1074560.3238353729 -6057009.8823852539 0 0 0 0 -22317702.267733738 -19872106.193182215 0 -19872106.193182215 -3772038.8644227833 0 0 0 0 36137093.429916382 -97317718.640235901 0 -97317718.640235901 55735883.152671814 0 0 0 0 -201500096.21286583 -184470519.59209538 0 -184470519.59209538 47786981.615234375 0 0 0 0 -192291465.94013977 -102917627.10864258 0 -102917627.10864258 166400133.41486359 0 0 0 0 -189672091.05408478 -35894592.000984192 0 -35894592.000984192 59299695.861602783 0 0 0 0 -46261458.712183245 -30796303.706206795 0 -30796303.706206795 -22866515.070049778 0 0 0 0 -24384462.886735432 -9781790.0355469957 0 -9781790.0355469957 11780525.953718886 0 0 0 0 -41176073.427261353 -21098143.54888916 0 -21098143.54888916 13249682.824962616 0 0 0 0 -12730277.306026433 -15349386.04312972 0 -15349386.04312972 -6359141.5914493054 0 0 0 0 -55611272.812606812 -35980444.577087402 0 -35980444.577087402 4843561.4903564453 0 0 0 0 -16436447.242654011 -15269055.226839479 0 -15269055.226839479 -16777825.406902354 0 0 0 0 -55400500.242935181 -16155529.664863586 0 -16155529.664863586 -7933896.7607421875 0 0 0 0 -25046658.155727386 -52737921.794178009 0 -52737921.794178009 477727.51919555664 0 0 0 0 -58474316 -44637629.547157288 0 -44637629.547157288 17154803.234413147 0 0 0 0 -191362516.30905151 -36136832.9895401 0 -36136832.9895401 69953875.444320679 0 0 0 0 -91601471.823242188 -236052659.17111969 0 -236052659.17111969 -6443935.0566864014 0 0 0 0 -51685930.673804663 -36051889.055508912 0 -36051889.055508912 -25104852.525316633 0 0 0 0 -294541263.60969639 21731463.32703495 0 21731463.32703495 94739697.287780762 0 0 0 0 -325299890.85108185 -147089754.91989136 0 -147089754.91989136 81678392.800857544 0 0 0 0 -10149812.779660545 -33897220.650121801 0 -33897220.650121801 -46128703.051058359 0 0 0 0 -4826958.3843220621 -29380494.887846768 0 -29380494.887846768 -50319328.612415597 0 0 0 0 39112791.59375 -269538551.35700607 0 -269538551.35700607 -618805777.65765762 0 0 0 0 -169829352.11860657 -360711235.48472595 0 -360711235.48472595 -373463569.18119049 0 0 0 0 -126317278.79459476 -207360626.06784725 0 -207360626.06784725 -376847494.06111145 0 0 0 0 3283549.0671691895 -100233935.08164978 0 -100233935.08164978 -381728662.22567487 0 0 0 0 -125517408.78272247 -47781546.880554199 0 -47781546.880554199 -8861746.9895210266 0 0 0 0 -22923645.720159613 -6830929.6598607218 0 -6830929.6598607218 6713879.9785718024 0 0 0 0 -176591507.18648672 -148088298.07686996 0 -148088298.07686996 -265577606.45834351 0 0 0 0 -61287555.441772461 32715246.172149658 0 32715246.172149658 210335217.79325485 0 0 0 0 -1248950.330699563 4075893.3990294822 0 4075893.3990294822 2839080.292579487 0 0 0 0 -182360301.59563446 -200057850.27611542 0 -200057850.27611542 -212481318.52478027 0 0 0 0 -120022195.10838318 -187286386.15635681 0 -187286386.15635681 -322477884.2024231 0 0 0 0 -85402340.131347656 -232028254.64952087 0 -232028254.64952087 -366194280.86724091 0 0 0 0 -208655500.18518066 -358981874.59104156 0 -358981874.59104156 -565106510.99502563 0 0 0 0 -454076734.41590118 -502362292.38755035 0 -502362292.38755035 -444115527.82408905 0 0 0 0 -208869610.89235085 -190291176.72089687 0 -190291176.72089687 -204416733.27572632 0 0 0 0 -1258024.4636383057 -7576372.5313873291 0 -7576372.5313873291 -4430124.5523529053 0 0 0 0 -7552287.4397277832 -27863997.24066925 0 -27863997.24066925 -13966093.735198975 0 0 0 0 -19222438.716782425 -21658632.465424426 0 -21658632.465424426 -14322541.313276872 0 0 0 0 -16321981.318974208 -2048231.6538869804 0 -2048231.6538869804 8490742.4611177146 0 0 0 0 -5482177.5046386719 -8734210.5510864258 0 -8734210.5510864258 -10636179.758308411 0 0 0 0 -10724787.335876465 -4559195.636138916 0 -4559195.636138916 2431394.4241104126 0 0 0 0 -11849134.336669922 -14067494.615829468 0 -14067494.615829468 -7915730.0328674316 0 0 0 0 -19479381.376993172 -10306214.270665787 0 -10306214.270665787 -3624029.7067848183 0 0 0 0 -9222650.7550811768 -19135060.861495972 0 -19135060.861495972 -15961965.302261353 0 0 0 0 -11711.14528105408 -827707.66524073109 0 -827707.66524073109 -2394898.6907966733 0 0 0 0 -35145604.061271667 -15710115.199317932 0 -15710115.199317932 -35131341.658355713 0 0 0 0 -36687561.817687988 -26462767.936225891 0 -26462767.936225891 -20080826.884422302 0 0 0 0 -14667793.399841309 237243.72842407227 0 237243.72842407227 -25427079.79485321 0 0 0 0 -11295995.960601807 -21017062.422416687 0 -21017062.422416687 -102696574.59632874 0 0 0 0 -53633756.373626709 -36743058.347427368 0 -36743058.347427368 -37252111.998413086 0 0 0 0 -10619210.835899271 -11994766.973600933 0 -11994766.973600933 -18429843.783357739 0 0 0 0 -36720066.1873703 -29180079.702842712 0 -29180079.702842712 -36285258.867919922 0 0 0 0 -29480093.627599895 -9167629.2849187404 0 -9167629.2849187404 19603012.432602517 0 0 0 0 -36045573.832336426 -79933962.413986206 0 -79933962.413986206 -55822096.617492676 0 0 0 0 -94635424.010391235 -54013641.674743652 0 -54013641.674743652 -20541303.938548088 0 0 0 0 -140785803.21844482 -68940205.086395264 0 -68940205.086395264 -54357168.579147339 0 0 0 0 -111971971.56079865 -132472961.4365387 0 -132472961.4365387 -118779586.21182251 0 0 0 0 -137593439.74702454 71025497.765556335 0 71025497.765556335 -126450587.68719482 0 0 0 0 -7093107.9529573023 -4566452.8078155052 0 -4566452.8078155052 -7478461.1390639991 0 0 0 0 -8647495.3966589794 -7305329.0763606131 0 -7305329.0763606131 -2696786.3216673434 0 0 0 0 55308361.20615387 -231706777.40225983 0 -231706777.40225983 -54628427.690704346 0 0 0 0 -216353549.92120361 106464672.43487549 0 106464672.43487549 -266052279.49365234 0 0 0 0 -205877195.09908295 -36720573.672039032 0 -36720573.672039032 62954378.503326416 0 0 0 0 365027640.651371 -43399526.533863068 0 -43399526.533863068 -107714073.29290771 0 0 0 0 -3107807.4738714844 -2599507.9240947515 0 -2599507.9240947515 1868945.0668878257 0 0 0 0 217996156.61225891 -1134112660.5265999 0 -1134112660.5265999 1622000452.3837891 0 0 0 0 1013193269.6036377 -858955832.41691589 0 -858955832.41691589 528956106.50711536 0 0 0 0 411088448.60406494 -91313016.478088379 0 -91313016.478088379 561459522.48781681 0 0 0 0 130086014.86917114 -16959403.937286377 0 -16959403.937286377 7980317.7607269287 0 0 0 0 -2417858.3264443949 -1223321.840753641 0 -1223321.840753641 -1892097.9011825174 0 0 0 0 558396223.82021332 -426277882.93714905 0 -426277882.93714905 2861833.5961303711 0 0 0 0 118223808.09531403 -362634303.84183502 0 -362634303.84183502 319335178.19750977 0 0 0 0 -268876611.94502258 -355637198.65541077 0 -355637198.65541077 349645941.99310303 0 0 0 0 35450837.307403564 -60712125.220367432 0 -60712125.220367432 -207809272.15814209 0 0 0 0 -44979123.141372681 104576167.96080017 0 104576167.96080017 -17593740.369506836 0 0 0 0 77180615.177185059 -110717133.4045105 0 -110717133.4045105 217332703.69113159 0 0 0 0 1018736990.6743011 -531324838.31768799 0 -531324838.31768799 334708872.03497314 0 0 0 0 225274999.93512344 10704383.506732941 0 10704383.506732941 316757021.37966919 0 0 0 0 316550965.62579346 -608430889.66320801 0 -608430889.66320801 452306542.78834534 0 0 0 0 360763336.92520142 -269052892.76268005 0 -269052892.76268005 461014871.43637848 0 0 0 0 -13058358.669021606 -193053556.76593018 0 -193053556.76593018 309444793.69267273 0 0 0 0 66493880.039154053 -1336981.2345123291 0 -1336981.2345123291 692889015.18548584 0 0 0 0 -33590201.392181396 -68959195.65637207 0 -68959195.65637207 362915899.40450287 0 0 0 0 61670958.589421272 80207439.986830235 0 80207439.986830235 94810352.01361084 0 0 0 0 25754346.953536987 38499867.855133057 0 38499867.855133057 -50290862.290100098 0 0 0 0 531350.85771179199 -7955324.8490600586 0 -7955324.8490600586 21402716.338745117 0 0 0 0 4016027.5142498016 59642397.825962067 0 59642397.825962067 -9453946.5470581055 0 0 0 0 -6619678.3011627402 -5806929.6565087326 0 -5806929.6565087326 -2486038.0243181139 0 0 0 0 -97480676.560958862 12380850.606658936 0 12380850.606658936 -17966973.683044434 0 0 0 0 -68335538.894851685 -174053011.31143188 0 -174053011.31143188 218715739.28431702 0 0 0 0 -1928233.4956612084 -1845199.0709942617 0 -1845199.0709942617 -721537.39583086967 0 0 0 0 -30572698.012685776 -65315752.641360283 0 -65315752.641360283 -307949.07397460938 0 0 0 0 -148260618.83374596 -257333922.05427361 0 -257333922.05427361 -101414079.11602783 0 0 0 0 -127613981.55432892 -140584682.32962894 0 -140584682.32962894 243386995.33361816 0 0 0 0 -247373.28070379794 693869.35501879454 0 693869.35501879454 182834.04685837263 0 0 0 0 -225786546.61390686 -382078490.09046936 0 -382078490.09046936 1382399874.6090064 0 0 0 0 176935699.00216675 -434544171.06321716 0 -434544171.06321716 -591831939.59730721 0 0 0 0 519800091.69952393 -609445002.10675621 0 -609445002.10675621 568587338.96130371 0 0 0 0 54308374.799026489 -737952348.20294952 0 -737952348.20294952 602675883.1854248 0 0 0 0 -60891737.58996582 -143546709.22214508 0 -143546709.22214508 269351226.26351929 0 0 0 0 -181283583.17092896 -459574962.34986115 0 -459574962.34986115 386108136.32601929 0 0 0 0 103780932.83209229 -663978437.94760132 0 -663978437.94760132 -260314701.83218384 0 0 0 0 316109631.31018066 -650040674.91589355 0 -650040674.91589355 360505056.85118103 0 0 0 0 501914555.91113281 -952272512.39923096 0 -952272512.39923096 1718522979.0881653 0 0 0 0 656484428.70393372 146469433.57698822 0 146469433.57698822 838144431.55230713 0 0 0 0 737598272.46646118 -533860244.36608887 0 -533860244.36608887 331275282.17736816 0 0 0 0 156458797.41952515 -282359941.7910614 0 -282359941.7910614 336114444.15252686 0 0 0 0 1279799732.4821014 -230414597.74578857 0 -230414597.74578857 -24530196.977294922 0 0 0 0 306157347.33203125 -758364736.32974243 0 -758364736.32974243 666345444.89722252 0 0 0 0 354068790.48751831 -501512400.72489929 0 -501512400.72489929 679839133.04986572 0 0 0 0 200520340.81687927 -519359855.26235962 0 -519359855.26235962 434132459.26928711 0 0 0 0 509158480.40255737 -682269447.01530457 0 -682269447.01530457 91010009.852050781 0 0 0 0 813132796.84036636 -1161001985.3911171 0 -1161001985.3911171 1443104032.7348022 0 0 0 0 482474091.74055481 -669559105.9744873 0 -669559105.9744873 263593901.58692932 0 0 0 0 -3793260.3266741186 -2721929.5715364069 0 -2721929.5715364069 2815546.9112426341 0 0 0 0 657021712.99386597 -1256276871.8091431 0 -1256276871.8091431 1581154490.732666 0 0 0 0 798084533.1055603 -1218785369.4181976 0 -1218785369.4181976 1235140215.4932861 0 0 0 0 469944633.15869141 -362586929.6060791 0 -362586929.6060791 -166493465.20385742 0 0 0 0 509288261.84594727 -861667055.86132812 0 -861667055.86132812 1085309546.0221863 0 0 0 0 737184106.28414917 -1188141044.8835144 0 -1188141044.8835144 1328362563.5869598 0 0 0 0 639402823.54718018 -1316902675.1963501 0 -1316902675.1963501 1225688264.0807495 0 0 0 0 670427396.13885498 -919543050.00738525 0 -919543050.00738525 538028923.03704834 0 0 0 0 771113962.7467041 -1370616621.9602966 0 -1370616621.9602966 1582829018.0175934 0 0 0 0 661965350.18280029 -1317285621.8559875 0 -1317285621.8559875 1624439256.0335693 0 0 0 0 757033014.94586182 -1234537396.5506134 0 -1234537396.5506134 1679316152.3114929 0 0 0 0 759460634.52793503 -1298280863.7001972 0 -1298280863.7001972 1598223121.1478882 0 0 0 0 797234778.14425659 -907752151.57891846 0 -907752151.57891846 1308831762.8740845 0 0 0 0 -40870996.346008301 -46921135.981765747 0 -46921135.981765747 36778190.693603516 0 0 0 0 222832559.01890564 116163082.52822876 0 116163082.52822876 19725953.062530518 0 0 0 0 -4366660.197799325 -3996462.2502310649 0 -3996462.2502310649 1349146.6829421371 0 0 0 0 2748518.4998042881 -206929.74075535685 0 -206929.74075535685 -580664.99875538051 0 0 0 0 420183238.0528717 100143619.65003204 0 100143619.65003204 1299594.8425598145 0 0 0 0 610373494.04144287 -577998603.74098206 0 -577998603.74098206 1301901696.8658752 0 0 0 0 827613397.81503296 -1052825741.661026 0 -1052825741.661026 1197708288.8031464 0 0 0 0 -394637.95901302248 -55931.043262600899 0 -55931.043262600899 776143.79954734445 0 0 0 0 468074952.12901306 45242678.752090454 0 45242678.752090454 -113404374.87200928 0 0 0 0 -67834482.520812988 -364841960.20633698 0 -364841960.20633698 -481051186.42076874 0 0 0 0 -428721280.32991791 305542687.31787491 0 305542687.31787491 90884499.263977051 0 0 0 0 333876885.93521118 -100751029.5300293 0 -100751029.5300293 -676125070.38565826 0 0 0 0 -637811148.6536026 -341383352.26769638 0 -341383352.26769638 178164128.24264526 0 0 0 0 -5857227.5982380807 -2413078.6894101277 0 -2413078.6894101277 1842711.3336268216 0 0 0 0 -787655155.07855225 158167495.79997253 0 158167495.79997253 40795935.540908813 0 0 0 0 -8820785.9095153809 31689645.758895874 0 31689645.758895874 -312846091.27404785 0 0 0 0 -14388260.661239624 37039845.364303589 0 37039845.364303589 -67858244.684738159 0 0 0 0 9515122.6266880035 -86692722.753043175 0 -86692722.753043175 -277620948.55950928 0 0 0 0 5430456.3090057373 -100255632.24758911 0 -100255632.24758911 -57519912.765480042 0 0 0 0 -113840220.53731155 -71364661.854496002 0 -71364661.854496002 -60080636.229995728 0 0 0 0 -253546916.67158318 -144539186.59266853 0 -144539186.59266853 2327516.6692962646 0 0 0 0 -44639166.543434143 -259583528.40920258 0 -259583528.40920258 -5692072.1894683838 0 0 0 0 245481489.57975006 -152871450.35186768 0 -152871450.35186768 211108351.95573425 0 0 0 0 -109210395.07530594 -150832398.34168625 0 -150832398.34168625 212456924.1504364 0 0 0 0 36736126.836303711 -263392255.45765686 0 -263392255.45765686 48977503.507972717 0 0 0 0 -493572.26548916101 1105950.2545266151 0 1105950.2545266151 283845.12402671296 0 0 0 0 114677274.81660461 -404062533.13912201 0 -404062533.13912201 138136806.27994728 0 0 0 0 -132913649.39894104 -233610999.52816772 0 -233610999.52816772 413504540.67906189 0 0 0 0 -267238.36628802121 882796.29092069715 0 882796.29092069715 146401.84403600963 0 0 0 0 129912403.02005005 -286467892.77870178 0 -286467892.77870178 -714655469.74079037 0 0 0 0 -54445487.404327393 -308866508.93690491 0 -308866508.93690491 228749309.89805603 0 0 0 0 -396763423.87397766 -179237660.03020477 0 -179237660.03020477 994449349.69317627 0 0 0 0 -729671157.59772491 -106572089.8589325 0 -106572089.8589325 362216658.60667419 0 0 0 0 -72777431.659484863 179003145.73540878 0 179003145.73540878 121919157.50723267 0 0 0 0 -190271347.10009766 -205316530.49963379 0 -205316530.49963379 360806076.70745015 0 0 0 0 -206041235.7325058 -146438249.75006104 0 -146438249.75006104 141022244.98455811 0 0 0 0 -127060573.00547791 -159347056.43730164 0 -159347056.43730164 -48637121.630462646 0 0 0 0 -19966053.796760559 -22689061.584213257 0 -22689061.584213257 -1509391.733795166 0 0 0 0 -47819801.150985718 -59965287.986099243 0 -59965287.986099243 -16903816.888183594 0 0 0 0 -8133021.4155433066 -24699483.474025946 0 -24699483.474025946 -5705478.6343418509 0 0 0 0 -51891128.516693115 -32708041.229095459 0 -32708041.229095459 1078962.6385192871 0 0 0 0 -33246210.479827881 -32668948.91317749 0 -32668948.91317749 -1788940.5234985352 0 0 0 0 -18483845.644779205 -16197808.038169861 0 -16197808.038169861 4273831.042755127 0 0 0 0 -10869731.169286827 -28930864.634351924 0 -28930864.634351924 -921122.74355462193 0 0 0 0 -19712085.21031189 -12005373.916671753 0 -12005373.916671753 8098315.5571899414 0 0 0 0 -7090588.472710669 -14271264.338535346 0 -14271264.338535346 9640743.1037194133 0 0 0 0 -30288660.237670898 -12641875.207580566 0 -12641875.207580566 5316791.745513916 0 0 0 0 -29813876.663689151 -12601824.408847 0 -12601824.408847 2498649.7014866918 0 0 0 0 -44394042.019081116 -9346075.377204895 0 -9346075.377204895 6694273.7045288086 0 0 0 0 8991597.089553833 -26376271.369041443 0 -26376271.369041443 -21919284.190338135 0 0 0 0 -77215276.356674194 -9598558.5478057861 0 -9598558.5478057861 7804487.1770629883 0 0 0 0 -161891.81131417304 -748773.12046477199 0 -748773.12046477199 864339.949009642 0 0 0 0 -24475324.337382477 -25996778.404719166 0 -25996778.404719166 -6874936.5932559371 0 0 0 0 -34573079.63117981 -24740256.071365356 0 -24740256.071365356 3513550.3873443604 0 0 0 0 -12655594.690179888 -29032214.176208664 0 -29032214.176208664 -8553402.4229331911 0 0 0 0 -20011495.001115799 -21306412.586250305 0 -21306412.586250305 -2639302.3067321777 0 0 0 0 -125823160.32116699 -52115499.598503113 0 -52115499.598503113 -3797494.1076126099 0 0 0 0 -19723159.597139418 -11497711.521163626 0 -11497711.521163626 -4934192.8534923196 0 0 0 0 -27368917.981079102 -12456182.105728149 0 -12456182.105728149 -9756718.0677871704 0 0 0 0 -20139913.794815063 -15924087.193611145 0 -15924087.193611145 -2916150.8512268066 0 0 0 0 -34546226.198884837 -26367975.210971344 0 -26367975.210971344 -10933379.642868847 0 0 0 0 -12229381.09458 -27254483.974450216 0 -27254483.974450216 -16243266.822890729 0 0 0 0 -23370219.933502197 -22775487.448867798 0 -22775487.448867798 -3271606.4969329834 0 0 0 0 -23093550.484062195 -27190742.230987549 0 -27190742.230987549 760608.07211685181 0 0 0 0 -39000819.930683136 -38409057.000076294 0 -38409057.000076294 -9999400.1762084961 0 0 0 0 -8723113.3681491502 -28429914.635087796 0 -28429914.635087796 -1777279.5104480386 0 0 0 0 -10749839.420970917 -40957566.170135498 0 -40957566.170135498 -8986311.6735229492 0 0 0 0 -25524843.38060379 -25640270.114929199 0 -25640270.114929199 -8542668.8963537216 0 0 0 0 -25266527.777961835 -32955568.771084402 0 -32955568.771084402 -9279223.610909 0 0 0 0 -1374643.0673980713 -27305719.866828918 0 -27305719.866828918 -22856373.859741211 0 0 0 0 -9793582.8714290336 -21768176.92439045 0 -21768176.92439045 -4959659.3681235835 0 0 0 0 -47347029.849782944 -34215857.369998932 0 -34215857.369998932 5330114.5592727661 0 0 0 0 -43086518.365735054 -55394711.912742615 0 -55394711.912742615 -30605633.225387573 0 0 0 0 -27276987.00793457 -31463576.676147461 0 -31463576.676147461 -3159926.571937561 0 0 0 0 -16402170.927554566 -26331628.661643781 0 -26331628.661643781 3111547.8558283746 0 0 0 0 -52415704.690624237 -35669307.771774292 0 -35669307.771774292 -677479.31547546387 0 0 0 0 -35699271.33357048 -31950620.584938049 0 -31950620.584938049 -18023366.555404663 0 0 0 0 -19658689.719821114 -20611336.728282288 0 -20611336.728282288 -519015.15594756603 0 0 0 0 -10090053.529837037 -17958964.175895497 0 -17958964.175895497 5851214.6997049004 0 0 0 0 -51825408.105937958 -47423488.652755737 0 -47423488.652755737 -14650103.449634552 0 0 0 0 -17384600.610548198 -20835585.336622916 0 -20835585.336622916 7471437.4708203971 0 0 0 0 -40826811.906749725 -43997012.892997742 0 -43997012.892997742 -461830.54209899902 0 0 0 0 -39906650.661005855 -31394095.79579401 0 -31394095.79579401 5882985.3143310547 0 0 0 0 -7234570.7986780498 -16367332.07206138 0 -16367332.07206138 17657805.811999127 0 0 0 0 -106802678.23443508 -112427331.81787109 0 -112427331.81787109 5325161.4287948608 0 0 0 0 827111.79194533825 -3259871.1812374815 0 -3259871.1812374815 989216.59459602833 0 0 0 0 -66723143.573155642 79905972.387752533 0 79905972.387752533 215533413.84381104 0 0 0 0 69291668.521860123 -248989178.13201904 0 -248989178.13201904 24815119.816177368 0 0 0 0 -46831457.406993866 -41325510.375396729 0 -41325510.375396729 -7344867.7442474365 0 0 0 0 -67227112.451627731 -100060583.6152153 0 -100060583.6152153 25337523.145904541 0 0 0 0 -27773499.501232147 -51204000.527481079 0 -51204000.527481079 8689178.0317687988 0 0 0 0 -68524674.332731247 -64447960.629699707 0 -64447960.629699707 -15921761.217056274 0 0 0 0 -37825453.337692261 -35658623.454940796 0 -35658623.454940796 -10070918.096069336 0 0 0 0 -72547565.825546265 -21417423.285736084 0 -21417423.285736084 -14750739.250274658 0 0 0 0 145161716.96977615 -209380142.10253906 0 -209380142.10253906 -124100303.50158691 0 0 0 0 1644239.3323307522 -1138090.5629657432 0 -1138090.5629657432 -1033665.8187948018 0 0 0 0 156837322.60005569 -145959399.51138306 0 -145959399.51138306 -11005564.763061523 0 0 0 0 51032051.399721622 -173091029.92288589 0 -173091029.92288589 55083564.403533936 0 0 0 0 17046275.760093689 -47707964.227142334 0 -47707964.227142334 -56252244.440750122 0 0 0 0 832230735.58383179 -274475116.48797607 0 -274475116.48797607 375867059.53405309 0 0 0 0 -7170160.0142555237 -180043866.88195801 0 -180043866.88195801 -330565243.87294006 0 0 0 0 -1842326.3946218621 -363036.40298970044 0 -363036.40298970044 -4580199.2660685256 0 0 0 0 89238643.298200607 -315622416.30812073 0 -315622416.30812073 207696927.62606812 0 0 0 0 -307114213.49894333 821522834.44790649 0 821522834.44790649 370778509.60275269 0 0 0 0 -294426893.82048225 -181032262.05989838 0 -181032262.05989838 -16215625.370330811 0 0 0 0 101544157.76171112 -99715337.070266724 0 -99715337.070266724 -243684702.67134094 0 0 0 0 -206059905.35481977 90604420.540031433 0 90604420.540031433 38117443.431396484 0 0 0 0 81090897.335174561 117931804.33113098 0 117931804.33113098 -24699231.694946289 0 0 0 0 -7154710.9761676788 -94560231.774169922 0 -94560231.774169922 -17395365.210851431 0 0 0 0 41841376.028778076 32748574.593307495 0 32748574.593307495 -182122607.65416718 0 0 0 0 -131917773.44151115 -68827102.142684937 0 -68827102.142684937 149249198.80184937 0 0 0 0 -60442685.148309708 -51931611.433120728 0 -51931611.433120728 -7244982.7195260525 0 0 0 0 -7555196.9963934124 -19251987.368815139 0 -19251987.368815139 14867477.988990992 0 0 0 0 53175150.45570755 -160949846.49105835 0 -160949846.49105835 -73707238.554733276 0 0 0 0 -58066020.004358292 -51726878.549533844 0 -51726878.549533844 -16310093.677108765 0 0 0 0 -56022032.555811405 -47045258.030575752 0 -47045258.030575752 -21053964.741027832 0 0 0 0 -56387587.01782608 -49613546.187385559 0 -49613546.187385559 -16135901.160478592 0 0 0 0 -15537807.313989092 -21580195.044707879 0 -21580195.044707879 1953296.1216042936 0 0 0 0 -8763096.2052494548 -30670415.937335115 0 -30670415.937335115 5220624.2268882692 0 0 0 0 -37864898.354990721 -50308591.071110725 0 -50308591.071110725 -1251798.8447875977 0 0 0 0 -34128132.295349121 -26974558.676559448 0 -26974558.676559448 8640649.6918945312 0 0 0 0 -30899180.970699228 -28073971.957113937 0 -28073971.957113937 20751568.360923927 0 0 0 0 -56555783.032028198 -120303671.00179672 0 -120303671.00179672 80017009.511451721 0 0 0 0 -39280624.810366102 -25482597.705797255 0 -25482597.705797255 39009137.393774018 0 0 0 0 -65906576.069436312 119199231.6422925 0 119199231.6422925 -32920268.855926514 0 0 0 0 8029683.8298301697 -53262756.405082703 0 -53262756.405082703 -53776876.45917511 0 0 0 0 8009935.272023201 -57269823.598409653 0 -57269823.598409653 -13479980.271682739 0 0 0 0 -39682041.090702057 -35557193.98790741 0 -35557193.98790741 -22985248.732322693 0 0 0 0 58942634.18057251 -74752645.980407715 0 -74752645.980407715 -28178388.083518982 0 0 0 0 -32155772.669843465 -34640044.376806989 0 -34640044.376806989 4181034.3449508138 0 0 0 0 -8353403.8599815369 -88454514.327617645 0 -88454514.327617645 41111163.533119202 0 0 0 0 -64705801.307441711 -87798854.554534912 0 -87798854.554534912 -11001698.380355835 0 0 0 0 -15856825.677414723 -31542704.77148984 0 -31542704.77148984 -1365687.7119710594 0 0 0 0 -714669.93256378174 -57045216.334323883 0 -57045216.334323883 -12610718.287719727 0 0 0 0 -2547080.5771535654 -4763740.6847051755 0 -4763740.6847051755 -3482019.6361517385 0 0 0 0 -79924997.23085022 -58022599.859375 0 -58022599.859375 -41696468.739624023 0 0 0 0 -125830290.59806061 -145216392.26713562 0 -145216392.26713562 22509522.598305702 0 0 0 0 -68932387.361055374 -74022278.70334816 0 -74022278.70334816 -7220828.6199645996 0 0 0 0 -1254680.03565979 -62678534.064041138 0 -62678534.064041138 -56389706.112731934 0 0 0 0 -3261076.0776462555 -52692905.343478203 0 -52692905.343478203 -59559602.721893311 0 0 0 0 -3703471.8001098633 -52501568.993408203 0 -52501568.993408203 -59289217.476852417 0 0 0 0 18566451.2237854 -80106886.704269409 0 -80106886.704269409 -28378486.490356445 0 0 0 0 -16196644.395058777 -26783233.503127195 0 -26783233.503127195 6413160.6696129814 0 0 0 0 -26603387.824996948 -37788545.493331909 0 -37788545.493331909 -68657561.082672119 0 0 0 0 -21482512.878572464 -19708088.189296722 0 -19708088.189296722 -75578794.202453613 0 0 0 0 -17410963.992446899 -52945727.855407715 0 -52945727.855407715 -60882101.276657104 0 0 0 0 35077202.414260864 -29552998.803600311 0 -29552998.803600311 26165673.09602356 0 0 0 0 27631706.266671181 -83179521.856448174 0 -83179521.856448174 -39699472.863098145 0 0 0 0 -52949401.060424805 -102794900.54121399 0 -102794900.54121399 45194672.242744446 0 0 0 0 -38617956.440782547 -36394734.259334564 0 -36394734.259334564 123958939.0763855 0 0 0 0 -27732912.808647156 -37041500.850833893 0 -37041500.850833893 27316816.539725304 0 0 0 0 -107540589.69360352 -65219955.615951538 0 -65219955.615951538 -7071146.5159606934 0 0 0 0 -30656037.399405599 -20643497.635582402 0 -20643497.635582402 21864017.006354116 0 0 0 0 -138592903.56744385 -28590817.206504822 0 -28590817.206504822 30729062.285896301 0 0 0 0 -2583293.2888633879 -2116096.1194284242 0 -2116096.1194284242 -1268131.8372159041 0 0 0 0 -62403596.66153717 -64510069.000728607 0 -64510069.000728607 -54655739.704216003 0 0 0 0 -5770651.1500413045 6432076.1617490072 0 6432076.1617490072 8007769.6157083362 0 0 0 0 27747695.314239502 20952964.549957275 0 20952964.549957275 31483652.836746216 0 0 0 0 -34061431.489061236 -13920529.611523788 0 -13920529.611523788 13742414.846090451 0 0 0 0 -885146.5875377655 -16920872.332801819 0 -16920872.332801819 -15157166.291618347 0 0 0 0 -28438966.018445969 -45835175.959077835 0 -45835175.959077835 -518074.66733551025 0 0 0 0 -288089542.66196251 42567731.82305336 0 42567731.82305336 39082167.32875061 0 0 0 0 27335590.482040405 -31398345.33719635 0 -31398345.33719635 -44156332.150102615 0 0 0 0 -2036439.3820456341 -2136852.6859330093 0 -2136852.6859330093 1683016.7844261378 0 0 0 0 -24703990.209503174 13368187.699386597 0 13368187.699386597 -21817635.210124969 0 0 0 0 -120873976.28032112 6057579.46235466 0 6057579.46235466 48542963.119354248 0 0 0 0 -93315834.391536713 -54735396.649436951 0 -54735396.649436951 116155097.30180359 0 0 0 0 39381532.498752594 -61705007.480136871 0 -61705007.480136871 8631124.2051086426 0 0 0 0 -266168933.85354233 -404329149.99165529 0 -404329149.99165529 135070501.4582423 0 0 0 0 -9347436.1699373052 -9731450.1045022681 0 -9731450.1045022681 8276449.4367473908 0 0 0 0 -22686484.479615681 -15639327.969763065 0 -15639327.969763065 24180408.308822371 0 0 0 0 -426701465.04632568 62330091.327432632 0 62330091.327432632 -179550137.01729012 0 0 0 0 -238973079.55520248 -516259796.91952443 0 -516259796.91952443 333356235.03086096 0 0 0 0 -407514737.84630513 -127053152.23137927 0 -127053152.23137927 701949875.94590759 0 0 0 0 184977097.5065155 48017657.942945212 0 48017657.942945212 -109274110.22807932 0 0 0 0 -82252345.579856873 -87893496.968910217 0 -87893496.968910217 188676179.230968 0 0 0 0 5712352.7599260211 35391281.38845098 0 35391281.38845098 -128451111.66586018 0 0 0 0 -7487336.9069549078 -4173134.0104975067 0 -4173134.0104975067 337296.26698436216 0 0 0 0 1609194.864276886 53445551.754756927 0 53445551.754756927 48925247.073598862 0 0 0 0 67553262.112590671 61840980.275904417 0 61840980.275904417 -1659009507.3284938 0 0 0 0 -78602716.835457027 -117804792.18466115 0 -117804792.18466115 595541.54434680939 0 0 0 0 -454821130.95692444 673063553.36310577 0 673063553.36310577 460699955.06249142 0 0 0 0 254139067.88713264 -365253212.31432629 0 -365253212.31432629 175673045.66852379 0 0 0 0 -17920324.092181537 -24588390.586802404 0 -24588390.586802404 -42397439.981605932 0 0 0 0 -97846977.9628582 -335017017.77289581 0 -335017017.77289581 539787711.41553235 0 0 0 0 -284236633.21654606 103978396.84354305 0 103978396.84354305 45370418.128159523 0 0 0 0 -358857925.27061176 -85456211.960122585 0 -85456211.960122585 330820332.43100166 0 0 0 0 -61432857.115774155 -85320580.886461735 0 -85320580.886461735 -1454486.8899383545 0 0 0 0 -18096256.244919963 -45573109.699073881 0 -45573109.699073881 -32314578.647729628 0 0 0 0 -57707626.035711288 -56715127.273174286 0 -56715127.273174286 139694494.3805027 0 0 0 0 126352978.99210167 -228401629.62827015 0 -228401629.62827015 98080361.622723579 0 0 0 0 -9168407.6043436155 -17992002.460980579 0 -17992002.460980579 -2240865.7617185712 0 0 0 0 3764418.6926727295 -25951490.563156128 0 -25951490.563156128 -15717496.846185684 0 0 0 0 -30119193.20351284 -41070298.727092251 0 -41070298.727092251 -20445190.227924787 0 0 0 0 -14890471.627954483 -22291796.780073166 0 -22291796.780073166 9399944.1859741211 0 0 0 0 -23561174.688697815 -26037771.896011353 0 -26037771.896011353 -4554236.3907318115 0 0 0 0 -25003056.822151184 -35054505.435188293 0 -35054505.435188293 -5441261.0479431152 0 0 0 0 -24429003.587538585 -33394705.258625045 0 -33394705.258625045 -12295404.490928933 0 0 0 0 -50738873.655140877 -49271612.030094147 0 -49271612.030094147 -2976087.0339050293 0 0 0 0 -27478721.664930608 -47858965.715140827 0 -47858965.715140827 9125264.6301519945 0 0 0 0 -22442497.135498047 -36833059.095932007 0 -36833059.095932007 -9834760.8236541748 0 0 0 0 -48968993.595748901 -23509912.231231689 0 -23509912.231231689 -28284361.628662109 0 0 0 0 -40571394.650919825 -11637417.215662926 0 -11637417.215662926 49689938.794431686 0 0 0 0 -1813049.9576578457 -1316133.8895738339 0 -1316133.8895738339 -935500.88152780384 0 0 0 0 -28604847.515481628 -29770982.343824461 0 -29770982.343824461 17321812.944294892 0 0 0 0 -37530370.40345192 -36086374.952758789 0 -36086374.952758789 32648743.064315796 0 0 0 0 -25202362.166641235 -65935514.04335022 0 -65935514.04335022 26572441.093294144 0 0 0 0 -74899860.261810303 -41373707.284980774 0 -41373707.284980774 -37162212.742576599 0 0 0 0 -47522907.058288574 -73046479.366088867 0 -73046479.366088867 -1913690.3697967529 0 0 0 0 -5861411.6843528748 -44930459.291690826 0 -44930459.291690826 -17978728.657852173 0 0 0 0 -50477549.137588501 -66858454.977851868 0 -66858454.977851868 -13992899.935821533 0 0 0 0 -2300420.6217644317 -1891747.6565266903 0 -1891747.6565266903 -1147348.9859586656 0 0 0 0 -21729723.691786774 -29755116.922504138 0 -29755116.922504138 18463235.125225544 0 0 0 0 -11483025.966119869 -27370784.325038407 0 -27370784.325038407 -14721899.676946763 0 0 0 0 -22928159.435209274 -50800506.314105511 0 -50800506.314105511 -90325617.718317032 0 0 0 0 -62964140.868665695 -218089523.47822094 0 -218089523.47822094 -142493417.43416661 0 0 0 0 -66895628.580230713 -275722927.12246132 0 -275722927.12246132 -545786101.38914537 0 0 0 0 -167407.11114501953 -213333498.55449104 0 -213333498.55449104 -488145683.34717178 0 0 0 0 7411657.3431951702 -2029529.6604044531 0 -2029529.6604044531 -13477828.001271857 0 0 0 0 -85589193.068164825 -177016287.86316347 0 -177016287.86316347 -272957062.88191986 0 0 0 0 -8387740.5908375829 -4103919.4900921863 0 -4103919.4900921863 7206385.9387058765 0 0 0 0 -1061192.7953491211 -22496989.288284302 0 -22496989.288284302 -47360544.545845032 0 0 0 0 14001892.375130862 -8798508.4143404476 0 -8798508.4143404476 -12550420.041134311 0 0 0 0 -6662169.166519165 -28700663.693927765 0 -28700663.693927765 -53612568.834732056 0 0 0 0 -134663951.47998047 -55778927.669778824 0 -55778927.669778824 -137476260.15010071 0 0 0 0 -50202595.281616211 -200239063.71994209 0 -200239063.71994209 -366069212.72548676 0 0 0 0 8479665.201461792 -305113756.91996002 0 -305113756.91996002 -996353423.91969681 0 0 0 0 -342475776.75112915 -534472064.96920013 0 -534472064.96920013 -419014807.37269926 0 0 0 0 -294635566.14590836 -200343778.81871414 0 -200343778.81871414 128218962.29533005 0 0 0 0 -691340.598731637 -883316.32332020998 0 -883316.32332020998 -4075556.1859437972 0 0 0 0 -124998823.15620422 -683848821.79291916 0 -683848821.79291916 -852415972.85382462 0 0 0 0 -212477322.03045654 -86570420.351792336 0 -86570420.351792336 -716301379.68790627 0 0 0 0 5905919.2096786499 -299088575.10018229 0 -299088575.10018229 -645745050.9512825 0 0 0 0 78272.094512939453 -252810627.14899921 0 -252810627.14899921 -553566934.50553656 0 0 0 0 133070.37571716309 -228946921.52012205 0 -228946921.52012205 -378997539.5715065 0 0 0 0 43592779.347961426 -108305337.33025265 0 -108305337.33025265 -664670377.14995456 0 0 0 0 -109441.13638305664 -189487825.18129241 0 -189487825.18129241 127910797.09932947 0 0 0 0 51114648.767913818 -58647259.099868298 0 -58647259.099868298 -310068098.44504082 0 0 0 0 27285517.447248459 -194207669.92796153 0 -194207669.92796153 -171381906.12360764 0 0 0 0 1288958814.0533142 432452817.53752279 0 432452817.53752279 151322575.89648819 0 0 0 0 368441622.33190918 -120526424.52697301 0 -120526424.52697301 -60051122.944396973 0 0 0 0 -6377322.8867645264 -238620756.90606236 0 -238620756.90606236 301448078.62074971 0 0 0 0 186619131.98110962 98771751.790220737 0 98771751.790220737 219681809.81309772 0 0 0 0 262696780.68310547 -197524404.66293621 0 -197524404.66293621 -312276413.21092033 0 0 0 0 325443451.37172699 -231153969.09386003 0 -231153969.09386003 -297849002.8192234 0 0 0 0 95127770.025299072 -387887125.3463707 0 -387887125.3463707 -490209611.21572685 0 0 0 0 103620613.02178955 -61782626.383653641 0 -61782626.383653641 -406368625.15314293 0 0 0 0 -27395841.602111816 -264160608.30160332 0 -264160608.30160332 -546630647.1387291 0 0 0 0 45539001.523468018 -331103169.93915558 0 -331103169.93915558 -550024452.85410881 0 0 0 0 -379812236.46272278 -502932540.08694553 0 -502932540.08694553 -609306121.49235916 0 0 0 0 -77306730.630737305 -542606649.14734268 0 -542606649.14734268 -686420455.81032372 0 0 0 0 -151919025.29927063 -502942570.84430027 0 -502942570.84430027 -488884135.40464401 0 0 0 0 -232550114.77813721 -660953325.63705826 0 -660953325.63705826 -415400706.46642113 0 0 0 0 -78439639.075714111 -585960080.39221764 0 -585960080.39221764 -396630704.47562408 0 0 0 0 -122432881.52258301 -415416134.72193146 0 -415416134.72193146 -272696642.25748348 0 0 0 0 -400147149.59454346 -569919338.23824787 0 -569919338.23824787 -217995229.73564911 0 0 0 0 -417619624.29122925 -834304196.57713413 0 -834304196.57713413 -379947017.80633545 0 0 0 0 61814791.795654297 -938925475.17409801 0 -938925475.17409801 -698898766.3795414 0 0 0 0 -2773808.9765739441 -643123438.57260311 0 -643123438.57260311 -574068532.0740242 0 0 0 0 162009512.35681152 -577588047.44777298 0 -577588047.44777298 -549252337.29291344 0 0 0 0 302336746.9002018 -560549747.31874919 0 -560549747.31874919 -650896088.40044022 0 0 0 0 773559945.00994873 -281583832.34368706 0 -281583832.34368706 -508987969.90809965 0 0 0 0 537526072.97058105 -814223662.29495955 0 -814223662.29495955 -695348707.13108397 0 0 0 0 263273140.39880371 -705113242.02128887 0 -705113242.02128887 -629059989.96744061 0 0 0 0 -113636393.71134949 -1314652602.919461 0 -1314652602.919461 -1199687978.7093124 0 0 0 0 372204087.33496094 -536086597.20832491 0 -536086597.20832491 -923396536.80737495 0 0 0 0 222600187.63214111 -445177888.03963602 0 -445177888.03963602 -145836191.63139439 0 0 0 0 930051093.93435669 -729814537.7842381 0 -729814537.7842381 -33011450.778828144 0 0 0 0 -1872823220.3752136 -3051227157.6493673 0 -3051227157.6493673 -1809488128.995935 0 0 0 0 667835189.09344482 191056773.3111763 0 191056773.3111763 -2879718980.8484073 0 0 0 0 1048280610.6142807 -1418651995.51162 0 -1418651995.51162 -1269468674.9673519 0 0 0 0 -1968478478.6861572 2086172945.0613108 0 2086172945.0613108 -1085643734.8014419 0 0 0 0 -757416819.84973145 -2076112631.0398676 0 -2076112631.0398676 -2641067962.3234773 0 0 0 0 -2762973018.3564758 -1279569258.2893782 0 -1279569258.2893782 -223123417.27366447 0 0 0 0 -1347648997.4322815 -1126803828.628047 0 -1126803828.628047 -312202353.62652206 0 0 0 0 -1066400327.3687744 -779593553.44286919 0 -779593553.44286919 -141829208.76192093 0 0 0 0 -2541682951.6448593 40348707.687710047 0 40348707.687710047 22226358.802814484 0 0 0 0 -1112075857.8635101 -818442332.76365328 0 -818442332.76365328 -49996890.681510925 0 0 0 0 -2059887764.5069275 986792365.76155281 0 986792365.76155281 -1025390590.2246189 0 0 0 0 7068768.1248148531 -3949181.8482252359 0 -3949181.8482252359 -11293332.170624293 0 0 0 0 91258761.364257812 385343489.9220047 0 385343489.9220047 -649578349.14016724 0 0 0 0 -1491857438.5557861 191115159.41346359 0 191115159.41346359 96275936.373058319 0 0 0 0 145680596.82328796 -99999593.035858154 0 -99999593.035858154 -153978887.15161324 0 0 0 0 -2088772.2151431888 -20369230.513599418 0 -20369230.513599418 -18504040.034223422 0 0 0 0 1071517.813036561 -2062396.8529470824 0 -2062396.8529470824 -1114039.8350866097 0 0 0 0 -387082160.4928894 443423205.95599651 0 443423205.95599651 97641908.79334259 0 0 0 0 9997151.6942138672 -180957078.03853798 0 -180957078.03853798 324530239.56623459 0 0 0 0 -437481485.13031006 -801264048.80021858 0 -801264048.80021858 -213675745.44583702 0 0 0 0 -947059976.39074707 -282501472.15649033 0 -282501472.15649033 67648151.413291931 0 0 0 0 -1730252230.8809204 -376794626.02218056 0 -376794626.02218056 229528818.52127838 0 0 0 0 -785923932.98779297 -202611384.89875412 0 -202611384.89875412 104470765.94119453 0 0 0 0 -175524643.35949707 -165904992.81795692 0 -165904992.81795692 -58478995.765707016 0 0 0 0 -349390527.05651855 -471775862.27892113 0 -471775862.27892113 -60003226.453335762 0 0 0 0 -836171067.83586502 -677873911.40558243 0 -677873911.40558243 -123381327.87121964 0 0 0 0 -208474358.86517334 -275155162.06272697 0 -275155162.06272697 -172676609.73062515 0 0 0 0 -500050807.243927 -349799120.56364155 0 -349799120.56364155 -91102989.90745163 0 0 0 0 -143127591.72583008 -215529044.83293343 0 -215529044.83293343 -118497080.10364294 0 0 0 0 -110911309.47346878 -43715370.214347363 0 -43715370.214347363 36938884.850311279 0 0 0 0 -167608752.82944489 -194744934.35638595 0 -194744934.35638595 -28089531.314086914 0 0 0 0 121212808.59082031 -20040566.123285294 0 -20040566.123285294 -124801560.88544559 0 0 0 0 49240550.582275391 10099709.168197632 0 10099709.168197632 -85620516.617557526 0 0 0 0 401033.45115661621 -84942152.891132355 0 -84942152.891132355 -143628185.94320679 0 0 0 0 27079003.490509033 -87355705.098419189 0 -87355705.098419189 -123492067.3567009 0 0 0 0 -48850079.859512329 -211500119.98146439 0 -211500119.98146439 -317442933.81738281 0 0 0 0 41075327.169786915 11140584.740547162 0 11140584.740547162 -47280913.009526089 0 0 0 0 15517600.9453125 32265147.140823364 0 32265147.140823364 -36644019.577554703 0 0 0 0 65721904.362792969 -23237779.029104233 0 -23237779.029104233 -225381191.99889374 0 0 0 0 10328972.323516846 -82477359.370245934 0 -82477359.370245934 -169271893.43751144 0 0 0 0 -92758846.841888428 -178858015.89838982 0 -178858015.89838982 -231556867.07191467 0 0 0 0 -6496676.3173370361 -232583843.8716712 0 -232583843.8716712 -484897324.30642319 0 0 0 0 53013084.282501221 -127410856.13832664 0 -127410856.13832664 -341401785.63301468 0 0 0 0 67974007.539611816 -156966760.54936218 0 -156966760.54936218 -1369488035.2306557 0 0 0 0 7792058.7439653873 -15272785.736117512 0 -15272785.736117512 -23071605.26512377 0 0 0 0 -11135811.088104248 -119836399.29670048 0 -119836399.29670048 -333752897.82038879 0 0 0 0 -39187463.838134766 -82274890.369590759 0 -82274890.369590759 -17669589.789058685 0 0 0 0 18018480.363006771 -19522631.186651394 0 -19522631.186651394 -15830400.682954673 0 0 0 0 14355932.545631409 -40452245.78232193 0 -40452245.78232193 -26760087.700492859 0 0 0 0 3233568.0378723145 -48039079.08165741 0 -48039079.08165741 -55406594.236045837 0 0 0 0 7234154.0340211838 -35370155.496426672 0 -35370155.496426672 -26028472.649786796 0 0 0 0 93020128.158081055 -123129885.7425499 0 -123129885.7425499 -148350654.38773727 0 0 0 0 31712185.704345703 -14430178.597373962 0 -14430178.597373962 -143013321.26906967 0 0 0 0 -21746575.910982698 -12589551.335386038 0 -12589551.335386038 16112504.283843638 0 0 0 0 -14028095.878692627 -37795345.576688766 0 -37795345.576688766 -29155752.192993164 0 0 0 0 -1429950.9852434397 -50572351.613124557 0 -50572351.613124557 27044698.820683099 0 0 0 0 -40647416.951538086 -267693260.04187012 0 -267693260.04187012 -1018221540.2293243 0 0 0 0 -123951593.39227295 -592742737.35687256 0 -592742737.35687256 -690467844.95949936 0 0 0 0 -629733.82477903366 -52338671.255034477 0 -52338671.255034477 6855350.8989772573 0 0 0 0 158604961.77172852 -630940712.39627075 0 -630940712.39627075 -1518039259.7432327 0 0 0 0 310645883.25744629 293455882.76800537 0 293455882.76800537 -263313587.80807495 0 0 0 0 11185551.865539551 -32338430.452819824 0 -32338430.452819824 -18264701.435932159 0 0 0 0 11527450.363119841 -13683271.699900635 0 -13683271.699900635 -29379496.378556538 0 0 0 0 -52128976.584716797 38589229.429222107 0 38589229.429222107 -420393577.9126358 0 0 0 0 270158.05328692496 -60204071.015990674 0 -60204071.015990674 -7801139.5779000288 0 0 0 0 -5162110.9328613281 -40906194.374538422 0 -40906194.374538422 4632036.9604568481 0 0 0 0 46195223.634412363 20214208.906845681 0 20214208.906845681 -82143158.553834945 0 0 0 0 -4296888.8163913935 -46728146.832577415 0 -46728146.832577415 3497998.4339809027 0 0 0 0 37118453.586456299 230472033.75993347 0 230472033.75993347 -295064378.83374023 0 0 0 0 2808236.844543457 -11349716.280029297 0 -11349716.280029297 -40216063.197219849 0 0 0 0 -134853530.6204071 155401810.52721786 0 155401810.52721786 335645657.08857727 0 0 0 0 3985111.516040653 -54971965.086872011 0 -54971965.086872011 13827751.86913668 0 0 0 0 3792241.8271209151 1011818.1366141662 0 1011818.1366141662 -10685141.957519121 0 0 0 0 -346341297.77783203 353830305.43487549 0 353830305.43487549 -664301887.62521362 0 0 0 0 -223803676.72775269 -505879002.22673798 0 -505879002.22673798 -374196867.24024963 0 0 0 0 -163110.60971322656 -52144141.496042147 0 -52144141.496042147 -16860663.326518111 0 0 0 0 -2881807.2906951904 -29189146.640768051 0 -29189146.640768051 14178959.576286316 0 0 0 0 -209381030.309021 -433193371.65981293 0 -433193371.65981293 -239972071.86253357 0 0 0 0 -2219890.2732545137 -55258371.014984295 0 -55258371.014984295 21026683.0896286 0 0 0 0 -454134036.49316406 -559721489.71112061 0 -559721489.71112061 -288498999.10897827 0 0 0 0 22501067.813262939 -288310993.13246918 0 -288310993.13246918 -421632844.35620117 0 0 0 0 335300776.99310303 -708488377.20993042 0 -708488377.20993042 -1128160524.9106598 0 0 0 0 286165806.1137085 -331193258.95101929 0 -331193258.95101929 -1788002454.9019852 0 0 0 0 -141137039.77503204 -140706199.6102066 0 -140706199.6102066 -1431953876.7492065 0 0 0 0 199863004.23745728 -256322201.73342896 0 -256322201.73342896 -1503720571.1549225 0 0 0 0 50719934.047637939 -94605266.033813477 0 -94605266.033813477 -1959623075.4920044 0 0 0 0 39089887.853881836 -382216002.05326843 0 -382216002.05326843 -1592141247.2233582 0 0 0 0 -69618642.889038086 -154655656.25616455 0 -154655656.25616455 -2433280022.9015198 0 0 0 0 -15310123.298095703 60467490.067604065 0 60467490.067604065 -2058701208.475647 0 0 0 0 -36214092.144134521 -188249799.33435059 0 -188249799.33435059 -1592890080.9355774 0 0 0 0 144326459.27557373 74797256.179718018 0 74797256.179718018 -2423490396.2996521 0 0 0 0 -786599.1672641933 -45440644.041166067 0 -45440644.041166067 20798878.564856637 0 0 0 0 242674359.98553467 -138085394.45281982 0 -138085394.45281982 -2240428842.5909786 0 0 0 0 145891616.83166504 33963832.03276062 0 33963832.03276062 -2310135947.8047791 0 0 0 0 -49797295.393768311 -1876511.370880127 0 -1876511.370880127 -2278022613.8505249 0 0 0 0 33971444.125205994 136462518.00392532 0 136462518.00392532 -2207878651.3935547 0 0 0 0 2251966.7271249145 -41637730.262033701 0 -41637730.262033701 6656317.7734318711 0 0 0 0 323112677.20068359 -12309800.836219788 0 -12309800.836219788 -29441483.45419693 0 0 0 0 -94640307.280792236 -17933226.50831604 0 -17933226.50831604 -3711706357.1706848 0 0 0 0 -370051732.27020264 -823082748.81497192 0 -823082748.81497192 -2873247506.6224976 0 0 0 0 -38333893.341094971 280791518.14306641 0 280791518.14306641 -3292687390.3922729 0 0 0 0 -7248276.9958280772 -48310013.315213867 0 -48310013.315213867 14771135.40144638 0 0 0 0 -45267070.881774902 -108197160.62568665 0 -108197160.62568665 -110532205.76005554 0 0 0 0 67265362.219085693 -188562966.86715698 0 -188562966.86715698 -53370092.122507095 0 0 0 0 210899676.37054443 -98024270.958694458 0 -98024270.958694458 -88894128.665542603 0 0 0 0 84510387.760452271 38516494.939426422 0 38516494.939426422 -3058088.6379547119 0 0 0 0 100790350.80981445 -256470216.17425537 0 -256470216.17425537 104916441.10243607 0 0 0 0 -126931151.11932373 -47080536.637748718 0 -47080536.637748718 -46408562.097747803 0 0 0 0 -42027951.448638916 -105432837.93572998 0 -105432837.93572998 -24421544.936523438 0 0 0 0 44202454.762069702 -152306666.50302887 0 -152306666.50302887 -292520989.89878082 0 0 0 0 -18152349.692993164 -11795903.96925354 0 -11795903.96925354 -30330060.710403442 0 0 0 0 7502169.8407009393 -9944665.7695934847 0 -9944665.7695934847 -40257215.875362143 0 0 0 0 -126487483.99688721 -43902849.639060974 0 -43902849.639060974 -27742821.012802124 0 0 0 0 -907148.88275499642 -2776951.3950522728 0 -2776951.3950522728 1324702.8919867137 0 0 0 0 54653584.895727158 -86101775.134916306 0 -86101775.134916306 -254247247.21502686 0 0 0 0 8286830.8648071289 -232501882.78830719 0 -232501882.78830719 -297555922.53685951 0 0 0 0 142670700.21922112 -199770561.81931496 0 -199770561.81931496 -619595542.29930115 0 0 0 0 -74303610.97870636 -345421568.01244354 0 -345421568.01244354 -449945472.08548737 0 0 0 0 12195211.704113454 -5129041.3916235454 0 -5129041.3916235454 -7599928.5980708692 0 0 0 0 54061112.961898804 -176635909.9797554 0 -176635909.9797554 -421528122.61988068 0 0 0 0 118076047.61871338 -125977647.30084229 0 -125977647.30084229 -395058006.55559921 0 0 0 0 -193156424.67504883 -158562013.6973896 0 -158562013.6973896 -155487333.28151703 0 0 0 0 10502411.989068523 -9477806.6606500931 0 -9477806.6606500931 -13284804.581427857 0 0 0 0 20450240.776489258 -12192956.086706161 0 -12192956.086706161 -25319018.681877136 0 0 0 0 20056917.547058105 -269289352.37928009 0 -269289352.37928009 -496883831.52384949 0 0 0 0 -458520511.396698 -338939373.3433876 0 -338939373.3433876 -255790025.91486359 0 0 0 0 19878822.481643677 -375760588.9399929 0 -375760588.9399929 -996535447.01942444 0 0 0 0 89776687.015029907 -137982467.68034363 0 -137982467.68034363 -405827907.7199707 0 0 0 0 -31654706.800994873 83389196.351295471 0 83389196.351295471 -90960505.483913422 0 0 0 0 43950284.206629112 -1465687.1064571813 0 -1465687.1064571813 -37837400.771850102 0 0 0 0 -47279750.128265381 -440692850.42524719 0 -440692850.42524719 -704638626.01794434 0 0 0 0 91786964.817810059 61142242.815673828 0 61142242.815673828 -638462604.55795383 0 0 0 0 13311143.273384564 9455094.8417696208 0 9455094.8417696208 -11751178.550060734 0 0 0 0 26184211.309783936 -20348428.909020424 0 -20348428.909020424 -21490992.852455139 0 0 0 0 74473086.705352783 -26968957.136997223 0 -26968957.136997223 -58301873.237113953 0 0 0 0 136609069.96188354 -55649189.426597595 0 -55649189.426597595 -98786342.249820709 0 0 0 0 15044768.571284667 -17626404.928736508 0 -17626404.928736508 -41347885.77859164 0 0 0 0 18207393.445281982 -10304240.072227001 0 -10304240.072227001 -16337644.325381994 0 0 0 0 3997625.9381713867 -12902027.163282394 0 -12902027.163282394 -18350744.730741501 0 0 0 0 18344075.486938477 -12023579.722865582 0 -12023579.722865582 -25128387.897724152 0 0 0 0 -2679149423.0337219 -729697327.46305037 0 -729697327.46305037 980216557.98104191 0 0 0 0 7009840.3301544189 -17061444.911968231 0 -17061444.911968231 -22208901.383214951 0 0 0 0 4247665141.5351562 2104718530.0304947 0 2104718530.0304947 -752002150.12177277 0 0 0 0 33453265.080039978 -15200325.790147305 0 -15200325.790147305 -20654881.583622932 0 0 0 0 25833776.800712779 -15710733.605954409 0 -15710733.605954409 -17333493.595045649 0 0 0 0 374414722.42321777 -1432240384.5572205 0 -1432240384.5572205 -19237859.799840927 0 0 0 0 999787658.54101562 -726231316.19116306 0 -726231316.19116306 -1626714374.2920113 0 0 0 0 1002734306.4285889 -786681958.86350822 0 -786681958.86350822 -691711592.35411453 0 0 0 0 2177107345.6615334 1004351045.4542868 0 1004351045.4542868 -83177643.136697769 0 0 0 0 2419513160.9029846 -798177177.41919231 0 -798177177.41919231 -1136061191.6810646 0 0 0 0 5388825.2737680376 -10597665.243018948 0 -10597665.243018948 2551132.2072506743 0 0 0 0 165447911.55499268 1211097587.5319996 0 1211097587.5319996 1415437450.4269085 0 0 0 0 -213639644.16088867 -46644854.828027725 0 -46644854.828027725 -143831603.47707373 0 0 0 0 -818265700.24697876 -1260763204.0260596 0 -1260763204.0260596 -1671124925.1899891 0 0 0 0 -727225428.74333954 -1054784795.3702946 0 -1054784795.3702946 -1864500107.3186765 0 0 0 0 -630162489.3293457 581805152.20686364 0 581805152.20686364 -696857926.46623206 0 0 0 0 495948085.39810181 509528018.11032963 0 509528018.11032963 -762456290.92336273 0 0 0 0 -1079957817.0079956 -1481693390.7946169 0 -1481693390.7946169 -1343296185.3364801 0 0 0 0 1352970705.7066588 -2945849109.7502193 0 -2945849109.7502193 -1268005855.8989801 0 0 0 0 871168346.75634766 -1341609915.4678955 0 -1341609915.4678955 -697001699.45221043 0 0 0 0 781753563.96560383 -1128380542.7320492 0 -1128380542.7320492 -1038830517.4432316 0 0 0 0 762272256.52734375 -136437959.48125505 0 -136437959.48125505 -901608193.166049 0 0 0 0 -64509255.407913208 -25012831.309969902 0 -25012831.309969902 32118944.801719666 0 0 0 0 934898289.90245056 -132543332.226439 0 -132543332.226439 -485381987.50271034 0 0 0 0 387385301.72201538 281309824.07672596 0 281309824.07672596 -434373683.29220653 0 0 0 0 90546779.922744751 271329261.55795097 0 271329261.55795097 741916707.83885193 0 0 0 0 20120322.926711664 -25537689.814307287 0 -25537689.814307287 2943207.1153034712 0 0 0 0 233027597.20014954 -485585121.70701897 0 -485585121.70701897 -693792818.99711227 0 0 0 0 398746001.02047729 111845977.13330507 0 111845977.13330507 29349698.698674202 0 0 0 0 -258310008.31394958 -840837597.00209045 0 -840837597.00209045 685161873.04056931 0 0 0 0 362276195.21707153 -202258255.63486481 0 -202258255.63486481 -454311136.69849396 0 0 0 0 366102902.86991882 -233899873.51868057 0 -233899873.51868057 -788662983.97284317 0 0 0 0 14655950.037044197 -20800106.216180053 0 -20800106.216180053 -13485507.894372277 0 0 0 0 2072909.420671463 -25277319.489627361 0 -25277319.489627361 -34574980.566452026 0 0 0 0 6902121.3081665039 -12672385.466856003 0 -12672385.466856003 -26035699.721031189 0 0 0 0 -1153218.9691579938 -24502438.408357352 0 -24502438.408357352 -10859322.635310661 0 0 0 0 -2487870.8696365356 -24467823.522064686 0 -24467823.522064686 -30053045.229932785 0 0 0 0 13601833.966317847 -1852244.8785948083 0 -1852244.8785948083 -4749662.6295661144 0 0 0 0 378978592.57225037 404524989.83329773 0 404524989.83329773 -96549873.977405548 0 0 0 0 327688083.63421631 587013712.70892525 0 587013712.70892525 -739262776.98869324 0 0 0 0 1508012969.1665039 -905242534.36043549 0 -905242534.36043549 451685927.46074677 0 0 0 0 231706005.16305542 1161690806.3894825 0 1161690806.3894825 3404179107.7073364 0 0 0 0 4526962.1051746458 -5012034.7156203585 0 -5012034.7156203585 -4007275.5677890871 0 0 0 0 -1282360.2914744616 -2688491.8852413595 0 -2688491.8852413595 172759.59577291273 0 0 0 0 193508040.48802185 -294820200.83760834 0 -294820200.83760834 2960617016.0002747 0 0 0 0 -3434332870.2491074 -2060349674.8958693 0 -2060349674.8958693 942287487.01265717 0 0 0 0 -2659457.4137128554 5456966.3807300478 0 5456966.3807300478 -7215861.0337566324 0 0 0 0 -2212383290.9379501 -2651245478.7724457 0 -2651245478.7724457 723035428.24262238 0 0 0 0 1504191073.2888794 2665498042.4860306 0 2665498042.4860306 -1164838641.8164215 0 0 0 0 1360902696.3752823 719376060.73499012 0 719376060.73499012 -483766001.08202362 0 0 0 0 1616528475.2365799 -579536497.12182045 0 -579536497.12182045 1276085773.9139786 0 0 0 0 781412415.34051514 562448308.66389275 0 562448308.66389275 -500816762.12586975 0 0 0 0 92495979.665435791 -697322805.45933151 0 -697322805.45933151 422893070.44911194 0 0 0 0 89098284.53112793 -405919757.48129654 0 -405919757.48129654 3414104926.3426666 0 0 0 0 1802134610.2679367 -786404869.49692535 0 -786404869.49692535 -6782135.1382827759 0 0 0 0 -163730676.84222412 432963599.09514618 0 432963599.09514618 -693431839.52029228 0 0 0 0 -640479882.60650635 -1442669894.4345131 0 -1442669894.4345131 -75546123.013114929 0 0 0 0 109353086.27526855 102342063.06673241 0 102342063.06673241 -2228280832.3759556 0 0 0 0 1882430.1926465342 -493362.77945175767 0 -493362.77945175767 -1334017.0651966454 0 0 0 0 334485157.51353455 -290996747.09099007 0 -290996747.09099007 -984953144.97262478 0 0 0 0 -12873395.775259212 -20719640.094480172 0 -20719640.094480172 10495984.626555085 0 0 0 0 714346735.78405762 -165855379.73980904 0 -165855379.73980904 -2143653822.6503143 0 0 0 0 -627980746.11970139 -1247336716.8346372 0 -1247336716.8346372 -1897864694.6887856 0 0 0 0 592398492.05715561 294834620.45904052 0 294834620.45904052 -937358973.68574965 0 0 0 0 277059242.11985779 -163927117.44801998 0 -163927117.44801998 -1264605725.0301385 0 0 0 0 -185573997.55682373 366992286.30222428 0 366992286.30222428 -353266354.83294129 0 0 0 0 -4494903.1958025917 -7625481.1023358004 0 -7625481.1023358004 3720008.5599509077 0 0 0 0 -99531248.671440125 -31961149.021853924 0 -31961149.021853924 244716995.55032921 0 0 0 0 -98161213.513664246 -9532931.4153046608 0 -9532931.4153046608 107681730.66435623 0 0 0 0 -65539114.6015625 7111490.6743783951 0 7111490.6743783951 12470008.908900499 0 0 0 0 254303.90122616105 -25763069.151198395 0 -25763069.151198395 6927924.3464565454 0 0 0 0 -22451244.688211441 -43169862.510945261 0 -43169862.510945261 57616391.631624222 0 0 0 0 27370560.868989944 -148070120.44857931 0 -148070120.44857931 200045007.76443481 0 0 0 0 -905096599.09326172 -492474857.84012604 0 -492474857.84012604 392152997.93325043 0 0 0 0 1144951.045825582 -3463678.4180437252 0 -3463678.4180437252 -3814601.4041161537 0 0 0 0 -1246203472.2942657 -897041305.90720367 0 -897041305.90720367 215741767.68365479 0 0 0 0 -1366144591.2016602 -1143530562.635849 0 -1143530562.635849 1603970796.852417 0 0 0 0 -1215783591.4473419 -1010905277.0724411 0 -1010905277.0724411 -421871996.52905273 0 0 0 0 -939879036.22888184 -498442768.79521179 0 -498442768.79521179 -1208586173.6663666 0 0 0 0 -1003760136.1790848 -519800780.45490646 0 -519800780.45490646 -262025440.09197998 0 0 0 0 116938414.69965363 -626168703.11010218 0 -626168703.11010218 747795603.80754185 0 0 0 0 -103225755.16467285 -95846039.227572441 0 -95846039.227572441 142897207.34781075 0 0 0 0 -1119152800.9309082 205716250.18908978 0 205716250.18908978 1986174416.9947176 0 0 0 0 -1573717914.1363525 -574129371.08895111 0 -574129371.08895111 127811430.69737244 0 0 0 0 -1387496331.5988159 -696862734.77772522 0 -696862734.77772522 -3043513.2970428467 0 0 0 0 -1906973047.8696747 -1152993709.5904083 0 -1152993709.5904083 -186269219.20159912 0 0 0 0 -1532144762.813324 -662429994.98880005 0 -662429994.98880005 145437904.0514679 0 0 0 0 204239738.85424805 922172360.62593365 0 922172360.62593365 -876956220.04029846 0 0 0 0 -2157040.7271419428 12889495.212656867 0 12889495.212656867 -29136408.821288556 0 0 0 0 -1353626870.9842529 -978514489.42385864 0 -978514489.42385864 -1205696661.1782837 0 0 0 0 -1468297940.9023132 -918352473.83947754 0 -918352473.83947754 70837789.913078308 0 0 0 0 98412131.808193207 -50295363.927787781 0 -50295363.927787781 -63787826.134773254 0 0 0 0 -81143398.512023926 431525.28311157227 0 431525.28311157227 -67609743.679229736 0 0 0 0 -943896919.98626709 -929722680.91210938 0 -929722680.91210938 -110486034.6391449 0 0 0 0 -25287497.88973999 -553045.7942276001 0 -553045.7942276001 -67631990.855109215 0 0 0 0 -32328944.867195129 -11005528.220806122 0 -11005528.220806122 -81495413.520904541 0 0 0 0 6784711.1898260042 -11926558.122098412 0 -11926558.122098412 -5863527.9722711444 0 0 0 0 -687695239.94775391 -102041217.99979401 0 -102041217.99979401 -1231912621.8340912 0 0 0 0 2280151.3760511279 -11313579.143680964 0 -11313579.143680964 -11034956.390403226 0 0 0 0 -991853624.26269531 -299851915.49327087 0 -299851915.49327087 -1836898188.8059769 0 0 0 0 -1109583454.9804077 -246607439.62475586 0 -246607439.62475586 -603650550.48899841 0 0 0 0 -633453596.54026794 -1245450294.2567902 0 -1245450294.2567902 -291276677.91215515 0 0 0 0 -1934736388.4364929 137060638.8530426 0 137060638.8530426 -1513346804.9109077 0 0 0 0 -98797703.693450928 -218747315.60746956 0 -218747315.60746956 -169310248.34820771 0 0 0 0 292080325.85231018 86550584.930870056 0 86550584.930870056 81825551.256774902 0 0 0 0 -225600211.01403809 -59374960.296432495 0 -59374960.296432495 1442232033.6248779 0 0 0 0 -56878.314162164927 94741.656091839075 0 94741.656091839075 1242208.5325875543 0 0 0 0 -12743166.694108799 -36371828.597519934 0 -36371828.597519934 64183270.067767382 0 0 0 0 -209140650.8543396 -84838883.280025482 0 -84838883.280025482 -182816185.31150436 0 0 0 0 -1141045021.5249176 -752145616.92886353 0 -752145616.92886353 -201720761.33612061 0 0 0 0 -646763613.09495544 -997196488.6124649 0 -997196488.6124649 -761772077.70562744 0 0 0 0 142692719.28152657 -24221489.157465935 0 -24221489.157465935 -1342062204.7533569 0 0 0 0 -150356867.87930298 -493216497.87321472 0 -493216497.87321472 -1380983949.9741821 0 0 0 0 -181683338.99734497 -814462768.43345642 0 -814462768.43345642 -732148538.05042648 0 0 0 0 -410643133.04258728 -1506758943.74617 0 -1506758943.74617 -2698165184.2192383 0 0 0 0 107690459.01417542 305473523.58755493 0 305473523.58755493 -565050479.27162933 0 0 0 0 -65419819.004577637 427816817.48188782 0 427816817.48188782 -253143411.21874237 0 0 0 0 6959157.8971052952 5756062.9429410174 0 5756062.9429410174 -6716374.5779464096 0 0 0 0 -1221480137.6191864 -994321441.06028748 0 -994321441.06028748 -587146509.08717346 0 0 0 0 -577977276.91848552 -1970773086.6637585 0 -1970773086.6637585 -1120989627.8433228 0 0 0 0 340802949.11601257 -2047675117.8849182 0 -2047675117.8849182 -271593390.77310181 0 0 0 0 1111780622.4488983 388005388.70498657 0 388005388.70498657 82267465.918930054 0 0 0 0 -578776362.17077637 -1469144964.1675568 0 -1469144964.1675568 -2101037877.2612915 0 0 0 0 -96839592.216790557 -115740346.24406672 0 -115740346.24406672 -121688022.11875534 0 0 0 0 1848141.1437878311 -51436925.341454938 0 -51436925.341454938 -21802882.486716002 0 0 0 0 -32056870.297674969 -11096335.815375807 0 -11096335.815375807 74784694.599265814 0 0 0 0 -4182198.10849832 800403.40489546582 0 800403.40489546582 18296390.768947385 0 0 0 0 -2810321693.8773193 -956756610.40307617 0 -956756610.40307617 -2180629688.1711426 0 0 0 0 -4123454.3609627411 -27468612.835187249 0 -27468612.835187249 35987994.736950904 0 0 0 0 -46662488.027893066 -67249875.988891602 0 -67249875.988891602 -53880115.805839539 0 0 0 0 -1622222191.82061 -2110871557.2802868 0 -2110871557.2802868 -1296327665.0529556 0 0 0 0 881008165.22225952 122150042.09578705 0 122150042.09578705 -2975283580.2591858 0 0 0 0 -97817076.662811279 -304338035.22445679 0 -304338035.22445679 -27528727.243721008 0 0 0 0 1904014822.0154724 984697958.22741699 0 984697958.22741699 -2770280787.2352829 0 0 0 0 -35761925.210754395 -90096486.62109375 0 -90096486.62109375 -95457906.001983643 0 0 0 0 -16150834.672629833 -41550102.828131087 0 -41550102.828131087 45196673.749465153 0 0 0 0 8693703.9585266113 -36071494.388519287 0 -36071494.388519287 -123083373.5891304 0 0 0 0 -7370580.854532212 -2868698.2285305448 0 -2868698.2285305448 6095323.9504298419 0 0 0 0 -1014591300.8265686 -904132251.21504211 0 -904132251.21504211 -1162700007.8921595 0 0 0 0 10486518.135104746 -38671928.13123849 0 -38671928.13123849 -50345607.778149784 0 0 0 0 -2383116840.1137238 -1644643119.4008331 0 -1644643119.4008331 -101039079.53713989 0 0 0 0 -9509002.7767878771 -40540344.08062613 0 -40540344.08062613 29801328.523989119 0 0 0 0 -1449826834.4268837 -1045086919.1933289 0 -1045086919.1933289 -522167180.29144287 0 0 0 0 -2477943418.1319885 -1600691463.2139587 0 -1600691463.2139587 -821779072.30581665 0 0 0 0 -79906551.315681458 6745186.7853078842 0 6745186.7853078842 26541685.143325806 0 0 0 0 -98026201.27722168 -18524533.246864319 0 -18524533.246864319 30687616.56137085 0 0 0 0 83881773.008636475 -69403321.415283203 0 -69403321.415283203 -70162554.229576111 0 0 0 0 -2103021078.3085632 -675450398.62724304 0 -675450398.62724304 -762535776.28503418 0 0 0 0 -19586905.016254202 -31706277.437789887 0 -31706277.437789887 49315045.385549732 0 0 0 0 -42547603.373046875 102918199.1086731 0 102918199.1086731 101797038.33889771 0 0 0 0 -171891216.08630371 -92959532.121955872 0 -92959532.121955872 73557681.398399353 0 0 0 0 -2729137.4171070084 -904660.62921065837 0 -904660.62921065837 2319213.0456574932 0 0 0 0 -167604596.98452759 45251011.8279953 0 45251011.8279953 160422691.06086349 0 0 0 0 25061823.106079102 -878907422.54260254 0 -878907422.54260254 -10151408882.438477 0 0 0 0 -4655062438.62146 -1255736691.9016113 0 -1255736691.9016113 743342678.90240479 0 0 0 0 -2189824357.0617065 -2118031900.7867737 0 -2118031900.7867737 -3593654508.0971069 0 0 0 0 -1704997.1598757654 -1709722.9927035496 0 -1709722.9927035496 4573403.8728138842 0 0 0 0 -2604882991.3195038 325671141.2507782 0 325671141.2507782 -3533115052.5143433 0 0 0 0 -3314900908.2147827 -459391396.86053467 0 -459391396.86053467 -2921088447.3298035 0 0 0 0 -5027160645.3745117 -2153380510.6964722 0 -2153380510.6964722 -3838067970.7780762 0 0 0 0 -2650823155.0664978 -3304214321.1174927 0 -3304214321.1174927 -7981931254.1925049 0 0 0 0 -1462469405.1187134 -1203383410.8505249 0 -1203383410.8505249 -4922463812.4036255 0 0 0 0 461221223.19699097 318054376.82119751 0 318054376.82119751 -7029764565.326416 0 0 0 0 -1175911089.786438 -1412077707.365448 0 -1412077707.365448 -5319789897.3388672 0 0 0 0 -1442184616.9047241 -1021542559.5126343 0 -1021542559.5126343 -3299508643.8741455 0 0 0 0 -2274623025.2567444 -2063680502.7660522 0 -2063680502.7660522 -4568324151.355835 0 0 0 0 -943366253.75421143 -1173303565.191864 0 -1173303565.191864 -3607031482.0040283 0 0 0 0 -1113273639.6768799 -1344658956.9634399 0 -1344658956.9634399 -3745019518.7608404 0 0 0 0 -22406294.282470703 458451716.07421875 0 458451716.07421875 -4619470773.0437012 0 0 0 0 -641034297.234375 -491351663.68151855 0 -491351663.68151855 -3762358882.7304783 0 0 0 0 -357699723.3903656 -879375215.76158142 0 -879375215.76158142 -2516890060.6318665 0 0 0 0 -1567365116.8666077 -747235220.25219727 0 -747235220.25219727 -1047443357.2555161 0 0 0 0 -1067579736.4335938 -560088939.36802673 0 -560088939.36802673 -3232139916.9762878 0 0 0 0 -896974551.60388184 -55054667.920410156 0 -55054667.920410156 -1796394353.747345 0 0 0 0 -224139074.68920898 -453870885.60982513 0 -453870885.60982513 -1203510018.6004333 0 0 0 0 921774343.79211426 -334265686.59671021 0 -334265686.59671021 -1828460029.3329163 0 0 0 0 1020964065.3455963 -1108210446.6504974 0 -1108210446.6504974 -1004272053.6791039 0 0 0 0 720921077.25933838 -451731335.20291138 0 -451731335.20291138 -916413606.17489815 0 0 0 0 4921377.2639232352 -25795683.667096633 0 -25795683.667096633 -53511124.954376258 0 0 0 0 382049731.98369598 -856370490.59640121 0 -856370490.59640121 -192026959.84075928 0 0 0 0 1923571.5549217612 -3862453.9826882072 0 -3862453.9826882072 -5352654.1281141788 0 0 0 0 -1479588026.5427933 -882873115.55550957 0 -882873115.55550957 610304431.00674438 0 0 0 0 1156807931.2760315 -164109835.84161377 0 -164109835.84161377 -1225260606.3551025 0 0 0 0 -50008062.000457764 64934127.955169678 0 64934127.955169678 -811551195.52510071 0 0 0 0 -89984908.480651855 313370546.57913208 0 313370546.57913208 -658636261.62828827 0 0 0 0 216440268.87738037 74294561.196777344 0 74294561.196777344 -476380782.2706604 0 0 0 0 468893845.29823303 50950511.708183289 0 50950511.708183289 -651817846.18569565 0 0 0 0 989122747.27320862 -437637283.95612717 0 -437637283.95612717 -1117361561.7073517 0 0 0 0 526509513.05126953 -169716034.2254715 0 -169716034.2254715 -585673656.48047256 0 0 0 0 472265416.44483185 125184857.162817 0 125184857.162817 -1425895176.946991 0 0 0 0 60467362.360076904 40482019.236831665 0 40482019.236831665 -1284081718.0819244 0 0 0 0 -777664814.26620483 257178708.74349976 0 257178708.74349976 -1438002927.5487366 0 0 0 0 69787816.378555298 14642797.865699768 0 14642797.865699768 -2143786305.5039368 0 0 0 0 -1786242484.7053833 519342105.2817688 0 519342105.2817688 -2206936321.9571228 0 0 0 0 -763691741.63238525 95297028.323242188 0 95297028.323242188 -2040991244.2619019 0 0 0 0 -905635332.3270874 203033306.61395264 0 203033306.61395264 -1294744126.1302414 0 0 0 0 -1609505453.9412537 144408476.69100952 0 144408476.69100952 -1276885449.436676 0 0 0 0 -85759245.321239471 224571799.32350922 0 224571799.32350922 -1440624843.2058105 0 0 0 0 -1054843456.1402588 -834383359.66644287 0 -834383359.66644287 -3304651223.8838129 0 0 0 0 -2464220860.2780151 -839959505.21621704 0 -839959505.21621704 -2003316442.0106201 0 0 0 0 -1447816572.3718262 -738307600.22442627 0 -738307600.22442627 -2001663555.2073894 0 0 0 0 -1876812616.6401367 -634267635.70251465 0 -634267635.70251465 -2963560047.7613831 0 0 0 0 -2440831916.4266205 -364424825.85774231 0 -364424825.85774231 -1884473541.8300781 0 0 0 0 -1398359298.0747681 -30234587.85559082 0 -30234587.85559082 -1865685433.3902168 0 0 0 0 -1433918392.2029724 -208421359.76463318 0 -208421359.76463318 -753644146.84973145 0 0 0 0 -1200688142.3314514 -156344896.31716919 0 -156344896.31716919 -1229667907.1025543 0 0 0 0 -1991875254.7198792 -395064467.75041199 0 -395064467.75041199 -1297289293.6918335 0 0 0 0 -1212663552.6105652 -407713974.2429657 0 -407713974.2429657 -808227067.97808838 0 0 0 0 -1364395222.4460449 -445425212.83233643 0 -445425212.83233643 -1500367386.7888184 0 0 0 0 -1358991569.663208 -734910578.20629883 0 -734910578.20629883 -1284583526.1816559 0 0 0 0 -908172624.84378052 -814973600.17703247 0 -814973600.17703247 -1529309816.7896118 0 0 0 0 -1344801773.1624193 -919463799.53480911 0 -919463799.53480911 -1548216501.1453247 0 0 0 0 -854683798.00505638 -384549419.61083317 0 -384549419.61083317 -806794556.74407959 0 0 0 0 -986359030.00143433 -579531836.28088379 0 -579531836.28088379 -356902935.89782715 0 0 0 0 -1048497490.9811401 -123290989.86138916 0 -123290989.86138916 -310012286.16522217 0 0 0 0 -833724937.27645874 -194849102.64328003 0 -194849102.64328003 -753887280.90344238 0 0 0 0 -854248072.64523315 -306880753.5740509 0 -306880753.5740509 188192841.64221191 0 0 0 0 -626115187.00421143 -312902681.46612549 0 -312902681.46612549 -235286839.46885681 0 0 0 0 -631537637.83639526 -337567375.19100952 0 -337567375.19100952 -212502514.9221344 0 0 0 0 -766179803.07598877 -646256651.57955933 0 -646256651.57955933 36069731.397338867 0 0 0 0 -138062902.72546005 28375573.322406769 0 28375573.322406769 -635881626.37219238 0 0 0 0 -680357035.66073608 352790806.14749146 0 352790806.14749146 -829585247.50930786 0 0 0 0 -981527987.73208618 137256327.90982056 0 137256327.90982056 -442508058.12586975 0 0 0 0 -766569825.02309036 -41097985.526935577 0 -41097985.526935577 -893169589.8079834 0 0 0 0 -806035556.12594604 -172009474.57124329 0 -172009474.57124329 82788274.868103027 0 0 0 0 -426247986.14663696 -59763762.800354004 0 -59763762.800354004 -380388387.5300293 0 0 0 0 -540788295.8961792 170617121.68109131 0 170617121.68109131 -229590339.27807617 0 0 0 0 -95834070.790710449 -84831709.033447266 0 -84831709.033447266 -109189626.793396 0 0 0 0 -307023945.02767944 29842851.117450714 0 29842851.117450714 169412119.56713867 0 0 0 0 -414921136.32778168 -327429695.34023857 0 -327429695.34023857 430882579.65106201 0 0 0 0 -75427331.546905518 -348878113.49798584 0 -348878113.49798584 408459945.94328308 0 0 0 0 -4072690.6943359375 -221266182.34947205 0 -221266182.34947205 325477341.15234375 0 0 0 0 -458401152.61254883 -143988769.14163208 0 -143988769.14163208 84863096.388973236 0 0 0 0 -501112756.75527954 -553569186.8059845 0 -553569186.8059845 271499188.75524139 0 0 0 0 -306820345.12065506 -748786110.84855652 0 -748786110.84855652 826272732.12567139 0 0 0 0 -576456513.5696106 -387037351.17115784 0 -387037351.17115784 635810137.79522705 0 0 0 0 -411774495.07260132 -764348592.12940216 0 -764348592.12940216 839522520.0017395 0 0 0 0 -402149643.58482361 -490209894.61089325 0 -490209894.61089325 737018178.72213745 0 0 0 0 94084981.73979187 -1100161278.2872162 0 -1100161278.2872162 959053314.16427612 0 0 0 0 1057642.6463733017 -1107411.7895814851 0 -1107411.7895814851 -825709.48172459006 0 0 0 0 347407127.67425537 -486654405.74258423 0 -486654405.74258423 705777289.27690887 0 0 0 0 8891968.8624572754 -397807120.09074402 0 -397807120.09074402 721334028.20896912 0 0 0 0 -178381024.1204834 -170639993.42028809 0 -170639993.42028809 566858307.19326782 0 0 0 0 -1744622.2642211914 -305536050.05014801 0 -305536050.05014801 1038228630.6775513 0 0 0 0 68305598.250473022 -302477026.59840393 0 -302477026.59840393 810697515.87408447 0 0 0 0 217767561.02618408 -354640133.77667236 0 -354640133.77667236 691567933.48803711 0 0 0 0 247290696.69734192 -139720868.20045471 0 -139720868.20045471 407805095.65660095 0 0 0 0 111635330.29084015 -171834344.25765991 0 -171834344.25765991 431059276.0581665 0 0 0 0 246723342.59037781 -95038566.863739014 0 -95038566.863739014 75145599.827697754 0 0 0 0 -70297078.38104248 -100544839.76229858 0 -100544839.76229858 434876665.33849907 0 0 0 0 227670618.91310596 139534179.44793892 0 139534179.44793892 -122375029.12695312 0 0 0 0 -144602441.53178787 166721480.74427414 0 166721480.74427414 -79985131.525787354 0 0 0 0 218442968.72553253 38811448.452213287 0 38811448.452213287 -152336440.40344238 0 0 0 0 444055867.25733948 232864487.32906342 0 232864487.32906342 35181462.175556183 0 0 0 0 517718036.39183044 -166691728.40536499 0 -166691728.40536499 184766501.93501282 0 0 0 0 576811806.28715515 -191547920.92469025 0 -191547920.92469025 437293680.2215271 0 0 0 0 583164847.56057739 -448208399.54675293 0 -448208399.54675293 618513737.01609802 0 0 0 0 523997633.10405731 -673034183.33278465 0 -673034183.33278465 1294594109.9528198 0 0 0 0 349691472.61930847 -510291956.04522705 0 -510291956.04522705 771472640.71243286 0 0 0 0 99932929.010803223 -338278912.43719482 0 -338278912.43719482 747999949.99508667 0 0 0 0 323579474.99095154 -494803675.86971664 0 -494803675.86971664 878362598.29957581 0 0 0 0 1016938154.0874634 -1172685831.464325 0 -1172685831.464325 1041510400.5459175 0 0 0 0 -15631140.135070801 -23294767.278747559 0 -23294767.278747559 12518625.551208496 0 0 0 0 -1553157.5159196258 -708654.79645866901 0 -708654.79645866901 975715.71020238101 0 0 0 0 917429608.55743408 -740386642.01235962 0 -740386642.01235962 1116635276.8278465 0 0 0 0 25799092.970794678 -173263006.5287323 0 -173263006.5287323 990589153.39711761 0 0 0 0 62909352.377319336 9561281.9365234375 0 9561281.9365234375 -141611.744140625 0 0 0 0 1241107.2633371875 -3641955.3314146549 0 -3641955.3314146549 -1638491.9422107413 0 0 0 0 1126743480.6885681 -1434660779.46521 0 -1434660779.46521 1235483224.4541054 0 0 0 0 -231401.28111664951 -8227.5173703283072 0 -8227.5173703283072 1090481.2236559689 0 0 0 0 1086017464.8161926 -1045884494.7528381 0 -1045884494.7528381 1679282681.0314102 0 0 0 0 399099684.79711914 -937667237.5080719 0 -937667237.5080719 1736694950.1747437 0 0 0 0 426840690.72079468 -1288478439.4887085 0 -1288478439.4887085 1394027522.6925049 0 0 0 0 214089675.28865051 -1023863143.9770966 0 -1023863143.9770966 1721218348.9679565 0 0 0 0 941425728.8187561 -1283309275.1096497 0 -1283309275.1096497 1657860460.2328949 0 0 0 0 1020903025.0094299 -1067496215.4456787 0 -1067496215.4456787 1475685135.6911621 0 0 0 0 1189137893.954073 -1364744404.2847843 0 -1364744404.2847843 1641815070.3491516 0 0 0 0 1102389079.8136597 -933911891.2084198 0 -933911891.2084198 1390667402.6317749 0 0 0 0 1352972857.9638336 -1569596509.1830673 0 -1569596509.1830673 2016597743.6826477 0 0 0 0 1357197143.677063 -1163201501.4820862 0 -1163201501.4820862 1688662539.0952759 0 0 0 0 1586866618.9588089 -1246957758.6944828 0 -1246957758.6944828 2025705790.0048218 0 0 0 0 842244367.48561096 -1280327119.7556152 0 -1280327119.7556152 2081888959.4598389 0 0 0 0 1128738746.1819458 -1561107785.2413635 0 -1561107785.2413635 2552728957.701889 0 0 0 0 799837444.64472961 -1432134850.9025269 0 -1432134850.9025269 2004565266.6310349 0 0 0 0 649938748.56537628 -936379631.38315582 0 -936379631.38315582 1930061332.2967224 0 0 0 0 1488314118.540863 -2385495079.9372864 0 -2385495079.9372864 2771923827.6807938 0 0 0 0 1522910968.7323303 -2661168352.084671 0 -2661168352.084671 2535005183.6735535 0 0 0 0 2355285777.5852432 -2056186451.7968941 0 -2056186451.7968941 1945330657.1647339 0 0 0 0 1424975617.6080322 -1651232197.3533154 0 -1651232197.3533154 2666587577.6852264 0 0 0 0 1826869691.3343201 -1329957139.7293549 0 -1329957139.7293549 2137773404.4547272 0 0 0 0 1513257284.9499817 -1271637421.8210144 0 -1271637421.8210144 1657225683.9732361 0 0 0 0 1300898490.5014305 -1936768397.3593063 0 -1936768397.3593063 2024306050.1547852 0 0 0 0 959081307.87657166 -2499055346.9129028 0 -2499055346.9129028 2346952886.7974548 0 0 0 0 1199443704.1526489 -1799437396.1579132 0 -1799437396.1579132 1885370896.4182739 0 0 0 0 1522242293.3391418 -2566503110.0494232 0 -2566503110.0494232 2344398192.9441986 0 0 0 0 1222053153.0754089 -2380246169.6838379 0 -2380246169.6838379 2322366695.4968872 0 0 0 0 482285417.33105469 -1975081593.2730103 0 -1975081593.2730103 2203244892.3643417 0 0 0 0 864290886.95750427 -1572499074.1923828 0 -1572499074.1923828 1812965389.1149292 0 0 0 0 804194437.02102661 -1556291294.4253845 0 -1556291294.4253845 1837697073.3926544 0 0 0 0 905965627.29943848 -1085362999.7488556 0 -1085362999.7488556 1489076064.9729919 0 0 0 0 1159090376.1616974 -1525503838.4213867 0 -1525503838.4213867 1640570474.2171021 0 0 0 0 887971489.63827515 -1690066988.1990051 0 -1690066988.1990051 1961188254.5874329 0 0 0 0 738927990.01604462 -1257691114.1752701 0 -1257691114.1752701 1577226367.1662598 0 0 0 0 672151099.65744019 -1345033754.8044281 0 -1345033754.8044281 1472015487.356842 0 0 0 0 497067090.06314087 -1049902532.8793182 0 -1049902532.8793182 1630534971.2323761 0 0 0 0 21227205.120758057 -3707130.8614196777 0 -3707130.8614196777 18629906.334785461 0 0 0 0 -21499723.994140625 -435066559.01460266 0 -435066559.01460266 1110990216.5808716 0 0 0 0 480130232.48202515 -945642166.19937134 0 -945642166.19937134 1457477744.1215744 0 0 0 0 851903726.96981812 -1233615598.1590576 0 -1233615598.1590576 1349296425.571579 0 0 0 0 4943691.1330858022 -1704255.1751017421 0 -1704255.1751017421 -1598848.8371023834 0 0 0 0 87829987.065750122 -609547176.71276093 0 -609547176.71276093 1073023416.196167 0 0 0 0 -3567338.4150290117 -1661335.0654221997 0 -1661335.0654221997 308914.34867428243 0 0 0 0 117080397.39703369 -501146626.21499634 0 -501146626.21499634 918129592.52560425 0 0 0 0 209864014.55237579 -1803710399.9442482 0 -1803710399.9442482 2222709379.8818359 0 0 0 0 486730553.46139526 -1217266163.759491 0 -1217266163.759491 1686089935.8835754 0 0 0 0 470520650.34344482 -1224155734.4032288 0 -1224155734.4032288 1738462876.1460571 0 0 0 0 411912844.67459106 -618767356.99525452 0 -618767356.99525452 1160951965.4047241 0 0 0 0 -286440465.6506443 -1454568891.8582706 0 -1454568891.8582706 2093575617.6526489 0 0 0 0 -337383480.89916992 -1028405377.8442535 0 -1028405377.8442535 1974967648.3104248 0 0 0 0 515231103.96313477 -2109153177.3128357 0 -2109153177.3128357 2403434907.0535202 0 0 0 0 -64979533.248352051 -1451914859.2905884 0 -1451914859.2905884 2703506803.4461823 0 0 0 0 913373144.75196838 -2105625344.7903671 0 -2105625344.7903671 2884257017.6264954 0 0 0 0 298116782.05638123 -2016233637.718174 0 -2016233637.718174 3722451003.7624207 0 0 0 0 1203279112.4418945 -3395447711.1890564 0 -3395447711.1890564 3279157622.3327484 0 0 0 0 198323240.32139587 -1696745926.452446 0 -1696745926.452446 2396270614.5648651 0 0 0 0 716467616.40883636 -2338257377.0201797 0 -2338257377.0201797 2712869388.2559662 0 0 0 0 785299907.28611755 -2821846509.8409519 0 -2821846509.8409519 2504990112.9241638 0 0 0 0 928526971.25756836 -2525991137.5901184 0 -2525991137.5901184 2441793114.3853149 0 0 0 0 912925707.39411926 -2767814218.3474655 0 -2767814218.3474655 2508878909.3859196 0 0 0 0 1358756534.5786819 -2462651725.2749367 0 -2462651725.2749367 1736722508.089798 0 0 0 0 928463857.74238586 -2784974318.201973 0 -2784974318.201973 2518856642.5533295 0 0 0 0 1510076124.4439087 -2791217267.4659882 0 -2791217267.4659882 2434301462.4309311 0 0 0 0 2530681355.623764 -1313259789.6612625 0 -1313259789.6612625 366685159.03638268 0 0 0 0 1452263731.7668152 -2612418792.1671753 0 -2612418792.1671753 1973756537.2187347 0 0 0 0 1700270554.9226837 -2966773498.5866776 0 -2966773498.5866776 1926873653.6064482 0 0 0 0 5883812183.8553848 -1786004819.161478 0 -1786004819.161478 267251095.97644043 0 0 0 0 998965794.15270233 173506289.40613556 0 173506289.40613556 -116963253.54380798 0 0 0 0 -163155.04445520788 -6467570.0732962638 0 -6467570.0732962638 11743647.891657531 0 0 0 0 3295786795.262146 -4919711742.98452 0 -4919711742.98452 4223765292.8135681 0 0 0 0 607315512.35360718 -1942187769.0789871 0 -1942187769.0789871 6371218513.9407959 0 0 0 0 2843017521.0243378 -1445699536.5282249 0 -1445699536.5282249 2620724359.4019165 0 0 0 0 976206509.56959534 -2259911609.1212006 0 -2259911609.1212006 2271328447.684761 0 0 0 0 472200326.44659424 -1570911172.4404144 0 -1570911172.4404144 1159594290.9744873 0 0 0 0 321569961.3088913 -1258005309.8028755 0 -1258005309.8028755 1623986051.0154572 0 0 0 0 440131064.21887207 -1383857409.8617401 0 -1383857409.8617401 1345230327.9908905 0 0 0 0 845784005.73006439 -1079404203.4969559 0 -1079404203.4969559 100245445.09225464 0 0 0 0 480576726.30194092 -766369351.59196472 0 -766369351.59196472 730553133.47431946 0 0 0 0 1504130147.2071991 -796542565.96529579 0 -796542565.96529579 1662271259.5501404 0 0 0 0 466616665.66701508 -1267228492.5898018 0 -1267228492.5898018 1664602825.5450439 0 0 0 0 229696375.61633301 -1385530681.9092255 0 -1385530681.9092255 3379139862.1163712 0 0 0 0 -136081301.62237549 -1015163534.1460419 0 -1015163534.1460419 1881466288.4041519 0 0 0 0 17918523.465744019 -734041673.33888245 0 -734041673.33888245 891415169.26916504 0 0 0 0 107250679.48693848 -1350789180.8583603 0 -1350789180.8583603 1313066337.3214874 0 0 0 0 -475723767.50543213 -735104666.79428101 0 -735104666.79428101 1475249066.5897141 0 0 0 0 -514497059.49343872 -743295231.81863403 0 -743295231.81863403 958667748.7877655 0 0 0 0 -188702632.96478271 -437849369.56239319 0 -437849369.56239319 497730670.67370605 0 0 0 0 64220085.662414551 -765927236.4395752 0 -765927236.4395752 46842706.216522217 0 0 0 0 -361068573.63874817 -725804299.10916138 0 -725804299.10916138 422041317.94268799 0 0 0 0 -520195765.10266113 -401028564.3135376 0 -401028564.3135376 254396878.90065002 0 0 0 0 -453063419.23504639 -772366230.92990112 0 -772366230.92990112 126634399.51046753 0 0 0 0 640267299.71395874 -745620397.62361145 0 -745620397.62361145 728229978.01765442 0 0 0 0 -141553162.35794067 -876062287.7449646 0 -876062287.7449646 713692638.14945221 0 0 0 0 274663742.9957571 -1076870520.7795811 0 -1076870520.7795811 333860302.13848877 0 0 0 0 303140470.87136841 -600734167.89363098 0 -600734167.89363098 -152313454.63996887 0 0 0 0 10949567.474784851 -575331678.40309668 0 -575331678.40309668 -523503447.66912842 0 0 0 0 -5593096.7532224655 -954406180.24627066 0 -954406180.24627066 -524627275.4644165 0 0 0 0 112140738.71640015 -489566253.4407959 0 -489566253.4407959 -786251070.29162598 0 0 0 0 -565088665.29879761 -467290456.19467163 0 -467290456.19467163 -396637311.00219727 0 0 0 0 -558511590.37905884 -807149990.55822754 0 -807149990.55822754 -388448829.85653687 0 0 0 0 -353595814.08764648 -863104671.35760498 0 -863104671.35760498 30692269.289642334 0 0 0 0 -301109516.737854 -543404276.38308716 0 -543404276.38308716 -145898076.46746826 0 0 0 0 -295864252.45648193 -943070605.15899658 0 -943070605.15899658 -899249791.19061279 0 0 0 0 -403883415.18136597 -520417360.66769409 0 -520417360.66769409 -725129216.80310059 0 0 0 0 -891946914.23312759 -758847973.3005352 0 -758847973.3005352 -629404919.95385742 0 0 0 0 -765439619.56420898 -525418572.76818848 0 -525418572.76818848 -990946462.92276001 0 0 0 0 -675153801.54146576 -864775631.96874619 0 -864775631.96874619 -1099383012.3120728 0 0 0 0 -303634979.61029053 -580645872.47012329 0 -580645872.47012329 -1673086903.4534607 0 0 0 0 -285124684.91179466 -888029016.53518963 0 -888029016.53518963 -1755750795.6513062 0 0 0 0 -157142509.51742554 -326763281.08863831 0 -326763281.08863831 -1758228191.4334106 0 0 0 0 -148361120.54345703 -535797058.82415771 0 -535797058.82415771 -2655328144.1848145 0 0 0 0 -650555752.30981445 -756783443.36679077 0 -756783443.36679077 -1750278040.2575684 0 0 0 0 -657218406.34155273 -592823396.54573059 0 -592823396.54573059 -2480642663.2774658 0 0 0 0 -637758514.98501587 -835224725.57336426 0 -835224725.57336426 -2532709065.6564331 0 0 0 0 292638838.33760834 -836847262.49219513 0 -836847262.49219513 -1043541541.2886353 0 0 0 0 76964410.364284515 -504740248.53778648 0 -504740248.53778648 -1062754171.0130005 0 0 0 0 -54861950.936798096 -805980470.96484375 0 -805980470.96484375 -1196139727.1948242 0 0 0 0 -99890469.798400879 -483862169.72212219 0 -483862169.72212219 -1182621492.9352417 0 0 0 0 78803501.649185181 -557930150.89648438 0 -557930150.89648438 -2095496886.0144653 0 0 0 0 129131853.02233887 -268196739.40681458 0 -268196739.40681458 -1682320487.2958679 0 0 0 0 127909154.80574799 -668858121.19924545 0 -668858121.19924545 -855177426.09341431 0 0 0 0 294501278.21572876 -348170331.01634216 0 -348170331.01634216 -1682995626.330513 0 0 0 0 413999348.63885498 -669386295.43009949 0 -669386295.43009949 -875473440.7986908 0 0 0 0 382410892.08561707 -1051001609.0290985 0 -1051001609.0290985 -303707465.54736328 0 0 0 0 164516201.51052856 -1000158112.9029617 0 -1000158112.9029617 193440440.89770508 0 0 0 0 426722405.56530762 -1084604875.1722641 0 -1084604875.1722641 147732399.15063477 0 0 0 0 318693993.8924408 -641060400.29574585 0 -641060400.29574585 -680333666.59765625 0 0 0 0 288772444.40791321 -1051091834.1473007 0 -1051091834.1473007 194531727.06762695 0 0 0 0 -515111754.46081543 -394865946.11850739 0 -394865946.11850739 1258805142.3014069 0 0 0 0 -157624450.23284912 -679219647.5079422 0 -679219647.5079422 115068931.63803101 0 0 0 0 -181157925.73150635 -1134893295.3757629 0 -1134893295.3757629 1268068430.656723 0 0 0 0 -127978675.65985107 -769870604.92749023 0 -769870604.92749023 406391181.01890564 0 0 0 0 113219723.24037933 -1416374349.1501846 0 -1416374349.1501846 1317298190.8489075 0 0 0 0 -41090434.156494141 -423304234.85726929 0 -423304234.85726929 -626504003.28364563 0 0 0 0 206897222.04248047 -808280375.28268433 0 -808280375.28268433 -751208604.27264404 0 0 0 0 -270205851.52726746 -650522409.8474884 0 -650522409.8474884 110901103.59202576 0 0 0 0 -159469231.25064087 -456184800.86018372 0 -456184800.86018372 -551302490.00165558 0 0 0 0 -599384695.68264771 -733117985.43118286 0 -733117985.43118286 41017896.577957153 0 0 0 0 -6592684.1845678017 -38984646.23082263 0 -38984646.23082263 52384934.591923989 0 0 0 0 -109744616.44244385 -27589365.778594971 0 -27589365.778594971 46946810.766232491 0 0 0 0 -140986389.61419678 -21376252.821418762 0 -21376252.821418762 89643173.721115112 0 0 0 0 -508354428.94816637 -597095795.12185717 0 -597095795.12185717 1517825916.789917 0 0 0 0 -320863952.76815796 55179486.68951416 0 55179486.68951416 -193293884.65578842 0 0 0 0 -1642649761.9584961 -54907413.288139343 0 -54907413.288139343 5117185244.1360626 0 0 0 0 -438813891.07785034 1425241146.2823334 0 1425241146.2823334 2288157926.2525482 0 0 0 0 -105401504.19970322 668646635.79196167 0 668646635.79196167 -519266453.51239014 0 0 0 0 -7344146.2168596983 -16350148.515274331 0 -16350148.515274331 45373730.830884956 0 0 0 0 -1006420332.17659 -204165476.91830063 0 -204165476.91830063 959773828.05761719 0 0 0 0 325131693.69161987 1970465227.4984894 0 1970465227.4984894 8343103308.1911316 0 0 0 0 2175406.49182643 -1060923.3086444363 0 -1060923.3086444363 5786425.2265620716 0 0 0 0 -1215430426.4428101 554167246.51376343 0 554167246.51376343 6301756095.0346069 0 0 0 0 -1400684127.9942017 103173106.5322113 0 103173106.5322113 11201081999.690948 0 0 0 0 -2376987939.8863831 -690142387.74928284 0 -690142387.74928284 4997009845.613781 0 0 0 0 -2160130102.0656433 -1438545630.3386459 0 -1438545630.3386459 4607643141.4119949 0 0 0 0 -2217135367.5953064 -977478136.94185638 0 -977478136.94185638 5512756199.7242279 0 0 0 0 -956358877.58200073 -1049540215.9739914 0 -1049540215.9739914 1415216346.571701 0 0 0 0 -923563403.70393372 -866936892.04621124 0 -866936892.04621124 2431835596.8017731 0 0 0 0 -1653338530.6701093 -363997646.69606805 0 -363997646.69606805 3336641555.2600098 0 0 0 0 563281677.00537109 -1573379725.7846031 0 -1573379725.7846031 1209614849.6225891 0 0 0 0 -309790692.45420837 -2105379827.4542465 0 -2105379827.4542465 3127383264.3657227 0 0 0 0 -2089512912.0472717 -2217230933.1369171 0 -2217230933.1369171 3282579774.0102234 0 0 0 0 -3742097903.5865479 -3882718264.2911606 0 -3882718264.2911606 5450285327.4011841 0 0 0 0 624959509.44905853 -3959896101.363903 0 -3959896101.363903 4400653942.0437164 0 0 0 0 -2848346608.919075 -1585301303.3127785 0 -1585301303.3127785 3911667497.580719 0 0 0 0 -3224526631.9679871 -1967684082.2998199 0 -1967684082.2998199 5630467242.7100983 0 0 0 0 -3839311524.8258362 -3139210418.1344452 0 -3139210418.1344452 3019151440.3789368 0 0 0 0 -4789863426.5039673 -1641876649.7759552 0 -1641876649.7759552 4089093327.4882202 0 0 0 0 -2810069528.0026703 -1702777907.7075043 0 -1702777907.7075043 -1092488738.3348999 0 0 0 0 -2928998238.5636368 -4408991937.4111691 0 -4408991937.4111691 -5307978674.8306732 0 0 0 0 -2466171525.9231873 -3036637224.134243 0 -3036637224.134243 -1422394448.8600788 0 0 0 0 3027992.889185816 -21158909.124349646 0 -21158909.124349646 21900609.633428119 0 0 0 0 -156084344.08720398 -286975074.60377121 0 -286975074.60377121 450424531.40578461 0 0 0 0 -2358972717.5870972 223228610.20928955 0 223228610.20928955 -3158143632.1148453 0 0 0 0 -6052445954.5979767 -2003819528.3008804 0 -2003819528.3008804 993603038.87374878 0 0 0 0 -2088612848.1638489 -2762020737.929985 0 -2762020737.929985 1126156301.9083443 0 0 0 0 -1602099973.6474152 -154898783.09510136 0 -154898783.09510136 1462558780.4263458 0 0 0 0 -493734291.58966064 -1958778593.0502319 0 -1958778593.0502319 -628947041.45143127 0 0 0 0 -3556085825.3869324 -1490671521.4186401 0 -1490671521.4186401 4024097447.1720428 0 0 0 0 -2248919680.1203308 -1249223543.2045975 0 -1249223543.2045975 3926875840.2920113 0 0 0 0 -1292361300.8780899 -709060571.78999519 0 -709060571.78999519 7064501169.5980072 0 0 0 0 -1886037810.5455627 -2470590036.0103073 0 -2470590036.0103073 6591687324.0834198 0 0 0 0 716003932.62442017 -769291655.01148987 0 -769291655.01148987 6917053096.9239197 0 0 0 0 4744391514.5789185 -361645985.79051208 0 -361645985.79051208 6403696030.2736931 0 0 0 0 406708189.71038818 -192617599.93804932 0 -192617599.93804932 6409603166.2335215 0 0 0 0 1817150104.249176 682381683.97199631 0 682381683.97199631 4180408542.2035828 0 0 0 0 -137384785.2644043 -770116117.7326889 0 -770116117.7326889 6778065622.7677612 0 0 0 0 1114344032.3273926 1165965387.163475 0 1165965387.163475 8767329283.900116 0 0 0 0 320824105.89815521 -252306928.31793022 0 -252306928.31793022 3889292149.1951065 0 0 0 0 1962307309.1559143 -1361791851.309967 0 -1361791851.309967 3733478602.3185883 0 0 0 0 -887211200.18225098 -1536215975.3806534 0 -1536215975.3806534 3736693561.5920424 0 0 0 0 -402184004.0451355 -660598735.90093231 0 -660598735.90093231 556456844.99606705 0 0 0 0 1402412319.1483002 -902505617.29463196 0 -902505617.29463196 537280309.0368042 0 0 0 0 959547753.15869141 -903747628.97442818 0 -903747628.97442818 -1273341551.6768646 0 0 0 0 754981511.11283875 -1591707066.4406633 0 -1591707066.4406633 -1959308146.5265656 0 0 0 0 774083217.54808044 -803197100.60845566 0 -803197100.60845566 -72562715.654655457 0 0 0 0 390617124.00973511 -1226849440.6358299 0 -1226849440.6358299 1197811570.6948013 0 0 0 0 978559825.59115601 -454903428.80046082 0 -454903428.80046082 1315010491.6950159 0 0 0 0 533346.89598083496 -1470902441.7757988 0 -1470902441.7757988 1882999974.2438126 0 0 0 0 -454703333.72964478 54613166.280792236 0 54613166.280792236 6608453891.2108612 0 0 0 0 -185231.12042236328 -1308758302.9140892 0 -1308758302.9140892 4994176044.153923 0 0 0 0 348175047.80383301 276475182.97937012 0 276475182.97937012 3341032700.7651062 0 0 0 0 -301624666.32763672 -1363853074.6029243 0 -1363853074.6029243 6862668879.2703171 0 0 0 0 -620796.00072073343 -1562498503.4693909 0 -1562498503.4693909 6986824212.5419922 0 0 0 0 222050.15753643215 -1126953.1215465218 0 -1126953.1215465218 13107626.288918836 0 0 0 0 128211188.14172363 31370976.020313263 0 31370976.020313263 -564646580.95747185 0 0 0 0 -373852147.44029236 -1442248437.1527424 0 -1442248437.1527424 9689680816.4870224 0 0 0 0 2566428279.3607178 -3622551655.4948883 0 -3622551655.4948883 5097081397.1934738 0 0 0 0 1511616278.7607727 -3240851263.4796448 0 -3240851263.4796448 13706508560.578491 0 0 0 0 1421667.1431766599 -4024325.4501546845 0 -4024325.4501546845 5531835.1762533784 0 0 0 0 1168149073.0249023 4021859045.4571838 0 4021859045.4571838 13170299736.591188 0 0 0 0 1440903.9888903201 -5827042.07834775 0 -5827042.07834775 16287142.367810767 0 0 0 0 28644015.170928955 -54865177.708023071 0 -54865177.708023071 -187979026.14901161 0 0 0 0 9711052.4283599854 -201859563.90646744 0 -201859563.90646744 40529845.202766418 0 0 0 0 132293810.7355957 -109629736.87219238 0 -109629736.87219238 52178507.706188679 0 0 0 0 23095982.057937622 8038101.745880127 0 8038101.745880127 -27037185.587882996 0 0 0 0 -78211946.422775269 -130498757.80216789 0 -130498757.80216789 78688883.11415863 0 0 0 0 -59785979.307556152 -160343246.60687637 0 -160343246.60687637 260506185.68229675 0 0 0 0 -605295.12055122852 2474102.7855219543 0 2474102.7855219543 1056144.6832303097 0 0 0 0 -7419370.8564910889 34856377.127784729 0 34856377.127784729 -18685858.262695312 0 0 0 0 -13313236.612243652 11492431.731208801 0 11492431.731208801 29607068.234010696 0 0 0 0 -799852.82972949743 5243205.2264536321 0 5243205.2264536321 2648438.9999676645 0 0 0 0 1764025.3766479492 6243848.4254226685 0 6243848.4254226685 8800359.4294815063 0 0 0 0 -160032261.30529785 -122637033.20821381 0 -122637033.20821381 523217456.98464203 0 0 0 0 1211420.0491403788 -407181.77893896773 0 -407181.77893896773 -6140969.6642876863 0 0 0 0 1019150.2918790728 2568064.3059791774 0 2568064.3059791774 -3560795.0455922615 0 0 0 0 -16535721.539306641 -3346985.6310424805 0 -3346985.6310424805 18714819.404945374 0 0 0 0 -1289846.6099203527 4179510.5425236672 0 4179510.5425236672 1374478.2817677837 0 0 0 0 -5774.818359375 -8678109.3767700195 0 -8678109.3767700195 -669798.31609344482 0 0 0 0 2709452.8430175781 -300831976.63128662 0 -300831976.63128662 -160164800.84268188 0 0 0 0 38636050.459472656 33027835.549118042 0 33027835.549118042 1067216316.9669037 0 0 0 0 3342852.6545663476 2394563.5915705021 0 2394563.5915705021 -5055350.7065004334 0 0 0 0 -571086.29437094391 -404785475.9409793 0 -404785475.9409793 301977980.262146 0 0 0 0 150830511.33309937 -454587511.65275955 0 -454587511.65275955 1182510.2898483276 0 0 0 0 57591114.729944229 -105953660.20118618 0 -105953660.20118618 187217070.43423462 0 0 0 0 -74098805.475906372 -98548379.513168335 0 -98548379.513168335 151531944.7379303 0 0 0 0 73178218.817306519 8186490.9435558319 0 8186490.9435558319 188195600.1178894 0 0 0 0 892662217.01786804 -2754385900.7657852 0 -2754385900.7657852 885027597.87271118 0 0 0 0 730246596.27923584 -2497048755.546875 0 -2497048755.546875 484112341.66902041 0 0 0 0 276140623.64762878 -2901412494.4947281 0 -2901412494.4947281 499816921.84103394 0 0 0 0 -445870.83253479004 -2780109101.2937164 0 -2780109101.2937164 542106836.45262146 0 0 0 0 468781976.66110229 -2490878921.2148895 0 -2490878921.2148895 571926623.21016693 0 0 0 0 796084630.38272095 -2838966832.2333679 0 -2838966832.2333679 113414825.84666443 0 0 0 0 1721233542.9414978 -1971872385.2937317 0 -1971872385.2937317 725356704.19897079 0 0 0 0 2112141487.3000641 -2360649404.7899094 0 -2360649404.7899094 702067542.86512756 0 0 0 0 3590120415.2333984 -1472066177.9790955 0 -1472066177.9790955 788310215.82485962 0 0 0 0 3582207205.696106 -1380815375.097374 0 -1380815375.097374 -56607203.098052979 0 0 0 0 -2940282.7623557597 -1528044.4713069648 0 -1528044.4713069648 3280713.2342873365 0 0 0 0 3915511816.20047 -562550621.72841263 0 -562550621.72841263 32141018.389801025 0 0 0 0 1637539072.0275269 -2115738556.6673431 0 -2115738556.6673431 1654595197.615799 0 0 0 0 2891139143.4004822 -2645117599.9802399 0 -2645117599.9802399 876202952.77598572 0 0 0 0 1784557421.5855103 -2152532044.7547836 0 -2152532044.7547836 818715903.45968628 0 0 0 0 1078859300.1184082 -2905274195.9943085 0 -2905274195.9943085 760638128.46156502 0 0 0 0 1226595361.7879028 -2690791381.8096619 0 -2690791381.8096619 -748843934.32917786 0 0 0 0 592790109.47689819 -2380865274.1366577 0 -2380865274.1366577 200417436.17289734 0 0 0 0 1403931735.0480957 -790138025.11006165 0 -790138025.11006165 339984085.01965332 0 0 0 0 3570884.2512476891 -2940707.9043960422 0 -2940707.9043960422 216050.95937480032 0 0 0 0 427347691.99658203 -150073789.84631348 0 -150073789.84631348 -13225211.513122559 0 0 0 0 1784684617.7382202 -1841873399.474247 0 -1841873399.474247 448188863.47637939 0 0 0 0 492623661.57089233 -2523539351.2743988 0 -2523539351.2743988 289716514.69729614 0 0 0 0 -1840272332.4416504 -1164672944.2499428 0 -1164672944.2499428 -688878212.47718811 0 0 0 0 94998890.855064392 -2400000955.5082951 0 -2400000955.5082951 -1853811571.2318726 0 0 0 0 -20148950.223114014 -2420650844.6158829 0 -2420650844.6158829 -774515439.87107086 0 0 0 0 564491826.98532486 -2691207171.1579943 0 -2691207171.1579943 -1052168226.9894409 0 0 0 0 431367306.89337158 -3069845398.2921448 0 -3069845398.2921448 469836670.72864866 0 0 0 0 446959440.33865356 -2854234040.9374123 0 -2854234040.9374123 -200155264.20451355 0 0 0 0 94734390.455718994 -2690791896.579361 0 -2690791896.579361 -258177041.54569626 0 0 0 0 723901.16475254856 -2422868305.3876915 0 -2422868305.3876915 -792395078.84362793 0 0 0 0 294003165.59179688 -2525948302.7056198 0 -2525948302.7056198 -936594563.85671997 0 0 0 0 360829081.35446167 -2299672204.3061752 0 -2299672204.3061752 -1561522427.9448929 0 0 0 0 256173849.46643066 -2159751588.2278366 0 -2159751588.2278366 -1354768195.0715866 0 0 0 0 214427.63697814941 -2222854361.0727386 0 -2222854361.0727386 -1246145595.6766739 0 0 0 0 376008818.89691162 -1799954955.9208832 0 -1799954955.9208832 -1326065374.8533278 0 0 0 0 219863164.63743591 -2142861936.6594696 0 -2142861936.6594696 -1337336384.9474335 0 0 0 0 459488181.11449432 -1537853376.7925148 0 -1537853376.7925148 -851808708.34591675 0 0 0 0 28343872.373443604 -1726939003.9438019 0 -1726939003.9438019 -331881412.66149521 0 0 0 0 900740.55058288574 -1909358244.4401245 0 -1909358244.4401245 -718493648.88887024 0 0 0 0 -307890077.37069702 -2477780571.1225128 0 -2477780571.1225128 -1600905938.8746166 0 0 0 0 -567990220.67359924 -2118044247.8719673 0 -2118044247.8719673 -2006248828.7329102 0 0 0 0 -30171659.496490479 -1791251584.4596481 0 -1791251584.4596481 -964578417.27462196 0 0 0 0 562275038.31044579 -2042204028.2051835 0 -2042204028.2051835 -1723331249.5603638 0 0 0 0 -643834269.27859497 -2288428020.2694855 0 -2288428020.2694855 -1420012592.6567154 0 0 0 0 -649670386.17423058 -2256484264.7522855 0 -2256484264.7522855 -1059790734.1885529 0 0 0 0 -2016133388.9493408 -2003392841.34058 0 -2003392841.34058 -1106665115.5463409 0 0 0 0 258451222.56945038 -2174555266.8068762 0 -2174555266.8068762 -1623024741.3177185 0 0 0 0 509891770.71952629 -2271112135.3605204 0 -2271112135.3605204 -1596351295.0935669 0 0 0 0 -225210894.98757935 -2255231897.3939819 0 -2255231897.3939819 -1361859543.6239548 0 0 0 0 -431848713.8128891 -1498183515.2713528 0 -1498183515.2713528 -2162024797.7594147 0 0 0 0 -1970847485.8691406 -2072553800.9543076 0 -2072553800.9543076 -1149699533.1298428 0 0 0 0 -151622678.73431396 -53086307.910583496 0 -53086307.910583496 80577663.426109314 0 0 0 0 -108783275.81890869 -70669062.764984131 0 -70669062.764984131 -138198999.01098633 0 0 0 0 -109785650.84527588 -183614883.99632263 0 -183614883.99632263 105604104.67843628 0 0 0 0 -28765539.206848145 99392689.429290771 0 99392689.429290771 -81299947.360656738 0 0 0 0 12897985.140142307 -29845788.902621046 0 -29845788.902621046 15467272.636224598 0 0 0 0 134226911.64605713 83855293.829986572 0 83855293.829986572 -199704234.73791504 0 0 0 0 -1215019752.5725555 -1169534718.6434784 0 -1169534718.6434784 -282972222.30764008 0 0 0 0 -4922469099.7247467 -3300836378.0021801 0 -3300836378.0021801 -825300895.37265015 0 0 0 0 -2187410346.0193176 -3393058129.3361664 0 -3393058129.3361664 -1791603076.2658386 0 0 0 0 -2791683820.0120583 -1964178229.2209702 0 -1964178229.2209702 2266665.544708252 0 0 0 0 -1683496069.2220764 -3845104513.8876801 0 -3845104513.8876801 -4485589127.5928535 0 0 0 0 -2742242388.4600983 692559987.81187057 0 692559987.81187057 -154924002.24642181 0 0 0 0 1847402.4044002146 -23191655.979957372 0 -23191655.979957372 6889427.3403600939 0 0 0 0 -20363191.799331665 -39465876.717922211 0 -39465876.717922211 143197145.84265137 0 0 0 0 174343139.44493103 257245364.46274567 0 257245364.46274567 -145165669.97053528 0 0 0 0 -5338886.02676332 -15478875.292678982 0 -15478875.292678982 3528502.3116982542 0 0 0 0 -74352289.127868652 -40715906.665786743 0 -40715906.665786743 137197684.35887146 0 0 0 0 9756961.745076105 -33105603.063878931 0 -33105603.063878931 24594360.235944867 0 0 0 0 67715788.407806396 49256218.878368378 0 49256218.878368378 50557376.032791138 0 0 0 0 -64909045.905853271 -50697113.591201782 0 -50697113.591201782 24957299.907745361 0 0 0 0 15469977.089752197 -62040873.581436157 0 -62040873.581436157 -104465866.67936707 0 0 0 0 20430943.554534912 -166366286.25892639 0 -166366286.25892639 -237887567.32504272 0 0 0 0 -128916082.03058624 -62196569.961788177 0 -62196569.961788177 -97068133.808685303 0 0 0 0 15890135.078643799 -224198783.04312134 0 -224198783.04312134 -26014227.142669678 0 0 0 0 -68830872.887207031 -126527975.86682129 0 -126527975.86682129 -114377468.95877075 0 0 0 0 140572128.45889282 -120198504.72314453 0 -120198504.72314453 -177123075.09509277 0 0 0 0 -59105994.75390625 -9104900.3018188477 0 -9104900.3018188477 -238914559.81451416 0 0 0 0 -100587336.75196838 -175926284.03491211 0 -175926284.03491211 -496616815.88452148 0 0 0 0 -51100401.562744141 -124267700.36576843 0 -124267700.36576843 -567172969.89550781 0 0 0 0 16741.511245071888 -255977.1260439083 0 -255977.1260439083 22309.165469869971 0 0 0 0 -619870.02350887656 -804007.91448944807 0 -804007.91448944807 554605.78088946268 0 0 0 0 -76488661.598266602 56014141.877868652 0 56014141.877868652 68697366.793395996 0 0 0 0 -86003089.030273438 -217509190.17260742 0 -217509190.17260742 -461439789.10424805 0 0 0 0 -4457689.3672243953 -2882446.541439712 0 -2882446.541439712 1611454.2389398273 0 0 0 0 -2110848.8109588623 -33232037.246826172 0 -33232037.246826172 -132801.12805175781 0 0 0 0 -8313584.1267700195 -16865202.571487427 0 -16865202.571487427 -4242074.7286643982 0 0 0 0 -5156700.9548894763 -2457548.8513807617 0 -2457548.8513807617 3695019.6011298671 0 0 0 0 -6143223.8036533594 -1879027.4505702518 0 -1879027.4505702518 4409246.8364866152 0 0 0 0 -58787805.814674377 -27285424.916439056 0 -27285424.916439056 936742.85614013672 0 0 0 0 -71609507.01940918 -970043.49136352539 0 -970043.49136352539 49710418.14855957 0 0 0 0 -172448728.02603149 -17759457.619873047 0 -17759457.619873047 21542953.237976074 0 0 0 0 -92119299.954345703 33171138.525268555 0 33171138.525268555 -41847765.963592529 0 0 0 0 2864112.4937297404 -3033258.2080992386 0 -3033258.2080992386 443520.99782429636 0 0 0 0 -825570.12854003906 -3364947.0742797852 0 -3364947.0742797852 -4047510.8901672363 0 0 0 0 -10106348.905731529 -24666656.886749215 0 -24666656.886749215 10789676.021474954 0 0 0 0 -39258560.496412277 -88905005.593170404 0 -88905005.593170404 4155479.3493347168 0 0 0 0 -115606.09359741211 -23356630.945419312 0 -23356630.945419312 -23798516.497680664 0 0 0 0 8248807.1209222302 -2138217.9577072002 0 -2138217.9577072002 -1726233.9601944759 0 0 0 0 -4126370.9165039062 -8010278.2386474609 0 -8010278.2386474609 -10525409.776000977 0 0 0 0 150368.60876983404 -1191679.6969764568 0 -1191679.6969764568 -828200.62894359231 0 0 0 0 -5688303.9490802586 -10569978.218010619 0 -10569978.218010619 5550298.1865011929 0 0 0 0 -42873311.940657139 68073398.378469467 0 68073398.378469467 -85215589.545593262 0 0 0 0 22458364.008306935 -25900107.217215132 0 -25900107.217215132 1292823.2813048959 0 0 0 0 50552877.355606079 -17960410.445083618 0 -17960410.445083618 25609203.121551514 0 0 0 0 -15092129.041910507 -17870327.360629231 0 -17870327.360629231 11620193.743778735 0 0 0 0 100512714.54182434 -45830317.051139832 0 -45830317.051139832 -9373396.8289489746 0 0 0 0 -69767258.193748474 15274174.720870972 0 15274174.720870972 34578020.911300659 0 0 0 0 -23476063.505310059 -29458489.251968384 0 -29458489.251968384 23682418.256824493 0 0 0 0 -9866583.3493041992 -77148158.896286011 0 -77148158.896286011 57364705.254329681 0 0 0 0 52649668.505187988 -109890788.21696472 0 -109890788.21696472 63344515.785400391 0 0 0 0 -174424224.63127136 -97638098.842876434 0 -97638098.842876434 258661838.56335449 0 0 0 0 -103169519.89686584 63230394.00125885 0 63230394.00125885 -17513235.022094727 0 0 0 0 -6551991.3866810501 -3316645.6604856923 0 -3316645.6604856923 5856697.5025309324 0 0 0 0 176567798.66278076 -327908924.08630371 0 -327908924.08630371 49183551.859161377 0 0 0 0 -1759137.6365645379 -545646.53916608542 0 -545646.53916608542 1169406.0695425496 0 0 0 0 28300868.836868286 -64669138.773742676 0 -64669138.773742676 -61702545.135818481 0 0 0 0 -335033386.31700134 361877787.17972565 0 361877787.17972565 -182745216.36688232 0 0 0 0 -79450177.614501953 -38923474.904373169 0 -38923474.904373169 179336876.26867676 0 0 0 0 -65649196.394714355 -244154429.84631348 0 -244154429.84631348 -89894371.853111267 0 0 0 0 27335070.587585449 -95326767.32131958 0 -95326767.32131958 -13515072.610229492 0 0 0 0 -1430029.4859749228 -696115.76338457689 0 -696115.76338457689 970506.53046654165 0 0 0 0 -77060151.914093018 -274241085.82240295 0 -274241085.82240295 38461113.169616699 0 0 0 0 -6745093.8811645508 -74813473.504302979 0 -74813473.504302979 69418267.032836914 0 0 0 0 -64175402.018310547 -65197166.391845703 0 -65197166.391845703 -5661522.5444335938 0 0 0 0 9237094.6441078559 -29905097.673714023 0 -29905097.673714023 9805205.0707789063 0 0 0 0 47971542.794219971 15258345.248527527 0 15258345.248527527 -621964329.51980019 0 0 0 0 24917679.961196899 -77262298.292221069 0 -77262298.292221069 15826007.694335938 0 0 0 0 3717493.9428993054 -8404915.347695902 0 -8404915.347695902 -1976950.3292112201 0 0 0 0 4884016.1904296875 -7803425.2965698242 0 -7803425.2965698242 -1159166.4415283203 0 0 0 0 17260828.47617133 -12117324.872273609 0 -12117324.872273609 -2115133.0115921721 0 0 0 0 45221870.440872192 14302963.532691956 0 14302963.532691956 -5490538.2696228027 0 0 0 0 -10829005.672653079 -17788641.634618036 0 -17788641.634618036 17746402.693601489 0 0 0 0 329739.79565997049 -14564672.181261584 0 -14564672.181261584 4934387.9237125516 0 0 0 0 13394613.102905273 -35753134.868560791 0 -35753134.868560791 14992737.330583572 0 0 0 0 22446790.357269287 -71991565.019577026 0 -71991565.019577026 10984714.531326294 0 0 0 0 -15493434.43687503 -32670512.219360583 0 -32670512.219360583 -1937935.8723465502 0 0 0 0 40212591.475738525 -50608273.82522583 0 -50608273.82522583 34645918.565475464 0 0 0 0 -70285822.547302246 -83349457.279907227 0 -83349457.279907227 -4422971.975402832 0 0 0 0 23545466.590026855 1090233.3318862915 0 1090233.3318862915 73529629.08770752 0 0 0 0 112733647.04071045 -48052198.525146484 0 -48052198.525146484 -5016887.7433159351 0 0 0 0 1065687101.0366364 -1361157377.3387032 0 -1361157377.3387032 1666168925.0855255 0 0 0 0 -170184366.03057861 -105758935.40000153 0 -105758935.40000153 47985267.87109375 0 0 0 0 -4944597.1483929306 -8717518.7201012075 0 -8717518.7201012075 23244434.055958182 0 0 0 0 -97457979.778137207 -197083189.0085907 0 -197083189.0085907 -17061091.529205322 0 0 0 0 218848451.66012573 -64047101.812561035 0 -64047101.812561035 -115651529.58766937 0 0 0 0 314046226.83163452 238424047.36703491 0 238424047.36703491 132560368.56710815 0 0 0 0 -216401549.39272308 57218855.850749969 0 57218855.850749969 835263419.80863953 0 0 0 0 -16220907.993835449 -55467885.711730957 0 -55467885.711730957 -6267967.4423522949 0 0 0 0 -157311985.73233032 -110043302.85553741 0 -110043302.85553741 912459111.58834839 0 0 0 0 -2091685.2748413086 -177382132.19143677 0 -177382132.19143677 319870126.96800995 0 0 0 0 -204282405.65826416 19356472.563537598 0 19356472.563537598 565082689.13488531 0 0 0 0 -20281048.536674246 -28872721.238867238 0 -28872721.238867238 3251855.2656160593 0 0 0 0 53493.073769703507 -6446214.845307678 0 -6446214.845307678 -2466329.1637471342 0 0 0 0 -38788534.041900635 -27780593.171508789 0 -27780593.171508789 34899689.669921875 0 0 0 0 -7141004.6343612671 -18503799.178627014 0 -18503799.178627014 30891945.46031189 0 0 0 0 -53666246.474807739 -42721571.556793213 0 -42721571.556793213 45953633.384155273 0 0 0 0 -14832201.164972275 -24403988.170348853 0 -24403988.170348853 -4197672.9516877308 0 0 0 0 -27883096.628112793 -57687487.426055908 0 -57687487.426055908 47495562.971130371 0 0 0 0 -20610903.637748718 -137036717.27890778 0 -137036717.27890778 226551725.96960449 0 0 0 0 -29989211.012161255 -216049255.9017334 0 -216049255.9017334 -23439880.756072998 0 0 0 0 54489147.068710327 -123645231.37814331 0 -123645231.37814331 -7119347.9640274048 0 0 0 0 -30227780.191953458 -18242164.809982613 0 -18242164.809982613 20399752.246417016 0 0 0 0 -47967423.546474576 -17831203.756659366 0 -17831203.756659366 11931566.898967676 0 0 0 0 -488097601.44174194 -285043869.77082062 0 -285043869.77082062 -132518171.22781706 0 0 0 0 -31706783.94343891 -9805316.7829228714 0 -9805316.7829228714 5158042.3072938044 0 0 0 0 -141763478.42617798 -68925242.448196411 0 -68925242.448196411 553076259.64149046 0 0 0 0 -647347234.56420898 -1446231093.9695892 0 -1446231093.9695892 -1363228576.2601604 0 0 0 0 -1459734092.8007965 -3646613647.2434692 0 -3646613647.2434692 -6910588134.0347481 0 0 0 0 -11450554.511194721 -3774523.6998477578 0 -3774523.6998477578 1091198.4790363424 0 0 0 0 -147510771.3045435 431184889.81114769 0 431184889.81114769 -526966075.48757935 0 0 0 0 -224078162.59410095 -366574117.85404205 0 -366574117.85404205 30450304.92590332 0 0 0 0 -6269927.4119110107 17827448.209649086 0 17827448.209649086 -273782472.84466553 0 0 0 0 -717761273.01380157 -79996035.239822388 0 -79996035.239822388 -91307355.394714355 0 0 0 0 -2404767828.1002197 198570297.01664734 0 198570297.01664734 163218821.11071777 0 0 0 0 -722058602.22883415 -80648572.24631691 0 -80648572.24631691 132801528.39962769 0 0 0 0 -80356947.339416504 81870375.107696533 0 81870375.107696533 -63442008.681152344 0 0 0 0 -54066526.377380371 -100931442.76271057 0 -100931442.76271057 -213066633.47845459 0 0 0 0 -98373813.101005554 -23033753.988700867 0 -23033753.988700867 -7706264.9357910156 0 0 0 0 -3237729.6668930054 45914416.800727844 0 45914416.800727844 -65811640.674591064 0 0 0 0 56176275.215530396 -1891909.9252319336 0 -1891909.9252319336 -27648759.664703369 0 0 0 0 -31837406.722671509 -109038120.51965332 0 -109038120.51965332 -6650745.3226203918 0 0 0 0 54115441.464508057 -96232560.51713562 0 -96232560.51713562 -172710902.45280457 0 0 0 0 55115229.788192749 -70754235.917663574 0 -70754235.917663574 40424118.325683594 0 0 0 0 93365242.704071045 -25273727.980697632 0 -25273727.980697632 -61358149.510528564 0 0 0 0 57476469.375396729 9339174.8322296143 0 9339174.8322296143 2672233.7742614746 0 0 0 0 -4981996.0024725348 -16045647.859462216 0 -16045647.859462216 2536356.7348615769 0 0 0 0 50955151.478256226 -3359936.6461334229 0 -3359936.6461334229 19325170.526626587 0 0 0 0 25704323.092666626 15582291.486564636 0 15582291.486564636 80464370.004058838 0 0 0 0 -59718953.833099365 -137296285.53187561 0 -137296285.53187561 37615897.837057114 0 0 0 0 41776838.00491333 -12936977.261627197 0 -12936977.261627197 -12478096.387493134 0 0 0 0 35873384.827316284 50067343.991867065 0 50067343.991867065 19292800.415649414 0 0 0 0 -749331.33422088623 -33617429.31287384 0 -33617429.31287384 -64725084.446029663 0 0 0 0 6932670.3609762639 -11266378.484826479 0 -11266378.484826479 1533598.1571145058 0 0 0 0 111386895.59307861 -46148017.384338379 0 -46148017.384338379 -100947297.21154785 0 0 0 0 26962354.105875552 -2787051.0135762393 0 -2787051.0135762393 -6733168.7827162594 0 0 0 0 46591531.755783081 55717025.609825134 0 55717025.609825134 -65049064.37612915 0 0 0 0 -69723799.073852539 64806621.796936035 0 64806621.796936035 19387922.327079773 0 0 0 0 43683440.299072266 -20665040.623565674 0 -20665040.623565674 -49142349.953186035 0 0 0 0 8093675.6214998215 -8989474.4178109579 0 -8989474.4178109579 806250.80442932248 0 0 0 0 22276692.89190615 -12839406.852375597 0 -12839406.852375597 1680004.3932265863 0 0 0 0 2561556.4526367188 -27580536.114234924 0 -27580536.114234924 -35919880.429458618 0 0 0 0 -4058464.1876831055 -24486976.780303955 0 -24486976.780303955 -35615702.118835449 0 0 0 0 1817254.5420025587 1137466.8316081911 0 1137466.8316081911 -1396043.7679227144 0 0 0 0 -55501902.362548828 -62634375.888793945 0 -62634375.888793945 -212742914.8453064 0 0 0 0 2371157.7196165174 717673.45084753633 0 717673.45084753633 -1070442.8463372961 0 0 0 0 -60248616.877700806 -165920367.28503418 0 -165920367.28503418 -161029866.26916504 0 0 0 0 59114481.80065918 29983900.101806641 0 29983900.101806641 -44265479.342163086 0 0 0 0 -41238866.609069824 -90730082.88949585 0 -90730082.88949585 -169990503.82366943 0 0 0 0 -164782470.08685303 -72420750.044952393 0 -72420750.044952393 -21992594.137573242 0 0 0 0 -28260516.122619629 48512701.332580566 0 48512701.332580566 19533490.104426384 0 0 0 0 -134549641.11010742 -31237839.155639648 0 -31237839.155639648 -164545971.42181396 0 0 0 0 -81299340.16784668 -102228046.66049194 0 -102228046.66049194 -78110705.620910645 0 0 0 0 123954738.06369019 -90464089.821273804 0 -90464089.821273804 -28958884.393440247 0 0 0 0 -21680441.985839844 -225312933.85650635 0 -225312933.85650635 -11155560.053855896 0 0 0 0 -85110896.220367432 -223657585.36474609 0 -223657585.36474609 -8780799.8325500488 0 0 0 0 -180104124.99435425 -42923407.110656738 0 -42923407.110656738 -64669106.847045898 0 0 0 0 -36840380.325698853 -43700191.09021759 0 -43700191.09021759 47246024.889938354 0 0 0 0 173027.45129942894 168916.06275371835 0 168916.06275371835 244793.14583751559 0 0 0 0 72990.373099952936 123495.41156987473 0 123495.41156987473 62567.721551433206 0 0 0 0 -57123458.710449219 -77805713.998840332 0 -77805713.998840332 133960253.95419312 0 0 0 0 125176790.67474365 45152983.179077148 0 45152983.179077148 -48825087.45741272 0 0 0 0 97273862.11428833 -69198450.97819519 0 -69198450.97819519 -58698567.403320312 0 0 0 0 80307357.686737061 5843355.2557983398 0 5843355.2557983398 -39483594.442443848 0 0 0 0 38035802.54524231 -61586750.519325256 0 -61586750.519325256 131943714.87045288 0 0 0 0 -1911289.4078387171 -15600609.290152535 0 -15600609.290152535 4341723.9239018336 0 0 0 0 809899736.52536011 -469896181.67071915 0 -469896181.67071915 48332507.188049316 0 0 0 0 240106405.19824219 -488004873.49710846 0 -488004873.49710846 628276403.22348595 0 0 0 0 229915607.62054443 -2077952982.5225067 0 -2077952982.5225067 3075652187.9653625 0 0 0 0 951294543.16217041 -2545948212.7672272 0 -2545948212.7672272 3370453495.2651062 0 0 0 0 558109466.70049286 -1801470743.3205986 0 -1801470743.3205986 2186556867.9166565 0 0 0 0 115785004.60728455 -1267717353.2051697 0 -1267717353.2051697 1701239796.4836767 0 0 0 0 373783371.35881042 -125136340.7253952 0 -125136340.7253952 804782053.92177582 0 0 0 0 -2469855.0207983553 -17921155.720287137 0 -17921155.720287137 3077205.0321347006 0 0 0 0 -11675629.915649414 -47567324.394515991 0 -47567324.394515991 18121025.44909668 0 0 0 0 68565194.27570343 -53250319.512281418 0 -53250319.512281418 -40210607.24520874 0 0 0 0 -130051306.55841064 -57524300.5050354 0 -57524300.5050354 -38056037.241577148 0 0 0 0 1987694.7039281428 1265349.7899593376 0 1265349.7899593376 -1414564.8300896436 0 0 0 0 39789341.179138184 -5455830.2453308105 0 -5455830.2453308105 -3171903.3829956055 0 0 0 0 29168575.660020515 -5448985.8635766469 0 -5448985.8635766469 -8920865.9985302314 0 0 0 0 -336595606.25751495 -307629942.85806274 0 -307629942.85806274 4495637111.1105347 0 0 0 0 -1286362701.0488892 -1020522208.9904785 0 -1020522208.9904785 -690060288.18058777 0 0 0 0 719306.83897106349 -1662159.2682609484 0 -1662159.2682609484 -578616.58679900318 0 0 0 0 -260274159.8788147 -283215817.85380554 0 -283215817.85380554 -368417824.59608459 0 0 0 0 -514395526.72695923 -108554778.00028229 0 -108554778.00028229 116646791.87680054 0 0 0 0 -612534101.59078979 -5048146.9999237061 0 -5048146.9999237061 44895389.492645264 0 0 0 0 -150675686.11125183 190387876.35923767 0 190387876.35923767 107063109.04940796 0 0 0 0 45075865.490188599 -210241668.96670532 0 -210241668.96670532 -167968316.97447205 0 0 0 0 -71414565.325180054 -40472449.199951172 0 -40472449.199951172 -100680952.54273987 0 0 0 0 96608820.85496521 -193643321.5647583 0 -193643321.5647583 -18127702.379631042 0 0 0 0 -96323832.688201904 -113378897.15951538 0 -113378897.15951538 316975658.85682678 0 0 0 0 -111610755.87968445 -7150850.0128250122 0 -7150850.0128250122 166391216.77357483 0 0 0 0 -4866699.99430684 -1631998.187375471 0 -1631998.187375471 1845571.3176321089 0 0 0 0 -615158678.78961182 236134778.7485199 0 236134778.7485199 273180400.21060181 0 0 0 0 -634962259.12711334 -665861040.29991531 0 -665861040.29991531 -388136449.36198425 0 0 0 0 -2144451.0372004882 924768.55266808718 0 924768.55266808718 682198.19538809825 0 0 0 0 -172536836.95516968 -466073206.93998718 0 -466073206.93998718 -720350200.95204163 0 0 0 0 -363533534.45256042 -1266503361.9589386 0 -1266503361.9589386 18008221.163742065 0 0 0 0 -229094843.2605896 -1487225234.4975739 0 -1487225234.4975739 -8717602.5670700073 0 0 0 0 2155214582.2965546 -2536978753.9568405 0 -2536978753.9568405 92371749.005401611 0 0 0 0 1014523485.8172226 -761423753.50143051 0 -761423753.50143051 -151045324.79089355 0 0 0 0 -1062148680.5139465 -31981148.781410217 0 -31981148.781410217 342054266.72348022 0 0 0 0 -583767972.16516876 -100434730.10664749 0 -100434730.10664749 336752157.95080566 0 0 0 0 662400076.64334106 -855584967.87319946 0 -855584967.87319946 97753689.421783447 0 0 0 0 541571379.54006958 46705775.335220337 0 46705775.335220337 -36316649.805541992 0 0 0 0 -593765883.68258667 348409127.97166824 0 348409127.97166824 -90059861.884063721 0 0 0 0 1587362772.1838074 -478757023.43109131 0 -478757023.43109131 -857180741.25028992 0 0 0 0 7047198.0275509953 -7387557.9270312823 0 -7387557.9270312823 1307640.0212949179 0 0 0 0 88764140.677062988 -1310024326.6923828 0 -1310024326.6923828 6700256937.4967346 0 0 0 0 -83243096.581344604 -296731459.38546753 0 -296731459.38546753 -747805297.37419891 0 0 0 0 2214225444.7413559 -4388596173.2165756 0 -4388596173.2165756 6180658825.7590332 0 0 0 0 3829026462.7971497 -2092547334.822937 0 -2092547334.822937 -183499929.02957344 0 0 0 0 3556608604.2131476 -736239559.81458926 0 -736239559.81458926 3246799546.4606628 0 0 0 0 2131553061.1707153 -1860942172.6713104 0 -1860942172.6713104 2581673697.7422256 0 0 0 0 947819152.83737183 -2984474996.766037 0 -2984474996.766037 6050549470.8959656 0 0 0 0 3478137703.8018732 -3591273769.8959584 0 -3591273769.8959584 3321427737.3769073 0 0 0 0 846960083.63150024 -2156145430.3059387 0 -2156145430.3059387 2593137272.3216057 0 0 0 0 944742408.65240479 -1174423741.3157196 0 -1174423741.3157196 2418447047.4595642 0 0 0 0 871695536.8480072 -1968802613.6774597 0 -1968802613.6774597 4011368319.3529663 0 0 0 0 1725012317.3074493 -1120112874.3186493 0 -1120112874.3186493 2876199244.4944611 0 0 0 0 1957145371.0408096 -3105556935.4336929 0 -3105556935.4336929 2138802059.9376221 0 0 0 0 849026420.16100311 -1964002440.9221115 0 -1964002440.9221115 2053231583.9526062 0 0 0 0 1403439442.8880615 -2724224854.7528114 0 -2724224854.7528114 1859375043.9659424 0 0 0 0 1568519514.7249908 -2683015932.6136627 0 -2683015932.6136627 702686541.67230225 0 0 0 0 1250815439.453598 -2681074993.3524323 0 -2681074993.3524323 1907225847.1769943 0 0 0 0 885000976.34815979 -2314987471.2179871 0 -2314987471.2179871 668492286.67693615 0 0 0 0 1689010185.1642685 -2881838201.9826317 0 -2881838201.9826317 -14764086.950866699 0 0 0 0 2251209117.7087173 -1165914514.6534805 0 -1165914514.6534805 683524888.5438385 0 0 0 0 4670652269.632988 -2237159593.9208384 0 -2237159593.9208384 71960678.343673706 0 0 0 0 -2181445562.3681412 -2152460758.6127167 0 -2152460758.6127167 -264496607.00787354 0 0 0 0 253132.3895424325 -3073817.509203732 0 -3073817.509203732 -426105.11403697729 0 0 0 0 1035637427.9157104 -2278468256.1136589 0 -2278468256.1136589 -222236231.64871216 0 0 0 0 -1119316198.1010132 -594193097.30789185 0 -594193097.30789185 117496591.99354553 0 0 0 0 -1646384434.3504028 -639720429.89363098 0 -639720429.89363098 123782311.7300148 0 0 0 0 -1532099295.7016296 -781640126.79238129 0 -781640126.79238129 297647046.16917419 0 0 0 0 -1948957862.8317337 -2311803816.5883331 0 -2311803816.5883331 -195565309.31963539 0 0 0 0 -5616653323.6530762 -1125205082.6495667 0 -1125205082.6495667 760884984.4453125 0 0 0 0 -2195178324.1659546 -911579651.57298279 0 -911579651.57298279 332269433.51394653 0 0 0 0 -2555564116.7036438 1335579484.8709641 0 1335579484.8709641 239516725.68286133 0 0 0 0 -4303972213.7791595 1357893700.3529205 0 1357893700.3529205 -1288574212.5908508 0 0 0 0 -1764934642.2674255 -2811693573.3445396 0 -2811693573.3445396 -4578452314.8210754 0 0 0 0 1393951846.3554916 -1694433845.8806915 0 -1694433845.8806915 -1261006145.4639874 0 0 0 0 729257.61550158169 -5325851.3314228505 0 -5325851.3314228505 667190.49201768637 0 0 0 0 2907970437.4132175 -1164165718.726572 0 -1164165718.726572 678887731.45652771 0 0 0 0 -901727545.70587158 -568939209.95431328 0 -568939209.95431328 78093636.730453491 0 0 0 0 325254243.86639404 495573796.04063416 0 495573796.04063416 227657317.49810219 0 0 0 0 249276675.90137863 799312678.59001923 0 799312678.59001923 -359134637.0461731 0 0 0 0 191033.79052716494 -4673547.5595373884 0 -4673547.5595373884 7980405.6497740149 0 0 0 0 2060698913.3093128 594008057.62339592 0 594008057.62339592 -764018006.59402466 0 0 0 0 3096800924.5170498 -110418597.72245979 0 -110418597.72245979 -430597910.64883423 0 0 0 0 274563617.73744202 1478514367.6665955 0 1478514367.6665955 -670633957.43304825 0 0 0 0 -980612866.41553497 480605419.43466187 0 480605419.43466187 -16221312.470001221 0 0 0 0 -755304643.40962219 284127352.66416931 0 284127352.66416931 -1380850604.7588654 0 0 0 0 -1408143568.0109634 -1132644250.3207779 0 -1132644250.3207779 -944273748.56256104 0 0 0 0 -5861827709.5412827 -2672160492.2329903 0 -2672160492.2329903 -1079230346.5683899 0 0 0 0 -2927042208.7599487 366622453.67131805 0 366622453.67131805 559927793.87985229 0 0 0 0 -714356990.56484985 -280958124.34141541 0 -280958124.34141541 636162658.28578186 0 0 0 0 -1162016656.6969604 852139301.98498535 0 852139301.98498535 766698622.37934875 0 0 0 0 -634843283.35768127 585707125.72092819 0 585707125.72092819 2213573203.9228973 0 0 0 0 -107650.19930709898 -4425650.2249121293 0 -4425650.2249121293 733923.79771531001 0 0 0 0 -408684092.15516663 -610743407.95866394 0 -610743407.95866394 1350410400.1490021 0 0 0 0 -1226026345.5642242 -689037679.87674713 0 -689037679.87674713 1256221289.7511902 0 0 0 0 430038133.30740356 109496705.67472839 0 109496705.67472839 871537143.42729187 0 0 0 0 -550794405.84088135 137897615.20111084 0 137897615.20111084 954788445.0223999 0 0 0 0 -201288411.02891541 -708914284.62805939 0 -708914284.62805939 1182388066.5366211 0 0 0 0 2006996.6294633448 -10182109.814668298 0 -10182109.814668298 568386.38354981504 0 0 0 0 7061254.1803245544 -137706333.84428024 0 -137706333.84428024 -174364650.09909058 0 0 0 0 3141181.5008534119 -4023817.0811318327 0 -4023817.0811318327 -6789604.7805128545 0 0 0 0 -45628631.15574646 -128597537.9896698 0 -128597537.9896698 -175870337.30297852 0 0 0 0 73395330.068649292 -112653553.14923096 0 -112653553.14923096 -396490036.77043152 0 0 0 0 -7380365.4705505371 -111247005.45106506 0 -111247005.45106506 -155771041.40205383 0 0 0 0 -62530984.975650787 57856923.117340088 0 57856923.117340088 -192006547.45147705 0 0 0 0 2022716.4048309326 -135950353.31396103 0 -135950353.31396103 36979242.043304443 0 0 0 0 29974078.784927368 -22769335.393234253 0 -22769335.393234253 -78862292.694541931 0 0 0 0 -7467630.8100128174 -186266904.41186523 0 -186266904.41186523 -212831245.44680786 0 0 0 0 -35176320.658584595 -54363217.268188477 0 -54363217.268188477 1301657265.2401581 0 0 0 0 185021502.58952332 410955701.48808289 0 410955701.48808289 241530139.8799324 0 0 0 0 -2684991.7225580281 -5120165.2086981609 0 -5120165.2086981609 22171925.035951003 0 0 0 0 77790671.702728271 354588375.86001587 0 354588375.86001587 506617925.79516602 0 0 0 0 2718901277.9407806 -1095818420.1532326 0 -1095818420.1532326 -1256925385.7468262 0 0 0 0 -8998044.5915668085 -9547342.2493552417 0 -9547342.2493552417 39375328.165182173 0 0 0 0 -93849960.605659485 -837676485.54470062 0 -837676485.54470062 3765710698.4119873 0 0 0 0 -69267102.0440979 -82279620.161224365 0 -82279620.161224365 -428384.59017181396 0 0 0 0 -1360936.7551721483 -29592317.263918206 0 -29592317.263918206 -1251645.4851148129 0 0 0 0 -44817746.309829712 -40204654.598491669 0 -40204654.598491669 61211115.060882568 0 0 0 0 -68730776.077972412 -158493122.22851562 0 -158493122.22851562 -52532159.751068115 0 0 0 0 -105963684.2063446 7474601.0505828857 0 7474601.0505828857 324597747.67287445 0 0 0 0 370281255.77454376 -201325976.0359726 0 -201325976.0359726 -446758936.7833252 0 0 0 0 1072445.4928829148 -8416598.0412676483 0 -8416598.0412676483 -1343695.2400443554 0 0 0 0 -35492064.216014862 -623451042.89792633 0 -623451042.89792633 -885029570.44406128 0 0 0 0 -216068762.94809914 28968311.933643341 0 28968311.933643341 -190954311.54025269 0 0 0 0 -153590428.81602478 -287822812.60606384 0 -287822812.60606384 -564707864.41357422 0 0 0 0 -482552192.79333496 -269098369.67758179 0 -269098369.67758179 -962945.62983703613 0 0 0 0 -1406508574.6423759 -1491478779.6967621 0 -1491478779.6967621 -807745487.20254517 0 0 0 0 -929749852.65231323 -528210121.50444031 0 -528210121.50444031 -149301164.10494995 0 0 0 0 -39526277.231933594 -107406197.68585205 0 -107406197.68585205 1920.9554443359375 0 0 0 0 4531574.7632217407 -111908189.76450348 0 -111908189.76450348 -74044994.331542969 0 0 0 0 7670722.2093048096 -86087057.879470825 0 -86087057.879470825 69170870.475708008 0 0 0 0 -193319667.23750305 -284458626.24481201 0 -284458626.24481201 -219449719.87637329 0 0 0 0 -86120566.366729736 -108622904.23530579 0 -108622904.23530579 1010974.8567276001 0 0 0 0 -152056965.7326445 -85396870.597822487 0 -85396870.597822487 -154554773.55065918 0 0 0 0 -6528081.3584442139 -94928723.890380859 0 -94928723.890380859 -191799068.46307373 0 0 0 0 -37665027.654144287 -15406280.181091309 0 -15406280.181091309 -23587198.231628418 0 0 0 0 19503202.913360596 215570.60446166992 0 215570.60446166992 -63588124.803918839 0 0 0 0 21964124.085128784 -14483454.082824707 0 -14483454.082824707 8979460.2239990234 0 0 0 0 15741855.113418579 30495664.007320404 0 30495664.007320404 42478910.584625244 0 0 0 0 28757472.527832031 12380971.084938049 0 12380971.084938049 47540295.373657227 0 0 0 0 31450506.608100891 13379693.212860107 0 13379693.212860107 -45033835.276123047 0 0 0 0 -30035663.78036499 70208210.160186768 0 70208210.160186768 101511422.50317383 0 0 0 0 19056956.58367157 57200234.926769257 0 57200234.926769257 -56924239.83682251 0 0 0 0 -1995594.2884310931 -32040653.177232057 0 -32040653.177232057 -1494190.3198000789 0 0 0 0 17934746.220779419 -32880342.613517761 0 -32880342.613517761 -33711887.955535889 0 0 0 0 -27886962.605316162 -8563794.6505584717 0 -8563794.6505584717 182828297.37953186 0 0 0 0 -5231106.2225663587 -19319069.694381174 0 -19319069.694381174 11200227.11292012 0 0 0 0 -11337728.594009399 -19133010.521316528 0 -19133010.521316528 1185843.5092315674 0 0 0 0 -4567584.8853358924 -14651903.991347834 0 -14651903.991347834 4838030.0831537955 0 0 0 0 -9471052.9683227539 -67453450.620651245 0 -67453450.620651245 -203180930.18945312 0 0 0 0 -9819280.9700927734 -10173275.811012268 0 -10173275.811012268 12930297.323822021 0 0 0 0 -6891897.2513427734 -10826827.338485718 0 -10826827.338485718 4266292.2376403809 0 0 0 0 -10572327.098400116 -11403259.583946228 0 -11403259.583946228 8275240.1542053223 0 0 0 0 -8864608.5249862671 -16111953.915424347 0 -16111953.915424347 -2668843.1220092773 0 0 0 0 35632506.542877197 -14931630.131591797 0 -14931630.131591797 27677041.132034302 0 0 0 0 38943485.134601593 3590774.6839179993 0 3590774.6839179993 17635972.424224854 0 0 0 0 38432081.817382812 -17335.308227539062 0 -17335.308227539062 -1800627.0087890625 0 0 0 0 33708828.847717285 -7492012.3229522705 0 -7492012.3229522705 12343170.171478271 0 0 0 0 -11288318.784492746 -10822513.860279083 0 -10822513.860279083 14726621.799239203 0 0 0 0 -13409444.656520844 -14689569.224960327 0 -14689569.224960327 1083707.4704284668 0 0 0 0 -14779507.985595703 -20190945.351364136 0 -20190945.351364136 -691848.92217254639 0 0 0 0 -2672245.9207057655 -14054131.703375384 0 -14054131.703375384 12316979.46242892 0 0 0 0 2032754.1359983832 -3102083.8986611217 0 -3102083.8986611217 4611648.8919008523 0 0 0 0 -4027537.0108124316 -8932474.7518306561 0 -8932474.7518306561 777021.08664602041 0 0 0 0 6956313.0769233704 -11014393.678085327 0 -11014393.678085327 -69977.416793823242 0 0 0 0 -5035835.8161621094 -11368227.180419922 0 -11368227.180419922 -75261.030456542969 0 0 0 0 -2053951.5433044434 -13816249.780487061 0 -13816249.780487061 3040369.0945587158 0 0 0 0 1568190.177989468 -1621042.2525073588 0 -1621042.2525073588 473040.98571237922 0 0 0 0 3857673.8542480469 -22970504.268341064 0 -22970504.268341064 -46139828.848709106 0 0 0 0 33787423.613479614 -51055174.175132751 0 -51055174.175132751 -12122.004425048828 0 0 0 0 12234355.478302002 -37971343.166595459 0 -37971343.166595459 -2935085.3139343262 0 0 0 0 -2220806.5436859131 -9566234.7553482056 0 -9566234.7553482056 1083948.6285705566 0 0 0 0 55779906.272094727 -42601137.59828186 0 -42601137.59828186 -15359442.394592285 0 0 0 0 102755699.31567383 -24084907.327880859 0 -24084907.327880859 -23774334.149169922 0 0 0 0 -28858.697394535178 -9207353.3960510939 0 -9207353.3960510939 -8094199.5857753158 0 0 0 0 -7692497.176443819 -12935823.92491968 0 -12935823.92491968 437800.91768839955 0 0 0 0 28110804.310836792 -31036018.298217773 0 -31036018.298217773 -8583724.9999694824 0 0 0 0 873589.89017052948 -29743008.236636534 0 -29743008.236636534 -6111733.224510923 0 0 0 0 3935385.1458282471 -43850011.339691162 0 -43850011.339691162 2690882.9141845703 0 0 0 0 21587813.870723724 -47751404.621685028 0 -47751404.621685028 -9101884.1155700684 0 0 0 0 2611551.2170623392 -35933995.230942115 0 -35933995.230942115 -8865369.05975876 0 0 0 0 9674196.4514331818 -48958914.31388855 0 -48958914.31388855 -31411488.584594727 0 0 0 0 -11498784.678222656 -15607967.810180664 0 -15607967.810180664 1117806.0425720215 0 0 0 0 -10916583.522724237 -13551395.958128504 0 -13551395.958128504 19817701.349006638 0 0 0 0 -59590364.187713623 -66474256.083282471 0 -66474256.083282471 31747733.569671631 0 0 0 0 15430846.746131897 -73514683.843608856 0 -73514683.843608856 -495724.21704101562 0 0 0 0 -7419737.420501709 -10668903.952941895 0 -10668903.952941895 7716076.6571960449 0 0 0 0 -262516033.48332214 -55606561.675262451 0 -55606561.675262451 144502103.56091309 0 0 0 0 -9363335.3633491267 -4577356.6156388372 0 -4577356.6156388372 18221701.279892251 0 0 0 0 -163091396.59368896 -21715606.980163574 0 -21715606.980163574 2965591.5387268066 0 0 0 0 -236176778.45803833 -106440550.42280579 0 -106440550.42280579 139504398.07564545 0 0 0 0 -359911930.58105469 77084435.183349609 0 77084435.183349609 -35295568.560180664 0 0 0 0 93663924.524055481 -57328819.208927155 0 -57328819.208927155 -31842183.4581604 0 0 0 0 17378186.12382938 -20211591.583300203 0 -20211591.583300203 -13207344.501468047 0 0 0 0 23298332.086334229 -189202753.70820618 0 -189202753.70820618 103681556.07855225 0 0 0 0 -1310533371.0492859 -2550365853.4739685 0 -2550365853.4739685 -3850824174.2687225 0 0 0 0 -1866584403.6029415 -3479186462.0572014 0 -3479186462.0572014 -2955401842.0297852 0 0 0 0 -2279736549.2833195 -208314608.0191431 0 -208314608.0191431 6537540.350982666 0 0 0 0 -3860650110.7238159 -1807426263.5637398 0 -1807426263.5637398 -2091681737.7061768 0 0 0 0 -1158904952.33255 -2140395153.0835419 0 -2140395153.0835419 -2205243637.7116394 0 0 0 0 -823338531.62002563 -874798760.39408875 0 -874798760.39408875 -934717599.17314148 0 0 0 0 -1882306401.708786 -3193486724.4576225 0 -3193486724.4576225 -2790848910.9343262 0 0 0 0 -2148933215.3983765 -3279656727.7756805 0 -3279656727.7756805 -534105314.05926514 0 0 0 0 -1707312666.4387512 -2680725154.6144409 0 -2680725154.6144409 -2704027460.9112549 0 0 0 0 -2333259033.3258972 -2781124013.1324005 0 -2781124013.1324005 -2687211185.0783691 0 0 0 0 801579.21471452713 -3913557.4441767707 0 -3913557.4441767707 1131507.7488033175 0 0 0 0 -2276523122.2732239 -3265040249.1158924 0 -3265040249.1158924 -2743628414.1483765 0 0 0 0 -1891689700.3213043 -3974872209.5329247 0 -3974872209.5329247 -6067519195.971283 0 0 0 0 -5301260.2044137269 -6706478.6472361833 0 -6706478.6472361833 2007232.1303403638 0 0 0 0 380212902.75231934 421556987.54928589 0 421556987.54928589 -661357478.79571533 0 0 0 0 11738808.165715247 -17019665.923785448 0 -17019665.923785448 -4764561.8221558034 0 0 0 0 219706.03792000376 -1823809.8215060383 0 -1823809.8215060383 -436583.4504493624 0 0 0 0 503105427.24407959 -791960695.43829346 0 -791960695.43829346 -3623675422.2939453 0 0 0 0 -898660224.87304306 -520740173.22366142 0 -520740173.22366142 -266698754.1105957 0 0 0 0 31215.700148567557 -208235.71720391512 0 -208235.71720391512 450933.12557057291 0 0 0 0 5668893.5164235532 -15629795.901248924 0 -15629795.901248924 -1347357.1324986257 0 0 0 0 459924.74258345366 -11740414.280422047 0 -11740414.280422047 1233609.9173356295 0 0 0 0 -29245831.928894043 78633547.678649902 0 78633547.678649902 -244205463.05740356 0 0 0 0 -479330097.47733307 -891882897.95771408 0 -891882897.95771408 332427779.30265808 0 0 0 0 30914882.361038208 64534949.890640259 0 64534949.890640259 -265243004.76077271 0 0 0 0 114199385.24761963 -89224061.08682251 0 -89224061.08682251 -209866902.02793884 0 0 0 0 -5199870.243057251 -115999222.39559937 0 -115999222.39559937 -200263884.72973633 0 0 0 0 -625196734.43659973 -1248964066.9861603 0 -1248964066.9861603 589567703.20516968 0 0 0 0 522244264.01687622 -622494495.48762512 0 -622494495.48762512 833545285.80093384 0 0 0 0 14340431.09954834 -13399599.48878479 0 -13399599.48878479 -40008488.08599472 0 0 0 0 349966120.39715195 136654400.48072815 0 136654400.48072815 -27419811.089263916 0 0 0 0 1189852439.7857056 -217980705.67778015 0 -217980705.67778015 54797964.95148468 0 0 0 0 -1828292.4532849416 -1524026.7358048223 0 -1524026.7358048223 2836485.1103853136 0 0 0 0 -2640909063.4955597 -2236256168.2685852 0 -2236256168.2685852 -1631951356.3845444 0 0 0 0 -2982714282.5292053 -3259702977.587492 0 -3259702977.587492 -1170497059.6322327 0 0 0 0 887897496.10772705 -1426803654.2532501 0 -1426803654.2532501 302641555.84324646 0 0 0 0 -2102348266.8730164 -1849212229.2246552 0 -1849212229.2246552 243396798.30213547 0 0 0 0 -510182679.35751343 -1519670144.1404419 0 -1519670144.1404419 -2389968828.1588135 0 0 0 0 -275635611.44497681 -2351064001.2382965 0 -2351064001.2382965 -2523693647.0705872 0 0 0 0 -404859425.92739868 -2582448186.2947845 0 -2582448186.2947845 -1154318414.9881287 0 0 0 0 -1214283422.5302963 -1903040894.2598362 0 -1903040894.2598362 -1717384451.6304932 0 0 0 0 -754303293.47623825 -136703489.33235168 0 -136703489.33235168 -114240.01281738281 0 0 0 0 -15601064.428633265 -2701222.2102208287 0 -2701222.2102208287 8859474.8227671832 0 0 0 0 -357372844.32931519 -502320157.65661621 0 -502320157.65661621 1070282363.1539917 0 0 0 0 370883693.41725159 -605152801.11787415 0 -605152801.11787415 783821277.3861084 0 0 0 0 -1054377680.7034035 -1437265616.7134914 0 -1437265616.7134914 3829613.9816894531 0 0 0 0 651275969.69042969 -297045744.95832825 0 -297045744.95832825 692158115.61474609 0 0 0 0 -4023221167.1528015 -1549144319.4819565 0 -1549144319.4819565 -561706158.61964417 0 0 0 0 -2682464.7574285418 1308888.1222044528 0 1308888.1222044528 87656.777036786079 0 0 0 0 2090896285.5222778 -2636022777.9635391 0 -2636022777.9635391 -621088730.29736328 0 0 0 0 267510703.45846558 -473002937.40024567 0 -473002937.40024567 684800062.93302155 0 0 0 0 -887010876.44159889 -149760162.1118288 0 -149760162.1118288 805080298.59506226 0 0 0 0 -615867830.96591187 -307413230.76651001 0 -307413230.76651001 892518107.0591507 0 0 0 0 -323864471.07691574 -165002739.10276127 0 -165002739.10276127 939276663.32891846 0 0 0 0 -582194429.26431274 107871327.16246033 0 107871327.16246033 1417200868.8770752 0 0 0 0 33214418.768463135 190095339.35016632 0 190095339.35016632 865419955.99473572 0 0 0 0 -231797651.15620422 254957780.41483307 0 254957780.41483307 2199430226.821991 0 0 0 0 5618189640.9073486 -2481640817.7827988 0 -2481640817.7827988 441889320.30229187 0 0 0 0 186014457.61930847 538527821.90185547 0 538527821.90185547 764107332.1867981 0 0 0 0 -227794.13507169485 -748708.61748695374 0 -748708.61748695374 7741792.7806024402 0 0 0 0 3998568097.5458422 110431270.03110695 0 110431270.03110695 969465750.18511963 0 0 0 0 3297326162.8226318 -1759624747.9752045 0 -1759624747.9752045 2835947336.662117 0 0 0 0 4063113551.5518188 -794921089.60415649 0 -794921089.60415649 101707342.85025024 0 0 0 0 486975131.09164429 -1345679326.9270172 0 -1345679326.9270172 2422680935.3229637 0 0 0 0 2653529053.6828003 -1249588747.3617401 0 -1249588747.3617401 102606673.25416151 0 0 0 0 3493077988.4650269 127156623.44325256 0 127156623.44325256 -283586056.30274963 0 0 0 0 4264632352.9763184 -489709606.44151306 0 -489709606.44151306 130909984.53167725 0 0 0 0 3089447610.2458496 -1323097463.3231201 0 -1323097463.3231201 937855072.24563599 0 0 0 0 4833835183.5692444 -541337918.36639595 0 -541337918.36639595 -861239886.02893066 0 0 0 0 4724239230.4739151 -843709782.05284119 0 -843709782.05284119 543670212.14715576 0 0 0 0 258663895.68757629 321828882.53182983 0 321828882.53182983 -117196144.23892212 0 0 0 0 3095261663.6537781 -1042380651.7993317 0 -1042380651.7993317 -2275041529.0276184 0 0 0 0 -826646015.79203796 -1394730964.9382782 0 -1394730964.9382782 -1003342351.9197083 0 0 0 0 -252761112.60334396 -1773172868.4068508 0 -1773172868.4068508 -780146125.94764709 0 0 0 0 -743348992.51333618 -267161082.36155701 0 -267161082.36155701 807947880.13435364 0 0 0 0 -898347433.51306152 -1175660932.0721359 0 -1175660932.0721359 -425503537.51824951 0 0 0 0 -1641694281.87146 -512474975.41938782 0 -512474975.41938782 -1003146053.3274841 0 0 0 0 -1674635106.1871338 -2497343089.9269714 0 -2497343089.9269714 -1704685051.1608925 0 0 0 0 -537387430.44567871 -1656706569.0515366 0 -1656706569.0515366 -1643373417.0027237 0 0 0 0 -611729994.99658203 -2328659096.0279465 0 -2328659096.0279465 -5610937925.1726074 0 0 0 0 -4140380333.6408386 -3529623702.3592987 0 -3529623702.3592987 -1227136686.677742 0 0 0 0 905450929.16990662 -179636978.23853683 0 -179636978.23853683 -5243784136.1723785 0 0 0 0 -1622051809.0247784 -3841162740.7552881 0 -3841162740.7552881 -1159845113.5262756 0 0 0 0 -2057264004.6709137 -186385237.47396088 0 -186385237.47396088 -2266233.2407989502 0 0 0 0 13584763.063311294 -29225819.804450613 0 -29225819.804450613 5697122.881784156 0 0 0 0 1009341.7299320847 -10784270.14477814 0 -10784270.14477814 -3529528.3059236705 0 0 0 0 3114205.6773204803 -52365665.335492134 0 -52365665.335492134 -11412820.673339844 0 0 0 0 -24167331.588993073 -45874994.114118576 0 -45874994.114118576 -59969.596008300781 0 0 0 0 -19524833.099395752 -33523810.846801758 0 -33523810.846801758 -6188971.5517349243 0 0 0 0 4046761.9560089111 -49264879.668548584 0 -49264879.668548584 9923.4645385742188 0 0 0 0 4817485996.533783 -7754335546.8717194 0 -7754335546.8717194 -2217007553.6322327 0 0 0 0 -120469956.67041016 -8041651450.5200806 0 -8041651450.5200806 655503.05473327637 0 0 0 0 8521736414.2267437 -4430904633.9038525 0 -4430904633.9038525 -2852276306.5337524 0 0 0 0 8558302828.1967468 -246872790.3030777 0 -246872790.3030777 -1535401424.1053772 0 0 0 0 7277946.1874985099 -12361517.724185288 0 -12361517.724185288 -3426465.7219284028 0 0 0 0 2887038625.0175476 -1308883588.5071106 0 -1308883588.5071106 -1723176273.9973335 0 0 0 0 4039474889.9760132 -5031067013.7876282 0 -5031067013.7876282 -2166014246.0950012 0 0 0 0 360500881.28927612 -1443531647.0812836 0 -1443531647.0812836 -900810360.74282837 0 0 0 0 4212597293.9276342 -2456399434.4507284 0 -2456399434.4507284 -1067781029.9287109 0 0 0 0 5320867664.8482666 -4813025753.1043015 0 -4813025753.1043015 -2287113805.1039581 0 0 0 0 7851341830.9979095 -3061416800.6654587 0 -3061416800.6654587 -2582464269.4620972 0 0 0 0 3677935882.6608276 -4582371304.2583923 0 -4582371304.2583923 -1484649016.367981 0 0 0 0 2487922865.3983917 -2995601127.9553757 0 -2995601127.9553757 -489144449.58349609 0 0 0 0 3687860996.3748474 -2328467240.9090729 0 -2328467240.9090729 -2058982636.9249763 0 0 0 0 4887146626.2187805 -4271795164.5592804 0 -4271795164.5592804 714728005.36422729 0 0 0 0 4595948810.0589294 -1428755205.8680878 0 -1428755205.8680878 -178773376.71386719 0 0 0 0 15336889366.624939 -2173397716.9585876 0 -2173397716.9585876 138644787.29998779 0 0 0 0 4413819496.1587372 -1949835044.3176422 0 -1949835044.3176422 4729911697.8726196 0 0 0 0 278480543.89364624 -2660023326.6010208 0 -2660023326.6010208 4462026246.7550049 0 0 0 0 -652637180.81005859 -5656281940.6854248 0 -5656281940.6854248 5950754483.7608757 0 0 0 0 929717428.7243042 -3835963319.5239868 0 -3835963319.5239868 3257744156.1256104 0 0 0 0 3215695.9049484283 -2453825.1269834451 0 -2453825.1269834451 -1325115.6751595512 0 0 0 0 -1769215556.7697144 -639805108.36277008 0 -639805108.36277008 -451114555.67150879 0 0 0 0 -621254144.8515625 -5195309452.6310425 0 -5195309452.6310425 5906561113.8636169 0 0 0 0 4731708605.2277718 -890020832.07053614 0 -890020832.07053614 358389821.46337891 0 0 0 0 46820159.621459961 -755504892.11863708 0 -755504892.11863708 -130135108.94629288 0 0 0 0 2791752.8258023411 -21789889.506618764 0 -21789889.506618764 25635373.035146326 0 0 0 0 871586048.67108154 -820751339.69477844 0 -820751339.69477844 -170159266.77724075 0 0 0 0 416531675.75061035 109025315.61334229 0 109025315.61334229 -1730062613.3010864 0 0 0 0 81215054.16784668 -56595353.782531738 0 -56595353.782531738 -66205013.152099609 0 0 0 0 9217987.3249617536 -6524105.0025009364 0 -6524105.0025009364 -30661515.152294844 0 0 0 0 1083638.1128385738 -6074633.2041745186 0 -6074633.2041745186 -1309744.4919060469 0 0 0 0 2651352408.2759247 -3162092207.2024231 0 -3162092207.2024231 -2104161066.6264954 0 0 0 0 -5599769403.2222748 -1171120854.6703644 0 -1171120854.6703644 2084327660.3672943 0 0 0 0 -1493797621.1530762 -1553468710.3804321 0 -1553468710.3804321 -63347531.325897217 0 0 0 0 264431261.29115295 -41373202.937507629 0 -41373202.937507629 -63382219.675621033 0 0 0 0 -18720581.731430054 -55093788.365280151 0 -55093788.365280151 17593905.164321899 0 0 0 0 34212974.767658234 -156654114.42813396 0 -156654114.42813396 268836.28018188477 0 0 0 0 810730.83214151859 -10510103.383380719 0 -10510103.383380719 -2283436.0258195996 0 0 0 0 2914528560.4449463 -8293355959.1174011 0 -8293355959.1174011 -37394677.385620117 0 0 0 0 3755030.5020990036 -4431180.7037142441 0 -4431180.7037142441 -10086263.072927818 0 0 0 0 -6642621149.2939453 -5466772086.2358627 0 -5466772086.2358627 1705367669.2295532 0 0 0 0 4672102258.4961395 -3619114121.9886322 0 -3619114121.9886322 1710573073.0416565 0 0 0 0 -1077351.376373291 -4424512736.3323517 0 -4424512736.3323517 2852290984.9609985 0 0 0 0 2754274.1803526767 -8211630.1485199034 0 -8211630.1485199034 5187204.1076075733 0 0 0 0 2845170981.1626282 -5651083452.0404739 0 -5651083452.0404739 -1812453.5670776367 0 0 0 0 -193885118.91186523 -101740893.38941193 0 -101740893.38941193 67696541.938812256 0 0 0 0 25043425.473922729 -75015201.83899498 0 -75015201.83899498 -11485778.892333984 0 0 0 0 -80268122.051300049 -152957499.92913818 0 -152957499.92913818 -219408.96257314988 0 0 0 0 -15495213.731714249 -84474358.533703804 0 -84474358.533703804 -57491621.88381958 0 0 0 0 -131847501.11871338 -40672757.564956665 0 -40672757.564956665 35239805.948120117 0 0 0 0 196302.39373779297 -1036378.1469802856 0 -1036378.1469802856 2818732.8978118896 0 0 0 0 2998031960.2875366 -2426712821.6779633 0 -2426712821.6779633 4162543936.3989868 0 0 0 0 -2373121.5742032528 -5900383.5952107385 0 -5900383.5952107385 -5451601.5896998793 0 0 0 0 -11407130.65536499 -46251092.306030273 0 -46251092.306030273 -54470213.782440186 0 0 0 0 3965045.9016724527 -23532135.204360101 0 -23532135.204360101 23692402.247672245 0 0 0 0 5801729.9525544886 -10807928.890356794 0 -10807928.890356794 -23780481.056251585 0 0 0 0 -30755542.758377075 57458555.600540161 0 57458555.600540161 -218105496.92056274 0 0 0 0 931994465.05267334 -8786501.3759155273 0 -8786501.3759155273 -290475869.07424641 0 0 0 0 143488937.0303669 101059040.28193569 0 101059040.28193569 -279283801.22451782 0 0 0 0 -748424.15139770508 -11144307.468658447 0 -11144307.468658447 -134298439.33810425 0 0 0 0 -1310210241.9763489 -1058688421.2931747 0 -1058688421.2931747 -416606133.16110229 0 0 0 0 66183505.375366211 -463214252.51966858 0 -463214252.51966858 -808076600.73916626 0 0 0 0 -807985081.11813354 -437870829.75694275 0 -437870829.75694275 -332793447.52934265 0 0 0 0 663601.26209689677 -418829324.13926208 0 -418829324.13926208 -724109943.01116943 0 0 0 0 365610826.35671997 1133431177.3579865 0 1133431177.3579865 861797421.96940613 0 0 0 0 -428585415.86445618 -1623113085.900135 0 -1623113085.900135 -1394146551.946167 0 0 0 0 3604881790.0054932 1005635023.1914673 0 1005635023.1914673 -4499390944.0265503 0 0 0 0 1261028197.4985657 -869943460.38408661 0 -869943460.38408661 841038650.67566586 0 0 0 0 -69383.0564096421 -3802745.5382483453 0 -3802745.5382483453 -5107868.2804246098 0 0 0 0 270312908.24151611 -2828622712.9965439 0 -2828622712.9965439 -3260649399.7793579 0 0 0 0 969238960.52703857 -944958178.22216797 0 -944958178.22216797 844621006.03168297 0 0 0 0 1326655.7218408333 -1610157.9704446346 0 -1610157.9704446346 -7492020.0142873675 0 0 0 0 135478727.39151192 -412344752.88280535 0 -412344752.88280535 1304368329.6634521 0 0 0 0 1540724.7051136494 -1265614.0846728534 0 -1265614.0846728534 -3151377.8603762686 0 0 0 0 1076474495.727562 -565976624.80739975 0 -565976624.80739975 1485491382.7005615 0 0 0 0 2338381266.3573303 -2028456109.3130493 0 -2028456109.3130493 650283032.27337646 0 0 0 0 9234319210.3768616 -5157028605.2142944 0 -5157028605.2142944 2088471631.2822266 0 0 0 0 8065969674.3062744 255976395.74310303 0 255976395.74310303 845549588.265625 0 0 0 0 3747682717.7883301 -1793752445.1216125 0 -1793752445.1216125 606380570.68175125 0 0 0 0 3831562417.2398987 -2301117391.5756378 0 -2301117391.5756378 605073919.06786227 0 0 0 0 5334007931.4604187 -933933461.69940186 0 -933933461.69940186 -322518018.12265015 0 0 0 0 3546781687.88974 -682814939.80775452 0 -682814939.80775452 789967097.9654541 0 0 0 0 4067174266.5429688 -914612508.18921661 0 -914612508.18921661 -140910216.06476593 0 0 0 0 1138669296.7482834 -1250131517.9479141 0 -1250131517.9479141 976341798.38818359 0 0 0 0 3176518768.2857056 -1214837013.4068832 0 -1214837013.4068832 441471358.69876099 0 0 0 0 2551118011.913147 -1552591469.6362762 0 -1552591469.6362762 469461684.00428677 0 0 0 0 2383822301.9839172 -1022025764.4571075 0 -1022025764.4571075 487834296.6736908 0 0 0 0 1706958173.6533508 -1059310581.9331665 0 -1059310581.9331665 683397403.49589539 0 0 0 0 2636781241.7465324 -1322973715.2765388 0 -1322973715.2765388 67400121.420410156 0 0 0 0 2681960851.7132263 -1543006272.3492126 0 -1543006272.3492126 1000154968.9073372 0 0 0 0 3441871899.6636581 -1667337828.7167549 0 -1667337828.7167549 388591201.74118042 0 0 0 0 2664438631.3690796 -1383219006.3882904 0 -1383219006.3882904 670445550.30909729 0 0 0 0 1791015884.0884399 -1902344860.8112793 0 -1902344860.8112793 486885434.26097107 0 0 0 0 1723434965.7713318 -1669997023.9600067 0 -1669997023.9600067 -294146432.13848877 0 0 0 0 1317512932.9255371 -1946474904.088562 0 -1946474904.088562 -388443140.66873169 0 0 0 0 886521.06968688965 -3195993650.8393631 0 -3195993650.8393631 -456126792.5761261 0 0 0 0 1321651060.6300049 -1940431776.7797852 0 -1940431776.7797852 -2507544464.2585907 0 0 0 0 -1688417.5881642699 -2949557.538659364 0 -2949557.538659364 -1172515.7093057036 0 0 0 0 742949556.12316895 -224031288.10450745 0 -224031288.10450745 -1433261268.2897644 0 0 0 0 -150097.21459960938 -268119557.79527283 0 -268119557.79527283 1690985844.072197 0 0 0 0 739683520.53903198 -603965240.76060486 0 -603965240.76060486 369576008.48257446 0 0 0 0 1715288129.4240723 -1091319094.8226318 0 -1091319094.8226318 71347770.237915039 0 0 0 0 1445275518.52771 -640292952.80604553 0 -640292952.80604553 -681992795.70626831 0 0 0 0 16582175.37691942 -38789542.862658806 0 -38789542.862658806 18827578.221301168 0 0 0 0 -83350144.959447861 -695293340.30247307 0 -695293340.30247307 460969700.00424194 0 0 0 0 -515406638.04568481 -159686972.77661133 0 -159686972.77661133 103791520.56018066 0 0 0 0 -75761753.669858932 -115477267.41151428 0 -115477267.41151428 15192963.295562744 0 0 0 0 -87278469.466895774 -7445939.0581247807 0 -7445939.0581247807 110019208.42315674 0 0 0 0 106678656.6778717 -82908146.873977661 0 -82908146.873977661 -60476824.986532211 0 0 0 0 -319063970.27777481 -82767233.086090088 0 -82767233.086090088 129519272.20690918 0 0 0 0 -140416744.8111372 -184418844.56015015 0 -184418844.56015015 -50696100.800506592 0 0 0 0 -390145838.51275635 -186851680.22515869 0 -186851680.22515869 20897402.40512085 0 0 0 0 148231574.35745239 -116251857.46762085 0 -116251857.46762085 -170048901.14537048 0 0 0 0 -28158947.497589111 303513495.45384216 0 303513495.45384216 147315694.41433716 0 0 0 0 -7038910.7508654743 -5910108.9282491691 0 -5910108.9282491691 -2142744.388028264 0 0 0 0 -342407836.42032242 -251250389.36898994 0 -251250389.36898994 -10945944.607055664 0 0 0 0 -264556326.38937187 41358553.544401169 0 41358553.544401169 280339056.44839478 0 0 0 0 394489775.10322571 -399811222.94658661 0 -399811222.94658661 -283300467.764534 0 0 0 0 14533.694246850908 -1944562.9370366484 0 -1944562.9370366484 -2357406.2314877212 0 0 0 0 160782432.08520508 -134162786.50914001 0 -134162786.50914001 -58778335.682312012 0 0 0 0 -411377596.20263672 58823564.721580505 0 58823564.721580505 -89951006.22668457 0 0 0 0 -126560274.87493896 41510820.830932617 0 41510820.830932617 51691038.334716797 0 0 0 0 -376646363.49310303 -49107556.62701416 0 -49107556.62701416 183165264.95001221 0 0 0 0 -264870024.37591553 131459957.79119873 0 131459957.79119873 349202431.58065796 0 0 0 0 -212810949.45504761 -193866715.13128662 0 -193866715.13128662 273789747.67547989 0 0 0 0 -202329368.54420471 -168214385.33894348 0 -168214385.33894348 -176202186.79321289 0 0 0 0 -193582651.61218262 -131459906.7277832 0 -131459906.7277832 -275053702.93334961 0 0 0 0 -790956862.66859436 11621363.47618103 0 11621363.47618103 471214632.47940063 0 0 0 0 -853471104.68838501 -535810697.72794342 0 -535810697.72794342 164173212.14539337 0 0 0 0 90511738.09498024 465866957.47153091 0 465866957.47153091 -399760785.49743652 0 0 0 0 16041255.213648796 -4315233.3821313009 0 -4315233.3821313009 -5542368.448902458 0 0 0 0 14835154.29255151 -34885917.223611362 0 -34885917.223611362 12533323.714595005 0 0 0 0 153594205.84011936 444600484.57558268 0 444600484.57558268 466168850.34689331 0 0 0 0 -40239139.960021973 -267566468.8313446 0 -267566468.8313446 602298981.93716431 0 0 0 0 -186249266.77048492 77963196.763328552 0 77963196.763328552 -197073219.57940674 0 0 0 0 292029674.16522217 -423273163.45858765 0 -423273163.45858765 95730092.82434845 0 0 0 0 -980602081.32165527 -596924547.73908997 0 -596924547.73908997 2067557.3578300476 0 0 0 0 44294444.938011959 -42347733.82353773 0 -42347733.82353773 -6641232.3786229342 0 0 0 0 -92186469.510692596 -92266749.429962158 0 -92266749.429962158 -52704513.982452393 0 0 0 0 -100330007.05892849 -73709148.77280426 0 -73709148.77280426 1899399.729309082 0 0 0 0 -97771792.094421387 -77807696.160568237 0 -77807696.160568237 -18812143.795379639 0 0 0 0 -17431525.872069523 -14040429.814635068 0 -14040429.814635068 28087056.485546947 0 0 0 0 -106947835.0438652 -85608125.196849823 0 -85608125.196849823 3804183.5120239258 0 0 0 0 -108842073.00038528 -90291834.926300049 0 -90291834.926300049 -3675787.3432006836 0 0 0 0 -85263925.466768265 -83187928.75151062 0 -83187928.75151062 -3848847.8524475098 0 0 0 0 -47813778.410808563 -165755177.79573059 0 -165755177.79573059 -123944029.8807373 0 0 0 0 -53928908.260746002 -52584235.499771118 0 -52584235.499771118 20557063.23260498 0 0 0 0 187105905.68400192 33887807.412200928 0 33887807.412200928 -71051737.105560303 0 0 0 0 -1492330996.1467018 -19156900.867370605 0 -19156900.867370605 -160228349.36730957 0 0 0 0 -364005803.06931925 -776154518.56038666 0 -776154518.56038666 -2490041.7259521484 0 0 0 0 1419900225.7237301 -346431764.19148254 0 -346431764.19148254 -55136414.374130249 0 0 0 0 145250350.29611206 -744785482.44476318 0 -744785482.44476318 1701686231.1604004 0 0 0 0 337547.17428619787 -278932.74151641876 0 -278932.74151641876 654983.09214755893 0 0 0 0 -684009601.78084469 -507467511.96168518 0 -507467511.96168518 126487786.27459717 0 0 0 0 -609727455.91578674 -680799863.24435425 0 -680799863.24435425 448415161.7019043 0 0 0 0 -217975325.37851334 -412580074.64318848 0 -412580074.64318848 -598663113.35693359 0 0 0 0 299224923.90644455 -694720386.21517944 0 -694720386.21517944 -160671746.59663391 0 0 0 0 -366074474.06108952 -171293937.65393066 0 -171293937.65393066 -258922920.15515137 0 0 0 0 35391736.315551758 60945511.59777832 0 60945511.59777832 -297042857.6887207 0 0 0 0 140109364.91004658 -1698585.9454116821 0 -1698585.9454116821 -312025702.06872559 0 0 0 0 699397.36344855162 3220014.0063635278 0 3220014.0063635278 146413.87821254134 0 0 0 0 -12307185.823305231 -13385098.377735786 0 -13385098.377735786 26474301.054634079 0 0 0 0 -28332609.593784332 -81013792.815490723 0 -81013792.815490723 -38573097.326278687 0 0 0 0 3223370.3608513083 -10790082.311326843 0 -10790082.311326843 -19344127.153043479 0 0 0 0 -1287814093.0692053 -357356272.46354675 0 -357356272.46354675 195914884.56115723 0 0 0 0 -789067002.62433052 -854475890.55322266 0 -854475890.55322266 262650002.51327515 0 0 0 0 138763123.57838821 -2677121.0369873047 0 -2677121.0369873047 106909794.48141479 0 0 0 0 -351280208.61889064 -63647172.479919434 0 -63647172.479919434 6562001.9161376953 0 0 0 0 1775888.141359753 -3018418.6499926597 0 -3018418.6499926597 1801725.2897496223 0 0 0 0 1332437649.4965591 313161355.29708862 0 313161355.29708862 23026662.741188049 0 0 0 0 -176982651.52241683 -690252537.10918427 0 -690252537.10918427 222573683.65963745 0 0 0 0 326294476.83289909 208664247.9319458 0 208664247.9319458 162636552.82045746 0 0 0 0 670982142.26472282 -15344615.013298035 0 -15344615.013298035 -200484910.13766479 0 0 0 0 225363299.03961372 35432597.204082489 0 35432597.204082489 -7990458.1140441895 0 0 0 0 4414303.7371254517 -9066736.2793392166 0 -9066736.2793392166 4644559.6526985168 0 0 0 0 206569772.15895557 -62371219.17470932 0 -62371219.17470932 44149061.630096436 0 0 0 0 77860891.357061386 -300278811.92062378 0 -300278811.92062378 -223729990.51882935 0 0 0 0 122918916.67918587 -359373596.23110962 0 -359373596.23110962 -148426358.57751465 0 0 0 0 -19176828.03509903 -396823051.95899963 0 -396823051.95899963 -4652924.922088623 0 0 0 0 37398452.219167709 -283876586.24925232 0 -283876586.24925232 23275588.422058105 0 0 0 0 113684414.38805771 -435861019.73007202 0 -435861019.73007202 -116246349.35785675 0 0 0 0 -147503865.98506927 -182114285.72991943 0 -182114285.72991943 4699263.3219909668 0 0 0 0 -177967929.80363083 -81825043.068878174 0 -81825043.068878174 87122943.44203186 0 0 0 0 -186680301.3662529 -25791170.034988403 0 -25791170.034988403 -858902.49215698242 0 0 0 0 -661486068.52772141 -389013725.2454834 0 -389013725.2454834 -624606891.0670166 0 0 0 0 -913742.20092329942 -261137.2076485157 0 -261137.2076485157 466477.45582157373 0 0 0 0 -257365024.32947254 -412134971.88021088 0 -412134971.88021088 -107381313.16955566 0 0 0 0 -472029943.72420311 -100595674.12260437 0 -100595674.12260437 -250077739.08624268 0 0 0 0 66391860.200454712 -457407383.23544312 0 -457407383.23544312 -241872453.39279175 0 0 0 0 -102878421.48327637 -307513465.86291504 0 -307513465.86291504 -238216855.04991531 0 0 0 0 -100003702.61650467 -345131403.72949219 0 -345131403.72949219 -172163151.36022949 0 0 0 0 -123173197.75485516 -334535593.64953613 0 -334535593.64953613 -136327957.12750244 0 0 0 0 -163472062.63746738 -307270636.76750183 0 -307270636.76750183 -22445241.323242188 0 0 0 0 -106709402.34999704 -384125159.8488121 0 -384125159.8488121 -99905354.209960938 0 0 0 0 110673079.96734047 -292846207.25097656 0 -292846207.25097656 -76598468.003723145 0 0 0 0 -80655897.549108505 -221918848.55891418 0 -221918848.55891418 20206900.184692383 0 0 0 0 -5942430.2151667057 -8724784.2255750075 0 -8724784.2255750075 9580912.8836246282 0 0 0 0 223589780.95361137 79552153.416023254 0 79552153.416023254 -127313994.45791626 0 0 0 0 -171031890.61427689 350517122.60221863 0 350517122.60221863 -183612591.25341797 0 0 0 0 -479759771.48565292 -351733653.62037659 0 -351733653.62037659 155592824.14131165 0 0 0 0 -877157995.04310036 371802568.10444641 0 371802568.10444641 11350200.15234375 0 0 0 0 318990221.79695797 54325780.531951904 0 54325780.531951904 -15280498.258728027 0 0 0 0 -271678492.00546598 58164944.198060989 0 58164944.198060989 111040061.09124756 0 0 0 0 1014008451.2600479 -327444062.43536377 0 -327444062.43536377 -96884367.731719971 0 0 0 0 -1724707.0618246584 -2076838.0195881119 0 -2076838.0195881119 3106383.5325709283 0 0 0 0 -13983382.984633446 -112618668.63879395 0 -112618668.63879395 243587148.26171875 0 0 0 0 466046884.92808914 -65131497.456634521 0 -65131497.456634521 30341200.130893707 0 0 0 0 340850721.82714939 -542207491.2730217 0 -542207491.2730217 -37285088.765869141 0 0 0 0 234208560.57183075 782031798.04049683 0 782031798.04049683 -909290641.03839111 0 0 0 0 241577643.16236687 -633699239.69633484 0 -633699239.69633484 926655135.10061646 0 0 0 0 -569357248.83998871 666313766.99514771 0 666313766.99514771 48296408.444412231 0 0 0 0 594947626.33052826 805928042.7699585 0 805928042.7699585 37843215.560974121 0 0 0 0 470842056.3229599 -731160724.96499634 0 -731160724.96499634 -546069512.65870667 0 0 0 0 1449998646.6626215 -672440903.4076004 0 -672440903.4076004 -562190451.07348633 0 0 0 0 -151111787.43592262 -634219740.88912964 0 -634219740.88912964 906010419.32492065 0 0 0 0 -262332709.74435425 -320135176.80429077 0 -320135176.80429077 28969162.446685791 0 0 0 0 -324938419.74557114 -240850566.26000977 0 -240850566.26000977 -40150111.829711914 0 0 0 0 -438958325.31732178 -259797757.11065674 0 -259797757.11065674 488920654.01977539 0 0 0 0 -272027188.39073944 71053041.200439453 0 71053041.200439453 641347261.81323242 0 0 0 0 -299973138.17835617 -342578571.24591064 0 -342578571.24591064 -481264466.65560913 0 0 0 0 -379008246.4663353 -216416288.91970825 0 -216416288.91970825 77357268.168891907 0 0 0 0 -359641701.05490875 -134803878.61053467 0 -134803878.61053467 -275593474.89788818 0 0 0 0 40084812.254623413 -161737793.58551788 0 -161737793.58551788 -420248682.34664917 0 0 0 0 -108922718.70398808 70631338.10017395 0 70631338.10017395 -900892095.6199646 0 0 0 0 -240730830.60756683 38655033.753387451 0 38655033.753387451 201032993.62217712 0 0 0 0 -1328989.8967208005 -269134.79909589887 0 -269134.79909589887 3170512.0320214033 0 0 0 0 -390707668.08486748 -102445154.51850128 0 -102445154.51850128 168180524.66085815 0 0 0 0 -138754503.12701339 -77107527.892578274 0 -77107527.892578274 28440819.977722168 0 0 0 0 -138760643.51320267 -10772155.450195312 0 -10772155.450195312 57412493.411376953 0 0 0 0 -2116541.0533292796 -4013012.4989935011 0 -4013012.4989935011 8754646.8145562708 0 0 0 0 49976019.725313187 55214315.618927002 0 55214315.618927002 68180351.927520752 0 0 0 0 73315790.506856561 -111405429.52296448 0 -111405429.52296448 68283830.690612793 0 0 0 0 -60846979.432073593 -51738575.190612793 0 -51738575.190612793 44961729.704528809 0 0 0 0 -52027612.268081665 -56746510.132293701 0 -56746510.132293701 41130863.606872559 0 0 0 0 -54537324.451483727 -49366133.357070923 0 -49366133.357070923 36142082.43347168 0 0 0 0 -55942115.781659603 -28145558.103733063 0 -28145558.103733063 6198507.7177734375 0 0 0 0 -51143627.409236193 -50412691.054714203 0 -50412691.054714203 14123880.855773926 0 0 0 0 -17129504.261732101 -45681633.467758179 0 -45681633.467758179 14104845.17276001 0 0 0 0 -38593953.304513931 -4163777.9611053467 0 -4163777.9611053467 29122017.182067871 0 0 0 0 -94437134.02696991 -48782183.541427612 0 -48782183.541427612 8807656.3420715332 0 0 0 0 -94823100.704442978 -55783448.137298584 0 -55783448.137298584 37016966.307067871 0 0 0 0 317642121.76719761 -102886391.76766205 0 -102886391.76766205 -975241032.46408081 0 0 0 0 -18787857.271481991 -37749065.079040527 0 -37749065.079040527 93303772.79359436 0 0 0 0 -562006.84869184694 -14357075.679517694 0 -14357075.679517694 14420829.262384854 0 0 0 0 -6488746.5314788818 -10598269.558532715 0 -10598269.558532715 3557731.3929748535 0 0 0 0 -10077517.464010118 -20757233.573841006 0 -20757233.573841006 28450165.704714812 0 0 0 0 -20498113.408408493 -12560245.922336044 0 -12560245.922336044 5504199.5668977201 0 0 0 0 -4543786.0171737671 -5976226.259552002 0 -5976226.259552002 1927131.7075195312 0 0 0 0 2960211.5464166477 -21408244.098708481 0 -21408244.098708481 22810596.564184859 0 0 0 0 -10340900.303159244 -22767059.984070845 0 -22767059.984070845 14253773.866207212 0 0 0 0 -244890486.40623975 -273536357.57183647 0 -273536357.57183647 -186624972.71520996 0 0 0 0 -243249576.71166992 -313384030.55593872 0 -313384030.55593872 -112423738.64526367 0 0 0 0 -252315760.77370453 -114917252.52322388 0 -114917252.52322388 274901894.80484009 0 0 0 0 160494087.87298584 -37851507.164306641 0 -37851507.164306641 35325156.116485596 0 0 0 0 -55080664.857469559 -28301908.411315918 0 -28301908.411315918 50710607.055480957 0 0 0 0 2700044.400286803 -7263722.5294614285 0 -7263722.5294614285 4080629.4550834633 0 0 0 0 -68228051.068462372 -45645373.988006592 0 -45645373.988006592 42338961.876708984 0 0 0 0 -67282519.820367813 -38786196.542999268 0 -38786196.542999268 41845209.090393066 0 0 0 0 -57883345.603178024 -38452205.216339111 0 -38452205.216339111 23010039.257415771 0 0 0 0 -56618481.746133804 -33332431.279418945 0 -33332431.279418945 42732022.521095276 0 0 0 0 -37554732.149656296 -38942613.641906738 0 -38942613.641906738 -19738617.62569809 0 0 0 0 -36560803.101510525 -24546985.16166687 0 -24546985.16166687 17232906.751831055 0 0 0 0 -40218130.143400192 -15942420.281219482 0 -15942420.281219482 40421003.777648926 0 0 0 0 -9800551.449807547 -4800138.1072047427 0 -4800138.1072047427 12117930.057635024 0 0 0 0 -90180878.811580658 28458326.799720764 0 28458326.799720764 78919271.449203491 0 0 0 0 -31049138.068984985 -31808199.73349762 0 -31808199.73349762 5841326.9665908813 0 0 0 0 -11134814.609442128 -17097219.162401602 0 -17097219.162401602 17765973.66990754 0 0 0 0 -57931115.368102074 -38374855.84727478 0 -38374855.84727478 9694411.9635009766 0 0 0 0 -35147055.010604858 -33039068.403007507 0 -33039068.403007507 14578189.17010498 0 0 0 0 -9315601.7936480753 -24076802.120141797 0 -24076802.120141797 21919591.357908934 0 0 0 0 6578297.8420410156 -20671126.911865234 0 -20671126.911865234 30602909.835922241 0 0 0 0 -20851638.52564621 -34025000.849151611 0 -34025000.849151611 909474.26996803284 0 0 0 0 -11943784.495593546 -23060391.836209524 0 -23060391.836209524 6233707.4535735995 0 0 0 0 -6941984.9251556396 -17110868.630561829 0 -17110868.630561829 10907215.874023438 0 0 0 0 -6618521.1922836304 -17824470.462921143 0 -17824470.462921143 10536038.331359863 0 0 0 0 -32896767.216802694 -25416420.191583123 0 -25416420.191583123 -4122074.2503638417 0 0 0 0 -18205303.558075283 -12685268.918561324 0 -12685268.918561324 20153118.782476336 0 0 0 0 5022672.1454210877 -23917532.319946244 0 -23917532.319946244 13743637.836425148 0 0 0 0 11114482.370210707 -23524717.776235014 0 -23524717.776235014 15036358.949261785 0 0 0 0 11060183.125732422 -29036583.572509766 0 -29036583.572509766 28164062.835031509 0 0 0 0 10814751.656051636 -29376502.199539185 0 -29376502.199539185 28156477.928405762 0 0 0 0 -15402406.985757306 -10820721.311770253 0 -10820721.311770253 20566376.439670175 0 0 0 0 -6803317.6398603022 -10204113.168049268 0 -10204113.168049268 9247156.9816368818 0 0 0 0 9807995.3191385269 -14938699.314667702 0 -14938699.314667702 12720317.533905029 0 0 0 0 -87530278.12159729 -10803628.378173828 0 -10803628.378173828 33947868.624603271 0 0 0 0 -26166488.653482396 -22887227.315603264 0 -22887227.315603264 14070992.283664241 0 0 0 0 11102842.743988037 -25280511.772735596 0 -25280511.772735596 12301251.720657349 0 0 0 0 -98551603.102142334 -16918287.542297363 0 -16918287.542297363 33904741.846496582 0 0 0 0 1960366.9655838907 -18781771.770691976 0 -18781771.770691976 22880756.572204657 0 0 0 0 6205328.1709594727 -20270495.854553223 0 -20270495.854553223 30702046.757904053 0 0 0 0 -12656342.232894897 -15240385.488708496 0 -15240385.488708496 14029238.978668213 0 0 0 0 -9233121.6428146362 -14847414.86315918 0 -14847414.86315918 12736087.207366943 0 0 0 0 -17132965.56980896 -7225639.3793334961 0 -7225639.3793334961 2164542.493637085 0 0 0 0 -17397826.127284035 -13745831.149154074 0 -13745831.149154074 4258286.5605823994 0 0 0 0 -14768864.45129339 -24001433.440688856 0 -24001433.440688856 15793579.343635887 0 0 0 0 -28317079.648654789 -11695942.729679693 0 -11695942.729679693 8768916.2619715184 0 0 0 0 -17782844.744237654 -18114300.592476942 0 -18114300.592476942 22574334.498929381 0 0 0 0 -342310480.46915627 -195555121.15176392 0 -195555121.15176392 -111915467.78308105 0 0 0 0 -414934908.6182375 -259376255.5369873 0 -259376255.5369873 101544637.49530029 0 0 0 0 -476879607.07534027 -112865900.86187744 0 -112865900.86187744 -59283035.089416504 0 0 0 0 -19527600.774144623 4004206.5260280129 0 4004206.5260280129 4658610.2710361928 0 0 0 0 -16220088.769676208 2189080.6940002441 0 2189080.6940002441 5457823.7408447266 0 0 0 0 11659804.304726437 -12794238.399853162 0 -12794238.399853162 8913795.8496188521 0 0 0 0 -19048775.639068604 1538873.7301025391 0 1538873.7301025391 6002252.6743164062 0 0 0 0 9328936.8379248902 -38676973.618907399 0 -38676973.618907399 18471674.209902138 0 0 0 0 -34612151.11555481 -10031818.634567261 0 -10031818.634567261 5118216.8646240234 0 0 0 0 -47221660.271774635 -15809294.752983123 0 -15809294.752983123 14704818.425836742 0 0 0 0 -11188378.093983408 -22926711.310778625 0 -22926711.310778625 14445756.464975849 0 0 0 0 9850527.1044616699 -15841246.246063232 0 -15841246.246063232 10537720.660766602 0 0 0 0 -65016035.069061279 -68566655.882858276 0 -68566655.882858276 2424200.7838745117 0 0 0 0 -80113998.833175659 -25937766.955646515 0 -25937766.955646515 33823358.169921875 0 0 0 0 -113553255.13034058 -42849019.930480957 0 -42849019.930480957 25312265.753204346 0 0 0 0 -148014203.86833191 -51648423.941986084 0 -51648423.941986084 37591938.998535156 0 0 0 0 -106493138.70690918 -89713336.13369751 0 -89713336.13369751 -2466021.0331573486 0 0 0 0 -95254209.08013916 5736292.3933982849 0 5736292.3933982849 447291.53634643555 0 0 0 0 -36721434.923406601 -10641709.722115025 0 -10641709.722115025 13636309.436953321 0 0 0 0 -168634929.76675415 -94296234.902282715 0 -94296234.902282715 18283286.703079224 0 0 0 0 -294176491.76634979 -14074364.299713135 0 -14074364.299713135 137376375.40002441 0 0 0 0 13959962.772945058 -44559562.499722928 0 -44559562.499722928 23350541.38728264 0 0 0 0 5161476.2570095062 -80495595.669067383 0 -80495595.669067383 19691488.299255371 0 0 0 0 5122776.1137934364 -4347494.5279827863 0 -4347494.5279827863 2338580.6972915828 0 0 0 0 -681195645.41859818 109222381.46437073 0 109222381.46437073 221573816.76049805 0 0 0 0 -526139049.80943298 -62860953.263519287 0 -62860953.263519287 102895139.06848145 0 0 0 0 -5081170.1096790349 -12665367.528975323 0 -12665367.528975323 21146107.928257614 0 0 0 0 19938464.156283244 -3426184.4810687602 0 -3426184.4810687602 -11261485.034815148 0 0 0 0 -10498393.669898987 939281.91854858398 0 939281.91854858398 2282084.9239501953 0 0 0 0 -92130898.77482605 -27234534.35333252 0 -27234534.35333252 14404023.179656982 0 0 0 0 88158915.764343262 49665554.364120483 0 49665554.364120483 15049593.411727905 0 0 0 0 -83081184.52973175 21678402.19783783 0 21678402.19783783 139016604.43173218 0 0 0 0 -101302813.69769287 -6781283.8453063965 0 -6781283.8453063965 -20312397.210082054 0 0 0 0 -167251161.8210907 -4452560.8180236816 0 -4452560.8180236816 12091222.256530762 0 0 0 0 -133715623.41070557 -52793421.314819336 0 -52793421.314819336 27342791.568115234 0 0 0 0 -201518828.63092041 -42487141.536827087 0 -42487141.536827087 35105422.377258301 0 0 0 0 -102135831.32611084 -16365275.605636597 0 -16365275.605636597 14102797.253829956 0 0 0 0 -107033338.59777832 -8062496.906463623 0 -8062496.906463623 52290823.17930603 0 0 0 0 -148785563.77511597 -27995491.731872559 0 -27995491.731872559 52909383.998901367 0 0 0 0 -129664129.52198792 -21341684.998840332 0 -21341684.998840332 54503245.601501465 0 0 0 0 -102413855.42858887 -14186066.184875488 0 -14186066.184875488 48730996.893356323 0 0 0 0 -94847823.790378571 16072021.158899307 0 16072021.158899307 80130483.058532715 0 0 0 0 -98774353.631378174 -12297729.800506592 0 -12297729.800506592 52005459.43572998 0 0 0 0 -103371379.77661133 -2420657.9026794434 0 -2420657.9026794434 65135051.451934814 0 0 0 0 -31926866.18560791 22135051.44418335 0 22135051.44418335 51553710.981170654 0 0 0 0 -7375584.729189679 -5008739.9722614624 0 -5008739.9722614624 -2904411.8892087787 0 0 0 0 15258526.744781494 38512945.032470703 0 38512945.032470703 41930059.249633789 0 0 0 0 -216588991.50186157 -337610365.53320312 0 -337610365.53320312 -187840347.98363304 0 0 0 0 -4045555.2722206116 94859664.013168335 0 94859664.013168335 70224644.085784912 0 0 0 0 -17687107.301177979 -1859313.1654052734 0 -1859313.1654052734 35532444.176269531 0 0 0 0 -106743213.17042542 -8682918.4847755432 0 -8682918.4847755432 73454266.147033691 0 0 0 0 -52748777.848083496 38826873.721893311 0 38826873.721893311 83345400.443023682 0 0 0 0 -149503872.6847229 -62957615.648742676 0 -62957615.648742676 9427498.0479125977 0 0 0 0 66551197.146606445 465455136.22693634 0 465455136.22693634 -328848734.10351562 0 0 0 0 -189109906.84890747 -142867245.96966553 0 -142867245.96966553 156213125.97317505 0 0 0 0 -41762055.07019043 -7154087.1024169922 0 -7154087.1024169922 39960985.362670898 0 0 0 0 -541919803.0519104 -165477581.61101532 0 -165477581.61101532 922404506.50463867 0 0 0 0 -2109322.9744873047 -109163052.91555786 0 -109163052.91555786 63647400.531982422 0 0 0 0 -93437769.042388916 -150237614.82531738 0 -150237614.82531738 151936720.02178955 0 0 0 0 -73199409.291793823 -66208250.107727051 0 -66208250.107727051 40837678.425048828 0 0 0 0 -190176381.18231201 -110013631.20901489 0 -110013631.20901489 135309496.68612671 0 0 0 0 -54091832.217132568 -108305161.13711548 0 -108305161.13711548 87271580.399658203 0 0 0 0 -331440562.13044739 -243600725.94020844 0 -243600725.94020844 71467239.401550293 0 0 0 0 -29414524.788573503 -7499771.6536810212 0 -7499771.6536810212 4479977.3349580765 0 0 0 0 -69323557.20324707 5191451.8432922363 0 5191451.8432922363 30928641.907318115 0 0 0 0 -98147567.042562485 -9775242.00207901 0 -9775242.00207901 52700074.214904785 0 0 0 0 -89173077.634887695 -5476081.7835693359 0 -5476081.7835693359 39082664.155639648 0 0 0 0 -63687352.807556152 -3812590.4275817871 0 -3812590.4275817871 39502897.018997192 0 0 0 0 -74702257.212341309 6433257.6049194336 0 6433257.6049194336 41803037.958679199 0 0 0 0 -74666379.616638184 7078245.7676696777 0 7078245.7676696777 52832677.914001465 0 0 0 0 -88595859.081737518 -524024.25217247009 0 -524024.25217247009 48698293.02355957 0 0 0 0 -73387767.888305664 11902150.248382568 0 11902150.248382568 52673808.679138184 0 0 0 0 -88163406.312759399 -7721379.6704711914 0 -7721379.6704711914 23939458.811218262 0 0 0 0 -69975487.991851807 8569651.7734680176 0 8569651.7734680176 17194761.114944458 0 0 0 0 -85460740.644744873 -3298156.5588684082 0 -3298156.5588684082 33087183.164398193 0 0 0 0 -87186406.742370605 -2115781.9541320801 0 -2115781.9541320801 40413204.864959717 0 0 0 0 -70971618.321411133 2586621.4643554688 0 2586621.4643554688 -17270252.908813477 0 0 0 0 10936121.431259155 -26001310.074203491 0 -26001310.074203491 36612868.148010254 0 0 0 0 -23482117.842543729 -22806178.422044955 0 -22806178.422044955 21360802.957761317 0 0 0 0 3007410.5947017148 -18714323.856987879 0 -18714323.856987879 16911152.690328214 0 0 0 0 -5709199.2304992676 -13846328.176391602 0 -13846328.176391602 9886394.1789550781 0 0 0 0 -158534966.19396973 -102643667.73400879 0 -102643667.73400879 -216173661.61657715 0 0 0 0 -132207924.17520142 -140026618.4772644 0 -140026618.4772644 -165379795.72393799 0 0 0 0 -234847048.01025391 -13783351.190307617 0 -13783351.190307617 -255328540.03198242 0 0 0 0 1558796.0478280187 -6235736.6921856254 0 -6235736.6921856254 -1038905.1483200416 0 0 0 0 -156343500.21606445 -133141568.08380127 0 -133141568.08380127 -76949541.9453125 0 0 0 0 -29650900.235712536 -15405498.929190204 0 -15405498.929190204 25064463.239073038 0 0 0 0 -12274011.21194458 -7636780.1280212402 0 -7636780.1280212402 7250417.8912506104 0 0 0 0 -15974689.275550842 -8443673.8599700928 0 -8443673.8599700928 7572426.8324584961 0 0 0 0 -196386653.75341797 -25156685.996826172 0 -25156685.996826172 2567548.8372192383 0 0 0 0 -36346454.718451872 -24619321.102763683 0 -24619321.102763683 -2533750.3625291437 0 0 0 0 -7934711.330629129 -14066332.064002283 0 -14066332.064002283 12348736.963294357 0 0 0 0 -18423738.140014648 -52671258.786682129 0 -52671258.786682129 11566758.68737793 0 0 0 0 -9972385.9276391715 -1045007.4153232127 0 -1045007.4153232127 1902682.3447638154 0 0 0 0 -72291583.998657227 -15856210.757400513 0 -15856210.757400513 -5398239.1586914062 0 0 0 0 -44565205.010437012 -35205562.711181641 0 -35205562.711181641 -7185744.8596191406 0 0 0 0 -42504443.993286133 -38359982.562072754 0 -38359982.562072754 -5835051.5423583984 0 0 0 0 -197896461.66815186 -6002635.325958252 0 -6002635.325958252 48612148.10446167 0 0 0 0 -99252869.391021729 -65659675.673431396 0 -65659675.673431396 81706220.94543457 0 0 0 0 -77699472.473846436 -28544966.150588989 0 -28544966.150588989 15836110.566650391 0 0 0 0 -26176052.761026382 -39168284.770301819 0 -39168284.770301819 -13094698.496459961 0 0 0 0 -30320617.327636719 -32571309.595336914 0 -32571309.595336914 -21894902.089355469 0 0 0 0 -56278143.000244141 -50445673.611816406 0 -50445673.611816406 38206019.971542358 0 0 0 0 -25827370.026885986 -52682034.511236191 0 -52682034.511236191 4360181.1921386719 0 0 0 0 -42301203.403320312 -39245104.798706055 0 -39245104.798706055 -6013375.3863525391 0 0 0 0 -28598023.980224609 -39157017.256225586 0 -39157017.256225586 -13008183.803833008 0 0 0 0 -29822426.591064453 -33375349.312255859 0 -33375349.312255859 -21415223.570800781 0 0 0 0 -32802811.357666016 -28144632.860656738 0 -28144632.860656738 -25825278.053771973 0 0 0 0 -33053835.063964844 -30151426.068359375 0 -30151426.068359375 -16850955.930541992 0 0 0 0 -39913533.051757812 -31845132.191925049 0 -31845132.191925049 -16099643.540283203 0 0 0 0 -30298860.881801605 -13104067.678520203 0 -13104067.678520203 11634.53515625 0 0 0 0 -35402743.752685547 -25400347.734558105 0 -25400347.734558105 -18398230.540405273 0 0 0 0 -34582471.977539062 -24175268.235107422 0 -24175268.235107422 -21713991.665222168 0 0 0 0 -28599092.931665868 -23376954.149057731 0 -23376954.149057731 13947463.986482888 0 0 0 0 -30530021.399353027 -26192440.138427734 0 -26192440.138427734 -32169241.637451172 0 0 0 0 3889116.2887848616 -8692174.1896349937 0 -8692174.1896349937 -3803930.0417063311 0 0 0 0 -138819781.7796936 -135215018.18692017 0 -135215018.18692017 -79040261.830505371 0 0 0 0 -137126680.95141602 40820929.536956787 0 40820929.536956787 -32729967.239471436 0 0 0 0 -52442627.748779297 -17541586.729690552 0 -17541586.729690552 -5448504.1877441406 0 0 0 0 -238569372.55091858 -30155410.401363373 0 -30155410.401363373 119296133.64801025 0 0 0 0 -4766691.7373452894 -3809218.6038516797 0 -3809218.6038516797 -2045170.4957695007 0 0 0 0 -159437356.61132812 -92824006.396034241 0 -92824006.396034241 -32604592.127826691 0 0 0 0 -108868485.10577774 -33008704.811309814 0 -33008704.811309814 -88917240.126068115 0 0 0 0 -200821747.69309521 -75169774.021351814 0 -75169774.021351814 162704762.10357666 0 0 0 0 -210223235.14743042 -107973245.4887085 0 -107973245.4887085 173886945.44065857 0 0 0 0 -198514628.72427368 -106758838.17798615 0 -106758838.17798615 173332411.8678894 0 0 0 0 33689028.38911438 -66949533.131507874 0 -66949533.131507874 -2557664.6858673096 0 0 0 0 211963281.5905304 -272624445.41610718 0 -272624445.41610718 102878854.26836014 0 0 0 0 -159306112.97317505 -244664101.87910461 0 -244664101.87910461 112247580.74743652 0 0 0 0 -136563965.09066868 -405158415.92802382 0 -405158415.92802382 -272125089.96374512 0 0 0 0 98503730.464645386 -116125913.39833832 0 -116125913.39833832 -374496864.12962341 0 0 0 0 49178726.628082275 -364884686.02922058 0 -364884686.02922058 126182102.51431274 0 0 0 0 384167262.10779381 -521343182.22629356 0 -521343182.22629356 12660684.563049316 0 0 0 0 441065797.38183594 -701264697.77323151 0 -701264697.77323151 225033086.78126526 0 0 0 0 284712639.48483658 -255262266.02104759 0 -255262266.02104759 42002725.053390503 0 0 0 0 594344231.0630188 -638125080.22602081 0 -638125080.22602081 199721412.29832458 0 0 0 0 893202203.45248413 -988530477.1292038 0 -988530477.1292038 369579767.10912704 0 0 0 0 1113860645.2123566 -921714733.94491196 0 -921714733.94491196 301248771.12797546 0 0 0 0 928587342.24630737 -488602034.72307587 0 -488602034.72307587 37820724.43737793 0 0 0 0 483309198.01108551 -449631516.27101517 0 -449631516.27101517 287426226.79251099 0 0 0 0 509415457.68673706 -502029529.58239746 0 -502029529.58239746 -71049603.931999207 0 0 0 0 -761188.77032057196 -1817435.0230989624 0 -1817435.0230989624 -1995195.4115925133 0 0 0 0 86204523.206337333 -84617347.062605023 0 -84617347.062605023 447023124.49182129 0 0 0 0 -221796357.93529129 -105606727.2649852 0 -105606727.2649852 37086998.302947998 0 0 0 0 300119948.54168701 -102481588.12492371 0 -102481588.12492371 -185565665.6855011 0 0 0 0 464874763.01121521 -511134176.56150818 0 -511134176.56150818 172828190.23846436 0 0 0 0 904252594.17874146 -1684789773.887413 0 -1684789773.887413 1474089334.2626953 0 0 0 0 962133240.99755096 -1853011580.4664383 0 -1853011580.4664383 1961759854.757019 0 0 0 0 666622466.27781677 -1375177613.0581055 0 -1375177613.0581055 1993670262.1920166 0 0 0 0 745273442.58502197 -1309399417.2705078 0 -1309399417.2705078 1542779320.2074585 0 0 0 0 909205708.24279785 -1501809345.3884964 0 -1501809345.3884964 1748428689.8193359 0 0 0 0 1104735239.5182114 -1308794002.7245026 0 -1308794002.7245026 1303006867.1820374 0 0 0 0 1315351267.7243042 -1749018273.9065704 0 -1749018273.9065704 1434854255.4908524 0 0 0 0 1293458613.35252 -1848718937.0214653 0 -1848718937.0214653 989147558.223526 0 0 0 0 1686561635.3231277 -1599335086.7908211 0 -1599335086.7908211 1116614622.6802826 0 0 0 0 -283126783.34625244 -146502147.3431778 0 -146502147.3431778 643951150.96730042 0 0 0 0 -1759565.2335297689 -1183997.4348480552 0 -1183997.4348480552 1567914.9622228593 0 0 0 0 87574417.828346252 -321473043.3108902 0 -321473043.3108902 603495034.36450195 0 0 0 0 -404996503.20515442 -716058710.8734436 0 -716058710.8734436 405790875.34101105 0 0 0 0 246870757.48628235 -939173439.70150948 0 -939173439.70150948 349098704.72189331 0 0 0 0 721095838.2615509 -1134892957.4536819 0 -1134892957.4536819 463322384.81260681 0 0 0 0 862162834.29375839 -1081173091.2475357 0 -1081173091.2475357 258102929.96014404 0 0 0 0 1492276599.1052856 -1630808810.7126007 0 -1630808810.7126007 590562067.31641006 0 0 0 0 1546024332.3699951 -1624852455.4487801 0 -1624852455.4487801 517073975.84371948 0 0 0 0 1148828944.018631 -1867600618.9699478 0 -1867600618.9699478 1022136728.5648422 0 0 0 0 1454353827.9829025 -1863781345.5246964 0 -1863781345.5246964 574140478.1320343 0 0 0 0 1604360127.7093353 -2161801971.3252716 0 -2161801971.3252716 1120151416.4340973 0 0 0 0 1895988726.6958313 -2052980896.1502304 0 -2052980896.1502304 554555415.30862904 0 0 0 0 2062089240.0645142 -2298241476.884819 0 -2298241476.884819 619582715.56671607 0 0 0 0 1440550768.4053345 -2451071379.5666199 0 -2451071379.5666199 622909338.04216003 0 0 0 0 2218355079.2389221 -1910195147.7860641 0 -1910195147.7860641 988457077.1481781 0 0 0 0 2112187419.7819672 -2151036455.5422821 0 -2151036455.5422821 687394807.5259552 0 0 0 0 1848051657.8979759 -2050797163.3520355 0 -2050797163.3520355 658413113.63476562 0 0 0 0 1884029788.6129761 -2034437196.8245773 0 -2034437196.8245773 977636320.94616699 0 0 0 0 2236758827.8728485 -1925518870.7585373 0 -1925518870.7585373 559153392.18107414 0 0 0 0 1763260989.3939171 -1317720181.7118111 0 -1317720181.7118111 467854471.12226868 0 0 0 0 2542174668.5476837 -1801991796.6478729 0 -1801991796.6478729 679901623.51526642 0 0 0 0 3170585427.2087936 -1456918648.1361542 0 -1456918648.1361542 847628245.80001831 0 0 0 0 1633434707.615181 -2780907626.7025223 0 -2780907626.7025223 2355163265.0424805 0 0 0 0 3021573730.4120903 -2854755412.0055385 0 -2854755412.0055385 1266740618.2153931 0 0 0 0 1936927880.286972 -2205445106.2922363 0 -2205445106.2922363 934213333.99595261 0 0 0 0 1901836365.0953369 -2101346357.0194817 0 -2101346357.0194817 1501804081.6179657 0 0 0 0 209830070.65374756 -1635440030.687355 0 -1635440030.687355 1675953955.8187408 0 0 0 0 1953613923.4394684 -558240212.31880951 0 -558240212.31880951 695364935.74472427 0 0 0 0 396482158.58824158 -496737394.09822845 0 -496737394.09822845 424162570.77770996 0 0 0 0 1144954130.2386322 -667388573.751194 0 -667388573.751194 243800047.54270935 0 0 0 0 847016547.62268066 -200334269.05827332 0 -200334269.05827332 15155482.943099976 0 0 0 0 1144172627.408783 -630085418.46533203 0 -630085418.46533203 354389511.57894897 0 0 0 0 1780196575.2682037 -1328054450.8855133 0 -1328054450.8855133 429469726.10841751 0 0 0 0 1864336694.312027 -1031710432.1853485 0 -1031710432.1853485 296441638.46486473 0 0 0 0 2603262840.1397095 -1767578083.3698883 0 -1767578083.3698883 902318583.9851532 0 0 0 0 1943125113.8472672 -897012931.9552536 0 -897012931.9552536 516423584.60235596 0 0 0 0 2397814444.2404556 -1681247355.5222473 0 -1681247355.5222473 1981901473.06073 0 0 0 0 2915840281.8074799 -1742844782.5861816 0 -1742844782.5861816 569767620.49136353 0 0 0 0 2130614042.2788391 -964702573.74855804 0 -964702573.74855804 53300625.9765625 0 0 0 0 2094760252.6265564 -672256292.06460571 0 -672256292.06460571 -139326136.59736633 0 0 0 0 1442351823.6054087 -295289338.43492031 0 -295289338.43492031 30557263.945678711 0 0 0 0 1363825661.7340088 -963273931.48910522 0 -963273931.48910522 714085731.34606934 0 0 0 0 895863744.97862244 -75148898.093826294 0 -75148898.093826294 -61272410.173797607 0 0 0 0 991313867.96182251 -389567726.77073669 0 -389567726.77073669 220188936.16003418 0 0 0 0 1179658945.2615814 -527808025.77684784 0 -527808025.77684784 -98912574.356628418 0 0 0 0 1140393349.4823608 37455576.799911499 0 37455576.799911499 -158371910.69177246 0 0 0 0 911250518.96325302 -637432984.58546066 0 -637432984.58546066 -266972654.34884644 0 0 0 0 820264837.05938721 65022399.607574463 0 65022399.607574463 265187898.91926575 0 0 0 0 2626308666.9367218 372751849.08479309 0 372751849.08479309 -230246769.41352844 0 0 0 0 2198570624.1191254 -625611049.17604828 0 -625611049.17604828 -434130283.04699707 0 0 0 0 4268039634.6046524 -1269627633.8492355 0 -1269627633.8492355 -310107454.14050293 0 0 0 0 3737058814.2254562 -2058012054.0476074 0 -2058012054.0476074 -395068182.72236633 0 0 0 0 3943101170.2998352 -3059627217.5026512 0 -3059627217.5026512 -278359959.95880127 0 0 0 0 6495977485.0784912 -2221538097.6905212 0 -2221538097.6905212 -799281052.68030548 0 0 0 0 3790714931.5341873 -1876626547.1901627 0 -1876626547.1901627 -736100765.24183655 0 0 0 0 8370159338.0411682 -3615485842.7841415 0 -3615485842.7841415 196401293.06669617 0 0 0 0 3433344718.5487671 -3093860457.999588 0 -3093860457.999588 2091718476.569809 0 0 0 0 3948997916.0305634 283898622.64056396 0 283898622.64056396 4165223337.4511986 0 0 0 0 5471847883.3429413 -4454146264.0161591 0 -4454146264.0161591 2989416744.2627411 0 0 0 0 4549071627.4843979 -4804742187.062851 0 -4804742187.062851 3168612642.3945122 0 0 0 0 -298416437.46677399 -324635170.36453247 0 -324635170.36453247 3433079880.4068432 0 0 0 0 721454730.94685364 -4828332.5849456787 0 -4828332.5849456787 -82912326.696685791 0 0 0 0 7412903711.6191158 1717652089.4126711 0 1717652089.4126711 -246876553.74685669 0 0 0 0 8294468.5223829374 -10072855.448093154 0 -10072855.448093154 7064585.7877985388 0 0 0 0 1161594789.0780792 -1021875401.795639 0 -1021875401.795639 674829381.87767029 0 0 0 0 971482353.70199585 -388451675.74391174 0 -388451675.74391174 666087312.83273315 0 0 0 0 896211299.79661942 -36705683.468967438 0 -36705683.468967438 -624353980.28552246 0 0 0 0 7963358.7512709536 -10038419.512854762 0 -10038419.512854762 5248269.4688625634 0 0 0 0 -1194643858.9482346 -1995024156.800087 0 -1995024156.800087 -631939706.20958257 0 0 0 0 1054164869.3120575 -204318390.10176086 0 -204318390.10176086 -1648974291.6919365 0 0 0 0 4816611.7846587673 -5477257.7783560827 0 -5477257.7783560827 2406004.4546971023 0 0 0 0 4477977521.0199051 -2704494901.9371719 0 -2704494901.9371719 -913540376.5632019 0 0 0 0 -2171712108.6071777 -1504492672.3810349 0 -1504492672.3810349 2330887407.637454 0 0 0 0 3724805448.7965851 -4010958338.0718079 0 -4010958338.0718079 1367937497.676178 0 0 0 0 2736649905.3364182 -2813346116.1092911 0 -2813346116.1092911 268879052.71340942 0 0 0 0 3253733369.0184975 -2388524550.0959435 0 -2388524550.0959435 -363443288.57258606 0 0 0 0 2615707902.3224792 -843203162.69514465 0 -843203162.69514465 485845622.8526001 0 0 0 0 84135233.126197815 -960608197.17360687 0 -960608197.17360687 1753915465.6134415 0 0 0 0 67343816.754394531 -1639914311.6948776 0 -1639914311.6948776 611324259.62231445 0 0 0 0 -1974982090.4129906 -2623342144.4129143 0 -2623342144.4129143 102974501.64500427 0 0 0 0 -1787944169.7005997 -251222851.56210327 0 -251222851.56210327 -293665066.61224556 0 0 0 0 1070541917.8413391 -970530446.44111633 0 -970530446.44111633 -839435946.10983276 0 0 0 0 4161513.0697257333 -4896442.5389997475 0 -4896442.5389997475 1949784.1624959558 0 0 0 0 -2317205396.973877 -1092580920.5154266 0 -1092580920.5154266 1915423960.2027283 0 0 0 0 417816417.29749298 251191382.77928925 0 251191382.77928925 -684239531.06723022 0 0 0 0 2222058190.6173096 -620021783.39892578 0 -620021783.39892578 -1333235245.0848083 0 0 0 0 -3070764305.2208252 -1281180559.4206467 0 -1281180559.4206467 -494562416.80215073 0 0 0 0 -888277.16205685586 -4431876.899613753 0 -4431876.899613753 2603986.5701392293 0 0 0 0 -3720266637.2480621 -1607113524.0945129 0 -1607113524.0945129 2123681333.9707336 0 0 0 0 1683976248.9265442 -2749727374.4870834 0 -2749727374.4870834 228890206.72229004 0 0 0 0 -2770783130.248291 257473433.8722229 0 257473433.8722229 -1629130307.4200516 0 0 0 0 -2062490366.7574577 -2834193199.0267563 0 -2834193199.0267563 -331436438.73651123 0 0 0 0 -1871838832.5586624 -1621378332.2364655 0 -1621378332.2364655 853101013.171875 0 0 0 0 -1697586006.0765076 -250265006.92672729 0 -250265006.92672729 -634334010.56016159 0 0 0 0 291929925.16996765 -330354455.28460693 0 -330354455.28460693 369281964.96464157 0 0 0 0 713871446.36394501 -1262911375.4471664 0 -1262911375.4471664 -49028311.61567688 0 0 0 0 -1204968544.8449173 -896041861.49433899 0 -896041861.49433899 869908187.44012451 0 0 0 0 1608777285.534317 -310963605.3717041 0 -310963605.3717041 723409843.12985229 0 0 0 0 2041987520.1794586 -947872392.27589607 0 -947872392.27589607 -268468997.10522461 0 0 0 0 1413677902.7439537 2070091.9563446045 0 2070091.9563446045 3917083.437713623 0 0 0 0 334873947.62454224 -1033495577.6823616 0 -1033495577.6823616 -708673.9481048584 0 0 0 0 -1337571072.4539185 -183334173.92147064 0 -183334173.92147064 254805915.61296844 0 0 0 0 -536746399.6157341 -1429063714.6494827 0 -1429063714.6494827 -300521642.35531616 0 0 0 0 -2430325874.4306488 -676500046.64445496 0 -676500046.64445496 812464.55730538408 0 0 0 0 -1408058983.1501436 -738224856.91723156 0 -738224856.91723156 -888191547.85748291 0 0 0 0 -2979066032.5341988 -1486559272.0544128 0 -1486559272.0544128 -38142240.391235352 0 0 0 0 4931814034.0938034 -1384847403.6030197 0 -1384847403.6030197 58240842.100494385 0 0 0 0 3863758061.5743027 -1861587187.0107117 0 -1861587187.0107117 148267598.46824837 0 0 0 0 5489101026.7288818 -1764286332.0006714 0 -1764286332.0006714 153483613.18330574 0 0 0 0 2297566440.6311646 -2530431823.5696411 0 -2530431823.5696411 918038818.49212646 0 0 0 0 4203924248.9314613 -3233083219.7860718 0 -3233083219.7860718 1117605512.5629578 0 0 0 0 823583788.66930389 -2446446566.8871689 0 -2446446566.8871689 2100921950.318222 0 0 0 0 8638545926.0186234 -1261034597.2912178 0 -1261034597.2912178 29475900.806304932 0 0 0 0 2977830487.8483582 -1528823062.4910583 0 -1528823062.4910583 784410019.59423828 0 0 0 0 2079370348.0253296 -1081601033.6357727 0 -1081601033.6357727 1171455801.7362518 0 0 0 0 3503821259.833374 -258370770.60277557 0 -258370770.60277557 179682617.92325592 0 0 0 0 5356019951.2064285 -1257645750.6295242 0 -1257645750.6295242 -58704989.089492798 0 0 0 0 2015366.7590067554 1358311.6512135379 0 1358311.6512135379 -489102.04417106509 0 0 0 0 4702706976.5604019 -1008766173.655014 0 -1008766173.655014 56414101.516571045 0 0 0 0 2132430760.1875305 -656603315.62493134 0 -656603315.62493134 205567375.39770508 0 0 0 0 4561574952.8786392 -222184184.0683136 0 -222184184.0683136 -274557968.01103973 0 0 0 0 2451104615.8319855 -1030368385.0289307 0 -1030368385.0289307 752000.91609191895 0 0 0 0 4010644.4543215651 2727023.1915472113 0 2727023.1915472113 -548497.58965674043 0 0 0 0 2635777325.0686255 -1140104311.4452472 0 -1140104311.4452472 77532832.507110596 0 0 0 0 3516979206.5019302 -1554552589.7789612 0 -1554552589.7789612 -1079749.0496883222 0 0 0 0 3977561496.6564064 -1910953407.3468933 0 -1910953407.3468933 -10977438.779174805 0 0 0 0 2912936406.908989 -1564698293.5332794 0 -1564698293.5332794 372145.22094726562 0 0 0 0 3407983464.3896704 -1869798288.7906342 0 -1869798288.7906342 -13756208.671722412 0 0 0 0 2700231903.9146557 -1884875479.8689194 0 -1884875479.8689194 312617187.55886841 0 0 0 0 1917387649.4378662 -1393087476.256546 0 -1393087476.256546 400926088.46017456 0 0 0 0 2148915838.152298 -1401297191.4447403 0 -1401297191.4447403 139653.49932861328 0 0 0 0 1760060848.7668686 -1226354040.5301514 0 -1226354040.5301514 311128495.99464417 0 0 0 0 1761105050.5403748 -1634792188.5947266 0 -1634792188.5947266 606180414.33901978 0 0 0 0 -1085208.1840496743 3675903.2829819135 0 3675903.2829819135 2218970.8962427229 0 0 0 0 1838707511.4483299 -1189921136.0108185 0 -1189921136.0108185 503843.50455276942 0 0 0 0 2318347869.7897644 -841523573.46860504 0 -841523573.46860504 166768740.84983826 0 0 0 0 -1324429.1224525226 2765451.3253678596 0 2765451.3253678596 3386008.1075576544 0 0 0 0 513169735.49712944 -453903687.22592926 0 -453903687.22592926 296743857.58015442 0 0 0 0 1065774502.6673393 -314606388.37521362 0 -314606388.37521362 -29412883.582435608 0 0 0 0 261390026.45349503 97391855.461105347 0 97391855.461105347 93011591.303806305 0 0 0 0 1015993693.8843613 -1544697356.4891205 0 -1544697356.4891205 1463259140.8847351 0 0 0 0 2184629203.4855566 -1869320622.7163239 0 -1869320622.7163239 726643194.01434326 0 0 0 0 1103661701.6987 -941453938.04013062 0 -941453938.04013062 468070969.81997681 0 0 0 0 1107861150.0150242 -1152254372.8281674 0 -1152254372.8281674 809830574.39654541 0 0 0 0 237661670.26529694 -434853482.48606873 0 -434853482.48606873 674711259.12354279 0 0 0 0 881117670.45814908 -974184400.72417641 0 -974184400.72417641 804152154.94351196 0 0 0 0 770470426.10323334 -1037712043.8818359 0 -1037712043.8818359 791120438.96688843 0 0 0 0 -277050739.53135681 -554729548.59074402 0 -554729548.59074402 768728186.2802124 0 0 0 0 -735660520.67503357 -87521738.526115417 0 -87521738.526115417 313327709.32287598 0 0 0 0 -269863.59186479263 718642.98818665557 0 718642.98818665557 -1440661.8256594539 0 0 0 0 -47564583.779678345 -463291089.37295532 0 -463291089.37295532 -244122487.91329956 0 0 0 0 -120755125.41235352 -602162003.97265625 0 -602162003.97265625 -30955518.586914062 0 0 0 0 315694864.93459511 -87702385.6198349 0 -87702385.6198349 -128109692.39157104 0 0 0 0 -25415745.481689453 -103968881.56292725 0 -103968881.56292725 -62081481.739074707 0 0 0 0 63833259.749969482 -207730456.20962524 0 -207730456.20962524 -184526033.98181152 0 0 0 0 553402691.54940605 -301100252.0368042 0 -301100252.0368042 240079458.49691772 0 0 0 0 130056054.06829834 32270394.713302612 0 32270394.713302612 156986605.70417786 0 0 0 0 10455477.091363907 -22684393.466377258 0 -22684393.466377258 150534270.4392395 0 0 0 0 -1429507.4092120617 2054095.8580178795 0 2054095.8580178795 2481527.1086902022 0 0 0 0 142463123.35004616 102809951.56226349 0 102809951.56226349 1468567.71484375 0 0 0 0 212434229.87902451 10427651.108139038 0 10427651.108139038 -75173469.667022705 0 0 0 0 56070069.911144257 -14273569.42350769 0 -14273569.42350769 -92200523.307189941 0 0 0 0 51097962.870758057 -22283751.006790161 0 -22283751.006790161 -61750130.41104126 0 0 0 0 108545307.13041306 61409990.4503479 0 61409990.4503479 -42704838.501098633 0 0 0 0 104505956.5112896 62860782.606182098 0 62860782.606182098 -41309136.841125488 0 0 0 0 16322799.47089386 -56261304.141555786 0 -56261304.141555786 -14640268.406005859 0 0 0 0 -126777698.68600082 -135828272.32408142 0 -135828272.32408142 -109208528.13641357 0 0 0 0 8918048.2981681824 -28558536.480545044 0 -28558536.480545044 -102537988.69610596 0 0 0 0 -99477471.697181702 -201632736.51686096 0 -201632736.51686096 -163638325.65338135 0 0 0 0 -26816418.756302953 -16697465.273343369 0 -16697465.273343369 30034922.554375648 0 0 0 0 -108206891.57162476 -95903038.730804443 0 -95903038.730804443 -48341491.325134277 0 0 0 0 30028998.078498341 -20991898.499707483 0 -20991898.499707483 -25400376.482809603 0 0 0 0 -793059839.51568604 -592334112.78060913 0 -592334112.78060913 -56462780.573978424 0 0 0 0 49294740.757873535 -58375065.495727539 0 -58375065.495727539 -185959198.7539978 0 0 0 0 386444287.73744202 102777071.60726929 0 102777071.60726929 -262724652.28469849 0 0 0 0 25951262.038226008 -28445773.495807633 0 -28445773.495807633 1561448.3635943532 0 0 0 0 -45026666.263397217 -37252309.528625488 0 -37252309.528625488 -20046603.308105469 0 0 0 0 -399884338.19835663 -456436693.4533844 0 -456436693.4533844 -99607720.082519531 0 0 0 0 251102723.359375 71890413.640258789 0 71890413.640258789 -35957638.063476562 0 0 0 0 6162823.340278741 -6269160.6750022173 0 -6269160.6750022173 -11235397.71624276 0 0 0 0 501440.32075500488 -182301003.53369141 0 -182301003.53369141 -245166643.81689453 0 0 0 0 16765875.733327847 -29439625.390231382 0 -29439625.390231382 20179016.072199374 0 0 0 0 424263739.07186508 -184945676.88977051 0 -184945676.88977051 -577150596.67712402 0 0 0 0 -18699022.063499842 -21616673.201687381 0 -21616673.201687381 23770466.88609089 0 0 0 0 6804457.5242963843 -6839138.1647149585 0 -6839138.1647149585 -7287746.1720784009 0 0 0 0 -131892271.69243622 -103467461.6449585 0 -103467461.6449585 -168562205.88415527 0 0 0 0 -367433160.66993713 -262316660.2614212 0 -262316660.2614212 -117058564.21801758 0 0 0 0 12201402.947166443 -199252615.12254333 0 -199252615.12254333 -185731219.0841217 0 0 0 0 1184212970.6538563 -780383402.69685364 0 -780383402.69685364 -85165528.948669434 0 0 0 0 307653141.45104218 -635271920.54812622 0 -635271920.54812622 544605174.12411499 0 0 0 0 2531730.9273468987 129278.43949957192 0 129278.43949957192 -1379819.5555480719 0 0 0 0 910885933.54931736 -248924990.22128296 0 -248924990.22128296 -17520505.328552246 0 0 0 0 425268348.5752573 -141596428.56500244 0 -141596428.56500244 127618629.14459229 0 0 0 0 349314510.63080788 -344783854.94506073 0 -344783854.94506073 17481182.967407227 0 0 0 0 112496051.042202 -298754985.93103027 0 -298754985.93103027 115022810.34420776 0 0 0 0 222917314.36560059 -339002486.52848816 0 -339002486.52848816 32884759.099517822 0 0 0 0 1268612331.6273422 -642075617.76708984 0 -642075617.76708984 -676573312.27612305 0 0 0 0 912491606.74261367 -480696588.369699 0 -480696588.369699 -314552874.68945312 0 0 0 0 734197683.49332047 -1155683310.6836548 0 -1155683310.6836548 356478523.73223877 0 0 0 0 524537246.13807869 -935356440.41809082 0 -935356440.41809082 170957097.96517944 0 0 0 0 1095808355.4971995 244636174.45721436 0 244636174.45721436 33675948.170043945 0 0 0 0 4267313046.5789795 -1893545541.1719971 0 -1893545541.1719971 -849135102.81478882 0 0 0 0 -464495035.4343338 -450499248.05383301 0 -450499248.05383301 725336057.42285156 0 0 0 0 -206773316.85565948 -34919963.825622559 0 -34919963.825622559 1026379075.1735535 0 0 0 0 157369756.85144806 409761319.9052124 0 409761319.9052124 967467326.95722961 0 0 0 0 66934955.204788208 91883043.556640625 0 91883043.556640625 485058007.94891357 0 0 0 0 -500157875.15090942 -330343076.37487793 0 -330343076.37487793 778547745.52679443 0 0 0 0 -487532429.04594803 -298765489.37585449 0 -298765489.37585449 370618523.52575684 0 0 0 0 -1142371677.4452667 -91506292.866317749 0 -91506292.866317749 289120769.64154053 0 0 0 0 -880972168.27257156 -426369217.89846802 0 -426369217.89846802 503485178.38745117 0 0 0 0 -330570221.26662827 -80021518.464416504 0 -80021518.464416504 230732489.31381226 0 0 0 0 -1024750586.9945869 -264219389.99557495 0 -264219389.99557495 355073285.68292236 0 0 0 0 749057643.66960907 -260647417.59616089 0 -260647417.59616089 -140981510.37683105 0 0 0 0 -320738595.53287888 -5665155.1330184937 0 -5665155.1330184937 595469662.37524414 0 0 0 0 2776550.7349184416 7103983.8619199898 0 7103983.8619199898 239212.95396131277 0 0 0 0 -2112266380.8037176 -411978069.81619263 0 -411978069.81619263 456532873.45721436 0 0 0 0 140552429.52787781 -18999071.385253906 0 -18999071.385253906 -78166060.160888672 0 0 0 0 -187329.86158939369 -4779017.0933678746 0 -4779017.0933678746 -8508312.2584761083 0 0 0 0 -1718786312.0893564 -631072765.61536407 0 -631072765.61536407 245027423.64529419 0 0 0 0 -1039609415.0503693 -365747746.04623413 0 -365747746.04623413 -231503545.58322144 0 0 0 0 -2424708010.6505032 -56832672.080490112 0 -56832672.080490112 207721969.80560303 0 0 0 0 2538285.8748337557 3001382.1032378981 0 3001382.1032378981 -1731316.1622344553 0 0 0 0 -410602752.97642899 -122707060.92922974 0 -122707060.92922974 -28189915.484375 0 0 0 0 -1258755.4241214977 1094174.8326904178 0 1094174.8326904178 290747.29305252433 0 0 0 0 -1437936707.5899124 190447635.0562439 0 190447635.0562439 -184938240.14086914 0 0 0 0 -1443706837.1783638 -306772991.71659851 0 -306772991.71659851 -131426948.8578186 0 0 0 0 -91468024.842761993 -410229774.93048096 0 -410229774.93048096 140474656.09313965 0 0 0 0 -833020063.80146027 -334560102.96673584 0 -334560102.96673584 28769751.433837891 0 0 0 0 -281817451.976717 61346531.751602173 0 61346531.751602173 22005691.019287109 0 0 0 0 -1020398579.2960091 157158382.01119995 0 157158382.01119995 -99796680.252388 0 0 0 0 121964083.60101891 -79635108.958343506 0 -79635108.958343506 -129473511.99885559 0 0 0 0 -443878888.20698547 -396611090.10655212 0 -396611090.10655212 75320015.647705078 0 0 0 0 -645741526.92342758 144346723.59732056 0 144346723.59732056 -204241.79189300537 0 0 0 0 -954096751.41746902 -294234513.24497986 0 -294234513.24497986 -127844993.57666016 0 0 0 0 -14139383.119170189 -334003047.30560303 0 -334003047.30560303 -2626319.8571166992 0 0 0 0 -2472485022.2812824 -199709089.09817505 0 -199709089.09817505 194835784.73812866 0 0 0 0 569231.0899683591 1368780.8710303362 0 1368780.8710303362 -349820.91233301163 0 0 0 0 -710510728.58483124 422380689.08691406 0 422380689.08691406 -48869597.647216797 0 0 0 0 -1563321968.9098663 167265455.21261597 0 167265455.21261597 -145321980.62465954 0 0 0 0 -1425302136.2513161 57970497.36819458 0 57970497.36819458 49275765.55569458 0 0 0 0 -1477451792.8228378 -161837059.40419769 0 -161837059.40419769 65195214.28704834 0 0 0 0 -1196069060.1585083 -649201950.74346924 0 -649201950.74346924 -89351481.700683594 0 0 0 0 -1244542977.4175224 -82364098.201812744 0 -82364098.201812744 -233272350.89010239 0 0 0 0 -1437793156.3702011 -452198114.54022217 0 -452198114.54022217 -280234736.37408447 0 0 0 0 -1256452144.5183868 -101210108.0160675 0 -101210108.0160675 81962191.065979004 0 0 0 0 -285492296.31738567 150938650.06286621 0 150938650.06286621 -51547184.813049316 0 0 0 0 -719521842.58858013 -115449112.24903107 0 -115449112.24903107 110217277.40698242 0 0 0 0 -775987293.13990784 37275164.244842529 0 37275164.244842529 -202307790.24017334 0 0 0 0 -309520164.50183105 76778508.065582275 0 76778508.065582275 -109358238.05584717 0 0 0 0 -309970569.12604141 71731360.120498657 0 71731360.120498657 109124599.65413666 0 0 0 0 567290804.08357239 -343278577.59883118 0 -343278577.59883118 29150382.721374512 0 0 0 0 274213594.98987103 -115434138.7460022 0 -115434138.7460022 124956236.58282471 0 0 0 0 203497408.86174965 -234017755.98599243 0 -234017755.98599243 -4304427.5193557739 0 0 0 0 1006855479.2311449 -297994073.11848354 0 -297994073.11848354 -103557120.65362549 0 0 0 0 354571909.84181404 92512291.109832764 0 92512291.109832764 237302022.50669098 0 0 0 0 646264812.38189173 -338489516.38943481 0 -338489516.38943481 130162159.34161377 0 0 0 0 4211138.4645156004 812638.09014352411 0 812638.09014352411 -3148806.3604865968 0 0 0 0 1591641445.4282002 -446988802.11824036 0 -446988802.11824036 -262029530.98681641 0 0 0 0 992774235.82840848 -676634265.03822231 0 -676634265.03822231 118323022.39916992 0 0 0 0 1349887263.6048851 -156213938.70043945 0 -156213938.70043945 1191999582.5522461 0 0 0 0 491359860.49003696 -69674968.390289307 0 -69674968.390289307 217998238.25341797 0 0 0 0 503356157.89313889 -367554375.42565918 0 -367554375.42565918 471465355.77871704 0 0 0 0 509574005.29493809 15755965.098571777 0 15755965.098571777 31899646.594838381 0 0 0 0 811278804.89819348 -430041496.46196365 0 -430041496.46196365 23435496.752502441 0 0 0 0 251196777.75325775 -200539625.85402679 0 -200539625.85402679 -7593779.6012573242 0 0 0 0 -176728107.50011063 109071139.78030396 0 109071139.78030396 57704731.023445129 0 0 0 0 326420692.70362711 -201172417.79457474 0 -201172417.79457474 -90956232.81362915 0 0 0 0 353705534.90863788 -114519810.31595612 0 -114519810.31595612 184198299.91708374 0 0 0 0 -871447563.5962944 -6281370.444229126 0 -6281370.444229126 -44421493.86147213 0 0 0 0 -1194212818.8949051 -197851159.11833191 0 -197851159.11833191 -56818461.568237305 0 0 0 0 -885328433.69161224 94220153.901245117 0 94220153.901245117 -5103118.9011764526 0 0 0 0 -877611057.10086823 122607351.10227966 0 122607351.10227966 91589626.161960602 0 0 0 0 -794674302.68495274 -66963317.8904953 0 -66963317.8904953 106834715.70913696 0 0 0 0 -295454936.73666573 -116862195.53248596 0 -116862195.53248596 -66641229.354705811 0 0 0 0 -1402352359.7485633 -162300572.20100212 0 -162300572.20100212 133380741.57336426 0 0 0 0 -783721474.50165176 -162692784.2509613 0 -162692784.2509613 -48586056.890777588 0 0 0 0 -713434178.60604668 15081668.321640015 0 15081668.321640015 70130329.161956787 0 0 0 0 -655578509.01799583 -161313131.01213646 0 -161313131.01213646 460110.71745300293 0 0 0 0 -1192340010.7157447 -32106908.042995453 0 -32106908.042995453 76220031.083496094 0 0 0 0 -655610166.90472221 -161081981.70948792 0 -161081981.70948792 -475824.09173583984 0 0 0 0 -107143207.51286602 -34831971.26625824 0 -34831971.26625824 -133467179.38739777 0 0 0 0 -71647909.364665508 61161778.744773865 0 61161778.744773865 47401786.631889343 0 0 0 0 279020460.068012 -211433347.51303101 0 -211433347.51303101 -391885.98834228516 0 0 0 0 370854450.10987663 -89617688.883201599 0 -89617688.883201599 54876526.192657471 0 0 0 0 5736108.8958782125 2583438.9916357398 0 2583438.9916357398 -4993334.9749140739 0 0 0 0 499428499.82167435 -184394483.33666229 0 -184394483.33666229 223050.92674255371 0 0 0 0 -77003403.593818665 -272750561.04221344 0 -272750561.04221344 185252115.46173096 0 0 0 0 156607004.52908897 -468414243.89250183 0 -468414243.89250183 229215.16836622558 0 0 0 0 487861102.74560356 -417371321.22207642 0 -417371321.22207642 90189.196990966797 0 0 0 0 333581694.28918171 -288548126.97824097 0 -288548126.97824097 93724162.05291748 0 0 0 0 210667424.05681038 -343725769.54008484 0 -343725769.54008484 91343405.264038086 0 0 0 0 361608977.43715096 -242796665.0403595 0 -242796665.0403595 80168548.608703613 0 0 0 0 197937051.91493416 -227345121.68765259 0 -227345121.68765259 182556007.72564697 0 0 0 0 136513119.7135973 -308944338.51309204 0 -308944338.51309204 169538861.84231567 0 0 0 0 114351802.94224548 -178327670.02992249 0 -178327670.02992249 135439129.82479858 0 0 0 0 147143210.70269394 -283465659.06846619 0 -283465659.06846619 194143981.01760864 0 0 0 0 26283678.4634552 -176423469.02603149 0 -176423469.02603149 109459115.61553955 0 0 0 0 151660414.45217001 -186774805.98651838 0 -186774805.98651838 79315186.511413574 0 0 0 0 137107823.88789749 -199034138.79187012 0 -199034138.79187012 50491381.088745117 0 0 0 0 -59820033.925914764 -81682992.440246582 0 -81682992.440246582 55405034.309561729 0 0 0 0 224673712.85464478 -312503057.07830811 0 -312503057.07830811 158748879.80151367 0 0 0 0 41948042.962646484 -129506788.0234375 0 -129506788.0234375 213667862.09859467 0 0 0 0 243595666.87008667 -268584645.13309479 0 -268584645.13309479 259794086.57778931 0 0 0 0 5457643.0763176205 1801837.6428626329 0 1801837.6428626329 -4385231.5011907667 0 0 0 0 647774259.67310715 -302630407.01249695 0 -302630407.01249695 163163787.12149048 0 0 0 0 741023780.57720184 -556019984.12309265 0 -556019984.12309265 283609947.43267822 0 0 0 0 631424314.31159472 -322943377.99085999 0 -322943377.99085999 16483391.878507614 0 0 0 0 5638467.6764136301 2103528.6552965045 0 2103528.6552965045 -5286000.8911220133 0 0 0 0 436772093.14701891 -363416222.3509903 0 -363416222.3509903 161950590.21704102 0 0 0 0 -26391104.18554306 -77693628.353340149 0 -77693628.353340149 -45262450.771286011 0 0 0 0 82133783.431835175 32199639.553436279 0 32199639.553436279 -58032206.45401001 0 0 0 0 -13334151.459718712 -1458625.8034655377 0 -1458625.8034655377 2723653.3216657639 0 0 0 0 -2769287.5920591075 5451509.5028948635 0 5451509.5028948635 -514071.81538927555 0 0 0 0 181579876.84376764 -24241752.515487194 0 -24241752.515487194 -62719653.212127686 0 0 0 0 -357641454.9852829 -298282837.57626343 0 -298282837.57626343 1197804.5808417804 0 0 0 0 -24600638.026924133 39020442.66506958 0 39020442.66506958 -5476851.0939941406 0 0 0 0 -19511676.288208008 -99557289.215759277 0 -99557289.215759277 -17867098.066011429 0 0 0 0 -31733329.608024597 -85872196.380447388 0 -85872196.380447388 719.59820556640625 0 0 0 0 -5744498.052600502 3535260.0861343704 0 3535260.0861343704 3065531.7840647399 0 0 0 0 -212080782.36111832 -61632565.668197632 0 -61632565.668197632 60190754.224777222 0 0 0 0 854819111.34335518 -117248175.78404236 0 -117248175.78404236 -46678451.367034912 0 0 0 0 261939706.97337341 -25364625.914276123 0 -25364625.914276123 14937086.530426025 0 0 0 0 203352337.45379639 -29768464.675415039 0 -29768464.675415039 73506264.638076782 0 0 0 0 98086659.421068192 3006884.4260444641 0 3006884.4260444641 74986974.277252197 0 0 0 0 -53061243.884166718 -147792204.09751892 0 -147792204.09751892 13086533.588104248 0 0 0 0 -210467.57471084595 -58364852.476715088 0 -58364852.476715088 -22544316.677341461 0 0 0 0 -9702023.5367404539 -2965172.4551176205 0 -2965172.4551176205 860187.94116342068 0 0 0 0 -7075068.2339248247 1943505.2042728588 0 1943505.2042728588 2971709.4741851836 0 0 0 0 -149765202.51904678 -78570641.975463867 0 -78570641.975463867 40518513.423950195 0 0 0 0 -49767401.304111481 49998574.852371216 0 49998574.852371216 8637643.4747924805 0 0 0 0 -147479580.30365109 -40094057.686217308 0 -40094057.686217308 1855923.6671447754 0 0 0 0 -4321593.7600487201 3927322.4087217804 0 3927322.4087217804 -744476.72967028618 0 0 0 0 112534531.49911499 -36572977.693466187 0 -36572977.693466187 -56868204.996124268 0 0 0 0 -8366061.1164080733 -2140479.1622723211 0 -2140479.1622723211 -545386.539049685 0 0 0 0 -42015159.074314117 -30681466.759307861 0 -30681466.759307861 16580623.915222168 0 0 0 0 -13441133.776771545 -25439601.843765259 0 -25439601.843765259 -2139071.1219177246 0 0 0 0 -21188071.034034014 -18278570.214177072 0 -18278570.214177072 -14375616.498413086 0 0 0 0 -21163993.5184021 -20867725.898361206 0 -20867725.898361206 -20050290.318389893 0 0 0 0 -16678185.965034485 -14788962.848478317 0 -14788962.848478317 -13262559.430511475 0 0 0 0 -18213212.223529816 -20803263.581108093 0 -20803263.581108093 -17740592.049835205 0 0 0 0 -16585262.694454059 -20333175.794463478 0 -20333175.794463478 -11571633.019909471 0 0 0 0 -124601.10915349051 -11770397.469570771 0 -11770397.469570771 -11678291.292218223 0 0 0 0 -191280.18042945862 -394304.60247612 0 -394304.60247612 -1123244.1077880859 0 0 0 0 -28688746.17313385 -20744932.070404053 0 -20744932.070404053 -16036921.562362671 0 0 0 0 -2855723.2623977666 -10107798.258002432 0 -10107798.258002432 -10341723.07441479 0 0 0 0 -5280094.2684442801 -5711930.8863286003 0 -5711930.8863286003 -8903686.2234424055 0 0 0 0 190759984.52823639 -56900538.718078613 0 -56900538.718078613 -17743509.071472168 0 0 0 0 155191785.40892792 -35063452.52255249 0 -35063452.52255249 -17738651.074920654 0 0 0 0 -50027251.577339172 -71879309.404998779 0 -71879309.404998779 45041278.174682617 0 0 0 0 -15191805.543548584 -82727686.997741699 0 -82727686.997741699 46572033.452339172 0 0 0 0 10907675.438541412 -155724349.24996948 0 -155724349.24996948 62347676.063598633 0 0 0 0 52209697.276000977 -177912000.82611084 0 -177912000.82611084 70422629.734863281 0 0 0 0 223531749.11550903 -300041907.51837158 0 -300041907.51837158 89399217.530761719 0 0 0 0 415354639.37721252 -318832558.06481934 0 -318832558.06481934 124892468.49893188 0 0 0 0 196416525.31355858 254943326.47186279 0 254943326.47186279 -293278047.0534668 0 0 0 0 -54715333.199645996 -23527328.719390869 0 -23527328.719390869 7544061.7014770508 0 0 0 0 927961.13069307432 -656837.41121722013 0 -656837.41121722013 -1017682.5520048067 0 0 0 0 524958759.26342773 216999575.82739258 0 216999575.82739258 -159959876.23632812 0 0 0 0 -250437827.16033554 -128503885.81310654 0 -128503885.81310654 199871630.47155762 0 0 0 0 -102513705.9072113 -236086924.02655029 0 -236086924.02655029 202076581.6317749 0 0 0 0 -176523337.98190308 67147102.59161377 0 67147102.59161377 26226112.572021484 0 0 0 0 -84278105.715553284 53658728.687057495 0 53658728.687057495 -41362050.653686523 0 0 0 0 103082687.14408684 -27170748.083236694 0 -27170748.083236694 -313641315.71789551 0 0 0 0 -411961.12264274061 -2833724.2686810791 0 -2833724.2686810791 -355401.65721262991 0 0 0 0 -271427454.73629093 -4761295.5012207031 0 -4761295.5012207031 128970633.55993652 0 0 0 0 -76138151.357971191 -5264006.0463867188 0 -5264006.0463867188 53053255.725387573 0 0 0 0 -98557979.57264328 -25069665.305992126 0 -25069665.305992126 45779554.528564453 0 0 0 0 -81677990.500442505 -83325073.820037842 0 -83325073.820037842 100279425.15563965 0 0 0 0 -57318650.931144714 -40495341.519592285 0 -40495341.519592285 51154588.414306641 0 0 0 0 -63938569.12531662 -14528077.237518311 0 -14528077.237518311 32527043.005310059 0 0 0 0 -59581855.536211014 -26909446.918621063 0 -26909446.918621063 6338443.049621582 0 0 0 0 -45522865.008314133 -42940934.023117065 0 -42940934.023117065 10561066.603027344 0 0 0 0 -43806480.006562531 -60647061.07170248 0 -60647061.07170248 35308249.779663086 0 0 0 0 -45063012.865242004 -44793626.319824219 0 -44793626.319824219 10413827.942871094 0 0 0 0 -43914143.77696991 -47754972.746826172 0 -47754972.746826172 14718030.92388916 0 0 0 0 -30573313.168441772 -27005609.738708496 0 -27005609.738708496 -26030620.326660156 0 0 0 0 -10207343.226638794 -30358084.003601074 0 -30358084.003601074 -47495464.946289062 0 0 0 0 121081346.69593716 -24155030.639343262 0 -24155030.639343262 -30707184.131103516 0 0 0 0 61575296.103206336 -43322020.623851776 0 -43322020.623851776 -31563263.173706055 0 0 0 0 29125702.472343445 -5798402.5153503418 0 -5798402.5153503418 -14220738.631744385 0 0 0 0 65555153.118006289 22948626.042901039 0 22948626.042901039 2900251.5315551758 0 0 0 0 -4177452.6767436527 -3407371.9646273553 0 -3407371.9646273553 -63018.558177411556 0 0 0 0 92898922.906492233 36058495.611854553 0 36058495.611854553 -235345.62951660156 0 0 0 0 -552596154.39350891 -47229177.637573242 0 -47229177.637573242 -160377674.97291565 0 0 0 0 -5864007.2481689453 -47439423.355163574 0 -47439423.355163574 -30245814.114501953 0 0 0 0 5162456.534072876 -47521317.868103027 0 -47521317.868103027 -54314579.585205078 0 0 0 0 -1321824.6267306879 -14461071.899684049 0 -14461071.899684049 -3981568.5185123086 0 0 0 0 -10739932.512390137 -57783382.740661621 0 -57783382.740661621 -44833313.180511475 0 0 0 0 -74188164.866546631 -208295345.45251465 0 -208295345.45251465 -258396176.04980469 0 0 0 0 -13876799.171282591 -11126481.42887412 0 -11126481.42887412 256017.41207760572 0 0 0 0 -33562767.440261841 -48384776.329101562 0 -48384776.329101562 -27982341.617401123 0 0 0 0 -19454499.645427704 -21578529.610351562 0 -21578529.610351562 -13340461.59765625 0 0 0 0 -3076141.8053131104 -47082768.669464111 0 -47082768.669464111 -37386551.720916748 0 0 0 0 19388853.958503723 -28534829.092071533 0 -28534829.092071533 -29060804.502698898 0 0 0 0 7243670.9926681519 -48089377.202850342 0 -48089377.202850342 -29564352.010131836 0 0 0 0 5067290.4535980225 -54317775.450714111 0 -54317775.450714111 -6021339.0313720703 0 0 0 0 -18735549.605361938 -42237910.192962646 0 -42237910.192962646 -8059942.5037841797 0 0 0 0 33808566.656494141 -78111886.002227783 0 -78111886.002227783 6928892.0478515625 0 0 0 0 20043940.129745483 -33752163.927566528 0 -33752163.927566528 -17606366.065856934 0 0 0 0 39391195.087661743 -25964128.860656738 0 -25964128.860656738 -14527128.26725769 0 0 0 0 -2242877.7561264038 -1733739.668548584 0 -1733739.668548584 -6733414.51953125 0 0 0 0 -5389547.343021512 -11385772.951801561 0 -11385772.951801561 -11716190.254574671 0 0 0 0 41234286.266822815 -18629413.872039795 0 -18629413.872039795 -27531361.031066895 0 0 0 0 5263240.0728747398 -3392532.9875117932 0 -3392532.9875117932 -12283433.200417906 0 0 0 0 -35180538.480945587 -24522171.166564941 0 -24522171.166564941 -17198530.834350586 0 0 0 0 3159698.3176191989 -9190773.5534422919 0 -9190773.5534422919 -15217937.557624191 0 0 0 0 -5778894.4749755859 -3915995.6617126465 0 -3915995.6617126465 -2366717.9657745361 0 0 0 0 -26812331.491706848 -32295559.993423462 0 -32295559.993423462 -28841689.837646484 0 0 0 0 -54916292.811843872 1134153.1726379395 0 1134153.1726379395 -21084935.604980469 0 0 0 0 -26035868.636024475 -25011018.132865906 0 -25011018.132865906 -15521339.076446533 0 0 0 0 -38680653.632476807 -22587805.21546936 0 -22587805.21546936 -23119763.469390869 0 0 0 0 -25287550.894134521 -24437720.624404907 0 -24437720.624404907 -23889424.055557251 0 0 0 0 -26697857.777603149 -26182217.855529785 0 -26182217.855529785 -19736937.279327393 0 0 0 0 -22211971.42552948 -17514794.932933807 0 -17514794.932933807 -16697332.335632324 0 0 0 0 44686226.368976355 -90889523.948547363 0 -90889523.948547363 -320253708.70022583 0 0 0 0 -49367934.914472461 -48470206.551300049 0 -48470206.551300049 -136047186.86904907 0 0 0 0 -36149771.256310463 -56652776.934234619 0 -56652776.934234619 -13153902.69720459 0 0 0 0 -11921851.001751184 -128688111.34884644 0 -128688111.34884644 -68525368.354187012 0 0 0 0 -23362234.780561835 -40937244.64909935 0 -40937244.64909935 -45676069.538513184 0 0 0 0 61075269.415534973 -112630632.23127747 0 -112630632.23127747 14378518.894134521 0 0 0 0 498130698.41706157 164406677.06539917 0 164406677.06539917 -463557362.79220581 0 0 0 0 357454552.71754694 123427397.71847534 0 123427397.71847534 -45846122.089805603 0 0 0 0 -118177698.64648151 22604244.801574707 0 22604244.801574707 -52366484.417125702 0 0 0 0 -41442780.058040142 -185052897.82183838 0 -185052897.82183838 -161676371.53326416 0 0 0 0 507973599.37631345 -366206591.53972626 0 -366206591.53972626 237476654.53479004 0 0 0 0 2230362.7281628759 -2301533.6561595351 0 -2301533.6561595351 -571395.81874255463 0 0 0 0 439634657.54648054 -2189116639.1574249 0 -2189116639.1574249 1823395937.5255737 0 0 0 0 505762185.4643383 -356923845.40072632 0 -356923845.40072632 525618907.61309814 0 0 0 0 6275590.4265656834 -6124291.2781409919 0 -6124291.2781409919 -1730707.4410859235 0 0 0 0 79796536.174514771 -196312405.0244751 0 -196312405.0244751 450111075.73034668 0 0 0 0 128471141.15610504 -289464999.31634521 0 -289464999.31634521 339461328.22921753 0 0 0 0 -146091291.99204636 -177365483.27223206 0 -177365483.27223206 248810907.5463562 0 0 0 0 -120915.28073069733 -58767.007107898593 0 -58767.007107898593 -81889.186115562916 0 0 0 0 181390575.08896732 -162951547.81784058 0 -162951547.81784058 101048549.80584717 0 0 0 0 113338950.36589336 -40123821.233657837 0 -40123821.233657837 -89831150.401794434 0 0 0 0 -1947531.3368381504 -6439918.42127572 0 -6439918.42127572 -284927.94855166227 0 0 0 0 102481972.09091568 -184571466.15950012 0 -184571466.15950012 7514631.7518615723 0 0 0 0 5558254.7546539307 6560691.7583007812 0 6560691.7583007812 -16708870.831192017 0 0 0 0 -61018171.506256104 -11447204.316101074 0 -11447204.316101074 -2672098.1731872559 0 0 0 0 -3560212.9280128479 -15804525.763580322 0 -15804525.763580322 4663494.0794448853 0 0 0 0 4852138.0652279304 -6504439.8102385849 0 -6504439.8102385849 1110593.7048149258 0 0 0 0 -28977201.842838764 -92947818.038105011 0 -92947818.038105011 -86257984.6378479 0 0 0 0 -22919221.255334854 -70883145.30355835 0 -70883145.30355835 -96925344.627609253 0 0 0 0 -70692386.477045059 -7569697.1085510254 0 -7569697.1085510254 -24901058.175796509 0 0 0 0 -53511061.994250059 -27771032.072860718 0 -27771032.072860718 -6618135.5458984375 0 0 0 0 -51973036.865913391 -35281078.699920654 0 -35281078.699920654 2817667.3388061523 0 0 0 0 256033374.46263504 -155877627.4463501 0 -155877627.4463501 -148067256.80139923 0 0 0 0 -82634050.019160271 -75208537.414657593 0 -75208537.414657593 -18595816.446472168 0 0 0 0 3354205.8444079403 -9165014.5498816818 0 -9165014.5498816818 -194484.25542774796 0 0 0 0 -54879022.074593544 -47003468.733322144 0 -47003468.733322144 -1450829.5177001953 0 0 0 0 26084457.238227844 -61977161.637969971 0 -61977161.637969971 -17961180.106527328 0 0 0 0 15246856.947687149 -39244561.34463501 0 -39244561.34463501 -25266444.009857178 0 0 0 0 14536019.472784042 -33195199.443206787 0 -33195199.443206787 -26952766.857025146 0 0 0 0 -47463130.192221642 -11559599.92628479 0 -11559599.92628479 4880552.1512298584 0 0 0 0 -33254178.828973293 1152987.0695953369 0 1152987.0695953369 -22750851.002624512 0 0 0 0 -36817509.059656382 -9951409.2886657715 0 -9951409.2886657715 -1146494.156539917 0 0 0 0 9259835.5904330015 672098.96545410156 0 672098.96545410156 351190.03030395508 0 0 0 0 -51757293.514681712 -9937641.3048944473 0 -9937641.3048944473 56304032.927246094 0 0 0 0 9650776.116183877 -79778019.492980957 0 -79778019.492980957 -2351458.6150817871 0 0 0 0 9291108.8195885904 -13221116.641573071 0 -13221116.641573071 91822382.212982178 0 0 0 0 259098912.56860495 -43991598.601409912 0 -43991598.601409912 38870040.457458496 0 0 0 0 296165176.71501589 -205919476.09173584 0 -205919476.09173584 124712322.31726074 0 0 0 0 178785974.16084576 -113830691.68527222 0 -113830691.68527222 41433322.011207581 0 0 0 0 -39994213.626003265 -4156713.721496582 0 -4156713.721496582 10574534.217704773 0 0 0 0 4221693.7688475847 2270989.7520904541 0 2270989.7520904541 87156562.633056641 0 0 0 0 212962418.02427471 -77754570.470901489 0 -77754570.470901489 79341873.441040039 0 0 0 0 3269639.3853006363 -10478590.844589233 0 -10478590.844589233 -277074174.34396362 0 0 0 0 -24089644.542178154 -73008482.522994995 0 -73008482.522994995 -90863166.50894165 0 0 0 0 -7797312.6893324852 -40281983.936660767 0 -40281983.936660767 -152467960.32324219 0 0 0 0 -134658.4885904789 23173683.370193481 0 23173683.370193481 -70095025.125213623 0 0 0 0 -59293846.126167774 -93032330.532440186 0 -93032330.532440186 -120257512.50735474 0 0 0 0 -70279324.250206962 -81762066.082015991 0 -81762066.082015991 -121390711.92608643 0 0 0 0 -144483281.0451808 -233239350.68821716 0 -233239350.68821716 -284990219.19240141 0 0 0 0 -81259709.862508118 -134584023.00007629 0 -134584023.00007629 -140717717.03770065 0 0 0 0 -84661516.955247879 -109639098.15624428 0 -109639098.15624428 -83163379.943237305 0 0 0 0 -24436953.358118773 -68573977.670059204 0 -68573977.670059204 -122841790.19848633 0 0 0 0 82867160.762018204 32407872.012268066 0 32407872.012268066 -3453117.9213256836 0 0 0 0 57988519.933841705 154315595.20069885 0 154315595.20069885 99819506.594360352 0 0 0 0 5255469.000132191 -16145263.599248171 0 -16145263.599248171 5818023.9829832464 0 0 0 0 -27814353.964357376 -74487084.554351807 0 -74487084.554351807 -57319138.162384987 0 0 0 0 -26354945.79858017 -78592171.599227905 0 -78592171.599227905 -62745416.079956055 0 0 0 0 -50736374.951314926 -77686744.822662354 0 -77686744.822662354 -63634670.722595215 0 0 0 0 -45908743.32217598 -88138825.518386841 0 -88138825.518386841 -65883299.432739258 0 0 0 0 -8608071.9608030319 -56071627.791107178 0 -56071627.791107178 -84997696.652755737 0 0 0 0 -14632397.528042793 -80281323.556152344 0 -80281323.556152344 -94217599.873596191 0 0 0 0 -18596353.726561308 -67946696.132976532 0 -67946696.132976532 -66406820.021057129 0 0 0 0 4709617.257941246 -52564398.337097168 0 -52564398.337097168 -72587551.618530273 0 0 0 0 -10139222.183786392 -52803119.730102539 0 -52803119.730102539 -61416704.263275146 0 0 0 0 -2090309.8934259415 -30979377.137481689 0 -30979377.137481689 -51081467.716949463 0 0 0 0 -6006071.5829973221 -39720435.525650024 0 -39720435.525650024 -53513165.65045166 0 0 0 0 13745767.683425903 -38479674.389984131 0 -38479674.389984131 -68490121.387237549 0 0 0 0 -3901398.2228965759 -28813345.507080078 0 -28813345.507080078 -94430885.834732056 0 0 0 0 -25907101.582056284 -69764047.197738647 0 -69764047.197738647 -89036985.137176514 0 0 0 0 -19684760.405063629 -24409719.756195068 0 -24409719.756195068 -45388768.09854126 0 0 0 0 -13464901.160520017 -15004268.906053543 0 -15004268.906053543 -57426234.10357666 0 0 0 0 -17112795.76140213 -20815745.501472473 0 -20815745.501472473 -47438237.237915039 0 0 0 0 16637932.931018829 -34674307.332336426 0 -34674307.332336426 -52563186.427124023 0 0 0 0 -8115015.0137329102 -35137703.10357666 0 -35137703.10357666 -25885588.330200195 0 0 0 0 49356780.103307724 -29882974.766113281 0 -29882974.766113281 -38586206.50894165 0 0 0 0 15022808.217940331 -27342015.196365356 0 -27342015.196365356 -35929048.710021973 0 0 0 0 30568156.774780273 -26986052.99017334 0 -26986052.99017334 -49382426.292053223 0 0 0 0 24419406.230199814 -15716818.663330078 0 -15716818.663330078 -28591559.564468384 0 0 0 0 34759703.50226593 -9210982.7240600586 0 -9210982.7240600586 -32167649.724731445 0 0 0 0 40646247.18562603 -2080815.2815322876 0 -2080815.2815322876 -23857955.002685547 0 0 0 0 26801472.190383911 -9819194.0240631104 0 -9819194.0240631104 -21112109.812072754 0 0 0 0 31876102.951313972 -21423955.279251099 0 -21423955.279251099 -30774669.878356934 0 0 0 0 25527924.149468422 -6484724.2433280945 0 -6484724.2433280945 -11042176.077331543 0 0 0 0 18768265.861686707 -12657229.020996094 0 -12657229.020996094 -16644463.768432617 0 0 0 0 29185896.383038998 -16232369.473510742 0 -16232369.473510742 -40780855.25 0 0 0 0 22185054.121520042 -27779784.744041443 0 -27779784.744041443 -42118295.616943359 0 0 0 0 24342687.191352844 -28622770.186218262 0 -28622770.186218262 -53483320.17225647 0 0 0 0 10036705.68377161 -35895135.413543701 0 -35895135.413543701 -48100500.341796875 0 0 0 0 -13446123.746704102 -47091037.267456055 0 -47091037.267456055 -58445487.637298584 0 0 0 0 -22453816.281478882 -17220115.858779907 0 -17220115.858779907 -44066875.877075195 0 0 0 0 -42724857.649406433 -43264407.502326965 0 -43264407.502326965 -17600088.540992737 0 0 0 0 -10266638.878929138 -7881775.1100692749 0 -7881775.1100692749 -2512092.3762207031 0 0 0 0 -95444.637155575678 -6590545.494462736 0 -6590545.494462736 -9265126.653914988 0 0 0 0 -35552356.769509934 -14502439.998840794 0 -14502439.998840794 -3020817.1756590754 0 0 0 0 -28383860.438044854 -34032618.576844901 0 -34032618.576844901 -5378489.6376710832 0 0 0 0 -115076788.11108398 -86753434.793823242 0 -86753434.793823242 10686396.388061523 0 0 0 0 -65752834.954475403 -11082539.76845932 0 -11082539.76845932 63305671.39553833 0 0 0 0 -4361429.8025843389 -26589457.592492554 0 -26589457.592492554 -26338416.510705635 0 0 0 0 -71661379.806564331 64217536.761764526 0 64217536.761764526 163273413.19232178 0 0 0 0 -86701680.261993408 -53776194.846862793 0 -53776194.846862793 -54731275.287841797 0 0 0 0 -57159341.207977295 -91555757.954956055 0 -91555757.954956055 -23312522.035064697 0 0 0 0 -6051169.6218829304 -4521264.1376479045 0 -4521264.1376479045 -3064822.4891865551 0 0 0 0 -44184060.948356628 -54182101.466751099 0 -54182101.466751099 -51157043.836486816 0 0 0 0 -4287046.8977587819 -2745619.4082133323 0 -2745619.4082133323 -1007380.7175584882 0 0 0 0 -19362805.5284729 53007618.81602478 0 53007618.81602478 31333238.93649292 0 0 0 0 -94806710.394256592 -86983130.787734985 0 -86983130.787734985 100597725.79608154 0 0 0 0 -94418927.238062859 -41393339.730226517 0 -41393339.730226517 -29155690.526489258 0 0 0 0 -75515938.86541748 -149736461.69288635 0 -149736461.69288635 -168256180.30911255 0 0 0 0 -34121826.121908665 -2670438.5902066231 0 -2670438.5902066231 -7974996.3571472168 0 0 0 0 -742211.28379134089 -1550493.4470639229 0 -1550493.4470639229 -1690042.8102954812 0 0 0 0 -62607222.63470459 -107467097.42614746 0 -107467097.42614746 -66608031.554794312 0 0 0 0 -35392877.534974098 -78219830.115341902 0 -78219830.115341902 -87515261.192932129 0 0 0 0 -70019179.196014404 -89324741.64642334 0 -89324741.64642334 -53534519.808197021 0 0 0 0 -23647784.806945801 -80840833.61920166 0 -80840833.61920166 -71105994.37147522 0 0 0 0 -205670992.91436768 -106369111.71087646 0 -106369111.71087646 -18050109.260009766 0 0 0 0 -182695754.83856773 74885844.765598297 0 74885844.765598297 54345155.36315918 0 0 0 0 3443663.2958679199 54101297.496917725 0 54101297.496917725 -55876368.220581055 0 0 0 0 -3112483.2198258755 -27918650.526162185 0 -27918650.526162185 -33158687.681178421 0 0 0 0 82792366.190727234 -48949877.284713745 0 -48949877.284713745 -92768293.717285156 0 0 0 0 16806579.037010193 -109611517.22050476 0 -109611517.22050476 -21065446.814239502 0 0 0 0 -7792056.801361084 -73835821.353683472 0 -73835821.353683472 -64552889.574951172 0 0 0 0 -87161784.601760864 -109699870.63562012 0 -109699870.63562012 -54226599.554840088 0 0 0 0 -51061810.642211914 -112423409.29611206 0 -112423409.29611206 -72660857.596679688 0 0 0 0 -39821030.785217285 -35544679.435134888 0 -35544679.435134888 -56149078.405433655 0 0 0 0 2429455.206284523 -56061685.395812988 0 -56061685.395812988 -64070361.93145752 0 0 0 0 3695572.1139144897 -44888917.949523926 0 -44888917.949523926 -44758858.450683594 0 0 0 0 6875497.889541626 -39702821.199188232 0 -39702821.199188232 -33960957.774269104 0 0 0 0 17541453.219249725 -46092956.433395386 0 -46092956.433395386 -56430794.072387695 0 0 0 0 -1694223.0578632355 -54845404.803161621 0 -54845404.803161621 -57778364.821136475 0 0 0 0 -20423296.231481314 -50158339.531013489 0 -50158339.531013489 -47157997.80166626 0 0 0 0 -29246217.036169529 -75015491.426002502 0 -75015491.426002502 -57193005.183197021 0 0 0 0 -26354367.170105934 -63536858.25163269 0 -63536858.25163269 -66288807.264518738 0 0 0 0 -23237643.664494369 -38616363.806577675 0 -38616363.806577675 -1847131.2556211352 0 0 0 0 -195804575.69883728 43375757.492004395 0 43375757.492004395 58639501.352294922 0 0 0 0 3823127.3337554932 -67145756.622055054 0 -67145756.622055054 -95076399.316848755 0 0 0 0 -125812045.74549103 -40511259.774841309 0 -40511259.774841309 56105768.887466431 0 0 0 0 -1377748.0088668913 -8682160.6321525127 0 -8682160.6321525127 -3262811.6462456156 0 0 0 0 -13179309.888763428 27953167.011413574 0 27953167.011413574 -43724858.467163086 0 0 0 0 -3712128.5961689251 -39381907.378048494 0 -39381907.378048494 -38783714.938593209 0 0 0 0 -39463030.83165741 -44011112.085987091 0 -44011112.085987091 42850958.723144531 0 0 0 0 61721665.539898872 -38994539.490203857 0 -38994539.490203857 -38882130.731506348 0 0 0 0 -21730809.470672607 -27656696.219192505 0 -27656696.219192505 15844372.539031982 0 0 0 0 -29783074.797336578 -82115013.618172646 0 -82115013.618172646 -30103298.79574585 0 0 0 0 -2537084.2945556641 -30927282.728500366 0 -30927282.728500366 -25093329.021097183 0 0 0 0 -12206753.529178619 -47199512.410892487 0 -47199512.410892487 -16692834.677261353 0 0 0 0 -19092109.613357544 -47868517.799243927 0 -47868517.799243927 -10789117.898147583 0 0 0 0 -33918025.489448547 -45939166.154602051 0 -45939166.154602051 -25955950.262462616 0 0 0 0 -10261510.09810093 -34504475.753975227 0 -34504475.753975227 -20281402.764421694 0 0 0 0 -9864805.2901153564 -41756958.314491272 0 -41756958.314491272 -20517664.554069519 0 0 0 0 -17076378.824586868 -34172890.246240616 0 -34172890.246240616 -18971205.472122192 0 0 0 0 98429587.708312988 -63730584.885181427 0 -63730584.885181427 -78690004.551208496 0 0 0 0 40397089.299977779 -102086.63825511932 0 -102086.63825511932 -97528018.643737793 0 0 0 0 2249766.3621025085 -34950194.482521057 0 -34950194.482521057 -49972546.466766357 0 0 0 0 -135832297.35697174 5399137.0782775879 0 5399137.0782775879 7861654.2245330811 0 0 0 0 -255964763.80335999 16185375.148071289 0 16185375.148071289 22248785.546096802 0 0 0 0 497517.16769040702 -739185.71219986305 0 -739185.71219986305 56472.018492415547 0 0 0 0 64679143.438529968 12141469.124359131 0 12141469.124359131 -186554816.17767334 0 0 0 0 669465.05664300174 -703948.47118152678 0 -703948.47118152678 287840.83077941835 0 0 0 0 -20820141.612640381 47801296.757141113 0 47801296.757141113 -85920514.612548828 0 0 0 0 -7707920.8768098122 -32129504.649047438 0 -32129504.649047438 -13361989.169872269 0 0 0 0 107735965.16547012 -80466952.038261414 0 -80466952.038261414 -74034965.517730713 0 0 0 0 -41790599.771202087 -148657066.36138916 0 -148657066.36138916 -28198817.252738953 0 0 0 0 -89496179.773704529 -91940811.503540039 0 -91940811.503540039 13981212.949915886 0 0 0 0 -233274644.68428612 -61845429.725727081 0 -61845429.725727081 12567296.965148926 0 0 0 0 -76264075.502792358 -52741252.294204712 0 -52741252.294204712 42304456.063613892 0 0 0 0 -18807467.945631027 -15954455.56627655 0 -15954455.56627655 9271658.7991638184 0 0 0 0 33403351.392911911 -20578388.520881653 0 -20578388.520881653 -6033927.3538360596 0 0 0 0 -75347407.221832275 -53991308.806304932 0 -53991308.806304932 -8337256.034286499 0 0 0 0 -25696993.044385381 -17138979.136551127 0 -17138979.136551127 -276328.96870115399 0 0 0 0 -95474689.818328857 -21156843.436218262 0 -21156843.436218262 23308007.684570312 0 0 0 0 4069213.9764404297 -3843397.5639953613 0 -3843397.5639953613 -2526912.6519775391 0 0 0 0 -6556990.2005301863 -5517589.9156633783 0 -5517589.9156633783 3258655.97767663 0 0 0 0 11539123.636433799 -1040481.8492524251 0 -1040481.8492524251 -4736680.8925534487 0 0 0 0 -19325644.68785014 -25434639.135996692 0 -25434639.135996692 -14458833.091371223 0 0 0 0 25422465.938972473 -62971506.770172119 0 -62971506.770172119 -35995309.542051315 0 0 0 0 4054402.5350118298 -26738603.822068654 0 -26738603.822068654 -19404310.34927766 0 0 0 0 40030406.958374023 -53735384.483215332 0 -53735384.483215332 -34540384.812767029 0 0 0 0 13954974.647864332 -28341489.645105015 0 -28341489.645105015 -23009653.371115059 0 0 0 0 36951735.291555405 -63800095.17993927 0 -63800095.17993927 -67144292.353881836 0 0 0 0 103802192.77614594 -34884272.964172363 0 -34884272.964172363 -54863171.318664551 0 0 0 0 16575850.814533234 -79776083.218597412 0 -79776083.218597412 -37177283.405899048 0 0 0 0 22553099.070503235 -62693576.609931946 0 -62693576.609931946 -16696798.020904541 0 0 0 0 -51191285.719032288 -119262303.72660065 0 -119262303.72660065 5832413.4260559082 0 0 0 0 18801923.208212972 -123861132.79528522 0 -123861132.79528522 -40773984.147613525 0 0 0 0 -133883926.18345833 -96856441.280174255 0 -96856441.280174255 35529566.173461914 0 0 0 0 -79990826.55242157 -155266444.12583923 0 -155266444.12583923 -15604209.391891479 0 0 0 0 -36717439.149124146 -165808006.56756592 0 -165808006.56756592 -13161501.343582153 0 0 0 0 -252745924.08174133 -359966970.04212189 0 -359966970.04212189 -185821428.7300415 0 0 0 0 -35548922.458324432 -171328250.72853088 0 -171328250.72853088 -75770917.05027771 0 0 0 0 105580609.72879791 -154053735.32211304 0 -154053735.32211304 -189832419.92150879 0 0 0 0 254995619.83707428 -56465543.896438599 0 -56465543.896438599 -166064699.29470825 0 0 0 0 39574025.595552444 -105273346.09015656 0 -105273346.09015656 -15686815.108673096 0 0 0 0 32168617.890605927 -19447213.688598633 0 -19447213.688598633 -474056594.51683044 0 0 0 0 -505355987.18691635 -3456306.2986106873 0 -3456306.2986106873 -37656126.359680176 0 0 0 0 -26184485.469745636 -87236186.927688599 0 -87236186.927688599 -68381824.472549438 0 0 0 0 -97784614.112892151 38211339.056304932 0 38211339.056304932 107958190.04609108 0 0 0 0 192305008.77048683 100040181.2358017 0 100040181.2358017 -144993298.64483643 0 0 0 0 -44286533.534548759 -85060953.922607422 0 -85060953.922607422 -61340552.769424438 0 0 0 0 235910079.29402161 14763966.442489624 0 14763966.442489624 1076142.9719238281 0 0 0 0 5058445.5444745179 -27255351.353807569 0 -27255351.353807569 1762590.4500712752 0 0 0 0 -44256188.802957535 -83978035.473892212 0 -83978035.473892212 -55232008.26133728 0 0 0 0 -38094279.045257568 -66746102.88886261 0 -66746102.88886261 -1076485.3056640625 0 0 0 0 -23634433.165223084 -32500553.220620722 0 -32500553.220620722 8138163.2434648052 0 0 0 0 22417325.120629571 -23009525.724673159 0 -23009525.724673159 -28754529.87356171 0 0 0 0 -34317842.910493851 -74618485.024665833 0 -74618485.024665833 -46545787.503936768 0 0 0 0 88519098.440734863 -9891937.3402709961 0 -9891937.3402709961 -69455550.934555054 0 0 0 0 177172779.09059334 90281703.915428162 0 90281703.915428162 40645315.481262207 0 0 0 0 -3363860.5023593865 -8025007.7042615786 0 -8025007.7042615786 1083403.1537338682 0 0 0 0 9950023.1969451904 16526659.830184937 0 16526659.830184937 112601332.10493469 0 0 0 0 -50491533.1953125 406028.49655151367 0 406028.49655151367 133541214.70126343 0 0 0 0 -70017613.829162598 29057932.661651611 0 29057932.661651611 142435239.8848877 0 0 0 0 52094.997894287109 175465.11898803711 0 175465.11898803711 137331079.45231628 0 0 0 0 7854344.0891723633 -1137760.4039611816 0 -1137760.4039611816 116677862.41569519 0 0 0 0 8353278.6211700439 -6463643.4487457275 0 -6463643.4487457275 126045903.03556824 0 0 0 0 -88980636.757736206 -22121577.01473999 0 -22121577.01473999 -105220742.05078125 0 0 0 0 -2496068.6532905251 -2424945.6738518253 0 -2424945.6738518253 -947155.52017211728 0 0 0 0 -41750271.350921631 -12300664.439590454 0 -12300664.439590454 -172112921.08139992 0 0 0 0 -904269.43293344975 -1027103.3133608475 0 -1027103.3133608475 -247643.50991335511 0 0 0 0 39868597.429443359 -56587016.835853577 0 -56587016.835853577 45028704.898101807 0 0 0 0 48884645.54598999 -254389519.8031311 0 -254389519.8031311 -473672446.22001648 0 0 0 0 -115573867.57086182 -148375576.15496826 0 -148375576.15496826 -354850523.70758057 0 0 0 0 -203041958.13439941 -234640836.18707275 0 -234640836.18707275 -257560026.57672119 0 0 0 0 127432.65472391248 -927322.08085664362 0 -927322.08085664362 -964813.36944457889 0 0 0 0 -131271875.27297974 111771853.57270813 0 111771853.57270813 -7089711.0633773804 0 0 0 0 -199978219.2840271 -318037125.42152405 0 -318037125.42152405 -217240778.44891357 0 0 0 0 -16650890.538269237 -17499394.537978426 0 -17499394.537978426 1481287.2065403387 0 0 0 0 25343026.597007751 -87610796.940654755 0 -87610796.940654755 -216872840.68960571 0 0 0 0 -232082539.14602661 -194618387.14874268 0 -194618387.14874268 -24119969.526412964 0 0 0 0 13963682.162658691 -54085760.743804932 0 -54085760.743804932 16583298.285980225 0 0 0 0 -172942854.71011353 7487626.78465271 0 7487626.78465271 153297895.38595581 0 0 0 0 -134478357.10118103 31580627.206317902 0 31580627.206317902 157890785.90689087 0 0 0 0 -15662706.588867188 11439278.101924896 0 11439278.101924896 69357747.526802063 0 0 0 0 -51229606.219642639 -84604741.417457581 0 -84604741.417457581 44746634.010131836 0 0 0 0 -33645441.152015895 -28202276.824524581 0 -28202276.824524581 5172997.3659175318 0 0 0 0 -19862498.096847534 22745876.904296875 0 22745876.904296875 46794327.829238892 0 0 0 0 -28121446.718856812 -26645738.393630981 0 -26645738.393630981 41821395.421958923 0 0 0 0 -32331692.107245326 -22680033.708397411 0 -22680033.708397411 5560792.5654846914 0 0 0 0 41961262.64956665 58512569.882568359 0 58512569.882568359 130712619.93032074 0 0 0 0 -75087336.343338013 -325349886.70447922 0 -325349886.70447922 -79955642.524612427 0 0 0 0 193073376.6993103 -101035974.18670273 0 -101035974.18670273 -57743461.41847229 0 0 0 0 -32022622.159485236 -22746915.414198741 0 -22746915.414198741 5109057.8809863664 0 0 0 0 -102898778.42422485 -165782534.41264343 0 -165782534.41264343 -24567378.777950287 0 0 0 0 -112940758.34384155 -157954725.00002289 0 -157954725.00002289 40475916.959442139 0 0 0 0 -400070108.55899048 -107632625.16860199 0 -107632625.16860199 94881500.431335449 0 0 0 0 -235575964.90551758 -216589982.95794678 0 -216589982.95794678 71716834.388946533 0 0 0 0 -258266326.65470886 -76409798.881892204 0 -76409798.881892204 81503162.276641846 0 0 0 0 -298484178.39508057 11706387.587631226 0 11706387.587631226 53645278.61267662 0 0 0 0 -391772838.15322876 -218515126.7011261 0 -218515126.7011261 75451105.595848083 0 0 0 0 -87156106.862060547 41094403.905593872 0 41094403.905593872 -99446329.892120361 0 0 0 0 -81657738.993888855 -28906999.199021339 0 -28906999.199021339 -48760152.138183594 0 0 0 0 2985646.7871208936 -2466470.9602486379 0 -2466470.9602486379 -3080246.7504234165 0 0 0 0 166016219.00244141 -358264215.04329681 0 -358264215.04329681 95168230.769943237 0 0 0 0 156905981.71722412 261844718.16129684 0 261844718.16129684 -558669805.46789551 0 0 0 0 38670222.210449219 -35718387.269073486 0 -35718387.269073486 -187590787.65235901 0 0 0 0 587167846.996521 -260724983.83454895 0 -260724983.83454895 -642315415.96133423 0 0 0 0 -831733577.35229492 447137451.45300293 0 447137451.45300293 339578555.83495331 0 0 0 0 6365452.4397277832 -41464921.232406616 0 -41464921.232406616 -19577503.512817383 0 0 0 0 -9040915.862365488 -27415602.212746952 0 -27415602.212746952 -5316803.4936787039 0 0 0 0 -7041234.2472229004 -22010747.726249695 0 -22010747.726249695 -5623814.0164089203 0 0 0 0 173679914.36126709 -63136195.353218079 0 -63136195.353218079 -122373543.67364502 0 0 0 0 -16718718.500855617 -35476898.840946689 0 -35476898.840946689 -22868403.20836091 0 0 0 0 34531715.067138672 -106552607.17828369 0 -106552607.17828369 -65573640.602962494 0 0 0 0 160290375.50067139 -77511800.07800293 0 -77511800.07800293 -116558084.39361572 0 0 0 0 32776888.277893066 -82723823.909454346 0 -82723823.909454346 36649667.500045776 0 0 0 0 -4212191.6075439453 -26976251.123569489 0 -26976251.123569489 -4553184.4168701172 0 0 0 0 23754843.628000364 -13504414.626088791 0 -13504414.626088791 -46791718.507962607 0 0 0 0 10025031.235946655 -5387669.692276001 0 -5387669.692276001 -55115804.132095337 0 0 0 0 85591263.313903809 -99733418.171585083 0 -99733418.171585083 -108473955.77079773 0 0 0 0 134984932.62463379 -38360001.109573364 0 -38360001.109573364 -69045098.294952393 0 0 0 0 41970283.049926758 -17849975.133865356 0 -17849975.133865356 -136213247.73709106 0 0 0 0 61683560.68359375 -84379870.649810791 0 -84379870.649810791 -92689157.861587524 0 0 0 0 77586130.768058777 -115264045.45766449 0 -115264045.45766449 -41936174.002044678 0 0 0 0 -8339562.8249424994 -32749731.596718725 0 -32749731.596718725 -19847119.050989732 0 0 0 0 -10584496.967617691 -43127559.975179441 0 -43127559.975179441 -29672597.658344418 0 0 0 0 -6607577.4575182227 -25619170.562666781 0 -25619170.562666781 -11441261.794669077 0 0 0 0 -12885520.605575562 -37890909.706001282 0 -37890909.706001282 -44535500.781906128 0 0 0 0 -68178746.137420654 -79245235.524543762 0 -79245235.524543762 79277565.022521973 0 0 0 0 9849344.6923370361 -6286559.7758636475 0 -6286559.7758636475 -35997115.768676758 0 0 0 0 -3846707.3727725148 -6650375.465646252 0 -6650375.465646252 2192947.5099325925 0 0 0 0 144088759.17883301 -125725763.3031311 0 -125725763.3031311 40393078.498390198 0 0 0 0 -588117.07936809957 -1837421.314145714 0 -1837421.314145714 -1311658.1170208752 0 0 0 0 81494589.672210693 40403111.900112152 0 40403111.900112152 99365369.963104248 0 0 0 0 -6665485.7905757278 -12854053.132437855 0 -12854053.132437855 -3630098.3640288934 0 0 0 0 241733383.12487793 -94955540.011169434 0 -94955540.011169434 40949782.703826904 0 0 0 0 -1738621.1969909668 -28914406.830108643 0 -28914406.830108643 -30968935.87796402 0 0 0 0 -152157023.50445557 106057173.24328613 0 106057173.24328613 101737406.94351196 0 0 0 0 -11468517.18860817 -28030015.596755028 0 -28030015.596755028 -22806497.680633545 0 0 0 0 30772323.020248413 -193190247.77300262 0 -193190247.77300262 97521030.569671631 0 0 0 0 7595749.5666810274 -21828287.317716479 0 -21828287.317716479 -25598713.783813477 0 0 0 0 -5278679.5343394037 -16289607.430218399 0 -16289607.430218399 -14184822.774101228 0 0 0 0 -1651241.9366760254 7189027.2705383301 0 7189027.2705383301 124978542.75178528 0 0 0 0 -17147038.930557251 -16864686.590408325 0 -16864686.590408325 107172706.37838745 0 0 0 0 -13213799.382843018 -115935909.68193054 0 -115935909.68193054 208357211.94841766 0 0 0 0 -30296859.054902107 -25487123.052122585 0 -25487123.052122585 2232872.1009653956 0 0 0 0 -70732696.875854492 20959971.835662842 0 20959971.835662842 108473072.47386932 0 0 0 0 -112676637.72277832 -10144710.175750732 0 -10144710.175750732 123101580.69934082 0 0 0 0 -36676433.05670166 -2005434.8839416504 0 -2005434.8839416504 123950235.43215942 0 0 0 0 -4057687.2931350768 -4686589.4284650981 0 -4686589.4284650981 -2097326.1135858074 0 0 0 0 36192274.372192383 -25182090.905349731 0 -25182090.905349731 -94898295.214630127 0 0 0 0 -44992367.430175781 -19051390.249435425 0 -19051390.249435425 109941807.24383545 0 0 0 0 -10842743.29888916 -13906279.054336548 0 -13906279.054336548 -54294065.747558594 0 0 0 0 22484558.615097046 -21073479.337230682 0 -21073479.337230682 -87358670.650543213 0 0 0 0 38949208.330749512 -37582967.60043335 0 -37582967.60043335 -80645899.297119141 0 0 0 0 28755373.123016357 -13798391.479431152 0 -13798391.479431152 -156795477.65328979 0 0 0 0 -11750289.582366943 -66508044.826271057 0 -66508044.826271057 89565517.190322876 0 0 0 0 57500140.412647247 -116583510.13835526 0 -116583510.13835526 -76899358.012115479 0 0 0 0 -5757320.2289581299 -29356152.822097778 0 -29356152.822097778 -18938279.563328743 0 0 0 0 9193864.3745269775 -43316388.195838928 0 -43316388.195838928 -19135349.035003662 0 0 0 0 18629106.58203125 -87814862.932662964 0 -87814862.932662964 -50433166.343780518 0 0 0 0 -11198542.069152832 -45821500.959106445 0 -45821500.959106445 -79743672.609973907 0 0 0 0 -782627.88435086608 -3173765.852470234 0 -3173765.852470234 -2108215.2393180728 0 0 0 0 56523797.897277832 -53351546.826766968 0 -53351546.826766968 -62724443.125427246 0 0 0 0 -20857262.57019043 -25799390.309494019 0 -25799390.309494019 -12191078.313522339 0 0 0 0 38099918.767669678 28188556.374160767 0 28188556.374160767 -49668696.506612778 0 0 0 0 7243413.8888990581 462149.47324498743 0 462149.47324498743 -6005870.6765810847 0 0 0 0 -6562267.8077907562 -34880018.482423782 0 -34880018.482423782 -16512097.656433105 0 0 0 0 -7008160.6947937012 -26620769.733825684 0 -26620769.733825684 -13819893.748062134 0 0 0 0 -7038206.1851806641 -29407992.496536255 0 -29407992.496536255 -23866330.542236328 0 0 0 0 16301167.778686523 -16549296.584289551 0 -16549296.584289551 -45966175.411010742 0 0 0 0 -14416232.4947052 -31384266.690574646 0 -31384266.690574646 -7819646.703704834 0 0 0 0 -3715230.1987032294 -13045128.655835308 0 -13045128.655835308 -6660698.5005962774 0 0 0 0 -4519310.5293446863 -15871222.837424748 0 -15871222.837424748 -17322452.832507044 0 0 0 0 48472338.872781277 -11556772.893940449 0 -11556772.893940449 -15270050.312255859 0 0 0 0 -56823626.250061035 -12183455.875610352 0 -12183455.875610352 146064322.91514587 0 0 0 0 -3165440.3493291438 -7437060.4037700072 0 -7437060.4037700072 -4442542.8189585172 0 0 0 0 5425504.4321498871 -6561818.9390478134 0 -6561818.9390478134 -1400240.3686523438 0 0 0 0 3176378.0028080717 -12002076.02217159 0 -12002076.02217159 -11373657.237634152 0 0 0 0 -11485114.542021133 -9400061.9683625996 0 -9400061.9683625996 -9906250.1414757371 0 0 0 0 7024591.2047700882 -18124621.924340576 0 -18124621.924340576 -17605170.750089884 0 0 0 0 19262146.486022949 -44557902.766433716 0 -44557902.766433716 98700438.877807617 0 0 0 0 10047285.117294312 -40023010.760971069 0 -40023010.760971069 -29128438.169025421 0 0 0 0 -9412179.4394989014 -92144299.718841553 0 -92144299.718841553 -35871276.647521973 0 0 0 0 -2217996.9914177549 -3030968.0166317336 0 -3030968.0166317336 304241.03094922006 0 0 0 0 -244286112.03018188 83119874.121124268 0 83119874.121124268 301329593.53344727 0 0 0 0 286318142.4024353 -449014242.91714478 0 -449014242.91714478 -399539144.23608398 0 0 0 0 23184374.810272217 -10020946.43548584 0 -10020946.43548584 65299460.25491333 0 0 0 0 46019672.428039551 -13570152.279983521 0 -13570152.279983521 -7884097.5834655762 0 0 0 0 32541186.681381226 -63003324.308868408 0 -63003324.308868408 3123334.4809265137 0 0 0 0 -13994283.433225453 -21210639.557154309 0 -21210639.557154309 -15541003.869257972 0 0 0 0 5589914.0178656578 -61525212.304717183 0 -61525212.304717183 21820917.667907715 0 0 0 0 6919988.1022796631 -38827317.349273682 0 -38827317.349273682 2686796.9717679024 0 0 0 0 -16412875.591049194 -29794849.423248291 0 -29794849.423248291 -20893941.339782715 0 0 0 0 7712927.5980682373 -24954244.284515381 0 -24954244.284515381 -28184076.104797363 0 0 0 0 -18942196.089752197 -45104575.537017822 0 -45104575.537017822 -9346201.4888305664 0 0 0 0 5133754.0202598572 -23046302.288518906 0 -23046302.288518906 -53137664.379455566 0 0 0 0 -91817082.250175476 -91973392.906829834 0 -91973392.906829834 -44469037.371124268 0 0 0 0 -40949311.416229248 -31857537.979133606 0 -31857537.979133606 -7236678.4493713379 0 0 0 0 -26616275.347839355 -55521799.622673035 0 -55521799.622673035 -8204981.7963476181 0 0 0 0 -7123770.4897460938 -17424885.887008667 0 -17424885.887008667 -10613280.72164917 0 0 0 0 -81606495.547897339 -24349716.969650269 0 -24349716.969650269 24239030.479705811 0 0 0 0 -63950468.825958252 -45869897.677322388 0 -45869897.677322388 -58431257.549041748 0 0 0 0 -485825.82632179558 -46551.698712423444 0 -46551.698712423444 420094.24356517196 0 0 0 0 52924779.987129211 31185003.590179443 0 31185003.590179443 15595384.528411865 0 0 0 0 30603259.520263672 52257487.192840576 0 52257487.192840576 49352399.95112133 0 0 0 0 -46175236.420379639 46063770.13482666 0 46063770.13482666 53664392.872161865 0 0 0 0 -3512857.0659179688 7060043.3514556885 0 7060043.3514556885 -66711513.14630127 0 0 0 0 23819665.229736328 42693504.053237915 0 42693504.053237915 -29551896.390441895 0 0 0 0 -74771568.189834595 3114174.6676635742 0 3114174.6676635742 -5805665.1184844971 0 0 0 0 -10841359.677719221 -5666504.546072945 0 -5666504.546072945 16073379.971419498 0 0 0 0 -73051179.745117188 10108704.157318115 0 10108704.157318115 12839852.877960205 0 0 0 0 -192599506.69068909 -164727551.74389648 0 -164727551.74389648 20731667.9296875 0 0 0 0 -10311764.814946473 -6395810.4197293445 0 -6395810.4197293445 13744504.627989113 0 0 0 0 -65565338.74420166 -93068472.878982544 0 -93068472.878982544 55054902.538520336 0 0 0 0 -52580372.316062927 -67624731.749898911 0 -67624731.749898911 -61970560.951263428 0 0 0 0 -409005.60821957886 -99105.926366843283 0 -99105.926366843283 1085517.0773181096 0 0 0 0 -187159382.63541412 -182306371.60041809 0 -182306371.60041809 -183632129.66220093 0 0 0 0 -238589681.10083008 -148028686.36045837 0 -148028686.36045837 -162556825.33363628 0 0 0 0 -206686385.60821533 -12912319.01725769 0 -12912319.01725769 13580316.057556152 0 0 0 0 -148641671.36947632 -6397727.2854919434 0 -6397727.2854919434 -77828704.984771729 0 0 0 0 47127645.488601685 18235909.046097279 0 18235909.046097279 -112787764.88031006 0 0 0 0 -10960458.638125479 -11642289.919592187 0 -11642289.919592187 -10470737.15902108 0 0 0 0 -54173062.82800293 36745643.857292175 0 36745643.857292175 106577230.52304077 0 0 0 0 -56036715.105804443 -69504247.402923584 0 -69504247.402923584 -65525310.199783325 0 0 0 0 -11494830.64941971 -11531303.065314218 0 -11531303.065314218 4430846.7825662047 0 0 0 0 -42860117.28302002 -31277282.950180054 0 -31277282.950180054 -46690148.680206299 0 0 0 0 -3504499.624427177 -3288233.0225563645 0 -3288233.0225563645 -2524615.4288815111 0 0 0 0 34168816.231231689 98727677.503707886 0 98727677.503707886 91285121.161743164 0 0 0 0 -739253.95445279777 -32867.348135486245 0 -32867.348135486245 562206.28922244906 0 0 0 0 8612388.5514221191 66543567.795379639 0 66543567.795379639 104752954.97451782 0 0 0 0 -370857475.26785278 -97889262.634872437 0 -97889262.634872437 65282969.134613037 0 0 0 0 -402760566.11871338 -67066710.391937256 0 -67066710.391937256 58732672.17980957 0 0 0 0 67092922.787277222 14315365.661575317 0 14315365.661575317 -119991659.8102417 0 0 0 0 -303460875.74612427 -109845073.97912598 0 -109845073.97912598 -14021716.393737793 0 0 0 0 -308609014.31330872 -46929231.630226135 0 -46929231.630226135 -355447390.92419434 0 0 0 0 -1044438.0476657748 -40278.253078445792 0 -40278.253078445792 810544.98780491948 0 0 0 0 5598821.235534668 107837666.56422424 0 107837666.56422424 33711840.910369873 0 0 0 0 -16251315.758413315 -68009591.559398651 0 -68009591.559398651 126791343.18588257 0 0 0 0 -21098469.871139526 16003608.736083984 0 16003608.736083984 31441120.183746338 0 0 0 0 10295202.727279663 -19418699.308425903 0 -19418699.308425903 48627149.658769608 0 0 0 0 361078.29786898196 -673239.35466973484 0 -673239.35466973484 119507.16212749481 0 0 0 0 -642193492.11520386 -143348128.52156067 0 -143348128.52156067 -403459250.31097412 0 0 0 0 -349871847.33143616 -438227465.94800568 0 -438227465.94800568 -985428985.66464233 0 0 0 0 -1924673866.3228607 -786043165.54937744 0 -786043165.54937744 -386693571.0196991 0 0 0 0 -4259297857.493927 -1290671213.9684296 0 -1290671213.9684296 831865052.77293396 0 0 0 0 -2528797554.8267136 -3201555293.2546616 0 -3201555293.2546616 -1925341547.0338135 0 0 0 0 -766843336.57870483 -395499843.15481567 0 -395499843.15481567 -525294930.60612488 0 0 0 0 -34177410.076751709 -41086117.898483276 0 -41086117.898483276 385663667.04837036 0 0 0 0 -414497277.96222687 -279487921.80673218 0 -279487921.80673218 303685554.44042969 0 0 0 0 -569789713.8013916 -660110995.64691162 0 -660110995.64691162 -249202062.23516846 0 0 0 0 -173853095.25485229 -201921841.02053833 0 -201921841.02053833 -656960776.66888428 0 0 0 0 551175.62137298286 -2411953.2991648465 0 -2411953.2991648465 910734.78815066069 0 0 0 0 24361049.651641846 7942683.6688079834 0 7942683.6688079834 14017993.43781662 0 0 0 0 866273169.75784302 -432003932.52603149 0 -432003932.52603149 -684276624.88299561 0 0 0 0 -172661624.20441151 -176024114.43448162 0 -176024114.43448162 -127304346.19869995 0 0 0 0 -545620750.1875 570527336.76513672 0 570527336.76513672 142757613.87390137 0 0 0 0 -18753045.576873779 429738.36717224121 0 429738.36717224121 25083978.397735596 0 0 0 0 -2695180.602437228 -5186952.8428256214 0 -5186952.8428256214 3393069.5312172621 0 0 0 0 -13781584.038146973 -9032908.2075195312 0 -9032908.2075195312 14034320.253173828 0 0 0 0 -40542242.754455566 -10408745.583862305 0 -10408745.583862305 24431380.66003418 0 0 0 0 -39180395.048866272 -20564670.348033905 0 -20564670.348033905 11811740.958496094 0 0 0 0 -12602073.462097168 24260577.944732666 0 24260577.944732666 47197362.761878967 0 0 0 0 -41623023.067848206 -12552665.552307129 0 -12552665.552307129 22187879.215637207 0 0 0 0 -186896603.3710022 -331526289.23855591 0 -331526289.23855591 -340899720.66381836 0 0 0 0 -129600200.4520874 -97750051.883361816 0 -97750051.883361816 -100408784.38618243 0 0 0 0 -429576372.24301147 -331566060.4055481 0 -331566060.4055481 -100120556.19396973 0 0 0 0 -720112688.31866455 37617836.308990479 0 37617836.308990479 156092652.38806152 0 0 0 0 8966204.0590515137 -38177284.944458008 0 -38177284.944458008 -85229929.340087891 0 0 0 0 -150239795.30680847 -56992233.006614685 0 -56992233.006614685 70084234.122192383 0 0 0 0 -76988499.796905518 -118827778.2243042 0 -118827778.2243042 116739605.96380615 0 0 0 0 -124835492.38601685 -122561567.25189209 0 -122561567.25189209 -62582236.899658203 0 0 0 0 -160096581.22860718 -127192759.53591919 0 -127192759.53591919 -1664382.7829589844 0 0 0 0 -170566859.6456604 -95605636.951812744 0 -95605636.951812744 -38265576.778808594 0 0 0 0 -2153817.6442928333 -1504749.2879499197 0 -1504749.2879499197 1141842.7647063881 0 0 0 0 318457673.97203064 -189629787.76278687 0 -189629787.76278687 53802912.1328125 0 0 0 0 243229955.57557678 343659970.58825684 0 343659970.58825684 -147135738.67538452 0 0 0 0 26013942.558441162 -516776324.59155273 0 -516776324.59155273 -139811504.67544365 0 0 0 0 49423655.692932129 -109607258.82574463 0 -109607258.82574463 -16753775.87097168 0 0 0 0 -39247658.477264404 -22938917.057312012 0 -22938917.057312012 10656113.342254639 0 0 0 0 -7055223.8499397803 -5706494.8918073699 0 -5706494.8918073699 3245018.6839364022 0 0 0 0 -33839776.569328308 -24879047.076303482 0 -24879047.076303482 3570412.6052246094 0 0 0 0 -5709899.0724377409 -5639367.770387128 0 -5639367.770387128 3152715.2803132534 0 0 0 0 17178798.04750061 38073897.472244263 0 38073897.472244263 34771266.032623291 0 0 0 0 -91583656.407989025 -39290958.025538921 0 -39290958.025538921 31951211.871582031 0 0 0 0 -129635811.76370239 -26641024.658752441 0 -26641024.658752441 40236710.675132751 0 0 0 0 -89393040.139007568 36202313.58807373 0 36202313.58807373 137137441.04716873 0 0 0 0 -74368296.986541748 -732225.54895019531 0 -732225.54895019531 46296096.490844727 0 0 0 0 -19501760.340324387 -1940391.4809446484 0 -1940391.4809446484 9797211.1409766078 0 0 0 0 -57813046.101959229 -7240165.1959075928 0 -7240165.1959075928 18122753.378908157 0 0 0 0 -39394412.226654053 -10997452.137924194 0 -10997452.137924194 17676613.169799805 0 0 0 0 -87771946.004058838 6094293.1003723145 0 6094293.1003723145 85017256.708274841 0 0 0 0 -38675225.417938232 -135529068.22479248 0 -135529068.22479248 -16443526.44052124 0 0 0 0 -5241782629.3067322 -4996071222.4945068 0 -4996071222.4945068 -3117496900.9645576 0 0 0 0 -7277594.9364549667 1535686.7250462919 0 1535686.7250462919 -1523921.9576765448 0 0 0 0 -6271468765.9950142 -3000569785.6617279 0 -3000569785.6617279 -1267379315.2463074 0 0 0 0 -3824716344.2907257 -2035902841.5227509 0 -2035902841.5227509 -1577891768.2142334 0 0 0 0 -141936419.45724487 245799493.57498169 0 245799493.57498169 84328396.564331055 0 0 0 0 42910844.002334595 8867295.4609603882 0 8867295.4609603882 -61512433.871032715 0 0 0 0 -435766247.27359009 140146045.68563843 0 140146045.68563843 96540254.607971191 0 0 0 0 -621606.58906093985 -1846058.9704648703 0 -1846058.9704648703 -25478.723356068134 0 0 0 0 -379247640.66204834 -153382068.05651855 0 -153382068.05651855 -101247517.64624023 0 0 0 0 -13512794.893066406 -20420005.713912964 0 -20420005.713912964 -10097847.173522949 0 0 0 0 -13454116.282814026 -20979642.240539551 0 -20979642.240539551 -17948068.459457397 0 0 0 0 -525496.15937805176 -31147104.07723999 0 -31147104.07723999 -13424702.71661377 0 0 0 0 -9326223.9187316895 -18837456.391616821 0 -18837456.391616821 -23220329.287628174 0 0 0 0 10238247.465103149 -28240874.452636719 0 -28240874.452636719 -15949803.630340576 0 0 0 0 -820858.31117248535 -23609154.973175049 0 -23609154.973175049 -18583845.655441284 0 0 0 0 5544264.8467559814 -31885884.060417175 0 -31885884.060417175 -14840476.546325684 0 0 0 0 14983571.355133057 -33465911.841491699 0 -33465911.841491699 -14612806.017288208 0 0 0 0 3353224.5472106934 -24231575.092987061 0 -24231575.092987061 -12084932.97605896 0 0 0 0 -4459417.8479712903 -13880350.539136618 0 -13880350.539136618 -4585603.5692890435 0 0 0 0 14642178.855758667 -26969147.393493652 0 -26969147.393493652 -20733109.012237549 0 0 0 0 -4203561.4294306785 -3513688.2171138227 0 -3513688.2171138227 2149041.7542871833 0 0 0 0 6386233.1531295776 -28981347.123252869 0 -28981347.123252869 -7581914.9546508789 0 0 0 0 -15402551.996760115 -25294636.187083028 0 -25294636.187083028 -13206715.213643193 0 0 0 0 15186695.059932709 -40108984.647684097 0 -40108984.647684097 -8390580.0928039551 0 0 0 0 -6282583.4839172363 -10257906.101074219 0 -10257906.101074219 2206699.5009765625 0 0 0 0 -12201880.960572004 -9513660.7337149382 0 -9513660.7337149382 13654548.355330914 0 0 0 0 -2229637.679107666 -7694659.3513793945 0 -7694659.3513793945 4789570.8847694397 0 0 0 0 -3035380.7349243164 -4618677.7771606445 0 -4618677.7771606445 7188491.2330627441 0 0 0 0 -5982209.7754516602 -11928547.501953125 0 -11928547.501953125 4121666.3379516602 0 0 0 0 -13981049.395401001 -9079831.4937973022 0 -9079831.4937973022 15312536.60357666 0 0 0 0 -8914149.0267181396 -6433170.1277770996 0 -6433170.1277770996 1378942.677734375 0 0 0 0 -80585026.062255859 -95124102.418212891 0 -95124102.418212891 -240078881.5456543 0 0 0 0 -80585026.06237793 -95124102.418334961 0 -95124102.418334961 -240078881.54571533 0 0 0 0 -80585026.062255859 -95124102.418395996 0 -95124102.418395996 -240078881.5456543 0 0 0 0 -2869873.4204215482 -7134504.5449749008 0 -7134504.5449749008 3792311.9392274618 0 0 0 0 -82817661.883605957 -78996673.1328125 0 -78996673.1328125 -51013232.18057251 0 0 0 0 -1029013.1724969596 -10153416.450982898 0 -10153416.450982898 -439149.4999647364 0 0 0 0 -144986490.41607666 -97481568.797973633 0 -97481568.797973633 -30114438.203292847 0 0 0 0 -85230212.716537476 -63408051.547515869 0 -63408051.547515869 -127110378.61621094 0 0 0 0 -145130565.91293335 -148859060.2454071 0 -148859060.2454071 -143502986.01843262 0 0 0 0 -89413093.474437714 -46421742.667238235 0 -46421742.667238235 1904130.2174072266 0 0 0 0 -95934638.515487671 -55789405.353683472 0 -55789405.353683472 12782490.096817017 0 0 0 0 -115259369.7734375 -88103587.579803467 0 -88103587.579803467 -33055439.153739929 0 0 0 0 -63415802.203029633 -34254976.097766876 0 -34254976.097766876 -1415856.5784606934 0 0 0 0 -52579466.667373657 -22416679.437240601 0 -22416679.437240601 9838436.6930351257 0 0 0 0 -55701262.998962402 -44229287.865829468 0 -44229287.865829468 -22709625.216629028 0 0 0 0 -20001984.443634033 -39784731.287872314 0 -39784731.287872314 -5708661.9226531982 0 0 0 0 -1532067.7998771146 -16978818.910932921 0 -16978818.910932921 -6261937.9594389349 0 0 0 0 -59090478.26688385 -57130852.099647522 0 -57130852.099647522 -16968782.122314453 0 0 0 0 -67286415.84715271 -77522318.021972656 0 -77522318.021972656 -51102766.634475708 0 0 0 0 -18177485.741462708 -17613506.989776611 0 -17613506.989776611 -13873013.482910156 0 0 0 0 -25107868.693161011 -24274342.073318481 0 -24274342.073318481 -6400676.5721588135 0 0 0 0 -14097555.049987793 -32249101.320709229 0 -32249101.320709229 -1392459.5122070312 0 0 0 0 -8650676.5350761414 -23700274.887374878 0 -23700274.887374878 -12192874.54800415 0 0 0 0 -14876648.76385498 -16900024.889602661 0 -16900024.889602661 -13531501.692420959 0 0 0 0 -14912112.785736084 -16413745.688858032 0 -16413745.688858032 -13786604.876190186 0 0 0 0 -14881191.05329895 -17000897.892913818 0 -17000897.892913818 -16296823.871810913 0 0 0 0 40679392.109848022 -21648122.089294434 0 -21648122.089294434 -32924846.981697083 0 0 0 0 -17895899.330447879 -6383139.5801148936 0 -6383139.5801148936 67413.538338065147 0 0 0 0 -35929854.943474293 -19196575.62850666 0 -19196575.62850666 14607501.782714844 0 0 0 0 -15761499.451698303 -17749073.865432739 0 -17749073.865432739 -10456388.879364014 0 0 0 0 -8500184.4946393967 -45760881.768760681 0 -45760881.768760681 -7711125.6064453125 0 0 0 0 -12022547.843973503 -16966537.301102944 0 -16966537.301102944 -11954268.667980164 0 0 0 0 -52812632.059692383 -37101657.230728149 0 -37101657.230728149 -8990449.4088439941 0 0 0 0 -8184315.2160347849 -17108243.756997198 0 -17108243.756997198 -8535653.5365358591 0 0 0 0 -28489216.794552401 -24358238.57103315 0 -24358238.57103315 -6488455.7149566412 0 0 0 0 -37094468.164749146 -29653584.696289062 0 -29653584.696289062 -4129313.714263916 0 0 0 0 -51123025.687072754 -34176307.065597534 0 -34176307.065597534 -11130008.111053467 0 0 0 0 -47304493.342029572 -20469312.224485397 0 -20469312.224485397 2328519.9019165039 0 0 0 0 -25610449.404182509 -4513550.5102634281 0 -4513550.5102634281 6765466.1007671356 0 0 0 0 -48057242.562477112 -2802119.2646789551 0 -2802119.2646789551 15236071.392494202 0 0 0 0 -21259907.675117493 -5685223.4476547241 0 -5685223.4476547241 2594408.9954833984 0 0 0 0 -19013845.483840942 -8948111.2876586914 0 -8948111.2876586914 1475437.6244506836 0 0 0 0 -21044362.99651093 -3714370.9330313504 0 -3714370.9330313504 4359818.9505341649 0 0 0 0 -1750600.3642794788 1522925.6061839536 0 1522925.6061839536 1877209.2359775901 0 0 0 0 45464257.417915344 -122308803.50881958 0 -122308803.50881958 -444350136.21875 0 0 0 0 -201756108.49871826 -128012242.95645142 0 -128012242.95645142 598409683.64868164 0 0 0 0 -708542818.36303711 -137663734.74093628 0 -137663734.74093628 -272502165.64859009 0 0 0 0 -1419782993.6896057 -586535252.57865906 0 -586535252.57865906 -1022894.0875091553 0 0 0 0 -185229958.45317078 -283544850.96575928 0 -283544850.96575928 -839490349.64485168 0 0 0 0 -192725205.32182693 -1023396736.1343689 0 -1023396736.1343689 -1730057178.0438843 0 0 0 0 -254650690.66559601 -415580915.15188599 0 -415580915.15188599 -141923235.72299194 0 0 0 0 -165000724.24304008 281998952.60145187 0 281998952.60145187 -98580372.342956543 0 0 0 0 -45655614.531799316 -37852934.235664368 0 -37852934.235664368 -11219800.87286377 0 0 0 0 -87256024.464271545 -15594753.506439209 0 -15594753.506439209 75462791.423461914 0 0 0 0 -14426983.568063349 -7034489.0731745213 0 -7034489.0731745213 4216179.0592591316 0 0 0 0 -8019319.9507198036 -2798033.9385688156 0 -2798033.9385688156 2405858.9484269917 0 0 0 0 -12121873.320785522 -43411535.311889648 0 -43411535.311889648 2181890.830078125 0 0 0 0 21675892.396202087 8624217.8067626953 0 8624217.8067626953 -79086244.448974609 0 0 0 0 -75773196.398345947 -51971684.638244629 0 -51971684.638244629 15306990.595809937 0 0 0 0 -84145565.519546509 -99998316.497894287 0 -99998316.497894287 -64388434.47756958 0 0 0 0 20078046.766937256 -65915038.9413414 0 -65915038.9413414 -403486.05497741699 0 0 0 0 -10160175.461469825 -4571402.0729428828 0 -4571402.0729428828 3606034.800571844 0 0 0 0 -114023365.07907104 3984385.7192077637 0 3984385.7192077637 -145011.40187012823 0 0 0 0 -39380820.102645874 -6637142.3494873047 0 -6637142.3494873047 -14843541.133422852 0 0 0 0 -91178214.703956604 -10621676.213996887 0 -10621676.213996887 14235229.811340332 0 0 0 0 -3841119709.1454096 -2323402160.3208227 0 -2323402160.3208227 -653906556.84738159 0 0 0 0 -3859158728.807251 -2143369924.4549255 0 -2143369924.4549255 -559879456.00959778 0 0 0 0 -3854299828.3217964 -2494526596.5858593 0 -2494526596.5858593 -1010273692.4399414 0 0 0 0 -5055124347.3677292 -2561053923.6641312 0 -2561053923.6641312 -848129086.73114014 0 0 0 0 -4084983246.7507286 -1817232602.4960823 0 -1817232602.4960823 -351563276.42034912 0 0 0 0 -3432629576.137207 -3060905587.1690826 0 -3060905587.1690826 -3203297568.3932505 0 0 0 0 -2966612934.94244 -2044380346.0806389 0 -2044380346.0806389 -1259894863.9076538 0 0 0 0 -23988223.246219426 5000844.472957775 0 5000844.472957775 -744502.56252074242 0 0 0 0 -20433937.512435913 -12804717.590377808 0 -12804717.590377808 -3718339.2927856445 0 0 0 0 -11462973.012484042 -14030031.130248256 0 -14030031.130248256 2302145.0984703898 0 0 0 0 -24003561.419019461 -7302751.2333377749 0 -7302751.2333377749 7093401.4615422785 0 0 0 0 -9063583.0032145977 -982307.61715878546 0 -982307.61715878546 -7263332.9646936655 0 0 0 0 -36587883.280319214 -38538290.742462158 0 -38538290.742462158 97231982.233337402 0 0 0 0 -2514469723.9185944 -1381526716.0729065 0 -1381526716.0729065 -725019629.92459106 0 0 0 0 -3434484216.1496735 -2207300330.6618805 0 -2207300330.6618805 -1257459017.909915 0 0 0 0 -3863163450.8208618 -2141656167.2865143 0 -2141656167.2865143 -614004335.63994217 0 0 0 0 -3865333512.0392151 -2223174123.0950699 0 -2223174123.0950699 -1003183749.7389526 0 0 0 0 -4000322772.9119568 -1695105820.7772827 0 -1695105820.7772827 -801146689.18763733 0 0 0 0 -5585813454.9470749 -2525306316.3520355 0 -2525306316.3520355 -759525254.04977417 0 0 0 0 357120712.53277588 -110178715.92018127 0 -110178715.92018127 -646935494.23757935 0 0 0 0 -3360403.6464271788 518090.55068547279 0 518090.55068547279 -2207304.0649605989 0 0 0 0 -166276885.15759277 -257390611.51551437 0 -257390611.51551437 207578717.76202393 0 0 0 0 -4446771873.5019531 -1726937392.4526367 0 -1726937392.4526367 -549819170.42840576 0 0 0 0 -4128009522.2476501 -2322628174.9618225 0 -2322628174.9618225 -1667437086.2190247 0 0 0 0 -3507667534.614975 -1835757241.705368 0 -1835757241.705368 -514251910.6855011 0 0 0 0 -3490440441.2987986 -1195819239.9716437 0 -1195819239.9716437 -1126030750.0704346 0 0 0 0 -4218786453.0776062 -1481113354.257164 0 -1481113354.257164 -577138.53291320801 0 0 0 0 -3890353743.1380844 -1814174682.2050781 0 -1814174682.2050781 -683027347.85375977 0 0 0 0 -3662032324.3547058 -2100386145.1510468 0 -2100386145.1510468 698538.61184692383 0 0 0 0 -3883903612.2250404 -1775984010.4515381 0 -1775984010.4515381 -463263751.02355957 0 0 0 0 -3534557716.4464417 -2121173766.0991516 0 -2121173766.0991516 -610869489.96652985 0 0 0 0 -3806089211.9234772 -2234316151.3937607 0 -2234316151.3937607 -465127089.24234009 0 0 0 0 -3694465119.2293053 -1983917034.0616608 0 -1983917034.0616608 -266660821.44235229 0 0 0 0 -3136067259.7897644 -1770205346.8135986 0 -1770205346.8135986 -399331506.56047058 0 0 0 0 -2678356871.0646057 -2318122893.5893173 0 -2318122893.5893173 -3945622.8883744511 0 0 0 0 -1605891646.02145 -1596395407.9840202 0 -1596395407.9840202 -850249021.93673706 0 0 0 0 -2041634077.7440033 -1458629630.0155029 0 -1458629630.0155029 -826342368.23536301 0 0 0 0 -2969661105.1692047 -1888071322.8950043 0 -1888071322.8950043 -579269332.13467407 0 0 0 0 -3003273809.3732147 -1342471176.4907684 0 -1342471176.4907684 -321067954.45277405 0 0 0 0 -2562308147.6128826 -1576359914.4156837 0 -1576359914.4156837 -620291772.89398193 0 0 0 0 -3584886475.8393555 -2377147503.6434784 0 -2377147503.6434784 -1125183237.363205 0 0 0 0 -3534008401.3687897 -1867145264.5495758 0 -1867145264.5495758 -28328090.753448486 0 0 0 0 -493588057.74331665 -1472681419.105896 0 -1472681419.105896 315403704.99323273 0 0 0 0 698227951.83323622 -384930151.23137832 0 -384930151.23137832 1278740769.5648193 0 0 0 0 -2448253129.9032097 -1051094095.550312 0 -1051094095.550312 430357596.45318604 0 0 0 0 -2545334701.335495 -1940529726.4541168 0 -1940529726.4541168 -8981423.7155303955 0 0 0 0 -1915222233.4882603 -985999023.54734993 0 -985999023.54734993 -500927906.49182129 0 0 0 0 -1437973763.0289307 -950072273.57687378 0 -950072273.57687378 -527407682.87321472 0 0 0 0 -1413341936.9859428 -764403572.47446823 0 -764403572.47446823 538953796.02215576 0 0 0 0 -398276164.13113403 -271120393.53585815 0 -271120393.53585815 -743725561.9079895 0 0 0 0 -2974787.3635245562 -4847845.7098507285 0 -4847845.7098507285 4268226.3584178686 0 0 0 0 -692641324.57040405 -596372384.07875061 0 -596372384.07875061 -882015.29524230957 0 0 0 0 -924614285.93171358 -937559929.38440752 0 -937559929.38440752 -1141436432.4115295 0 0 0 0 -924556182.33721924 -940094603.605896 0 -940094603.605896 -1037449820.2560883 0 0 0 0 -1549125946.1910744 -1614656707.3056221 0 -1614656707.3056221 -1657613003.8087463 0 0 0 0 -5207976.0477087945 -4186308.1616271287 0 -4186308.1616271287 3627956.8354995549 0 0 0 0 -705585169.08976746 -1047614020.6812668 0 -1047614020.6812668 -1034409476.2055054 0 0 0 0 383730549.9960022 -1509080857.9427872 0 -1509080857.9427872 -773086.48428344727 0 0 0 0 -1137530658.6911316 -430867412.45625305 0 -430867412.45625305 -729741412.2477417 0 0 0 0 488560460.72891998 -1222394447.3285141 0 -1222394447.3285141 634579644.49827576 0 0 0 0 968114547.10723877 -1790034257.5896072 0 -1790034257.5896072 -306175421.23469543 0 0 0 0 571023159.04629517 -1830430988.7682953 0 -1830430988.7682953 716355389.40817261 0 0 0 0 1464605422.1261139 -914499118.08642578 0 -914499118.08642578 -4415370946.5613708 0 0 0 0 1182416192.0511627 -3758089566.6848602 0 -3758089566.6848602 2714087913.3370361 0 0 0 0 617812.67946115136 -5374001.7777599767 0 -5374001.7777599767 -2013878.6704368405 0 0 0 0 136621459.5206604 -2046536961.8770294 0 -2046536961.8770294 304227505.34603119 0 0 0 0 1019708047.9487305 -2030760234.046875 0 -2030760234.046875 -1726100197.866272 0 0 0 0 904131864.34039307 -3302189542.7235107 0 -3302189542.7235107 -1379750445.4014282 0 0 0 0 29104308.406707764 -1111516410.3464508 0 -1111516410.3464508 -26267804.923614502 0 0 0 0 15611961.067199707 -1683787916.7878876 0 -1683787916.7878876 1298854664.9648132 0 0 0 0 -357133519.7424469 -269212258.34913635 0 -269212258.34913635 -572407509.68774414 0 0 0 0 -512987903.9100647 -1448316097.3084717 0 -1448316097.3084717 1204325052.149231 0 0 0 0 22027813.615814209 -1936299847.5347748 0 -1936299847.5347748 1408846016.5931396 0 0 0 0 -1199842.4781351089 -2643295.2117072642 0 -2643295.2117072642 2467117.2276157737 0 0 0 0 784489928.64776611 -2391056796.4233704 0 -2391056796.4233704 934519643.112854 0 0 0 0 741204103.13467407 -2400214137.8733521 0 -2400214137.8733521 991138729.57739258 0 0 0 0 779520185.47885132 -2671881063.8086853 0 -2671881063.8086853 -1399209321.7383003 0 0 0 0 191375526.12585449 -2979183787.7155151 0 -2979183787.7155151 402516177.03460693 0 0 0 0 1879759621.4335938 -2190827613.1018066 0 -2190827613.1018066 455328264.65301514 0 0 0 0 1004015190.7045898 -2922109763.8883057 0 -2922109763.8883057 1436523270.9458084 0 0 0 0 1228043990.1717529 -2797913284.7426758 0 -2797913284.7426758 600458117.57787323 0 0 0 0 1798243012.510273 -3249929684.993618 0 -3249929684.993618 574171415.80456543 0 0 0 0 1397838508.4004669 -2409575093.7866554 0 -2409575093.7866554 319887608.90124512 0 0 0 0 1443906428.7327576 -2553919044.498024 0 -2553919044.498024 183077213.81616211 0 0 0 0 1185088657.2331543 -2985599497.5045166 0 -2985599497.5045166 -182044235.71179199 0 0 0 0 1264086971.6188965 -2383338547.071228 0 -2383338547.071228 -460620887.93814087 0 0 0 0 1333660559.1105652 -2623494657.8762817 0 -2623494657.8762817 209801672.61352539 0 0 0 0 833276220.45294189 -2331394961.858551 0 -2331394961.858551 -21244034.846923828 0 0 0 0 1221513312.1065979 -2258237150.8885498 0 -2258237150.8885498 -122839014.48300171 0 0 0 0 1247841592.1968384 -2051899793.7626343 0 -2051899793.7626343 94078823.996192932 0 0 0 0 1331015269.3883514 -2379456065.5771179 0 -2379456065.5771179 969677557.27563477 0 0 0 0 1652765852.2361755 -2255834081.7477112 0 -2255834081.7477112 317507001.80938721 0 0 0 0 1101510388.3320694 -1610629701.4661484 0 -1610629701.4661484 1519068591.7546387 0 0 0 0 807718747.39334106 -1506893007.8075666 0 -1506893007.8075666 305590901.90222168 0 0 0 0 716859065.40631104 -2153171692.6581116 0 -2153171692.6581116 767765246.29109192 0 0 0 0 1421973911.7200165 -3226175907.667717 0 -3226175907.667717 4822535144.6564941 0 0 0 0 2954489215.4781647 -2575960557.6576691 0 -2575960557.6576691 1201041349.2490921 0 0 0 0 1099420489.4984741 -1809479157.8811646 0 -1809479157.8811646 1073889737.4748001 0 0 0 0 817024973.77649307 -2385430971.2243996 0 -2385430971.2243996 1560210166.2514038 0 0 0 0 193715861.93455505 39383777.572479248 0 39383777.572479248 -230374563.99263763 0 0 0 0 6233470.2659191787 -6694137.4439950287 0 -6694137.4439950287 -1034470.9572418705 0 0 0 0 -192393073.25379944 -801413281.09567261 0 -801413281.09567261 7430480092.506134 0 0 0 0 -46057374.47429657 -217074582.56192017 0 -217074582.56192017 2431848921.2658997 0 0 0 0 -81176527.209525108 -1408564071.9292135 0 -1408564071.9292135 1362922790.4349976 0 0 0 0 977942351.4190979 -1188459308.9221039 0 -1188459308.9221039 964533063.0953064 0 0 0 0 -64101153.525482178 -1197303081.8901672 0 -1197303081.8901672 3041537030.3779755 0 0 0 0 102274143.75241089 -642230414.12406921 0 -642230414.12406921 1882113539.9210815 0 0 0 0 15251868.623913735 -25732311.691511825 0 -25732311.691511825 -3389100.9634623975 0 0 0 0 145171813.46009827 -7636773.9027709961 0 -7636773.9027709961 -10432445.483398438 0 0 0 0 -6632558.6464745179 -22038575.177097842 0 -22038575.177097842 -14971877.025957018 0 0 0 0 308942550.34606171 -735400227.44726562 0 -735400227.44726562 1661897000.9989777 0 0 0 0 -29307962.614429474 -20815473.529537201 0 -20815473.529537201 50437741.980102539 0 0 0 0 -3589634.7983729541 -14131989.012826234 0 -14131989.012826234 -1793449.8920457363 0 0 0 0 -34578316.233043671 -46265761.313261032 0 -46265761.313261032 30601462.948272705 0 0 0 0 -50417823.952392578 -35274628.472869873 0 -35274628.472869873 81253538.439331055 0 0 0 0 -17330433.222309113 -40228362.946277618 0 -40228362.946277618 -2091248.1970214844 0 0 0 0 -27917694.044649467 -27925324.279945273 0 -27925324.279945273 -2202559.569030121 0 0 0 0 27712988.715606689 -197651187.38356018 0 -197651187.38356018 -42511642.077774048 0 0 0 0 -5374615.8837780058 -24809709.585659251 0 -24809709.585659251 -3182664.4225093424 0 0 0 0 -1576504737.6113586 -2830280952.0056152 0 -2830280952.0056152 -3988524830.1123352 0 0 0 0 -22997267.828918457 -66001280.32611084 0 -66001280.32611084 -21050812.52444458 0 0 0 0 -928730724.47958374 -1980675141.5430984 0 -1980675141.5430984 -3670445750.5928955 0 0 0 0 -1907834.74810642 -636660.07412414625 0 -636660.07412414625 1694072.7187522054 0 0 0 0 639863055.79199219 -2181126888.6228333 0 -2181126888.6228333 -7771934329.9605713 0 0 0 0 551072495.30828285 -260778754.20680237 0 -260778754.20680237 -11990938.276000977 0 0 0 0 -38292335.262237549 -68896930.525024414 0 -68896930.525024414 139333066.11384583 0 0 0 0 -31337335.780807406 -10036338.81674087 0 -10036338.81674087 5699122.69785982 0 0 0 0 -1551741635.0943604 -2626011679.2251282 0 -2626011679.2251282 -5969239620.9623642 0 0 0 0 -1290991519.6860352 -3139922897.7358398 0 -3139922897.7358398 -7680713604.736908 0 0 0 0 -1548023883.0770569 -3950963458.4068298 0 -3950963458.4068298 -6980377897.4597626 0 0 0 0 -2425533054.497551 -3340546817.0049629 0 -3340546817.0049629 -5553504406.1048889 0 0 0 0 943355586.01760292 -2246290190.5828428 0 -2246290190.5828428 3375550876.004715 0 0 0 0 -2005546468.4045639 -5845015935.498024 0 -5845015935.498024 -11764824184.966202 0 0 0 0 -8953277.1459740102 -3345058.4043429792 0 -3345058.4043429792 586777.17754655331 0 0 0 0 -3077163564.2686157 -3348210142.9118576 0 -3348210142.9118576 -2558207720.6184998 0 0 0 0 -2028371237.0222473 -2044825899.5216827 0 -2044825899.5216827 -2335558512.009964 0 0 0 0 -4634089640.9346619 -5236228960.560524 0 -5236228960.560524 -3866885572.0514526 0 0 0 0 -1834798414.5543823 -3493758209.2940216 0 -3493758209.2940216 -5318499139.1507187 0 0 0 0 -1912796706.2939301 -3286795268.2111206 0 -3286795268.2111206 -3371273796.0802002 0 0 0 0 -1592474673.4801941 -2174274610.3685913 0 -2174274610.3685913 -1456425885.6508331 0 0 0 0 -1422700961.9300232 -2001606193.5949402 0 -2001606193.5949402 -1784500438.3756714 0 0 0 0 -2753075143.6534729 -3380655387.3528442 0 -3380655387.3528442 -1873122442.8840027 0 0 0 0 -2322167113.1230621 -3802795444.445694 0 -3802795444.445694 -2766677430.8963928 0 0 0 0 -2307832910.060009 -3656524676.2272444 0 -3656524676.2272444 -1732705269.7495422 0 0 0 0 -3197033238.8467865 -2507037257.1884155 0 -2507037257.1884155 -2314342913.733139 0 0 0 0 -3234399307.4772949 -3141420284.3025208 0 -3141420284.3025208 -1312674584.4491882 0 0 0 0 -3309456103.4375 -3775540871.6590958 0 -3775540871.6590958 117565880.12602234 0 0 0 0 -2749818364.517334 -1678517204.3346863 0 -1678517204.3346863 -322193194.45252991 0 0 0 0 -2298339834.2544556 -1208438085.1327667 0 -1208438085.1327667 1523843978.7963562 0 0 0 0 2054817314.6240273 362637020.34010696 0 362637020.34010696 2892981990.8331604 0 0 0 0 -909336400.95756531 -1216604038.0894012 0 -1216604038.0894012 842893834.40066528 0 0 0 0 -895231425.98899841 -1895900018.3692627 0 -1895900018.3692627 1478495181.7822304 0 0 0 0 -2957746049.5549927 -2741140213.915741 0 -2741140213.915741 4819533389.0768433 0 0 0 0 -2952692089.9580078 -4527272407.8597107 0 -4527272407.8597107 -1715194568.4242096 0 0 0 0 -3717916648.4347076 -4263009750.1351547 0 -4263009750.1351547 2743964682.3980713 0 0 0 0 -248489697.09680939 -3075742614.2169189 0 -3075742614.2169189 876131.16482543945 0 0 0 0 -285818.92555618286 -3598508316.1204109 0 -3598508316.1204109 -3083693061.1952362 0 0 0 0 -265290715.27676392 -2070066884.2380943 0 -2070066884.2380943 -1430407903.3110199 0 0 0 0 -508066309.83388448 -751661236.61006653 0 -751661236.61006653 3653523993.5307617 0 0 0 0 -2259817602.8477631 -7240387181.6022549 0 -7240387181.6022549 -3772514160.2895813 0 0 0 0 1451614963.2223511 -292518587.90258789 0 -292518587.90258789 -3553424676.4048462 0 0 0 0 -3449082.8453341275 -4816988.2173950933 0 -4816988.2173950933 -2669843.3472469896 0 0 0 0 2758988848.5390778 -2078215910.1280365 0 -2078215910.1280365 -644829549.75062561 0 0 0 0 -9237986.1468078494 -10933890.710274965 0 -10933890.710274965 -5373965.915311493 0 0 0 0 1357185597.0573273 -2776539200.0687103 0 -2776539200.0687103 1908611145.8846893 0 0 0 0 -592950298.55191374 -3638701070.8053727 0 -3638701070.8053727 2927553610.5691681 0 0 0 0 1447209114.1207275 -1162208190.0785904 0 -1162208190.0785904 -1206914544.9341888 0 0 0 0 1593417982.4888306 -3605617508.5448151 0 -3605617508.5448151 -4447754421.5800781 0 0 0 0 -5524926.2887332439 -6282882.3540670238 0 -6282882.3540670238 -3024430.7924699634 0 0 0 0 -170237367.71148682 -5266422231.3683929 0 -5266422231.3683929 -5411328831.6030121 0 0 0 0 -4546734346.6757507 -4831818138.5232391 0 -4831818138.5232391 4795351075.4981079 0 0 0 0 -4480114338.0860596 -5322976887.6724854 0 -5322976887.6724854 -327262788.72853088 0 0 0 0 -4098551641.2207336 -4122063955.8804169 0 -4122063955.8804169 -2126307087.358429 0 0 0 0 -3116759736.1609497 -880577135.70878601 0 -880577135.70878601 -1768319413.1583309 0 0 0 0 -4643831228.4592285 -3811006902.5565491 0 -3811006902.5565491 1556716847.1843262 0 0 0 0 -5126401268.9178619 -3365923135.2435989 0 -3365923135.2435989 1410402691.8969116 0 0 0 0 -4079446063.969162 -3950244489.4853439 0 -3950244489.4853439 -213714793.168396 0 0 0 0 -2271924592.259613 -1391036345.2335052 0 -1391036345.2335052 3367699766.9186859 0 0 0 0 -3493448392.6678886 -4354265668.289465 0 -4354265668.289465 -2846319905.7425842 0 0 0 0 -1787480743.7514954 -2233934122.1390305 0 -2233934122.1390305 -450992061.40394974 0 0 0 0 -3754455158.3332672 -344420106.8242569 0 -344420106.8242569 -996846136.57009888 0 0 0 0 -534559935.89012146 -1332156117.5498352 0 -1332156117.5498352 -2645793.7785537736 0 0 0 0 -2446879.6155973673 -5453861.7359655797 0 -5453861.7359655797 -1514357.5310891978 0 0 0 0 1676840930.7920227 -1907518842.2140045 0 -1907518842.2140045 518714690.8608551 0 0 0 0 2551246319.396637 -1541356749.6673889 0 -1541356749.6673889 115919740.32394409 0 0 0 0 -1986221.5885090232 -10466621.100579344 0 -10466621.100579344 -3522727.5275585763 0 0 0 0 -8956620319.0090942 -3358583789.1838684 0 -3358583789.1838684 5285601306.134552 0 0 0 0 2518417591.4212952 598143494.29953003 0 598143494.29953003 1072685872.9028015 0 0 0 0 -1894150.8597890437 -4851478.7184575312 0 -4851478.7184575312 -4719899.9634635746 0 0 0 0 -2303553694.6400452 -1389558816.2389297 0 -1389558816.2389297 177334154.92254639 0 0 0 0 -6011738975.7152252 -2023938485.9491615 0 -2023938485.9491615 240079398.89904785 0 0 0 0 1376074831.4220123 -1908970465.4161224 0 -1908970465.4161224 423758451.72403204 0 0 0 0 1670817132.0157318 -1245525223.3015594 0 -1245525223.3015594 418437975.45288086 0 0 0 0 448570919.47914124 -262678030.56389618 0 -262678030.56389618 -66575844.875671387 0 0 0 0 -4585388.8594026864 -13695609.346637674 0 -13695609.346637674 -12091509.887326002 0 0 0 0 192409406.79653931 269294319.71130371 0 269294319.71130371 -477591249.79509354 0 0 0 0 -350858487.62310791 42102334.60899353 0 42102334.60899353 -8701838.1882781982 0 0 0 0 33887921.007125854 255743137.42354584 0 255743137.42354584 -148364069.20892334 0 0 0 0 59779989.915908813 -43964528.012569427 0 -43964528.012569427 -184297973.73751831 0 0 0 0 107156853.35482788 63218673.488540649 0 63218673.488540649 -74372237.024505615 0 0 0 0 80001159.71307373 56273956.082168579 0 56273956.082168579 -50229336.374826431 0 0 0 0 -206928159.17626953 -543216010.63574219 0 -543216010.63574219 -1472678160.0353394 0 0 0 0 -16573173.83380127 -113983399.5030365 0 -113983399.5030365 -76618206 0 0 0 0 -10731867.841285467 -14272226.155848786 0 -14272226.155848786 -1360593.0463337414 0 0 0 0 22220934.34576416 -28895545.568214417 0 -28895545.568214417 -23932997.118621826 0 0 0 0 -4457327.5748939216 -5682129.6681602933 0 -5682129.6681602933 -359075.77086334676 0 0 0 0 303299909.97509766 -303059902.56591797 0 -303059902.56591797 -187724167.50811768 0 0 0 0 -1692366.80128479 -5495063.6490306854 0 -5495063.6490306854 -269913.74906921387 0 0 0 0 62560098.027130127 103923989.47981262 0 103923989.47981262 -300275503.07004929 0 0 0 0 -104406374.19818115 -24847003.521659851 0 -24847003.521659851 260134886.93914795 0 0 0 0 -3082881.1172332764 149139503.06355286 0 149139503.06355286 226988094.97955322 0 0 0 0 -202882.00668688118 -2639083.0481793731 0 -2639083.0481793731 -1249070.754169561 0 0 0 0 -5444746.2403481752 -4826144.5565373078 0 -4826144.5565373078 4032956.5138597488 0 0 0 0 -201710883.47758484 -184763734.10748291 0 -184763734.10748291 586771605.86349487 0 0 0 0 166862930.00041199 -31780289.669822693 0 -31780289.669822693 -375066135.39154053 0 0 0 0 -5406200.8489395939 -8217884.9704410732 0 -8217884.9704410732 -3098158.806324169 0 0 0 0 -92527608.849884033 -29100816.919296265 0 -29100816.919296265 71218207.43106842 0 0 0 0 655930397.70053101 -81440837.085098267 0 -81440837.085098267 -13230514.96157074 0 0 0 0 471446575.86923218 -549739258.51345825 0 -549739258.51345825 -441664936.64453125 0 0 0 0 -9451388.8489388376 -9828518.318440035 0 -9828518.318440035 -3034903.9086380228 0 0 0 0 -268555885.14703369 -286986098.81180573 0 -286986098.81180573 195998494.23873901 0 0 0 0 -858089199.82562256 65698048.713989258 0 65698048.713989258 37134041.559234619 0 0 0 0 265894435.76237488 -531653552.71274567 0 -531653552.71274567 -2084875300.6280823 0 0 0 0 -1064470163.9073639 -2820111569.1058359 0 -2820111569.1058359 -3476007372.5262451 0 0 0 0 -42035239.69140625 190020824.52024078 0 190020824.52024078 -610546072.44543457 0 0 0 0 -1221789993.5214539 -989899916.57588196 0 -989899916.57588196 -88198316.090934753 0 0 0 0 -1450040522.4961929 -1425126809.868227 0 -1425126809.868227 -2014007197.8251038 0 0 0 0 -1652474.4180298559 -1386291.3038874194 0 -1386291.3038874194 648343.88172005117 0 0 0 0 -2837141883.3457489 -2404529009.1609726 0 -2404529009.1609726 -1050508474.0310974 0 0 0 0 -2043515038.3918152 -4685033069.1096954 0 -4685033069.1096954 -3804923308.6613159 0 0 0 0 -6035064785.8885803 -4424309874.5528259 0 -4424309874.5528259 -2336011920.1758118 0 0 0 0 -773864204.48236084 -2852358908.5075989 0 -2852358908.5075989 -1905787751.9072495 0 0 0 0 63565820.839050293 -3447878846.9413452 0 -3447878846.9413452 -3130766012.0271912 0 0 0 0 -1040144911.9464417 -4520847074.4306641 0 -4520847074.4306641 -4127695927.0406189 0 0 0 0 -1052105270.4678955 -4168407866.6339722 0 -4168407866.6339722 -3212699509.8333588 0 0 0 0 139476374.50518799 -3235901466.5629272 0 -3235901466.5629272 -3935148566.7336426 0 0 0 0 465387870.87213135 -2129500770.5905762 0 -2129500770.5905762 -7426575921.0478821 0 0 0 0 -322375926.44641113 -4347111310.3751831 0 -4347111310.3751831 -6122010118.5809937 0 0 0 0 4632892614.1257019 81832074.753341675 0 81832074.753341675 -6999310110.9527893 0 0 0 0 542411612.35115051 -3141559519.9578476 0 -3141559519.9578476 -5061097192.6860962 0 0 0 0 418628150.10041809 -2359273277.6865311 0 -2359273277.6865311 -4318565658.7622986 0 0 0 0 323675692.23843384 -1069958483.4772949 0 -1069958483.4772949 -5259959812.832962 0 0 0 0 239757110.94311523 -744429008.38873291 0 -744429008.38873291 867974646.06941223 0 0 0 0 -807142457.80963135 -349945811.7804718 0 -349945811.7804718 739969096.77348328 0 0 0 0 -3404642.2122818679 -3805282.5011497065 0 -3805282.5011497065 -1935982.239483349 0 0 0 0 -1262602459.4713135 -2184618696.6005707 0 -2184618696.6005707 -489134431.52658081 0 0 0 0 1540728110.5067139 -1401059823.4082489 0 -1401059823.4082489 -1081054966.5331345 0 0 0 0 1472713406.7840271 -163815955.98678589 0 -163815955.98678589 -314437942.92240906 0 0 0 0 2348480819.8082581 -1316550287.1546555 0 -1316550287.1546555 -2158089251.8509521 0 0 0 0 -1899545157.7413712 -867782581.99330139 0 -867782581.99330139 2068307500.4078979 0 0 0 0 284979.79115170741 -10286483.539641127 0 -10286483.539641127 -12052478.518716261 0 0 0 0 -180440578.62760925 669549561.804245 0 669549561.804245 2214374673.3118896 0 0 0 0 201538.2334290907 -4162050.0603931323 0 -4162050.0603931323 -6647279.9897726029 0 0 0 0 -3623842361.2656064 -3574403178.5334916 0 -3574403178.5334916 -1880029862.9971161 0 0 0 0 -488715362.20608521 -1556436193.561142 0 -1556436193.561142 -1262565761.5200806 0 0 0 0 67968412.233652115 -609499899.90201569 0 -609499899.90201569 -5833897856.1719971 0 0 0 0 -2103569.328125 -1180352935.1768608 0 -1180352935.1768608 268992576.51777649 0 0 0 0 608146397.0337677 -936065867.82502365 0 -936065867.82502365 -931732034.47423553 0 0 0 0 633074069.73744202 -2217916692.7659187 0 -2217916692.7659187 221308959.04066467 0 0 0 0 3043704425.0524902 -488227745.38375092 0 -488227745.38375092 -287743587.57367897 0 0 0 0 404746929.80944824 -779469780.64704895 0 -779469780.64704895 -586906594.0422821 0 0 0 0 445522534.64358521 -962550635.3727417 0 -962550635.3727417 -43746209.058483124 0 0 0 0 -2166869545.6423426 -1105189500.4497828 0 -1105189500.4497828 400881563.92904663 0 0 0 0 -924587093.409729 655426827.91567993 0 655426827.91567993 -645252852.86217499 0 0 0 0 -3168511647.9257965 -1371369629.8467789 0 -1371369629.8467789 972599733.85837555 0 0 0 0 -129775.91926160012 -11284916.425402373 0 -11284916.425402373 -7157743.0178045183 0 0 0 0 2135763485.3444061 347900226.28881836 0 347900226.28881836 478487543.34695435 0 0 0 0 -637634.35879856348 -6267646.3728307635 0 -6267646.3728307635 -6237058.7949086428 0 0 0 0 1794858043.1020203 -302304403.10768127 0 -302304403.10768127 -258605002.32653809 0 0 0 0 2924033960.8512726 -473526665.23323059 0 -473526665.23323059 -580170926.44624329 0 0 0 0 1653609399.7328796 274326912.0118103 0 274326912.0118103 801762558.55885315 0 0 0 0 1318300015.0172424 821435295.63613892 0 821435295.63613892 -211031612.82024765 0 0 0 0 1816340673.7788849 -1782176202.7419052 0 -1782176202.7419052 -1423273516.7112732 0 0 0 0 3343442882.2366791 -485192959.27674294 0 -485192959.27674294 -975785343.58428955 0 0 0 0 -627669.76421236806 -11210122.174353391 0 -11210122.174353391 -15709912.234039694 0 0 0 0 -205361.28724639176 -5357495.7566925064 0 -5357495.7566925064 -1755402.9020811021 0 0 0 0 -5484266920.9906311 -1026773728.311058 0 -1026773728.311058 1371598478.9767303 0 0 0 0 -1885288146.7937622 -3145909351.0011063 0 -3145909351.0011063 806835420.85409546 0 0 0 0 19024310.683135986 -1072678328.8510361 0 -1072678328.8510361 -1805648367.9004211 0 0 0 0 592764159.13323975 270234673.98910522 0 270234673.98910522 1163300388.1100264 0 0 0 0 -2700073867.5505371 -3117455146.8769989 0 -3117455146.8769989 -503386451.05969238 0 0 0 0 -2241920479.7878418 -1766255767.2568665 0 -1766255767.2568665 885697362.46269226 0 0 0 0 -1189357446.6930237 -3894891043.2567596 0 -3894891043.2567596 -3097508695.8052902 0 0 0 0 -744195754.74038696 -2998431766.4172974 0 -2998431766.4172974 -1840433431.3552856 0 0 0 0 -2233371452.0120239 -5073994697.5990753 0 -5073994697.5990753 -3870368661.2419891 0 0 0 0 -954116604.00860596 -3612659486.6472321 0 -3612659486.6472321 -4036336712.5944519 0 0 0 0 -1003633564.6728516 -3864976122.9432983 0 -3864976122.9432983 -5235592185.5164871 0 0 0 0 -1400137940.7478676 -4186319865.5547924 0 -4186319865.5547924 -4391680873.9918518 0 0 0 0 -2957972490.2892456 -1874901911.0618744 0 -1874901911.0618744 -3948846982.7823486 0 0 0 0 -783988540.73477173 -1566799162.9965668 0 -1566799162.9965668 -1784007648.8128891 0 0 0 0 -1067673651.1394043 -3210264843.2654572 0 -3210264843.2654572 -3260356858.525238 0 0 0 0 -2401443043.39328 -1306505006.392395 0 -1306505006.392395 -975046318.89155579 0 0 0 0 152437294.86779785 -1846584363.9008636 0 -1846584363.9008636 -1916125019.2687531 0 0 0 0 627141520.99420166 131693767.69885254 0 131693767.69885254 -749459169.02886963 0 0 0 0 1332262301.7901764 -508871943.79758835 0 -508871943.79758835 -195324449.7638855 0 0 0 0 1063855381.44133 389121313.39331436 0 389121313.39331436 117362114.77420044 0 0 0 0 340291449.93066406 -398147307.11144257 0 -398147307.11144257 386519685.39094543 0 0 0 0 -205309.47204989195 -2696613.2263673097 0 -2696613.2263673097 -603763.80389039591 0 0 0 0 9630147.4285430908 -102729156.11857605 0 -102729156.11857605 166192924.97109985 0 0 0 0 -297811825.03639221 -819005086.47383881 0 -819005086.47383881 -2385103141.4223938 0 0 0 0 -2102393.0262916721 -3426622.7222984582 0 -3426622.7222984582 352242.46993409097 0 0 0 0 -1137722377.0128021 -1499221461.9378815 0 -1499221461.9378815 -1188839318.5252991 0 0 0 0 -894705160.57293701 -993829483.05441284 0 -993829483.05441284 -2934545010.731308 0 0 0 0 -2352102812.7570801 -2928722002.5978394 0 -2928722002.5978394 -3457578380.5488358 0 0 0 0 -1202343560.2542725 -2178127955.9154663 0 -2178127955.9154663 -3678103850.7012939 0 0 0 0 -1554559556.4921265 -505956149.63929749 0 -505956149.63929749 414130249.46815491 0 0 0 0 -7547991.3653407693 -7893019.8448985964 0 -7893019.8448985964 -1218800.0329952389 0 0 0 0 -569745230.82891846 613931696.3812561 0 613931696.3812561 462567633.92205811 0 0 0 0 -76627902.891052246 -1294624470.462265 0 -1294624470.462265 -2436976227.5719299 0 0 0 0 -1254772077.582962 -1133235360.56427 0 -1133235360.56427 -922395324.57073975 0 0 0 0 -434111633.61181641 -1936970922.0265503 0 -1936970922.0265503 -1757192498.1175537 0 0 0 0 783423066.15582275 -558349989.60209656 0 -558349989.60209656 -1398403111.2201538 0 0 0 0 694742536.37646484 -1377538933.0319214 0 -1377538933.0319214 1240492028.9709473 0 0 0 0 -419733.79981769621 455809.93339497969 0 455809.93339497969 831140.59461918473 0 0 0 0 -958822360.23681641 -1490129113.3946533 0 -1490129113.3946533 -1613092954.8692551 0 0 0 0 -606192408.50115967 -2116538754.7136841 0 -2116538754.7136841 -2437378644.1465454 0 0 0 0 -1307205585.506958 -2017296945.5431519 0 -2017296945.5431519 -1638684005.2472839 0 0 0 0 -1426668574.8512878 -1769395347.3728027 0 -1769395347.3728027 -2106440847.5907593 0 0 0 0 -955034809.38830566 -1685300512.331604 0 -1685300512.331604 -2772760044.7228394 0 0 0 0 -1245855984.77845 -2710907400.3414154 0 -2710907400.3414154 -3467217709.0311279 0 0 0 0 -1559915440.258728 -1325581594.1827087 0 -1325581594.1827087 -2287904571.2946014 0 0 0 0 -1327877329.9533691 -2183821190.0019836 0 -2183821190.0019836 -4101150650.4459152 0 0 0 0 -3067495860.2762756 -3011520823.0589905 0 -3011520823.0589905 -4362821449.940155 0 0 0 0 -1482890791.3431549 -2255081602.3738327 0 -2255081602.3738327 -6153534667.0799866 0 0 0 0 -2377730274.0387573 -5506092606.566925 0 -5506092606.566925 -7462009788.741436 0 0 0 0 -4460386613.132782 -3991049288.2771454 0 -3991049288.2771454 -2909446292.6729889 0 0 0 0 -1772309170.2560272 -2342148337.5011101 0 -2342148337.5011101 -4466671663.7860718 0 0 0 0 -2317388086.2252197 -1811815659.2582703 0 -1811815659.2582703 -2800739807.3354073 0 0 0 0 -8051649511.8578491 -4314336761.6796417 0 -4314336761.6796417 -3512310976.7913818 0 0 0 0 -1470083234.4712524 -4582794076.1267853 0 -4582794076.1267853 -5743485582.0505066 0 0 0 0 -4231369.2636218965 -3133869.3034211695 0 -3133869.3034211695 -1230485.7398571223 0 0 0 0 -2072928661.2448425 585733042.48406982 0 585733042.48406982 6579540861.7550964 0 0 0 0 671448617.99243164 -5134108552.371727 0 -5134108552.371727 -14276924832.844955 0 0 0 0 -10962747.667660221 -4165448.7208957449 0 -4165448.7208957449 466249.92665425688 0 0 0 0 -334068789.44219971 -15669379.595870972 0 -15669379.595870972 -201670247.53914642 0 0 0 0 -4039374557.2802734 -3394847374.8415833 0 -3394847374.8415833 2959614657.2701263 0 0 0 0 -3689669271.9724121 -5485905889.5458374 0 -5485905889.5458374 -3829208021.3563995 0 0 0 0 -2663375130.615448 -4129942066.0732193 0 -4129942066.0732193 -2047326218.1092529 0 0 0 0 7052163.6195326447 -1607963.1153488234 0 -1607963.1153488234 -2469089.7668737024 0 0 0 0 -1256305155.1209106 -1960405485.9673462 0 -1960405485.9673462 -2163876595.293396 0 0 0 0 -1784125560.6087799 -1656119905.1966286 0 -1656119905.1966286 -1976156881.0050201 0 0 0 0 -287624096.19833946 -637580394.6620121 0 -637580394.6620121 -1030247746.4005585 0 0 0 0 -235079166.03759384 -343302324.50435543 0 -343302324.50435543 -1146526581.4225311 0 0 0 0 265252968.00416565 -457324490.35870361 0 -457324490.35870361 -1728202429.1897278 0 0 0 0 1173966554.8005066 -1516699577.6819305 0 -1516699577.6819305 -797214212.59502983 0 0 0 0 319423848.73028564 -1004282014.7430534 0 -1004282014.7430534 -1424688919.4721375 0 0 0 0 -450864168.65716553 -1679682584.0035095 0 -1679682584.0035095 891465019.55059052 0 0 0 0 -543360068.47956848 -1091164953.8119926 0 -1091164953.8119926 615296642.70254517 0 0 0 0 541463165.45166016 -2140977016.9506073 0 -2140977016.9506073 803829866.3805542 0 0 0 0 123657008.68310547 -2330403888.8080139 0 -2330403888.8080139 -4244743059.1613464 0 0 0 0 3315643.0047112852 -384240.84939143062 0 -384240.84939143062 -1615393.6385295615 0 0 0 0 -722452024.92127991 -1396765543.6015434 0 -1396765543.6015434 2436339728.0369415 0 0 0 0 795876734.03027344 -3060884913.1144714 0 -3060884913.1144714 -3537869104.8459473 0 0 0 0 476923132.3130188 -1960828096.9043198 0 -1960828096.9043198 -4295536703.2566833 0 0 0 0 2229937929.8694458 -3595168478.8751984 0 -3595168478.8751984 -5366171272.2645035 0 0 0 0 244254755.54006958 -3160784930.5398712 0 -3160784930.5398712 -7270245586.393158 0 0 0 0 -1217664220.8329773 -3732037380.6694031 0 -3732037380.6694031 -5359555561.6908875 0 0 0 0 -238305358.07104492 -2921571912.0150757 0 -2921571912.0150757 -4906816352.8698196 0 0 0 0 162027359.4675293 -2473993371.1941071 0 -2473993371.1941071 -5131150691.150177 0 0 0 0 -576758114.60168457 -2123791594.6617737 0 -2123791594.6617737 -4157187279.0357819 0 0 0 0 -1191681328.3927612 -2495050119.6679993 0 -2495050119.6679993 -4206679436.4580078 0 0 0 0 -758024983.97734833 -3230676563.2100058 0 -3230676563.2100058 -3464860123.7050476 0 0 0 0 -1305945468.6610107 -4142458366.6271057 0 -4142458366.6271057 -4112646129.5983582 0 0 0 0 -1401539752.8833923 -4332780466.9606781 0 -4332780466.9606781 -4454221578.1069336 0 0 0 0 -917174005.76968384 -4316082839.5123901 0 -4316082839.5123901 -4166734367.6616516 0 0 0 0 -880773023.07403564 -4350909123.646225 0 -4350909123.646225 -4353722101.7776489 0 0 0 0 -876376262.68371582 -4311213194.72995 0 -4311213194.72995 -4980761195.3300171 0 0 0 0 -1161959116.8512487 -4748702899.7253895 0 -4748702899.7253895 -5616105324.3323364 0 0 0 0 -709956335.76006317 -3496997002.049181 0 -3496997002.049181 -5585909277.0322876 0 0 0 0 4145159000.6860962 -518191316.7289238 0 -518191316.7289238 -3700751119.2089691 0 0 0 0 -495880.00653096475 -6285463.9466211721 0 -6285463.9466211721 -9182603.6318956465 0 0 0 0 -3931115939.8961182 -4889636820.0008545 0 -4889636820.0008545 -3004073901.6933594 0 0 0 0 1215969580.6723785 -3057488690.2221527 0 -3057488690.2221527 -5893774398.901825 0 0 0 0 -1174306128.6470194 -5194324606.6624174 0 -5194324606.6624174 -8282388892.9695435 0 0 0 0 477455403.50950623 -609983773.20914078 0 -609983773.20914078 -1923329199.5749969 0 0 0 0 2186707169.2572021 -1022866724.122467 0 -1022866724.122467 -5073150009.9949951 0 0 0 0 -2268799845.5351982 -3353042086.6656208 0 -3353042086.6656208 -3963072724.6420441 0 0 0 0 836099318.55557251 -2622861244.2266006 0 -2622861244.2266006 -5351726829.2095413 0 0 0 0 15929410.338256836 -2370643200.5395813 0 -2370643200.5395813 -4652570688.0581131 0 0 0 0 -1641616257.3998413 -5249391029.5880737 0 -5249391029.5880737 -6009673887.6135006 0 0 0 0 -941039411.31217194 -4891103870.1839104 0 -4891103870.1839104 -6594363237.7163391 0 0 0 0 -4640581957.4334106 -3953403182.3629608 0 -3953403182.3629608 -6066986678.7993774 0 0 0 0 -3089636791.1501465 -1815912703.8641052 0 -1815912703.8641052 -7317390344.8243179 0 0 0 0 1711367.4746506624 -5827468.1123874038 0 -5827468.1123874038 -3775843.6538559198 0 0 0 0 989830161.28615952 -1121561580.0684214 0 -1121561580.0684214 1362758157.1887512 0 0 0 0 -5980255477.7389984 -5045224377.0850754 0 -5045224377.0850754 -2922243838.0891113 0 0 0 0 3427215238.1988068 -1447043361.0271187 0 -1447043361.0271187 -3226639822.8985138 0 0 0 0 209890251.49935913 14859283.563652039 0 14859283.563652039 401037944.9497757 0 0 0 0 339135216.13548279 -738634984.10648346 0 -738634984.10648346 -886085862.38322067 0 0 0 0 -3772170683.577179 -2198230523.2488556 0 -2198230523.2488556 -1200231626.8115997 0 0 0 0 -1255380230.059433 -3628634437.4696388 0 -3628634437.4696388 -4107224094.6925201 0 0 0 0 -241517086.76062584 -2622456646.4682508 0 -2622456646.4682508 -2734274819.6631622 0 0 0 0 -359160648.71003723 -2195014257.4364052 0 -2195014257.4364052 -1999044075.5335236 0 0 0 0 2362008.3477965682 -1799786269.6600542 0 -1799786269.6600542 -2049978330.203186 0 0 0 0 380109001.01205444 -1782368606.5747986 0 -1782368606.5747986 -3452330355.6170273 0 0 0 0 168865033.01031494 -2097053529.1786385 0 -2097053529.1786385 -3563156700.9983521 0 0 0 0 359758485.11010742 -558714668.87240601 0 -558714668.87240601 946431460.25636292 0 0 0 0 -3034820.6709197909 -8243264.6572627872 0 -8243264.6572627872 196649.71423078701 0 0 0 0 -70866521.650272176 -10534636.294029653 0 -10534636.294029653 9409364.994740352 0 0 0 0 -2146104932.4598694 -1077862753.6535034 0 -1077862753.6535034 -1286434508.0072021 0 0 0 0 -608550003.87286377 -34459619.034240723 0 -34459619.034240723 192981089.14705658 0 0 0 0 -536103541.23727417 -74141535.460777283 0 -74141535.460777283 137007744.38150024 0 0 0 0 -552187482.04808044 -75080609.965751648 0 -75080609.965751648 183098408.75061035 0 0 0 0 -501109750.1472168 -5703241.0845489502 0 -5703241.0845489502 -9024656.8675842285 0 0 0 0 -712860931.76168823 58771321.124450684 0 58771321.124450684 126519913.35029602 0 0 0 0 -18897734.858347233 -43459671.783496425 0 -43459671.783496425 -29273219.807544142 0 0 0 0 262542018.72925568 -105750288.10163116 0 -105750288.10163116 -25283284.061096191 0 0 0 0 -105503985.940979 24374455.585357666 0 24374455.585357666 27599440.243347168 0 0 0 0 -160429605.1318512 -268008728.84034729 0 -268008728.84034729 -143275986.18365479 0 0 0 0 -273429803.0553894 -253723231.17462158 0 -253723231.17462158 69115652.358642578 0 0 0 0 -27336245.736297607 -184129694.98913574 0 -184129694.98913574 79680122.899291992 0 0 0 0 -215897874.14398193 -274378294.76663208 0 -274378294.76663208 133305292.46368408 0 0 0 0 9418804.2343597412 -235604455.16546631 0 -235604455.16546631 58418080.220947266 0 0 0 0 223266218.62945557 -37496218.560394287 0 -37496218.560394287 -32806568.754486084 0 0 0 0 -189283878.02612305 -110595439.98402405 0 -110595439.98402405 26142050.93927002 0 0 0 0 -128405460.18588257 -187654674.55996704 0 -187654674.55996704 39171009.378219604 0 0 0 0 -251036077.01306152 -203282101.68634033 0 -203282101.68634033 54085244.792495728 0 0 0 0 -382078087.56100464 -170234364.79577637 0 -170234364.79577637 184252752.09524536 0 0 0 0 -341306092.80090332 -163263285.58190918 0 -163263285.58190918 139154597.51513672 0 0 0 0 -615509797.584198 -59138657.968566895 0 -59138657.968566895 140896815.60109854 0 0 0 0 448919271.1831665 -503794797.17770386 0 -503794797.17770386 120965576.08636475 0 0 0 0 558893909.79394531 36390562.172973633 0 36390562.172973633 -104371010.86590576 0 0 0 0 18314243.842712402 -245118211.02648926 0 -245118211.02648926 49727897.955291748 0 0 0 0 1075905.7150268555 -331712951.83233643 0 -331712951.83233643 148266570.32649231 0 0 0 0 -396923070.38134766 -284676693.68582153 0 -284676693.68582153 349154948.25695801 0 0 0 0 -352040901.12887573 -286670058.24609375 0 -286670058.24609375 -57726631.348083496 0 0 0 0 -188890194.91877747 -111316709.05039215 0 -111316709.05039215 130307144.24359131 0 0 0 0 -161805290.08347702 -352365755.02663994 0 -352365755.02663994 810385401.58886719 0 0 0 0 561671684.91012573 52604307.977783203 0 52604307.977783203 -117837298.39877319 0 0 0 0 -523483427.28192139 -602697427.61665344 0 -602697427.61665344 -489610937.04153442 0 0 0 0 -399345871.24501038 54239607.499790192 0 54239607.499790192 -223770452.6282959 0 0 0 0 510186417.35406494 -1026730298.6455994 0 -1026730298.6455994 -1633890416.3789673 0 0 0 0 -403404401.6178894 -14896580.667266846 0 -14896580.667266846 -130183352.06958008 0 0 0 0 -453208515.56654358 -461125667.75746155 0 -461125667.75746155 -1130556358.2351379 0 0 0 0 -679062077.05358887 -110909436.92181396 0 -110909436.92181396 -52543803.36554718 0 0 0 0 -764577431.59399414 -900654635.51786804 0 -900654635.51786804 -1474807832.2634315 0 0 0 0 -1088269777.8934326 -759129641.37290955 0 -759129641.37290955 -250268528.02044678 0 0 0 0 -1088849291.7486534 -908333715.57932281 0 -908333715.57932281 -846378771.88015747 0 0 0 0 -691645568.04026794 -1762072307.5370331 0 -1762072307.5370331 -2896441588.9895325 0 0 0 0 -1378889285.6056767 -2505363592.6815472 0 -2505363592.6815472 -3157704283.5783081 0 0 0 0 -1296116387.4212646 -1088909188.3105621 0 -1088909188.3105621 -1497957551.9431763 0 0 0 0 -13278748.237935461 -9137779.7441320233 0 -9137779.7441320233 3860020.1676263511 0 0 0 0 675006267.36044312 -389744285.5025177 0 -389744285.5025177 -715013757.60714722 0 0 0 0 -1497644574.7597046 -1188467550.3659363 0 -1188467550.3659363 -1455932390.1687775 0 0 0 0 -1786386385.1764679 -2434666939.3198233 0 -2434666939.3198233 -3648512108.318222 0 0 0 0 -1583288631.8809052 -1067813484.5588989 0 -1067813484.5588989 -1597810836.2567902 0 0 0 0 -2304957882.2542419 -1938991284.0462952 0 -1938991284.0462952 -3503296097.6220093 0 0 0 0 -3168479376.0131531 -3546189622.8487682 0 -3546189622.8487682 -3600047521.0206146 0 0 0 0 -1778959402.0778656 -3175471487.5410309 0 -3175471487.5410309 -5554002104.4398441 0 0 0 0 -1916326365.5112972 -3924596653.4233027 0 -3924596653.4233027 -3978296606.9270325 0 0 0 0 -5282229.6854133308 -5260085.2929797471 0 -5260085.2929797471 2005970.7449849844 0 0 0 0 -1005517872.150177 -3702636412.5554352 0 -3702636412.5554352 -6312416934.4675598 0 0 0 0 -2133604430.8872528 -2961273852.8718872 0 -2961273852.8718872 -3040473135.8541489 0 0 0 0 -636932368.49499512 -1199578697.5324554 0 -1199578697.5324554 -2501744734.675766 0 0 0 0 -1968717816.0742035 -3078076599.5773544 0 -3078076599.5773544 -4547778287.033905 0 0 0 0 -1186822370.1225281 -2440225176.2842865 0 -2440225176.2842865 -3905937508.9630508 0 0 0 0 -1494916962.7324219 -2981471456.1613617 0 -2981471456.1613617 -3299363086.9378204 0 0 0 0 -354777439.77119446 -1266017978.1537094 0 -1266017978.1537094 -2748758512.9237671 0 0 0 0 -2049234473.997406 -2934658358.5189056 0 -2934658358.5189056 -3620301497.7608032 0 0 0 0 -1196056785.7001953 -2512439327.2820129 0 -2512439327.2820129 -3728871617.8192749 0 0 0 0 -1397700368.9157104 -2360150989.9660454 0 -2360150989.9660454 -4274793058.3680725 0 0 0 0 -1648403927.6834106 -3825264612.6631317 0 -3825264612.6631317 -5348147501.3771935 0 0 0 0 -2530675352.4022217 -3624926968.853241 0 -3624926968.853241 -6360658330.154789 0 0 0 0 -9002830.6516596675 -7813653.1231598109 0 -7813653.1231598109 1136742.6145968288 0 0 0 0 -2172886662.1420898 -4248848206.3523254 0 -4248848206.3523254 -5290990993.4177246 0 0 0 0 -1964792783.1462708 -3231964122.7152405 0 -3231964122.7152405 -6311667165.1512146 0 0 0 0 -2026524844.5375175 -3076532525.399292 0 -3076532525.399292 -5927005185.5067139 0 0 0 0 -1551525271.6070557 -3564426327.2760925 0 -3564426327.2760925 -7408532605.5769653 0 0 0 0 -32952231.79123804 -10787070.31553638 0 -10787070.31553638 3409546.6197975948 0 0 0 0 -391684885.50726318 -296789473.65486145 0 -296789473.65486145 3138035513.0846939 0 0 0 0 -52759935.640126526 -11020889.055326767 0 -11020889.055326767 5852159.9175065234 0 0 0 0 -1384435807.4932556 -1442587972.4394684 0 -1442587972.4394684 -3100638967.5154877 0 0 0 0 -353293831.27590942 -2643573019.8919373 0 -2643573019.8919373 -6871115875.8948975 0 0 0 0 -602734057.82162476 -336469033.39055634 0 -336469033.39055634 3388449633.5210571 0 0 0 0 677574431.45541382 -450318476.47445679 0 -450318476.47445679 586974023.12188721 0 0 0 0 -479828637.39881897 159592694.18988037 0 159592694.18988037 1011829934.1974487 0 0 0 0 -433761191.18682861 -974557506.63996124 0 -974557506.63996124 928725949.35559082 0 0 0 0 291326319.89673615 -1232001226.0630608 0 -1232001226.0630608 -594813251.60177612 0 0 0 0 325968549.50257111 -1175211555.3852148 0 -1175211555.3852148 -2206698304.2558136 0 0 0 0 4430822.0435472429 -174392.52575825155 0 -174392.52575825155 -1157116.5129112974 0 0 0 0 630893904.41210938 -997218234.32640076 0 -997218234.32640076 -1026849618.7762451 0 0 0 0 -80311069.243255615 -360918858.35903931 0 -360918858.35903931 -1056379433.6585846 0 0 0 0 394447497.21343994 -369687820.46736908 0 -369687820.46736908 -1326242767.8963623 0 0 0 0 177454110.99777222 -978081780.09958839 0 -978081780.09958839 513563242.81809998 0 0 0 0 1015551983.6594849 663476966.72100067 0 663476966.72100067 1390639612.5660248 0 0 0 0 -425604430.49838257 -203088822.90298462 0 -203088822.90298462 3203668154.2596283 0 0 0 0 -488907926.88320923 -126058715.30712891 0 -126058715.30712891 3468202183.7192726 0 0 0 0 -640520153.37835693 -720912846.11187363 0 -720912846.11187363 -732821486.46315002 0 0 0 0 -64386120.17755127 -334998892.56921387 0 -334998892.56921387 -1572754241.9190292 0 0 0 0 -417769677.35055542 -878713030.76743317 0 -878713030.76743317 -1787821331.720871 0 0 0 0 8096639.0523945391 -1492121.6427315623 0 -1492121.6427315623 -2038461.2938656807 0 0 0 0 -468076620.98910522 -369727763.96383667 0 -369727763.96383667 -1036819817.8881836 0 0 0 0 -456624314.2110672 -544439534.51113701 0 -544439534.51113701 437762498.6751709 0 0 0 0 -25251272.703781128 -31842093.70911026 0 -31842093.70911026 -1786738903.29953 0 0 0 0 15288822.964464307 -5220456.8706717268 0 -5220456.8706717268 -661662.3488772884 0 0 0 0 -415034582.28955078 -392086789.06034088 0 -392086789.06034088 -997834948.6603241 0 0 0 0 -440126841.12670898 -211254195.66640854 0 -211254195.66640854 -842169812.576828 0 0 0 0 2205486.630351305 -2243826.6461186707 0 -2243826.6461186707 -3613355.0524720177 0 0 0 0 -171495364.09082031 311343795.01117706 0 311343795.01117706 604608298.49018478 0 0 0 0 118799127.10174561 586712908.08429718 0 586712908.08429718 -569832954.47849274 0 0 0 0 746815951.00515366 -1043178397.8956022 0 -1043178397.8956022 -1354308720.8522644 0 0 0 0 147999110.65982056 -174923762.28640747 0 -174923762.28640747 130070686.68379211 0 0 0 0 21995439.828682125 -9177145.6101751551 0 -9177145.6101751551 -1892782.2803893127 0 0 0 0 131129027.50915527 -372471317.23249817 0 -372471317.23249817 -875635936.3047142 0 0 0 0 78150802.515167236 -84204539.235534668 0 -84204539.235534668 -107471962.68187714 0 0 0 0 24311865.98074156 -13907797.89328108 0 -13907797.89328108 -4615220.5021168403 0 0 0 0 -22489698.682052612 -26581918.26871109 0 -26581918.26871109 2664376.6247406006 0 0 0 0 -46227692.938934326 -261958611.59260178 0 -261958611.59260178 -191172811.30673218 0 0 0 0 -131587041.51751709 -121456039.82886505 0 -121456039.82886505 -175542077.12573242 0 0 0 0 -122354191.07550049 -271994450.35490417 0 -271994450.35490417 9566408.9466094971 0 0 0 0 -4322404.3188323975 -167165942.01093292 0 -167165942.01093292 -183803155.71194458 0 0 0 0 -47126846.970703125 -186425823.8684845 0 -186425823.8684845 -13943238.038452148 0 0 0 0 -465134302.57086182 -577526607.49194908 0 -577526607.49194908 57102689.323318481 0 0 0 0 -129919291.59191895 141046881.58230591 0 141046881.58230591 475932623.33757782 0 0 0 0 3439242.5866401792 -10761654.835323274 0 -10761654.835323274 -9049326.0343397073 0 0 0 0 -40753391.782810211 -810074485.08416557 0 -810074485.08416557 -767610200.64250183 0 0 0 0 -334368672.47427368 -335539261.90353775 0 -335539261.90353775 -252447673.98352051 0 0 0 0 -83019218.105957031 -77623723.779327393 0 -77623723.779327393 231942413.11218262 0 0 0 0 -3667453.3546655476 -30166084.872381136 0 -30166084.872381136 -10996822.793179348 0 0 0 0 52859842.806152344 -98689980.178619385 0 -98689980.178619385 5827706.3637084961 0 0 0 0 -371936897.78787231 -189081362.90989685 0 -189081362.90989685 -21606031.128890991 0 0 0 0 -463654879.81500244 -149360647.95477295 0 -149360647.95477295 56744500.564491272 0 0 0 0 -517462355.11714172 -216190941.6912117 0 -216190941.6912117 264007292.17636108 0 0 0 0 -333889820.76889038 -400552892.14844513 0 -400552892.14844513 55608976.399078369 0 0 0 0 -348672563.74176025 -497116509.32894897 0 -497116509.32894897 -390155844.39804077 0 0 0 0 -102099811.47271729 -36828011.237136841 0 -36828011.237136841 69335637.893371582 0 0 0 0 -37630212.51741986 -24749454.602538317 0 -24749454.602538317 -785123.26746822894 0 0 0 0 -194894923.82113647 -7768075.1560897827 0 -7768075.1560897827 59660682.899597168 0 0 0 0 -14354694.958858259 -11641413.943284448 0 -11641413.943284448 6678064.3384272307 0 0 0 0 -2163021.0443115234 -101871322.19689941 0 -101871322.19689941 -79041116.678115845 0 0 0 0 -18999504.170811791 -50818282.780969627 0 -50818282.780969627 -33898883.631640777 0 0 0 0 -44348196.532501221 -209747814.42338562 0 -209747814.42338562 -116588320.19909668 0 0 0 0 -12635507.953459326 -34114054.138077326 0 -34114054.138077326 -21526092.11172156 0 0 0 0 -80132660.955928579 -35183697.999153361 0 -35183697.999153361 4482292.2416199632 0 0 0 0 81533431.373794556 -162216572.01984787 0 -162216572.01984787 -70697273.335174561 0 0 0 0 -240944238.16970825 -45227886.9585495 0 -45227886.9585495 -31699917.312194824 0 0 0 0 -82376751.302185059 -31028777.42868042 0 -31028777.42868042 -72742575.41683197 0 0 0 0 -13721153.789287474 -13465893.313285589 0 -13465893.313285589 4494659.8756982684 0 0 0 0 -9308970.5040062368 -4716283.1294705868 0 -4716283.1294705868 -204328.71753796935 0 0 0 0 -12329623.457190573 -22691054.294472948 0 -22691054.294472948 -14149812.716872707 0 0 0 0 -20923226.848114014 -23597190.553207397 0 -23597190.553207397 -9442596.3505249023 0 0 0 0 39373130.557323456 -37415883.097517014 0 -37415883.097517014 -43710687.222061157 0 0 0 0 -19906973.224336445 -51639801.658636205 0 -51639801.658636205 -20177302.279507786 0 0 0 0 -20364325.753479004 -64510631.605758667 0 -64510631.605758667 -39260807.573913574 0 0 0 0 -170302968.484375 -171211878.86364746 0 -171211878.86364746 -257440710.20195007 0 0 0 0 -55094627.856826782 -115261236.64953613 0 -115261236.64953613 87136199.17175293 0 0 0 0 21396861.866276324 -26524939.674800888 0 -26524939.674800888 -9203406.759554334 0 0 0 0 -301666913.19128418 -94677811.09777832 0 -94677811.09777832 501261500.88598633 0 0 0 0 32716246.432617188 -242070682.42584229 0 -242070682.42584229 -189882231.7166748 0 0 0 0 -85201494.199951172 -615773939.40621948 0 -615773939.40621948 -517441067.362854 0 0 0 0 30868918.001281738 -9326359.6272583008 0 -9326359.6272583008 -94223057.658439636 0 0 0 0 -7828197.0474254303 -13007570.216427185 0 -13007570.216427185 5911115.3118076921 0 0 0 0 -36070682.8332901 6228565.3566055298 0 6228565.3566055298 -33237317.177932739 0 0 0 0 7848961.9639434814 -2467723.8569107056 0 -2467723.8569107056 41688095.937477112 0 0 0 0 46374109.892578125 -5090926.8668060303 0 -5090926.8668060303 -46212370.342727661 0 0 0 0 76149341.920166016 -94685967.452796936 0 -94685967.452796936 19345058.849182129 0 0 0 0 97259789.532897949 -82296414.886161804 0 -82296414.886161804 8681176.0369949341 0 0 0 0 -67072208.262527466 99453303.500907898 0 99453303.500907898 -132354567.25765991 0 0 0 0 329911074.93270111 -194645461.25645638 0 -194645461.25645638 -239151551.2052002 0 0 0 0 232608021.25907898 -360510848.60356903 0 -360510848.60356903 112353856.11953735 0 0 0 0 204328189.90864563 -308088470.507164 0 -308088470.507164 26899039.014678955 0 0 0 0 194874392.24517822 -409400221.75382233 0 -409400221.75382233 73866531.507011414 0 0 0 0 70578348.052337646 -82169263.616790771 0 -82169263.616790771 -176762417.97518921 0 0 0 0 520090475.78823853 -392324120.45722198 0 -392324120.45722198 -145369868.63362217 0 0 0 0 297216493.77810669 -360615375.94304657 0 -360615375.94304657 244004655.68338776 0 0 0 0 204829897.6685791 -451370765.83187866 0 -451370765.83187866 224198646.39837837 0 0 0 0 191320710.62316895 -422775424.28757477 0 -422775424.28757477 406684824.55014801 0 0 0 0 223288923.93959045 -398129422.38926315 0 -398129422.38926315 248333883.02159119 0 0 0 0 155021048.85067749 -289502436.63375092 0 -289502436.63375092 188446738.36711693 0 0 0 0 314095316.70534325 -540842499.23322487 0 -540842499.23322487 348768224.45903015 0 0 0 0 137024056.64596558 -229669095.12812042 0 -229669095.12812042 178363963.14749146 0 0 0 0 79605062.017852783 -329255253.40898132 0 -329255253.40898132 487460188.56195068 0 0 0 0 101707208.71603394 -221771501.42282867 0 -221771501.42282867 221611711.25994015 0 0 0 0 143322266.35046387 -157863359.77523041 0 -157863359.77523041 63927941.341720581 0 0 0 0 71542526.058929443 -59196191.204872131 0 -59196191.204872131 1342035.5065307617 0 0 0 0 40302565.799032211 -83261249.497936249 0 -83261249.497936249 85740864.640319824 0 0 0 0 16657403.806114197 -123718771.84221077 0 -123718771.84221077 226983408.57444763 0 0 0 0 33773785.8097229 -366024.3756942749 0 -366024.3756942749 14170509.317871094 0 0 0 0 -20356318.974147797 -133393027.27860165 0 -133393027.27860165 325346931.73835754 0 0 0 0 -7718024.920501709 -81736412.135829926 0 -81736412.135829926 501287615.98145294 0 0 0 0 65134298.783557892 -432280739.34920597 0 -432280739.34920597 823760263.69519043 0 0 0 0 460984747.33346558 -672024714.77749634 0 -672024714.77749634 619777412.78144073 0 0 0 0 137601731.53768921 -244401171.87585449 0 -244401171.87585449 267814854.40527725 0 0 0 0 19894701.129928589 -450817795.97403717 0 -450817795.97403717 1080655256.3391418 0 0 0 0 164449992.46578979 -420287116.39916229 0 -420287116.39916229 990724997.0451107 0 0 0 0 784420446.32312775 -818401803.4165802 0 -818401803.4165802 451181408.43891907 0 0 0 0 690603932.61538696 -993077920.03812408 0 -993077920.03812408 1154537171.3743572 0 0 0 0 298186352.85917664 -713549700.61103058 0 -713549700.61103058 1069094591.3755798 0 0 0 0 677713393.51495361 -1429182593.2155991 0 -1429182593.2155991 1333462657.2343788 0 0 0 0 354553735.9095459 -324861190.00602722 0 -324861190.00602722 -1105141453.1388779 0 0 0 0 726539.2720438987 -1615231.6822698526 0 -1615231.6822698526 -1376538.4155530706 0 0 0 0 471436869.41178894 27272623.408023834 0 27272623.408023834 -1122780917.8896637 0 0 0 0 235857594.79296494 -637535108.68977976 0 -637535108.68977976 688117949.87556458 0 0 0 0 250800165.16369629 -500779019.32308197 0 -500779019.32308197 323412045.34617615 0 0 0 0 493259444.34677124 -934806889.83514404 0 -934806889.83514404 247323034.96268463 0 0 0 0 542714024.68551636 -601750850.11456299 0 -601750850.11456299 -84561821.910140991 0 0 0 0 540806105.71697998 -460103437.48110962 0 -460103437.48110962 347912696.53246307 0 0 0 0 178708951.98309326 -540085338.66247559 0 -540085338.66247559 825903169.43357086 0 0 0 0 960636391.13973999 -152405345.23964691 0 -152405345.23964691 270556644.28540039 0 0 0 0 5856955.965931192 2479829.2267719973 0 2479829.2267719973 402400.38383958116 0 0 0 0 1091557611.7549896 278043186.20692825 0 278043186.20692825 -733685139.78152466 0 0 0 0 256741444.53569031 -659644525.80468941 0 -659644525.80468941 401849395.13973999 0 0 0 0 -130975001.61633301 234057990.33662415 0 234057990.33662415 -380155892.71600723 0 0 0 0 220111650.76765442 455881461.40024567 0 455881461.40024567 -583841285.76759338 0 0 0 0 8467259.2004695088 1957299.7206768729 0 1957299.7206768729 -2609693.356242612 0 0 0 0 529943987.43572998 -227419983.052742 0 -227419983.052742 -1647769273.1151123 0 0 0 0 -604917868.89361572 13589392.443565369 0 13589392.443565369 419212534.86183929 0 0 0 0 2746383.7859363556 391350.90413668007 0 391350.90413668007 -791595.44196533412 0 0 0 0 409694780.75243378 -1040794155.7971859 0 -1040794155.7971859 -76715728.499053955 0 0 0 0 49929347.09765625 -392396281.59624481 0 -392396281.59624481 -292306648.94817352 0 0 0 0 4769499.8877454847 2289246.8393913377 0 2289246.8393913377 428767.4509036541 0 0 0 0 137756249.29516602 -97417883.380058289 0 -97417883.380058289 -513167785.97408295 0 0 0 0 -35813699.445510864 -261078156.75296783 0 -261078156.75296783 180828374.82171631 0 0 0 0 21365115.233154297 -455723770.93835068 0 -455723770.93835068 133513095.66758728 0 0 0 0 -81439117.137023926 -46549325.421001434 0 -46549325.421001434 429181574.06618118 0 0 0 0 1236839.6416012645 -2932005.1445275843 0 -2932005.1445275843 -1501448.5509994477 0 0 0 0 687948466.92910767 87638371.57850647 0 87638371.57850647 -49581702.562469482 0 0 0 0 11795882.097941399 -56698565.740426064 0 -56698565.740426064 -1676674.3725738525 0 0 0 0 -62721009.654190063 -89735441.176338196 0 -89735441.176338196 110024510.33603096 0 0 0 0 -20772858.311233521 -59765692.555854797 0 -59765692.555854797 5605204.365020752 0 0 0 0 -285424300.93903923 526206043.45291519 0 526206043.45291519 24963612.098068237 0 0 0 0 2598234.2224015892 1124941.1076842342 0 1124941.1076842342 292981.37300546467 0 0 0 0 -200847532.60171509 -22897607.976989746 0 -22897607.976989746 334940870.28303528 0 0 0 0 705503514.4982605 536281822.04173279 0 536281822.04173279 -853030437.52993774 0 0 0 0 222360078.25292969 140871826.07082176 0 140871826.07082176 -293373776.14259338 0 0 0 0 606559793.34898376 -304939352.62057114 0 -304939352.62057114 91311513.216209412 0 0 0 0 215621412.33459473 256824963.7763443 0 256824963.7763443 150455062.91474915 0 0 0 0 451599188.51132202 -872175175.97217178 0 -872175175.97217178 -489724827.39355469 0 0 0 0 509913327.00305939 266929737.72969151 0 266929737.72969151 -409650513.57701111 0 0 0 0 -333110348.23513794 240609934.44159698 0 240609934.44159698 591472362.93372107 0 0 0 0 -559481570.33505249 -728365209.26318359 0 -728365209.26318359 661059807.740448 0 0 0 0 -518082661.8145752 -441420601.69286346 0 -441420601.69286346 -195282940.7320962 0 0 0 0 -1380808390.2697449 -1319323214.4658585 0 -1319323214.4658585 -250820859.66263485 0 0 0 0 251312937.88742065 343971162.96104431 0 343971162.96104431 585526736.74312592 0 0 0 0 -1212176579.4460754 -1691365252.5603638 0 -1691365252.5603638 -642886897.95222092 0 0 0 0 8591610.0162884295 -7721394.2329162732 0 -7721394.2329162732 2316410.3850686625 0 0 0 0 -679371.422016114 570604.08779370598 0 570604.08779370598 1761751.033422485 0 0 0 0 380660123.53244019 896486778.71083069 0 896486778.71083069 -465117916.84916687 0 0 0 0 2876934409.7978668 397388087.67240143 0 397388087.67240143 -367626683.45503235 0 0 0 0 1903251092.7573395 1004981201.4083557 0 1004981201.4083557 356345906.97199249 0 0 0 0 3560777.8594615161 -3089293.5433152467 0 -3089293.5433152467 1068822.0854322985 0 0 0 0 -1673304594.2521057 -570806769.21694946 0 -570806769.21694946 515022974.56815338 0 0 0 0 -452906419.47348022 -957429243.90101624 0 -957429243.90101624 -1179698334.3335876 0 0 0 0 -715517331.26193237 -1074491788.7317352 0 -1074491788.7317352 771610002.9586792 0 0 0 0 552640367.96253967 -1098651819.4679794 0 -1098651819.4679794 727896823.56103516 0 0 0 0 1555491098.6047363 -631247306.57271576 0 -631247306.57271576 65981617.431091309 0 0 0 0 404107508.50009537 -364485521.56017303 0 -364485521.56017303 21677392.149917603 0 0 0 0 558565746.14241791 -757346314.8162632 0 -757346314.8162632 298768312.85665894 0 0 0 0 -133351934.40176392 -698690343.40509796 0 -698690343.40509796 504413222.22013855 0 0 0 0 -69762944.853240967 -287524391.77035522 0 -287524391.77035522 440560360.01422119 0 0 0 0 397432564.62924194 -561625940.3832016 0 -561625940.3832016 470008681.55754852 0 0 0 0 408794416.02548218 -432312975.63693237 0 -432312975.63693237 389991500.491539 0 0 0 0 771081512.35358405 -131734737.44917578 0 -131734737.44917578 462467161.95159912 0 0 0 0 757465411.6960907 -757337654.161026 0 -757337654.161026 335579488.63288879 0 0 0 0 -1542908.608452789 -1770926557.8280525 0 -1770926557.8280525 -1931860515.967865 0 0 0 0 -1915517.374190703 292897.37556840852 0 292897.37556840852 -4244434.1597627858 0 0 0 0 -331452941.82531738 -205889067.19795227 0 -205889067.19795227 1243380819.3713112 0 0 0 0 591568139.7939074 -1720911001.1136684 0 -1720911001.1136684 -3204777070.8182068 0 0 0 0 569099612.7636261 -461472135.62910843 0 -461472135.62910843 -6093915209.750453 0 0 0 0 -279745114.96144104 -2058018791.0029335 0 -2058018791.0029335 -1958454948.6797333 0 0 0 0 -422900867.72148132 -1526264266.5579786 0 -1526264266.5579786 -112776726.52804565 0 0 0 0 3012951735.9417877 380802614.50777817 0 380802614.50777817 -1615778180.7186661 0 0 0 0 1271425.7327038236 -4081563.8630026579 0 -4081563.8630026579 -3523579.6005945355 0 0 0 0 -557254091.77838135 -2353313190.0213356 0 -2353313190.0213356 -1581739559.4160538 0 0 0 0 -2091732201.1580048 -1036627358.7685661 0 -1036627358.7685661 537760763.68386078 0 0 0 0 2806216.8819057047 -8909139.360972181 0 -8909139.360972181 -6848715.3088148683 0 0 0 0 -765385758.62719727 -1436591308.6611481 0 -1436591308.6611481 -334646157.23571777 0 0 0 0 -2592643225.8045044 -905700465.58517838 0 -905700465.58517838 -691475290.48196411 0 0 0 0 -990238253.83285522 -776538349.56304169 0 -776538349.56304169 -776488518.05463409 0 0 0 0 -790663241.71148682 -345119817.2043457 0 -345119817.2043457 -2170888601.2062836 0 0 0 0 -632805017.27960205 -621259813.13009644 0 -621259813.13009644 -2536939219.6759338 0 0 0 0 -1272147598.5535889 -588601844.72087097 0 -588601844.72087097 -2195751789.8077087 0 0 0 0 -1284032728.2193394 -1264332135.8962665 0 -1264332135.8962665 -2814082812.1596985 0 0 0 0 -381306214.34075928 -1533859694.4182281 0 -1533859694.4182281 -4321301397.4572144 0 0 0 0 -4029876690.8633423 -2853255761.8360672 0 -2853255761.8360672 -1978363418.9107361 0 0 0 0 447672581.1109314 -115479863.55576324 0 -115479863.55576324 -4848609677.4236679 0 0 0 0 -5328643.378489241 -2945630.7922288515 0 -2945630.7922288515 -4947367.2147891652 0 0 0 0 164631815.5604248 -180206272.19223022 0 -180206272.19223022 760912810.78152466 0 0 0 0 160380213.80055237 -395567949.70174408 0 -395567949.70174408 -3592387475.0193481 0 0 0 0 -185824004.36010742 -234588229.54525757 0 -234588229.54525757 915511677.62358093 0 0 0 0 -189803199.87245083 -77366687.879229784 0 -77366687.879229784 304100779.73135376 0 0 0 0 -461737560.44909668 -153896605.57527161 0 -153896605.57527161 -2274320304.2204514 0 0 0 0 -8571486.863261342 -8115983.1641077045 0 -8115983.1641077045 -6354002.8452571519 0 0 0 0 -1251373.3029785156 -119130899.85296631 0 -119130899.85296631 145339570.01722717 0 0 0 0 62806479.280151367 -45239601.476623535 0 -45239601.476623535 -2279019486.2600784 0 0 0 0 367802043.40478516 307168245.00695801 0 307168245.00695801 -2018828200.9516602 0 0 0 0 -339996225.78338623 -243404963.35415649 0 -243404963.35415649 -2317106765.0932922 0 0 0 0 -670241570.34362793 -226755599.77676392 0 -226755599.77676392 -2248976028.6462708 0 0 0 0 -309284875.48260498 -76229999.237960815 0 -76229999.237960815 -2355927644.934082 0 0 0 0 112874330.15905762 75850587.045806885 0 75850587.045806885 -2241569530.1556396 0 0 0 0 -666375530.30999756 -524249595.16087341 0 -524249595.16087341 -3060227541.2262192 0 0 0 0 -509181949.08935547 -52468444.883300781 0 -52468444.883300781 -2328143332.6049194 0 0 0 0 -3309325.5679321289 434590902.6709137 0 434590902.6709137 -1945284202.8808136 0 0 0 0 14774642.367953658 -76651.275429539382 0 -76651.275429539382 -10488488.165883288 0 0 0 0 -29301626.910522461 395965587.28132629 0 395965587.28132629 -1774441878.8518982 0 0 0 0 -54705647.022460938 201536357.42703247 0 201536357.42703247 -1709067078.2644119 0 0 0 0 -54449148.078491211 191513916.55807495 0 191513916.55807495 -1957544241.4221191 0 0 0 0 -34111657.142700195 231968881.81387329 0 231968881.81387329 -2088384673.7593994 0 0 0 0 -177288281.42028809 -126689735.78686523 0 -126689735.78686523 -2345093649.9405518 0 0 0 0 -95656032.498687744 275974373.9431839 0 275974373.9431839 -1991672761.9294434 0 0 0 0 -48024061.38671875 330170751.9152832 0 330170751.9152832 -2059539211.2803345 0 0 0 0 -57351272.809326172 368572871.16397095 0 368572871.16397095 -1889690148.7583618 0 0 0 0 -113710940.58325195 322011257.06330872 0 322011257.06330872 -1871063090.5266724 0 0 0 0 89860250.366699219 104169776.93829346 0 104169776.93829346 -2258270107.6139832 0 0 0 0 589344928.08227539 397087948.02319336 0 397087948.02319336 -2098461401.9776001 0 0 0 0 118372227.00732422 517171197.78521729 0 517171197.78521729 -1850414991.7745361 0 0 0 0 -249437106.93261719 296635795.97363281 0 296635795.97363281 -1676219421.1356506 0 0 0 0 161764200.93237305 786363118.85214233 0 786363118.85214233 -1570966589.9383545 0 0 0 0 -8727678.9638671875 513036878.33044434 0 513036878.33044434 -1843468338.2387695 0 0 0 0 -235431.39837710559 -198417.44547189027 0 -198417.44547189027 447497.44768804312 0 0 0 0 -349193799.55615234 518277704.19677734 0 518277704.19677734 -1389205702.1296082 0 0 0 0 -37862715.505737305 350520732.87147522 0 350520732.87147522 -1873029790.6564941 0 0 0 0 -94546955.060668945 529408031.29745483 0 529408031.29745483 -1827964505.2692871 0 0 0 0 27316616.853759766 353278745.08917236 0 353278745.08917236 -1794840331.1468506 0 0 0 0 -340732258.38562012 34651642.401565552 0 34651642.401565552 -1525482185.0862122 0 0 0 0 -237966420.68292236 506055333.6118927 0 506055333.6118927 -1664991283.8545685 0 0 0 0 -122259035.72261047 112608925.64234161 0 112608925.64234161 -760499308.36875916 0 0 0 0 -67655747.391326904 301596671.28528595 0 301596671.28528595 -1565692520.6255493 0 0 0 0 -166947052.31829834 372233371.82681274 0 372233371.82681274 -1527277818.6300659 0 0 0 0 140090643.78625488 193707038.6073761 0 193707038.6073761 -1602298291.2146683 0 0 0 0 203119274.13827515 -173150445.93041897 0 -173150445.93041897 -1458329946.6983948 0 0 0 0 139050013.74435043 -531703053.36262035 0 -531703053.36262035 -745618440.17590332 0 0 0 0 -143418155.93066406 10326078.82094574 0 10326078.82094574 -1422002225.6830902 0 0 0 0 -628342063.29168701 -978457322.9433136 0 -978457322.9433136 -919958503.67898941 0 0 0 0 -245687510.36468506 -308687987.88330078 0 -308687987.88330078 -2478969636.4542847 0 0 0 0 -323361614.98907471 -270274317.9466095 0 -270274317.9466095 -1852437857.0450592 0 0 0 0 -613220014.09005737 -1104197751.4549942 0 -1104197751.4549942 -2221848969.8794947 0 0 0 0 -849084132.77685547 -1569741076.5278988 0 -1569741076.5278988 80255697.69442749 0 0 0 0 -867412001.69613647 -1218769623.5046844 0 -1218769623.5046844 429959625.88597107 0 0 0 0 -224248270.13160706 -1567793500.1647644 0 -1567793500.1647644 -48247826.073348999 0 0 0 0 -57839961.842285156 -648991559.29551697 0 -648991559.29551697 -730473632.3105545 0 0 0 0 1294846888.0567322 27287410.92660141 0 27287410.92660141 -987000926.20484161 0 0 0 0 351288269.89425659 -1765195825.6349306 0 -1765195825.6349306 922714969.86421204 0 0 0 0 -25978.068170428276 -871892.29939182661 0 -871892.29939182661 -320798.331588462 0 0 0 0 -208630402.14060974 -2184929311.9309387 0 -2184929311.9309387 1942564397.2189941 0 0 0 0 5465069.6499980092 -1521171.1491170675 0 -1521171.1491170675 -98307.440423108637 0 0 0 0 68135795.787929535 -845281907.58471584 0 -845281907.58471584 3588423997.1266174 0 0 0 0 883500264.29556274 -1966380985.3501282 0 -1966380985.3501282 1497700427.2759476 0 0 0 0 461629017.80908203 -1036704850.0728912 0 -1036704850.0728912 463335096.88101196 0 0 0 0 750635.15535974503 -2503112.6958047207 0 -2503112.6958047207 -1800399.7781169675 0 0 0 0 -69484080.604614258 88096613.820343018 0 88096613.820343018 378313880.27706146 0 0 0 0 866144576.98248291 -4299521.3235321045 0 -4299521.3235321045 -759618437.34388733 0 0 0 0 95479258.733062744 -82749023.219451904 0 -82749023.219451904 -729878370.89448547 0 0 0 0 133322655.1104126 354309084.85437012 0 354309084.85437012 -1340657054.6222534 0 0 0 0 334013445.73020935 88239349.042430878 0 88239349.042430878 -1717009329.2413635 0 0 0 0 39695135.513244629 -132225501.44580078 0 -132225501.44580078 -1829651836.6199875 0 0 0 0 143507928.15106201 67888124.845680237 0 67888124.845680237 -356335690.74926758 0 0 0 0 22325664.320770264 -444937930.79141235 0 -444937930.79141235 -960441359.22930145 0 0 0 0 -35961564.976989746 599980182.0602417 0 599980182.0602417 -1581743024.5400085 0 0 0 0 1508732.7061237395 945595.56742716208 0 945595.56742716208 272141.67768461257 0 0 0 0 -358109327.8135376 772815.55556488037 0 772815.55556488037 -619206656.94773865 0 0 0 0 357423671.98925781 -392289521.27775574 0 -392289521.27775574 260476044.92964935 0 0 0 0 452238017.79144287 320639866.27479553 0 320639866.27479553 -2226323529.3094177 0 0 0 0 13093352.914613694 3103678.1511163376 0 3103678.1511163376 -5180842.6524931137 0 0 0 0 1396287244.1029053 214232711.51779175 0 214232711.51779175 -630800343.04081154 0 0 0 0 931579382.82180786 -142511559.5714798 0 -142511559.5714798 -119452605.1546936 0 0 0 0 466131030.8662262 891246159.29456329 0 891246159.29456329 52480124.67401123 0 0 0 0 221107968.07366943 13678860.750732422 0 13678860.750732422 -86463382.163164139 0 0 0 0 112103293.84541321 -45037069.742961884 0 -45037069.742961884 -63755140.027984619 0 0 0 0 336583657.15376282 -155627319.26548004 0 -155627319.26548004 -95791409.797668457 0 0 0 0 79115746.430114746 -186938741.56648254 0 -186938741.56648254 161300396.99036407 0 0 0 0 24374525.565139771 -64322416.58605957 0 -64322416.58605957 -102373105.90428162 0 0 0 0 2559671.3966064453 -266559529.80739975 0 -266559529.80739975 -83405218.051361084 0 0 0 0 103802910.40013123 -167433564.63745117 0 -167433564.63745117 -1939090.6850891113 0 0 0 0 13264210.204162598 -91526573.259376526 0 -91526573.259376526 -9792116.7221841812 0 0 0 0 105422635.08135986 -145106492.51837921 0 -145106492.51837921 -94996200.464035034 0 0 0 0 66472752.127044678 -60780477.282691956 0 -60780477.282691956 -24360136.430725098 0 0 0 0 12152945.255950928 -49606597.523086548 0 -49606597.523086548 -18630997.976730347 0 0 0 0 50236750.069824219 -18599376.014785767 0 -18599376.014785767 -79519528.488400459 0 0 0 0 28091809.226257324 -46014127.999087334 0 -46014127.999087334 -23319443.461296082 0 0 0 0 100327.65502305329 -14922572.462757558 0 -14922572.462757558 -30920920.485282436 0 0 0 0 166752998.4960022 -64876584.080848694 0 -64876584.080848694 -82235940.236923218 0 0 0 0 22929279.884231567 -14588056.093418121 0 -14588056.093418121 -58222806.958709717 0 0 0 0 -28432696.872833252 -69067051.156845093 0 -69067051.156845093 -84092868.092124939 0 0 0 0 -447730.72694396973 -22613112.243894577 0 -22613112.243894577 -18237161.239509583 0 0 0 0 9799847.3705444336 -53152495.016391754 0 -53152495.016391754 -31936530.886660576 0 0 0 0 4173582.4289316684 -18251216.253725305 0 -18251216.253725305 -4265983.4622807428 0 0 0 0 191155095.75332642 -35373528.364078522 0 -35373528.364078522 -41740696.870101929 0 0 0 0 122527818.70233154 -49699039.149765015 0 -49699039.149765015 -34852201.314743042 0 0 0 0 19763419.242248535 233244636.4781189 0 233244636.4781189 19750573.280456543 0 0 0 0 162726.4806747362 -17367766.033364065 0 -17367766.033364065 -31910425.279739417 0 0 0 0 -47833334.443481445 53674099.703140259 0 53674099.703140259 -56805855.432434082 0 0 0 0 33156.69525372982 -3062771.8092083186 0 -3062771.8092083186 -4912734.9783035591 0 0 0 0 -393194935.97406006 -305260799.58216858 0 -305260799.58216858 -217455931.22949219 0 0 0 0 -409440357.57739258 -151573667.39247131 0 -151573667.39247131 -7734989.099571228 0 0 0 0 -400643766.82861328 36671970.832580566 0 36671970.832580566 96088181.281738281 0 0 0 0 124181390.59234619 334617810.10072327 0 334617810.10072327 176103702.05368042 0 0 0 0 -405159266.9465332 795447406.19021606 0 795447406.19021606 179337953.57426453 0 0 0 0 -975999041.95489502 297758794.18389893 0 297758794.18389893 302873512.8072052 0 0 0 0 -8936146.4114741981 -21917483.785523914 0 -21917483.785523914 -15062523.433573239 0 0 0 0 -15886963.138534546 -27313777.770942688 0 -27313777.770942688 -39205751.40574646 0 0 0 0 35851536.371826172 -30577633.337226868 0 -30577633.337226868 15722104.86177063 0 0 0 0 46144349.699821472 -96122808.702510834 0 -96122808.702510834 80695436.452026367 0 0 0 0 89747019.453186035 -176983729.4803009 0 -176983729.4803009 12769094.301338196 0 0 0 0 209439025.20629883 -241249869.38310242 0 -241249869.38310242 -36069765.465805054 0 0 0 0 204352930.9487915 -196780678.96368408 0 -196780678.96368408 -12759149.748146057 0 0 0 0 158424595.97467041 -116972032.58930969 0 -116972032.58930969 -17345415.672693253 0 0 0 0 84838451.089477539 -108307257.35140991 0 -108307257.35140991 -18182496.703279495 0 0 0 0 43169906.259887695 -102892038.28109741 0 -102892038.28109741 107940706.83065796 0 0 0 0 45620959.392578125 -143444999.01391602 0 -143444999.01391602 151334347.22311401 0 0 0 0 100916914.23284912 -148284181.50577545 0 -148284181.50577545 70033878.619689941 0 0 0 0 -21532418.04095459 -192680116.4278717 0 -192680116.4278717 118125104.81488037 0 0 0 0 130551275.3973999 -248270740.7663269 0 -248270740.7663269 120083717.0697937 0 0 0 0 192430587.54083252 -545633037.69537354 0 -545633037.69537354 329462012.44639587 0 0 0 0 62322624.000366211 -343707740.32244873 0 -343707740.32244873 312989270.22886753 0 0 0 0 167467035.02963638 -424255472.53702164 0 -424255472.53702164 -104318979.37084198 0 0 0 0 101407925.16162109 -384201326.94178009 0 -384201326.94178009 67298307.200271606 0 0 0 0 139962961.35412598 -308005420.15658569 0 -308005420.15658569 -880542.73670959473 0 0 0 0 132775603.17718506 -294263270.87516785 0 -294263270.87516785 -19388907.375640869 0 0 0 0 207507719.77978516 -353928119.95310974 0 -353928119.95310974 -67365500.143608093 0 0 0 0 221139326.10620117 -290980558.81576538 0 -290980558.81576538 -175037626.88879395 0 0 0 0 166822087.16940308 -211315793.99267578 0 -211315793.99267578 -101822763.33338165 0 0 0 0 277592689.82208252 -186828135.42342377 0 -186828135.42342377 -170870633.33250427 0 0 0 0 190775150.30853271 -48345307.124893188 0 -48345307.124893188 -126541696.84421539 0 0 0 0 278743229.34632587 -107555467.97050035 0 -107555467.97050035 -86689938.530471802 0 0 0 0 159966529.54058838 -129638055.37236023 0 -129638055.37236023 -82439389.773109436 0 0 0 0 609100235.67184448 163309904.70133591 0 163309904.70133591 -30928571.775001526 0 0 0 0 2197128.0512521118 -9395399.4843592495 0 -9395399.4843592495 -423638.7658065781 0 0 0 0 -138925793.47073364 -146217418.02566147 0 -146217418.02566147 9329000.1205062866 0 0 0 0 47327074.685913086 -20015762.302467346 0 -20015762.302467346 -63116927.211791992 0 0 0 0 802072.0223557502 -2844364.903297767 0 -2844364.903297767 26437.636145882308 0 0 0 0 1294844711.2891846 978458179.76408005 0 978458179.76408005 -82893916.981302261 0 0 0 0 544814859.94519043 -10503244.47971344 0 -10503244.47971344 28609500.760110378 0 0 0 0 519172688.32793427 -197652736.81912994 0 -197652736.81912994 -253396476.57202148 0 0 0 0 -337776878.16818237 -485645690.58971405 0 -485645690.58971405 -178449967.13022232 0 0 0 0 490146776.43792725 -458901028.98344135 0 -458901028.98344135 -635715430.49147034 0 0 0 0 -888380709.62863159 145400681.45467377 0 145400681.45467377 -235808616.90962982 0 0 0 0 -997388968.26635742 1163808018.3886833 0 1163808018.3886833 -1517262984.4477787 0 0 0 0 -4508604.8574087918 377143.21724780649 0 377143.21724780649 1819552.0733484998 0 0 0 0 -167639369.56028748 -125606812.65088701 0 -125606812.65088701 -1168334561.6150894 0 0 0 0 -5670698.7021179199 -698798521.04345703 0 -698798521.04345703 -63499153.424758911 0 0 0 0 -289482390.14190674 -75761028.190719604 0 -75761028.190719604 -84466838.20297718 0 0 0 0 -398173.08010864258 -354413721.45667267 0 -354413721.45667267 -318024528.96446991 0 0 0 0 5059623.919928968 29822.713009610772 0 29822.713009610772 -4810553.8192767352 0 0 0 0 -271036637.70956421 -143419031.47201538 0 -143419031.47201538 -160444853.86145782 0 0 0 0 173427956.86044121 -343982402.29256475 0 -343982402.29256475 -145002133.95652771 0 0 0 0 2857323.9275133312 -116320.06441064924 0 -116320.06441064924 -2397843.649775371 0 0 0 0 198880289.08751678 -320243243.01296139 0 -320243243.01296139 -198077584.48348236 0 0 0 0 -115132665.13327026 -431099418.46353912 0 -431099418.46353912 638052525.29318047 0 0 0 0 -216599611.84783936 107471105.49462414 0 107471105.49462414 586122094.19908142 0 0 0 0 419582.61660766602 -312841077.82076645 0 -312841077.82076645 527833388.62134552 0 0 0 0 80208161.255432129 68601577.113983154 0 68601577.113983154 -149694536.74565125 0 0 0 0 31401731.083648682 377459456.72711372 0 377459456.72711372 -442624261.98778057 0 0 0 0 -5180630.3708621264 2903576.2214520164 0 2903576.2214520164 4355948.3978447393 0 0 0 0 -146559229.88293457 130337069.47606277 0 130337069.47606277 -368145014.7996521 0 0 0 0 324072.1708984375 30096647.9737854 0 30096647.9737854 -73794425.722456932 0 0 0 0 64843019.166809082 -4366429.2355613708 0 -4366429.2355613708 -87622359.253545761 0 0 0 0 -2652597.4416025281 -313023.42736850679 0 -313023.42736850679 2436134.5100461952 0 0 0 0 47570753.094818115 -48946827.935699463 0 -48946827.935699463 -10551919.420783997 0 0 0 0 62531347.516113281 -19799421.061973572 0 -19799421.061973572 45722842.720985413 0 0 0 0 -7285194.9568481445 112248198.5600338 0 112248198.5600338 -167760209.50668335 0 0 0 0 -5032171.6947857738 -539069.80097143352 0 -539069.80097143352 4790888.3219320513 0 0 0 0 -522071.92300415039 -194569923.35505676 0 -194569923.35505676 -161431103.65863132 0 0 0 0 79889922.442962646 -69577576.389339447 0 -69577576.389339447 145779161.09123325 0 0 0 0 -164433.29939422786 -209462787.52009559 0 -209462787.52009559 -53604058.240680695 0 0 0 0 217291.72643428916 -161380881.18610147 0 -161380881.18610147 191315183.04943085 0 0 0 0 87676485.815232277 -245791131.52326089 0 -245791131.52326089 166578368.47235107 0 0 0 0 -4161660.3998041153 -2467548.7822447084 0 -2467548.7822447084 -2811942.5981994085 0 0 0 0 -332295838.86879539 -528382486.05819303 0 -528382486.05819303 -97683113.305679321 0 0 0 0 -276696066.85272217 2251908688.7438545 0 2251908688.7438545 -978564267.36859131 0 0 0 0 795999266.60244751 -509995624.08597565 0 -509995624.08597565 -645535420.9561615 0 0 0 0 199964675.18048096 -254700318.70598602 0 -254700318.70598602 31981540.238248825 0 0 0 0 140310774.58204651 721219363.56185532 0 721219363.56185532 -1433303108.9994774 0 0 0 0 -5580424.6618163586 -8007785.0941277854 0 -8007785.0941277854 -9485513.2200417519 0 0 0 0 147421528.15167236 -58712540.329462051 0 -58712540.329462051 -2192443.3650436401 0 0 0 0 143519237.25109863 -200018669.12171555 0 -200018669.12171555 105660664.06623459 0 0 0 0 12281229.783233643 -29298743.685123444 0 -29298743.685123444 16450835.092254639 0 0 0 0 93675779.334472656 -18797912.866815567 0 -18797912.866815567 -88506923.689201355 0 0 0 0 15175904.432220459 -72847784.228767395 0 -72847784.228767395 -121040743.40882301 0 0 0 0 11086001.962310791 -54458541.216342926 0 -54458541.216342926 69656859.311509609 0 0 0 0 129311617.16465759 -116935636.54525089 0 -116935636.54525089 -24316411.583614349 0 0 0 0 9353648.616104126 173881879.02798843 0 173881879.02798843 -549224650.27690125 0 0 0 0 -9145621.4394705743 -15160269.72025907 0 -15160269.72025907 -15632378.249107417 0 0 0 0 47062658.22744751 75867108.929262161 0 75867108.929262161 -301061244.8190918 0 0 0 0 49847065.950256348 2918985.9988708496 0 2918985.9988708496 -510753640.23855972 0 0 0 0 1577170.0165600777 -1654337.6802503886 0 -1654337.6802503886 -2394572.38794134 0 0 0 0 -48598176.187446594 -33569273.934856415 0 -33569273.934856415 -247512685.1315918 0 0 0 0 46367319.528366089 -12923749.635495186 0 -12923749.635495186 -140614731.38826752 0 0 0 0 -3667832.7556610107 -3485730.7003326416 0 -3485730.7003326416 -66660526.881473541 0 0 0 0 -5091237.8158092499 -16503582.274738312 0 -16503582.274738312 -45133716.411994934 0 0 0 0 4428034.5388181508 -3568900.2629981861 0 -3568900.2629981861 -7466734.8903710898 0 0 0 0 17083512.333709717 -2480765.6108131409 0 -2480765.6108131409 -94289336.962089539 0 0 0 0 28663859.12651825 36472287.977956772 0 36472287.977956772 -230414986.6031723 0 0 0 0 26304175.039703369 -16217008.584823608 0 -16217008.584823608 -44416298.149879456 0 0 0 0 -95030108.687744141 44016469.186695099 0 44016469.186695099 -66123652.639891148 0 0 0 0 6585837.5103607923 -6500114.8718972728 0 -6500114.8718972728 -14660513.859446123 0 0 0 0 544707.86256408691 -7543303.8380012512 0 -7543303.8380012512 -46211601.409477234 0 0 0 0 31965783.958740234 -5502581.5934677124 0 -5502581.5934677124 -51876029.960819244 0 0 0 0 4700338.1062316895 -38907165.64818573 0 -38907165.64818573 -13568871.274856567 0 0 0 0 26004571.235412598 -20197455.933019638 0 -20197455.933019638 -49809883.128997803 0 0 0 0 1841488.6676614285 -13955220.113786578 0 -13955220.113786578 -28812408.930636019 0 0 0 0 5527552.5990829468 -45192261.985048771 0 -45192261.985048771 -5104302.4505157471 0 0 0 0 -42531228.689346313 9054348.9683418274 0 9054348.9683418274 -20904811.940719604 0 0 0 0 15068079.608459473 -70515006.19392395 0 -70515006.19392395 582573519.60134888 0 0 0 0 15773219.420508027 -5527046.2066152766 0 -5527046.2066152766 -31727429.74236162 0 0 0 0 23978689.349349976 14133248.721383095 0 14133248.721383095 -449181728.79059601 0 0 0 0 1840386.7533202171 -2315623.8893298805 0 -2315623.8893298805 -5334896.539603211 0 0 0 0 3730934.9230709076 57964730.604155064 0 57964730.604155064 -427186632.50982666 0 0 0 0 -119181045.82553673 72285474.147145271 0 72285474.147145271 -364558475.93768311 0 0 0 0 -25761362.854612827 7213530.7828614712 0 7213530.7828614712 -417582870.13371277 0 0 0 0 -5183989.0251083374 55977310.491920471 0 55977310.491920471 -824677382.22016907 0 0 0 0 -144880607.45324707 240852524.85702515 0 240852524.85702515 -522858797.51592636 0 0 0 0 -20791204.966250896 158533233.92354572 0 158533233.92354572 -538107555.23860168 0 0 0 0 53196661.49822998 112338164.82676315 0 112338164.82676315 -499379220.69655609 0 0 0 0 63310522.330413818 17825201.136833191 0 17825201.136833191 -504779293.15086079 0 0 0 0 -8389531.3272972107 56542071.870171547 0 56542071.870171547 -488028073.88504028 0 0 0 0 -71245159.876159668 -230366804.15052032 0 -230366804.15052032 -374993281.39686203 0 0 0 0 -2205097.589722842 -2177677.081399411 0 -2177677.081399411 -2529571.8872552589 0 0 0 0 229363383.88520813 547246097.42772675 0 547246097.42772675 -303849073.58013153 0 0 0 0 -67337731.310791016 -229114680.60845947 0 -229114680.60845947 -678280841.75938416 0 0 0 0 -62191205.462860107 -303802372.17752838 0 -303802372.17752838 27212316.667503357 0 0 0 0 205037938.46984863 -156979476.13909149 0 -156979476.13909149 -240866319.9262085 0 0 0 0 99089271.099273682 -224076167.82380676 0 -224076167.82380676 -283357793.87229156 0 0 0 0 -19415638.63961792 -12714288.579120636 0 -12714288.579120636 -84144541.323066711 0 0 0 0 291224115.48329163 -11566473.99414444 0 -11566473.99414444 -28369155.529190063 0 0 0 0 -2005989.1232452989 -9271331.3575572148 0 -9271331.3575572148 -12878299.707854107 0 0 0 0 5359728.4718553722 -20490723.903209604 0 -20490723.903209604 -27044439.808830526 0 0 0 0 3204398.8291931152 -27969504.879152298 0 -27969504.879152298 1740127.3856239319 0 0 0 0 75061970.080955505 -145483352.68395233 0 -145483352.68395233 64594212.526184082 0 0 0 0 76779649.042907715 -149097031.00471497 0 -149097031.00471497 -43712514.460383415 0 0 0 0 10447835.575782776 -30041383.268025398 0 -30041383.268025398 -2439111.2588691711 0 0 0 0 10641158.607955933 -27292532.083777428 0 -27292532.083777428 -2810629.1580429077 0 0 0 0 -13395052.596771479 -28768225.936720178 0 -28768225.936720178 -6459170.8607253274 0 0 0 0 -22355765.637481689 -59332683.056138039 0 -59332683.056138039 -11788400.332513809 0 0 0 0 16664112.506408691 -95888653.162653685 0 -95888653.162653685 72364805.823266029 0 0 0 0 -32081145.853485107 -73109284.476142168 0 -73109284.476142168 87039419.647763729 0 0 0 0 1367333.4984588623 -19208928.490142822 0 -19208928.490142822 -5140852.0769195557 0 0 0 0 -1884079.2212371826 -22763585.367652893 0 -22763585.367652893 1650109.6638946533 0 0 0 0 -16440641.118739605 -16453451.329104137 0 -16453451.329104137 741454.02488476783 0 0 0 0 -9702025.135345459 -3849938.0637564659 0 -3849938.0637564659 44904917.996098518 0 0 0 0 -38283140.922309875 -50599761.550680637 0 -50599761.550680637 155212019.17498589 0 0 0 0 67082132.888549805 -119737264.79292917 0 -119737264.79292917 130930629.70770168 0 0 0 0 1709873.7963122576 -2939436.5966152959 0 -2939436.5966152959 -5815568.7027796227 0 0 0 0 68048265.544250488 -65696631.184119701 0 -65696631.184119701 17977323.495285034 0 0 0 0 143565179.49761963 -105695491.49382877 0 -105695491.49382877 29941991.131327629 0 0 0 0 -850724.2023742348 -2840553.3475689217 0 -2840553.3475689217 -3276941.970375807 0 0 0 0 30457049.666854858 7742112.9392354488 0 7742112.9392354488 -67454144.344451904 0 0 0 0 5229019.4325561523 -3261332.0804481506 0 -3261332.0804481506 -50843014.491527557 0 0 0 0 -2142700.9167776853 -21005784.956018016 0 -21005784.956018016 -20978941.527213812 0 0 0 0 4209263.0316123962 -23804406.506875277 0 -23804406.506875277 -3372599.5345153809 0 0 0 0 18282307.701873779 -15546135.234266281 0 -15546135.234266281 -36750927.541564941 0 0 0 0 -34456708.506835938 -82968380.49458313 0 -82968380.49458313 -160723454.33229828 0 0 0 0 -11536408.344926238 -23183401.82418577 0 -23183401.82418577 -21194890.107306719 0 0 0 0 62408030.839416504 -57586687.990290642 0 -57586687.990290642 -25597690.872087479 0 0 0 0 59919922.195557594 -8396287.592707932 0 -8396287.592707932 -67180188.463592529 0 0 0 0 5993102.8332519531 -15031129.570327759 0 -15031129.570327759 -22085338.98033917 0 0 0 0 64283764.554473877 -34962820.934167862 0 -34962820.934167862 -116076552.40291786 0 0 0 0 -35299232.063934326 130727029.22444916 0 130727029.22444916 -280472219.42883682 0 0 0 0 67499935.731273651 -72322817.222028852 0 -72322817.222028852 51626881.841714859 0 0 0 0 -4004271.7724625468 957781.37420159206 0 957781.37420159206 1340231.0410843343 0 0 0 0 6095860.0357055664 64008462.495676041 0 64008462.495676041 -148761921.85458326 0 0 0 0 53478067.204559326 -130662849.85983276 0 -130662849.85983276 121691149.88398886 0 0 0 0 72524062.731033325 -96777824.559298098 0 -96777824.559298098 64162632.641654968 0 0 0 0 28795028.621795654 -100281130.83318377 0 -100281130.83318377 130095836.33081532 0 0 0 0 9489863.5599975586 -66361918.723239183 0 -66361918.723239183 77347520.957805634 0 0 0 0 -3413311.6100892425 4052384.1154080145 0 4052384.1154080145 3187324.892877236 0 0 0 0 37364136.560043335 -34181745.289056778 0 -34181745.289056778 -43214383.650895596 0 0 0 0 8644287.6151275635 -73117968.95682478 0 -73117968.95682478 60033612.436728477 0 0 0 0 34403749.877441406 -7590119.1809663773 0 -7590119.1809663773 -158679574.54373837 0 0 0 0 -44951.893402099609 -61276808.531212807 0 -61276808.531212807 110819402.83766365 0 0 0 0 -36961860.122650146 -78475650.67440176 0 -78475650.67440176 194405199.45399141 0 0 0 0 -1916343.1014534533 2337085.1548082866 0 2337085.1548082866 1822398.0545242387 0 0 0 0 45610964.403564453 -94560143.093244553 0 -94560143.093244553 -2044847.3212814331 0 0 0 0 -52066.829010009766 -18657165.102928162 0 -18657165.102928162 -98627295.336957932 0 0 0 0 -13708013.194540024 -118044787.61505204 0 -118044787.61505204 57614084.266841888 0 0 0 0 32376589.317962646 -55227682.851635933 0 -55227682.851635933 105826456.51409435 0 0 0 0 21217290.327148438 -134200922.61252689 0 -134200922.61252689 191160158.69272614 0 0 0 0 -9054453.5628051758 91269118.714481354 0 91269118.714481354 -382134119.63970947 0 0 0 0 -5131331.1125204116 2241638.0954864174 0 2241638.0954864174 3507757.9292036993 0 0 0 0 45447.061926026763 -98931080.754154339 0 -98931080.754154339 202337830.74946594 0 0 0 0 -64904291.868011475 -40022576.83139801 0 -40022576.83139801 107880754.27024078 0 0 0 0 132921292.39056396 18017149.195308685 0 18017149.195308685 -10171271.988922119 0 0 0 0 -66320101.82447958 -82403052.167372704 0 -82403052.167372704 -243155.91893005371 0 0 0 0 12585414.646809846 -9658880.9234233052 0 -9658880.9234233052 -615218.53884292394 0 0 0 0 -12218343.294525146 4779099.2652206421 0 4779099.2652206421 -11389242.664818764 0 0 0 0 -24831703.557540894 14490579.679382324 0 14490579.679382324 6954010.2088699341 0 0 0 0 29252216.363342285 20647463.298591614 0 20647463.298591614 -36103076.084335327 0 0 0 0 15017476.020996094 61123070.544021606 0 61123070.544021606 60841541.413291931 0 0 0 0 75564291.10723877 63033091.20892334 0 63033091.20892334 -6229419.5827178955 0 0 0 0 1683954.1693311483 983191.00348649919 0 983191.00348649919 -867035.87416775711 0 0 0 0 42600068.363073349 -144104099.23123074 0 -144104099.23123074 269808230.84255219 0 0 0 0 741508845.79069519 -154829069.3928299 0 -154829069.3928299 -149075556.12358093 0 0 0 0 477276283.49169922 -309312406.77498245 0 -309312406.77498245 105563946.95701599 0 0 0 0 432787767.21083069 166342086.05877686 0 166342086.05877686 -44518082.256713867 0 0 0 0 805598813.45343018 -186518991.48484802 0 -186518991.48484802 -146949343.89501524 0 0 0 0 1232049275.4456081 -708824902.62554789 0 -708824902.62554789 278745891.7759552 0 0 0 0 515704858.98098755 -284009285.82746506 0 -284009285.82746506 92886419.674751282 0 0 0 0 1357113692.3159752 14626788.202786922 0 14626788.202786922 -110221236.72743225 0 0 0 0 -683962076.70986176 -206180856.34976959 0 -206180856.34976959 -542201786.86380005 0 0 0 0 -819193459.14976501 -1008602256.8212891 0 -1008602256.8212891 -850418016.9487915 0 0 0 0 11250016.769858688 -9613127.6213428751 0 -9613127.6213428751 1564410.4212092906 0 0 0 0 147078646.3390274 -138087107.81742287 0 -138087107.81742287 -12462290.438140869 0 0 0 0 -634593964.96021652 -123365037.54609871 0 -123365037.54609871 -208518911.41371155 0 0 0 0 112470093.69802856 -302507715.02472687 0 -302507715.02472687 -624030277.88952827 0 0 0 0 168850185.08939552 -20716694.542243481 0 -20716694.542243481 -148781132.59771729 0 0 0 0 798636263.96337891 -80533083.632804871 0 -80533083.632804871 -332575801.87638855 0 0 0 0 -285818654.84115601 -437568906.95172882 0 -437568906.95172882 538773632.42436218 0 0 0 0 -102496700.84173584 -436204632.37950134 0 -436204632.37950134 -622057570.31719589 0 0 0 0 5254490.0503739715 -10257611.019496799 0 -10257611.019496799 -8387980.173445724 0 0 0 0 117792560.01763916 -30001464.772125244 0 -30001464.772125244 -23361752.473876953 0 0 0 0 124672310.70346069 -37355967.274551392 0 -37355967.274551392 -63978275.619087219 0 0 0 0 106614454.75575256 -65582025.679187775 0 -65582025.679187775 -46289430.430358887 0 0 0 0 475630111.35559082 -406177636.66049385 0 -406177636.66049385 220755585.19462585 0 0 0 0 1629886.554737702 1162321.4749251455 0 1162321.4749251455 -2050828.3026200831 0 0 0 0 6044853.336911127 -2110676.1475204155 0 -2110676.1475204155 -8650874.4996099155 0 0 0 0 106375307.31170654 -50212459.689620972 0 -50212459.689620972 -10500444.229377747 0 0 0 0 88744607.524414062 -620715.03746032715 0 -620715.03746032715 -36292007.345304489 0 0 0 0 -874146.56349872053 -10527719.372053206 0 -10527719.372053206 -15560920.584432192 0 0 0 0 -6119050.1624145508 67708706.105949402 0 67708706.105949402 75486034.760875702 0 0 0 0 -231643177.09246826 -11073000.92401886 0 -11073000.92401886 84373542.835525513 0 0 0 0 14486743.050796509 57548908.091835022 0 57548908.091835022 25434574.526931763 0 0 0 0 -429529769.11584473 -339817615.26274109 0 -339817615.26274109 -183004562.51138306 0 0 0 0 303773169.48425293 -316736523.00478363 0 -316736523.00478363 -487989655.67791748 0 0 0 0 -231690192.19166565 -611339108.02475357 0 -611339108.02475357 -465983254.633255 0 0 0 0 -392926230.84359741 -874453332.24064636 0 -874453332.24064636 -895179230.17686462 0 0 0 0 -851016.93261019886 -3568589.2111700848 0 -3568589.2111700848 -5205205.2056837901 0 0 0 0 -91905453.014709473 268774681.09196472 0 268774681.09196472 -430657884.05737305 0 0 0 0 -460385638.88227081 1042446974.1565952 0 1042446974.1565952 -1404308151.573967 0 0 0 0 -920331636.27008057 -888233176.46337891 0 -888233176.46337891 -182362231.0562973 0 0 0 0 1270980616.5109863 -222217023.03269196 0 -222217023.03269196 -413318976.71298218 0 0 0 0 168381562.08752441 -379888907.00853729 0 -379888907.00853729 -381118121.02981949 0 0 0 0 244593286.4937439 -438976437.70189667 0 -438976437.70189667 -661006264.5503993 0 0 0 0 432735613.69995117 -394722825.49591064 0 -394722825.49591064 -1293878674.954422 0 0 0 0 13396764.430580512 -8588009.0327596217 0 -8588009.0327596217 -4186098.1168228462 0 0 0 0 363435149.12678528 -354584190.085392 0 -354584190.085392 -669388671.41519928 0 0 0 0 1315869.385020107 -3510615.1184806973 0 -3510615.1184806973 -692183.06493405253 0 0 0 0 -14287917.407958984 -37941038.357383728 0 -37941038.357383728 -32883537.282424927 0 0 0 0 -37427694.377593994 -15442236.23866272 0 -15442236.23866272 3327978.9906616211 0 0 0 0 4863482.129031837 -2840856.8723760396 0 -2840856.8723760396 -2130430.9058425836 0 0 0 0 321683898.92149353 -318146497.732481 0 -318146497.732481 -624812757.68408203 0 0 0 0 133952907.75753784 -52299474.0001297 0 -52299474.0001297 -85267912.784240723 0 0 0 0 770830.69860839844 -2848780.3761749268 0 -2848780.3761749268 -2980315.0719604492 0 0 0 0 4958824.5634307861 -10993967.500404358 0 -10993967.500404358 -9359314.0742645264 0 0 0 0 1965556.4361275136 -5045941.5065752119 0 -5045941.5065752119 -497445.47052739188 0 0 0 0 18084311.019683838 -3618650.7057723999 0 -3618650.7057723999 -26823868.190345764 0 0 0 0 5437910.9026740044 -7254296.6439011171 0 -7254296.6439011171 -4478436.0562069416 0 0 0 0 3579251.0790710449 -31253166.36781311 0 -31253166.36781311 -2376454.0082435608 0 0 0 0 -21492015.974014282 2793416.6562004089 0 2793416.6562004089 18501847.88999939 0 0 0 0 732941581.57473755 -472861727.51703644 0 -472861727.51703644 -2182136294.4793701 0 0 0 0 1660344.0739746094 -456037199.22012329 0 -456037199.22012329 -339528703.87153244 0 0 0 0 -12593039.667236328 -43488659.540725708 0 -43488659.540725708 -465939750.44186401 0 0 0 0 -713958311.80697632 -133698096.77330017 0 -133698096.77330017 1469601205.0466461 0 0 0 0 -677419792.79394531 1506482970.4229736 0 1506482970.4229736 223087074.49007416 0 0 0 0 -1364748004.3283691 -2215032640.4884338 0 -2215032640.4884338 -327773490.39609218 0 0 0 0 2373300141.6491089 -71460672.986930847 0 -71460672.986930847 -488249709.74789429 0 0 0 0 780847675.44952393 -1099150775.9930878 0 -1099150775.9930878 4061709716.6560516 0 0 0 0 372411.55689273775 81227.323796214536 0 81227.323796214536 129051.30817798525 0 0 0 0 -185764807.61352539 -2279145031.1763 0 -2279145031.1763 -328107013.94255602 0 0 0 0 -4624344844.7494507 395536548.23138428 0 395536548.23138428 -505591016.384552 0 0 0 0 428849036.00921631 -147243447.37882233 0 -147243447.37882233 -4252060455.933136 0 0 0 0 382221780.20236206 128467968.6395874 0 128467968.6395874 -667698763.17785645 0 0 0 0 133265848.16119385 356340323.44139862 0 356340323.44139862 1006977949.2080994 0 0 0 0 1480403.6413412392 -2444690.4490990695 0 -2444690.4490990695 5906008.3382768482 0 0 0 0 466981.05871582031 -792869.80569458008 0 -792869.80569458008 7807272.6377868652 0 0 0 0 988731.97216796875 -1991539.8308105469 0 -1991539.8308105469 7996261.7304553986 0 0 0 0 -1746297.1558227539 -19147588.156906128 0 -19147588.156906128 30791403.001144409 0 0 0 0 -737993.1999431178 -16909676.860939026 0 -16909676.860939026 -5425024.487923488 0 0 0 0 1693325.0043945312 -3194757.450920105 0 -3194757.450920105 9464711.460144043 0 0 0 0 228733.92980957031 -1560242.5121955872 0 -1560242.5121955872 9097621.0870056152 0 0 0 0 -120884845.97622681 -54075141.653900146 0 -54075141.653900146 93610103.613082886 0 0 0 0 -10256349.827667236 8433713.6617774963 0 8433713.6617774963 2996659.5565185547 0 0 0 0 -665447.63691715896 -1628776.6611278355 0 -1628776.6611278355 1565224.8672155049 0 0 0 0 -74088044.657043457 24626618.802726746 0 24626618.802726746 28865198.646652222 0 0 0 0 -23483427.916564941 -14223723.274169922 0 -14223723.274169922 58581742.266769409 0 0 0 0 -2571944.829592362 -23794941.14396764 0 -23794941.14396764 -14735180.991358314 0 0 0 0 -5009480.5590209961 -98978199.368110657 0 -98978199.368110657 89237123.621807098 0 0 0 0 -51211626.596862793 -79997095.403182983 0 -79997095.403182983 102825201.40961456 0 0 0 0 10321697.488479614 -29976842.147701263 0 -29976842.147701263 66579.108116149902 0 0 0 0 -46193645.284423828 -2596735.9411010742 0 -2596735.9411010742 61509180.137311935 0 0 0 0 18372136.674804688 -44422902.538192749 0 -44422902.538192749 47581710.162704468 0 0 0 0 5057172.2319871187 -14706993.914949335 0 -14706993.914949335 -9941308.9152740389 0 0 0 0 26676350.897705078 -21778303.376777649 0 -21778303.376777649 -14469983.641296387 0 0 0 0 -9351694.2527637109 -29888009.190121472 0 -29888009.190121472 517565.41721888632 0 0 0 0 -16668179.763244629 3514809.2773742676 0 3514809.2773742676 36186701.601898193 0 0 0 0 -2066784.9501232058 -3167655.9920924231 0 -3167655.9920924231 2888261.5547996536 0 0 0 0 9281091.5181473196 -12003004.767677754 0 -12003004.767677754 -11444362.130673055 0 0 0 0 15977843.398216248 -14764646.7904706 0 -14764646.7904706 -4846182.3855056763 0 0 0 0 14334183.804168701 -20439408.557884216 0 -20439408.557884216 -6276353.5864562988 0 0 0 0 10400966.993804932 -26551936.21056366 0 -26551936.21056366 1074419.6900405884 0 0 0 0 10685662.816467285 -35115874.214821815 0 -35115874.214821815 8607042.4500799179 0 0 0 0 -8108065.8520207405 -35375856.343800545 0 -35375856.343800545 -24228986.38967618 0 0 0 0 -1380916.3192523569 -1436017.0550482515 0 -1436017.0550482515 1679720.3607605658 0 0 0 0 14042996.839157104 11963286.939414978 0 11963286.939414978 -81105533.881652832 0 0 0 0 5537438.451675415 8123792.895565033 0 8123792.895565033 -48720810.504989624 0 0 0 0 19200479.866149902 -13141299.952819824 0 -13141299.952819824 -21872139.98576355 0 0 0 0 21783387.940979004 -12994594.363967896 0 -12994594.363967896 -28106595.708236694 0 0 0 0 16117195.510787964 -5989712.2728424072 0 -5989712.2728424072 -16426488.13230896 0 0 0 0 22542386.964782715 -34846607.69140625 0 -34846607.69140625 -8011106.6706161499 0 0 0 0 26284500.26751709 -37114075.511241913 0 -37114075.511241913 -10241757.298461914 0 0 0 0 20663449.177581787 -31804145.120828629 0 -31804145.120828629 -10693786.390518188 0 0 0 0 10339016.283363342 -3472938.721408844 0 -3472938.721408844 -62877647.6588974 0 0 0 0 32994984.370132446 -31950543.925769806 0 -31950543.925769806 -47154612.374389648 0 0 0 0 11901160.489044189 18506561.799118042 0 18506561.799118042 -249826706.71685791 0 0 0 0 -11912043.902893066 -10015723.170387268 0 -10015723.170387268 -59033748.98033905 0 0 0 0 -333845285.52398682 -128058479.27431488 0 -128058479.27431488 -12506731.906425476 0 0 0 0 -1042648.3495391309 -121850.32318806276 0 -121850.32318806276 1045957.159906365 0 0 0 0 -116690519.6914978 65416058.786468506 0 65416058.786468506 24540355.706123352 0 0 0 0 -52163650.346893311 -8065834.0611877441 0 -8065834.0611877441 28167190.399871826 0 0 0 0 -58147319.920631409 -19772475.263946533 0 -19772475.263946533 21798951.527481079 0 0 0 0 -41870333.515213013 -13602708.947929382 0 -13602708.947929382 7194460.6604156494 0 0 0 0 -81691664.382919312 -4274193.5995864868 0 -4274193.5995864868 87562896.637062073 0 0 0 0 -63902739.602287292 -59899105.593631744 0 -59899105.593631744 22588260.621818542 0 0 0 0 2983453.5955465436 716453.33157537878 0 716453.33157537878 -1571288.5404400211 0 0 0 0 -1275087.2735457718 -1633637.8045087904 0 -1633637.8045087904 1762514.7517866567 0 0 0 0 288792115.17401123 -168274181.6191864 0 -168274181.6191864 -83906674.212173462 0 0 0 0 -40765114.035461426 -63842177.314596176 0 -63842177.314596176 -111080524.37394714 0 0 0 0 -57833433.91595459 -20603318.579605103 0 -20603318.579605103 6442963.2451868057 0 0 0 0 763472839.02226257 -135668833.32688713 0 -135668833.32688713 -138302043.49502563 0 0 0 0 539735535.25 99958911.729751587 0 99958911.729751587 -177996305.02907181 0 0 0 0 329894684.00709534 -15312896.293979645 0 -15312896.293979645 4087852.9765434265 0 0 0 0 -450670832.82641602 -124606676.5206604 0 -124606676.5206604 132700544.80685425 0 0 0 0 421426472.80175781 -118038486.61753082 0 -118038486.61753082 1279612.9918518066 0 0 0 0 452957676.4254303 -120290608.94916534 0 -120290608.94916534 -112128157.29985046 0 0 0 0 483466982.99659729 -172133446.94828796 0 -172133446.94828796 -35927471.543571472 0 0 0 0 422481257.59360504 -189055743.82511044 0 -189055743.82511044 -20643912.464279175 0 0 0 0 97092972.644821167 -189903166.08651733 0 -189903166.08651733 -145076963.78553009 0 0 0 0 415865747.52340698 -178495912.91106415 0 -178495912.91106415 4192789.8622144461 0 0 0 0 -2037258.8875505179 -2639524.3224864677 0 -2639524.3224864677 3712357.0683608726 0 0 0 0 -47874016.502120972 144222242.73439407 0 144222242.73439407 -23538468.314476013 0 0 0 0 406322796.98757935 -225437467.87464905 0 -225437467.87464905 53727905.294565946 0 0 0 0 225056589.3732605 -242819466.67353439 0 -242819466.67353439 53681685.305519104 0 0 0 0 496673995.82748413 -324820196.19477081 0 -324820196.19477081 -43412177.308538437 0 0 0 0 522456930.50224304 -340717410.26816177 0 -340717410.26816177 -49755300.870910645 0 0 0 0 728108438.81069946 -282414555.33091736 0 -282414555.33091736 -126938316.8371582 0 0 0 0 506937342.8990593 -215253539.78153753 0 -215253539.78153753 -119251286.96070862 0 0 0 0 445736485.94152832 -197448646.23739243 0 -197448646.23739243 -84755418.738693237 0 0 0 0 414489826.39260864 -173764215.72022629 0 -173764215.72022629 -102680804.68110657 0 0 0 0 396356920.21780396 -263388198.5834198 0 -263388198.5834198 -57415450.242843628 0 0 0 0 419917777.09092712 -225473611.41772461 0 -225473611.41772461 -40731507.808597565 0 0 0 0 658862261.35394287 25874751.483200073 0 25874751.483200073 -84000979.81565094 0 0 0 0 302554037.88568115 -41256776.983757019 0 -41256776.983757019 -64934677.395259857 0 0 0 0 471708110.86750031 -107656246.04006767 0 -107656246.04006767 -84166906.404647827 0 0 0 0 172950023.09301758 -38222127.314620972 0 -38222127.314620972 -50775387.13035202 0 0 0 0 303425548.88358307 -37988599.349829197 0 -37988599.349829197 -64171348.848770142 0 0 0 0 211376629.41711426 -69878691.186065674 0 -69878691.186065674 -91855985.889297485 0 0 0 0 272965664.92391968 -36568295.754199982 0 -36568295.754199982 -77634915.414031982 0 0 0 0 254456468.2308197 -90768199.798969269 0 -90768199.798969269 -69727202.681610107 0 0 0 0 365214237.79429626 -182831976.40013504 0 -182831976.40013504 -52323595.324317932 0 0 0 0 131099943.58392334 -159622662.02713776 0 -159622662.02713776 -38090003.135765076 0 0 0 0 321958556.76118469 -112747212.24193573 0 -112747212.24193573 -88112384.481124878 0 0 0 0 244192607.13369751 9192910.3548049927 0 9192910.3548049927 -250407492.60926056 0 0 0 0 546795861.67715454 -311856197.35492325 0 -311856197.35492325 5969880.5429077148 0 0 0 0 471996608.61801338 -245581045.52113676 0 -245581045.52113676 -58487508.055343628 0 0 0 0 339007773.72894287 -144585306.49073029 0 -144585306.49073029 -74070007.134040833 0 0 0 0 346237363.41311646 -216293584.65924835 0 -216293584.65924835 -31467070.828544617 0 0 0 0 297353119.79751587 -142469224.99238586 0 -142469224.99238586 140438848.27145767 0 0 0 0 640359277.09915924 -12250274.674310684 0 -12250274.674310684 -26673980.316169739 0 0 0 0 247711253.5949707 -158126565.08157349 0 -158126565.08157349 8255481.201675415 0 0 0 0 110078723.29837036 98970392.632980347 0 98970392.632980347 -109256601.57839584 0 0 0 0 336254641.6631546 -85811935.038635254 0 -85811935.038635254 -128103280.17622375 0 0 0 0 82969412.553283691 -106820732.35858917 0 -106820732.35858917 -48778451.031837463 0 0 0 0 -1194249.1361814737 277303.81340956315 0 277303.81340956315 1692750.1017283052 0 0 0 0 -68192149.568431854 242989381.70927143 0 242989381.70927143 -260999139.22599792 0 0 0 0 461306318.48039246 -577049600.3629303 0 -577049600.3629303 513712038.18909836 0 0 0 0 -1348807.1325162947 616970.37398864329 0 616970.37398864329 2709255.2903660312 0 0 0 0 417697589.95145798 -459934484.49481392 0 -459934484.49481392 254460863.27731323 0 0 0 0 324972358.18060303 -304848380.06932449 0 -304848380.06932449 182186110.31758118 0 0 0 0 378060907.86431885 -244452788.63732147 0 -244452788.63732147 245260052.07159805 0 0 0 0 152579468.50570679 -127732084.14943695 0 -127732084.14943695 90563778.177028656 0 0 0 0 313698700.51286316 -414666541.92888641 0 -414666541.92888641 217977806.23565674 0 0 0 0 394173219.99302673 -361863765.13245773 0 -361863765.13245773 225202126.15932465 0 0 0 0 378966704.12644958 -275891907.21287537 0 -275891907.21287537 -240523952.78746796 0 0 0 0 -783821.51931028068 900101.08084437996 0 900101.08084437996 2735719.5752103329 0 0 0 0 456539473.86829758 -112425887.56796551 0 -112425887.56796551 -25581690.646286011 0 0 0 0 -276946089.59486389 -130101963.3519783 0 -130101963.3519783 58836624.918548584 0 0 0 0 -386100885.71591187 107129853.43885803 0 107129853.43885803 25171923.913963318 0 0 0 0 17828441.35254772 -6327304.4359711334 0 -6327304.4359711334 -1646890.9889203608 0 0 0 0 154818663.98529053 -62174417.068778992 0 -62174417.068778992 106213431.58453369 0 0 0 0 -13617223.803268433 -31815763.79883194 0 -31815763.79883194 -7642239.7270202637 0 0 0 0 53445753.875090837 -46391800.831739634 0 -46391800.831739634 5005311.0990381837 0 0 0 0 32111675.09954834 5924977.7677459717 0 5924977.7677459717 -25268886.636199951 0 0 0 0 -21568381.611153126 -40205411.829437077 0 -40205411.829437077 -49285.707015991211 0 0 0 0 34841827.722412109 -184820532.61166382 0 -184820532.61166382 142552550.95361328 0 0 0 0 22593313.520171955 -60268587.490114212 0 -60268587.490114212 7355648.6308104917 0 0 0 0 -6213749.1541470364 1133452.3855850399 0 1133452.3855850399 3301255.0695409477 0 0 0 0 63442628.319900513 -146971769.7219696 0 -146971769.7219696 -46001513.31980896 0 0 0 0 5648075.6335449219 -25785519.466789246 0 -25785519.466789246 -15664465.23475647 0 0 0 0 273289105.07122803 -47599447.758399963 0 -47599447.758399963 -757191.20603942871 0 0 0 0 -33906743.435241699 -54949900.858306885 0 -54949900.858306885 -9283258.1081428528 0 0 0 0 1322490.6115026027 -22828727.450111747 0 -22828727.450111747 -1636916.4831793606 0 0 0 0 19221046.954243023 -27450762.70327393 0 -27450762.70327393 1667312.7186786383 0 0 0 0 -94829288.088653564 4290776.2020874023 0 4290776.2020874023 -101788395.77887726 0 0 0 0 -104928379.23214722 4823105.5905456543 0 4823105.5905456543 92299556.248634338 0 0 0 0 67929627.027664185 -51747031.483728409 0 -51747031.483728409 170697897.06906128 0 0 0 0 17609981.986541748 -139319249.05028152 0 -139319249.05028152 29844144.710342407 0 0 0 0 -78770048.202224731 -13601574.501979828 0 -13601574.501979828 45837193.74974823 0 0 0 0 -181751714.5116272 -130376187.10455322 0 -130376187.10455322 208742093.13577271 0 0 0 0 76442236.169506073 -169074907.6647892 0 -169074907.6647892 56369694.174850464 0 0 0 0 502333831.33737183 -329813703.93653107 0 -329813703.93653107 127384798.53126192 0 0 0 0 92220194.181640625 -82074799.323551178 0 -82074799.323551178 134564920.53311157 0 0 0 0 -72603596.359848022 -122881536.64736176 0 -122881536.64736176 119312193.5172348 0 0 0 0 -71151082.533813477 -95345393.813396454 0 -95345393.813396454 -14525851.386383057 0 0 0 0 -173565229.39990234 -50425194.667442322 0 -50425194.667442322 19676754.918925285 0 0 0 0 -246022242.60012817 -49476520.455356598 0 -49476520.455356598 126046335.97733307 0 0 0 0 10325154.271728516 -25257189.368127823 0 -25257189.368127823 30546443.084838867 0 0 0 0 -2316320.1578549477 -34196571.028945021 0 -34196571.028945021 25487447.883351434 0 0 0 0 13172011.457769394 -45287260.375351429 0 -45287260.375351429 35340507.427406311 0 0 0 0 24491382.987350464 -40686542.812648773 0 -40686542.812648773 33485770.294388771 0 0 0 0 57069.038779750466 96975.689546555281 0 96975.689546555281 -421632.91504118219 0 0 0 0 -7593908.2767028809 -19449670.339611053 0 -19449670.339611053 18898323.159988403 0 0 0 0 -24093311.071375489 -30792909.006637946 0 -30792909.006637946 16961080.564811707 0 0 0 0 -122405529.49351501 -122509141.2183609 0 -122509141.2183609 71120087.526313782 0 0 0 0 17897940.8977887 -43842107.401065275 0 -43842107.401065275 28733001.623678569 0 0 0 0 -29708361.366470337 -143902559.33529472 0 -143902559.33529472 36392444.717498779 0 0 0 0 -42878226.178222656 -113482922.06532955 0 -113482922.06532955 -1970416.6871185303 0 0 0 0 -32374809.252929688 -153343014.37425613 0 -153343014.37425613 683180.50144147873 0 0 0 0 -2238837365.9337091 -62413643.429445326 0 -62413643.429445326 -2570744158.6247101 0 0 0 0 3202535.7365536075 -8061818.931486167 0 -8061818.931486167 -452130.82427086309 0 0 0 0 409173528.77183533 581640498.73611069 0 581640498.73611069 -2291576890.6767731 0 0 0 0 -239846134.35069454 -1426781560.057884 0 -1426781560.057884 -1129386045.1107254 0 0 0 0 -7081197.3118480518 -35488831.119975559 0 -35488831.119975559 49132819.243354738 0 0 0 0 -170561130.72888184 13917723.241493225 0 13917723.241493225 -688230761.49784851 0 0 0 0 185694505.61325073 -235066930.38301849 0 -235066930.38301849 108510762.28729725 0 0 0 0 65311513.33694458 -129219935.82754517 0 -129219935.82754517 19076121.736083984 0 0 0 0 56707321.89831543 -163708827.90366364 0 -163708827.90366364 22662887.003913879 0 0 0 0 101709191.59921265 -160280808.83152771 0 -160280808.83152771 9046940.7706031799 0 0 0 0 65812523.537567139 -115680742.31554794 0 -115680742.31554794 -6104416.1609039307 0 0 0 0 212961196.07241821 -79874721.336284637 0 -79874721.336284637 -52447052.138671875 0 0 0 0 136544251.61489868 -92766419.324615479 0 -92766419.324615479 -53880895.623002052 0 0 0 0 86802639.222824097 -72824687.342212677 0 -72824687.342212677 -37758965.297065735 0 0 0 0 -37743115.982116699 -106175965.61133575 0 -106175965.61133575 6849326.7046852112 0 0 0 0 26442658.015460968 -132813182.73473263 0 -132813182.73473263 -35585998.531150818 0 0 0 0 35254008.457346365 -47082441.406566843 0 -47082441.406566843 42647572.467522725 0 0 0 0 -2613611222.5240173 -2568612047.6612864 0 -2568612047.6612864 255711290.59305 0 0 0 0 94043481.034454346 8757037.8906898499 0 8757037.8906898499 7654681.665145874 0 0 0 0 4218193435.1736755 415250021.37075615 0 415250021.37075615 -1378613098.1583462 0 0 0 0 -341208030.41859436 -928017819.02967644 0 -928017819.02967644 -1684790488.5695724 0 0 0 0 -1086410794.021698 385536868.94759369 0 385536868.94759369 -1767160374.1309052 0 0 0 0 1283179049.1284027 144204688.89968491 0 144204688.89968491 -2005004115.8027039 0 0 0 0 -1552550275.0443687 -990931752.24390507 0 -990931752.24390507 -1354076943.8063583 0 0 0 0 47026416.001886524 -62259269.681929722 0 -62259269.681929722 45309970.791384131 0 0 0 0 2980207864.3740082 -2720526377.2582855 0 -2720526377.2582855 -2985706500.2074347 0 0 0 0 633850914.92098999 -3217756337.1950989 0 -3217756337.1950989 -2602358959.2058868 0 0 0 0 -2410349792.5326734 115732559.88916427 0 115732559.88916427 2736733176.0341225 0 0 0 0 -120518048.18846893 757409449.24323368 0 757409449.24323368 2718120903.2251511 0 0 0 0 152522156.05477905 145226913.00546837 0 145226913.00546837 10980130.503780365 0 0 0 0 -650044366.58210754 206000287.85604477 0 206000287.85604477 109675696.17943573 0 0 0 0 848351180.58790016 1268958228.9121637 0 1268958228.9121637 -1349429848.6506958 0 0 0 0 81598639.062965393 330486587.1109333 0 330486587.1109333 -333379082.12613678 0 0 0 0 61742652.535427094 566263632.65105343 0 566263632.65105343 -1287242888.9592018 0 0 0 0 83190640.572525024 251842728.77099323 0 251842728.77099323 -684524551.08940125 0 0 0 0 -142272424.82797241 160662636.0844326 0 160662636.0844326 -274370615.34348297 0 0 0 0 -421307833.55535126 348465087.30281925 0 348465087.30281925 633933874.88519669 0 0 0 0 -127757790.99604797 80034095.838542938 0 80034095.838542938 99082474.125818253 0 0 0 0 55749714.803359985 -140021063.38174438 0 -140021063.38174438 -885881206.81236267 0 0 0 0 30965302.115936279 -168795462.9213829 0 -168795462.9213829 -467865133.56261444 0 0 0 0 -473548280.21257019 -374886273.20138454 0 -374886273.20138454 342215944.21744156 0 0 0 0 883313793.35551453 185929837.54483509 0 185929837.54483509 -1779790608.5267105 0 0 0 0 -980859464.7326889 87943938.10852623 0 87943938.10852623 852348944.84692764 0 0 0 0 275796.94168727845 -4847035.8278380409 0 -4847035.8278380409 1399919.5908531509 0 0 0 0 -113712621.70692444 423837783.57966614 0 423837783.57966614 -716244389.61331558 0 0 0 0 93950761.643035889 237314014.44068527 0 237314014.44068527 -960329342.48392296 0 0 0 0 29886204.346511841 279523115.98462296 0 279523115.98462296 -521272773.1117897 0 0 0 0 283098282.7960968 1304226969.1721668 0 1304226969.1721668 404686136.99550629 0 0 0 0 -72704886.747081757 216854652.44190979 0 216854652.44190979 -268243953.77363586 0 0 0 0 623337872.66586304 -1041099334.8590126 0 -1041099334.8590126 -1084902327.2795849 0 0 0 0 -4397943.5369161982 -15743555.281642932 0 -15743555.281642932 -20189932.492086358 0 0 0 0 75431736.797203064 -239452637.32581902 0 -239452637.32581902 393641041.87908554 0 0 0 0 2711933.2144148201 -6527868.0529541969 0 -6527868.0529541969 -7953530.175509626 0 0 0 0 70902602.277389526 -36425642.972906113 0 -36425642.972906113 46696357.986105919 0 0 0 0 762574143.94548035 184747866.77826309 0 184747866.77826309 -259671166.61559677 0 0 0 0 -493716459.37672424 -384454752.11564827 0 -384454752.11564827 43338381.863275528 0 0 0 0 62622155.452625275 -109304555.42833674 0 -109304555.42833674 -2528155.99061203 0 0 0 0 75869652.321266174 10683257.653977394 0 10683257.653977394 -33617637.765174866 0 0 0 0 14655698.601367537 -17413209.150324009 0 -17413209.150324009 -17235151.798234709 0 0 0 0 -381688436.63770103 30307161.522357106 0 30307161.522357106 20532581.764823914 0 0 0 0 202059013.87139893 -75986576.837013245 0 -75986576.837013245 -78644450.685241699 0 0 0 0 1461695.2655908577 -17635560.345204011 0 -17635560.345204011 5319286.9696826451 0 0 0 0 9192795.6823272705 -111212545.77123642 0 -111212545.77123642 -1081771.7364044189 0 0 0 0 -38877226.72756958 62202.268142700195 0 62202.268142700195 -20199555.609359741 0 0 0 0 -5941217.4899263382 -42736229.826742411 0 -42736229.826742411 26730225.415344238 0 0 0 0 11491581.428883404 -41741309.453507639 0 -41741309.453507639 31905369.646775998 0 0 0 0 67133714.03225708 -176156602.54720688 0 -176156602.54720688 -66438742.472200394 0 0 0 0 169194125.36758423 -155316448.13002777 0 -155316448.13002777 -72202924.85870266 0 0 0 0 7438717.5609054565 646281475.00055122 0 646281475.00055122 -785556728.25636673 0 0 0 0 3290450.2065747045 -3640894.35309444 0 -3640894.35309444 -4442202.7685897239 0 0 0 0 -107620520.66004181 -234016015.28607559 0 -234016015.28607559 -39904925.540351868 0 0 0 0 345756403.69122314 513595486.62034988 0 513595486.62034988 -1582862022.697897 0 0 0 0 -65720076.707992554 -338356781.64441681 0 -338356781.64441681 -711278275.6027813 0 0 0 0 -23997669.180953979 -99602241.546760559 0 -99602241.546760559 -302026476.29068756 0 0 0 0 53987847.901000977 170421531.94357681 0 170421531.94357681 -741042222.11659241 0 0 0 0 -185048997.71560669 -74394812.408878326 0 -74394812.408878326 29687396.419685364 0 0 0 0 -33748572.243848801 -76188397.419587612 0 -76188397.419587612 -57016240.97428894 0 0 0 0 -684655803.78166199 -142629180.48331833 0 -142629180.48331833 -134854070.55102587 0 0 0 0 -1051655265.1927052 -1088079624.9301548 0 -1088079624.9301548 -860546397.1591835 0 0 0 0 -2023726929.7049255 -895923376.95120215 0 -895923376.95120215 -266123644.81324071 0 0 0 0 -1249583830.3786087 -1204490708.6326158 0 -1204490708.6326158 -645823681.48099661 0 0 0 0 -1308063805.0515671 -384992697.67703438 0 -384992697.67703438 59479148.221476078 0 0 0 0 -166397083.59879303 157527642.95079422 0 157527642.95079422 312077005.6941905 0 0 0 0 -154395452.27671266 -161429912.49614015 0 -161429912.49614015 91816624.737401009 0 0 0 0 -318309.44473090768 1023567.268165227 0 1023567.268165227 -2961753.9706572583 0 0 0 0 -1088009863.4850922 -1110780965.6074848 0 -1110780965.6074848 -929546261.83337116 0 0 0 0 -1594498259.6688919 -1912461807.9133177 0 -1912461807.9133177 -1561155102.3044357 0 0 0 0 9812289.1651306152 -49198363.177858353 0 -49198363.177858353 166309388.92148829 0 0 0 0 127839861.1782341 -118182058.58249366 0 -118182058.58249366 8395254.7061800957 0 0 0 0 -2980163.6416575387 1349772.7833099654 0 1349772.7833099654 -6579717.9215855766 0 0 0 0 -3867667.5939084017 -9857405.3439662363 0 -9857405.3439662363 -15492925.554687044 0 0 0 0 26135233.420635223 -208799526.77580476 0 -208799526.77580476 -58503521.171484947 0 0 0 0 50634801.836952209 54262107.236918449 0 54262107.236918449 -34830036.04106456 0 0 0 0 296408410.61011457 -16293750.325353503 0 -16293750.325353503 -202162111.63067245 0 0 0 0 48385778.681373596 -33533032.95181942 0 -33533032.95181942 32164471.846691132 0 0 0 0 -200119011.76068878 -119965849.15113449 0 -119965849.15113449 -211066018.6876049 0 0 0 0 -50307685.656661987 120580681.80460453 0 120580681.80460453 -206841919.21224403 0 0 0 0 -109057826.48330307 -159302173.17528152 0 -159302173.17528152 -161930564.87174225 0 0 0 0 -185780069.76102066 -20610837.808029175 0 -20610837.808029175 -395361488.05598545 0 0 0 0 -638414415.64133453 -64139500.745962143 0 -64139500.745962143 -121739106.55035973 0 0 0 0 -518739851.77596664 -468148351.95668709 0 -468148351.95668709 -1033769106.5632305 0 0 0 0 -977202854.05050659 -928801737.53146839 0 -928801737.53146839 -435402342.80635262 0 0 0 0 -222535437.3807373 89862423.559419632 0 89862423.559419632 -44521029.706856728 0 0 0 0 -951185919.30490112 -433436547.80827522 0 -433436547.80827522 -223148153.40488386 0 0 0 0 12415737.441467285 -311893085.63131142 0 -311893085.63131142 -214321330.06087637 0 0 0 0 -1106925160.679512 149684570.97008944 0 149684570.97008944 -1582520580.9078274 0 0 0 0 -2287339323.9505157 -964978823.76198483 0 -964978823.76198483 -314566235.04693937 0 0 0 0 -2986229266.3336487 -1354612778.5594902 0 -1354612778.5594902 -630525014.9143858 0 0 0 0 -1121057741.319046 -1396606576.1513739 0 -1396606576.1513739 -1881618469.613842 0 0 0 0 -72313372.395011902 -54230764.847158432 0 -54230764.847158432 14756798.278844833 0 0 0 0 280484.5786691457 -2905711.6985282302 0 -2905711.6985282302 -1614263.4201433547 0 0 0 0 149949218.81510162 -63030301.506622314 0 -63030301.506622314 -102363319.89723969 0 0 0 0 -78047505.080993652 -88458131.0676651 0 -88458131.0676651 -10456857.150753021 0 0 0 0 -78357241.91888833 -82528902.37966013 0 -82528902.37966013 66140377.833324432 0 0 0 0 -341503787.75858307 -166873006.32114601 0 -166873006.32114601 43795747.951343536 0 0 0 0 -75159124.411254883 -54098117.878574371 0 -54098117.878574371 33277737.919181824 0 0 0 0 -73641393.019607544 -54353458.493598938 0 -54353458.493598938 31760059.812929153 0 0 0 0 -51796556.187915802 -58808730.928629875 0 -58808730.928629875 -24527611.479812622 0 0 0 0 -28351149.606872559 83439343.631040573 0 83439343.631040573 109394572.48987865 0 0 0 0 -2331141.8345905952 -7825707.750588432 0 -7825707.750588432 -732869.53013656288 0 0 0 0 -59558381.931617737 -39191853.161110878 0 -39191853.161110878 51036081.104810715 0 0 0 0 -4623641.4680249691 -9570124.7060493138 0 -9570124.7060493138 -6795840.8150115386 0 0 0 0 125436158.93961334 190297372.31329918 0 190297372.31329918 1131441.4709351063 0 0 0 0 -26262941.029205322 -48873085.541051865 0 -48873085.541051865 -32376321.566184998 0 0 0 0 -22857712.716678619 -18986604.460111618 0 -18986604.460111618 -18868323.105361938 0 0 0 0 -54105359.796615601 -47286354.462875366 0 -47286354.462875366 -18089297.413833618 0 0 0 0 10560023.538433075 -37858637.319999695 0 -37858637.319999695 -38385344.393959045 0 0 0 0 -9868751.2533016205 -42321218.266582489 0 -42321218.266582489 -26848272.491958618 0 0 0 0 -8991341.2537279129 -45660452.205243111 0 -45660452.205243111 -21439947.418151855 0 0 0 0 -797230.20090866089 -5417130.7268538363 0 -5417130.7268538363 -515044.20024541579 0 0 0 0 -42340783.428764343 -65916212.855480194 0 -65916212.855480194 -35287794.582824707 0 0 0 0 -4934498.8433791623 -7168062.0974114016 0 -7168062.0974114016 -7376577.8167297691 0 0 0 0 -65588997.005149841 -38017555.004554749 0 -38017555.004554749 -27506669.232254028 0 0 0 0 -23816382.369174957 -67697826.084911346 0 -67697826.084911346 79402553.489311218 0 0 0 0 -48900999.2539711 -39019838.735889435 0 -39019838.735889435 -68052239.579833984 0 0 0 0 -55965176.13211441 -42117366.69670105 0 -42117366.69670105 -24470406.340126038 0 0 0 0 -43352003.215431213 -57642253.541824341 0 -57642253.541824341 -19519881.259685516 0 0 0 0 -2104330.7293939814 -9021508.7030354217 0 -9021508.7030354217 2331935.4830919094 0 0 0 0 -40107373.136711121 -11718772.537665367 0 -11718772.537665367 32695535.622142792 0 0 0 0 -52328748.03754425 -41085377.538612366 0 -41085377.538612366 -30135599.577339172 0 0 0 0 -51606394.063514709 -51147605.658756256 0 -51147605.658756256 -24713700.476165771 0 0 0 0 -44811357.909606934 -53233460.736282349 0 -53233460.736282349 -27979057.599517822 0 0 0 0 -63761254.936416626 -45099476.630168915 0 -45099476.630168915 -3157680.6323080063 0 0 0 0 -46970696.625167847 -31363756.529735565 0 -31363756.529735565 -4769263.516330719 0 0 0 0 4045556.1626700237 -7008272.2195006609 0 -7008272.2195006609 -4393321.4972654656 0 0 0 0 -22284975.793478012 -28561496.005673409 0 -28561496.005673409 12370457.212936401 0 0 0 0 -22197743.538925171 -27250110.145729065 0 -27250110.145729065 28429926.400695801 0 0 0 0 -13206509.609436035 -20814139.386333466 0 -20814139.386333466 6397273.2146759033 0 0 0 0 14388467.662437439 -46401424.968971252 0 -46401424.968971252 20111969.941104889 0 0 0 0 -13598953.921051025 -21201823.408718109 0 -21201823.408718109 19194276.436191559 0 0 0 0 12397073.130617335 -31419927.106020194 0 -31419927.106020194 25017248.539244164 0 0 0 0 10765394.25781396 -36907808.473856539 0 -36907808.473856539 21753577.076111227 0 0 0 0 -2406791.7564544678 -42455597.482875824 0 -42455597.482875824 31808997.991233826 0 0 0 0 22900501.352268219 -53797147.580281258 0 -53797147.580281258 23838114.199859619 0 0 0 0 16514050.141174316 -29052720.404415131 0 -29052720.404415131 13712955.865509033 0 0 0 0 20678148.740092479 -43094778.033416271 0 -43094778.033416271 10522753.090899996 0 0 0 0 3121197.2931121811 -29712991.368597105 0 -29712991.368597105 5325107.9763554903 0 0 0 0 -5271856.2578328475 -15710885.534071162 0 -15710885.534071162 8471050.6893927902 0 0 0 0 -5011173.2485179901 -21701585.775691986 0 -21701585.775691986 8916030.0378417969 0 0 0 0 -12164051.531005859 -18866502.493343353 0 -18866502.493343353 -1991003.7906074524 0 0 0 0 -46712989.218559265 -33655533.66730547 0 -33655533.66730547 27035071.767404854 0 0 0 0 -91897581.096923828 -74415476.205609918 0 -74415476.205609918 263200.67448711395 0 0 0 0 3499681.0893249512 -152452922.1824429 0 -152452922.1824429 -7989973.5140486658 0 0 0 0 1934551.5098952809 -25170723.210054852 0 -25170723.210054852 -28033230.901817318 0 0 0 0 108841059.433815 -77409804.676039279 0 -77409804.676039279 -19679053.313307762 0 0 0 0 13144513.308197021 -80406346.000366688 0 -80406346.000366688 38312021.338514984 0 0 0 0 -37139528.735290527 -47842994.209011078 0 -47842994.209011078 -19291134.033503056 0 0 0 0 5375715.7938308716 -78049551.79775238 0 -78049551.79775238 -48478500.645456791 0 0 0 0 -39156207.785919189 -108155514.43379831 0 -108155514.43379831 4433263.2818520069 0 0 0 0 1579700.301494211 -27658918.813074484 0 -27658918.813074484 7464891.5551146753 0 0 0 0 126195280.02359009 -64158549.213180542 0 -64158549.213180542 -62192041.031639099 0 0 0 0 -76854722.669143677 -29624862.048512459 0 -29624862.048512459 -50002269.492267609 0 0 0 0 -329705249.67611694 -295778381.38594818 0 -295778381.38594818 265166951.89483643 0 0 0 0 -30341074.95475769 -27624939.274009705 0 -27624939.274009705 14787548.159889221 0 0 0 0 2461.99399202317 -23846715.865679987 0 -23846715.865679987 -7560642.388752386 0 0 0 0 15102970.471031189 -30301354.672869205 0 -30301354.672869205 -44917681.307128906 0 0 0 0 3762744.7320694095 -29991693.922150187 0 -29991693.922150187 -27423167.40480129 0 0 0 0 -18388720.94195281 -21895786.141423658 0 -21895786.141423658 25176637.642141312 0 0 0 0 -5210627.4842529297 -15349807.938171387 0 -15349807.938171387 19654627.879302979 0 0 0 0 -32144000.047975499 -30609868.369383194 0 -30609868.369383194 15664431.544433368 0 0 0 0 -8124637.6516028121 -26524027.165482461 0 -26524027.165482461 4867985.5028500184 0 0 0 0 -25415083.01927948 -30463955.153320312 0 -30463955.153320312 16010386.035335541 0 0 0 0 -12583846.137794495 -24453797.966926575 0 -24453797.966926575 2888021.0305480957 0 0 0 0 -38701409.958553314 -26006468.143909454 0 -26006468.143909454 16465554.294223785 0 0 0 0 -2279551.5912724948 -31198355.472362742 0 -31198355.472362742 9088117.4818599299 0 0 0 0 -28830076.054063797 -20203641.786817551 0 -20203641.786817551 6377857.2964172363 0 0 0 0 39255354.10949707 -26553130.109817505 0 -26553130.109817505 -3017631.4287338257 0 0 0 0 3394742.5563049316 -27518425.742874146 0 -27518425.742874146 17350660.923995972 0 0 0 0 12344589.647344396 -27402982.391505841 0 -27402982.391505841 -1624355.339977324 0 0 0 0 -13960328.285110474 -25673923.802394867 0 -25673923.802394867 -4172363.1159820557 0 0 0 0 344230906.70782471 -131195900.8270874 0 -131195900.8270874 21584100.270347595 0 0 0 0 -18867755.628356934 -31941233.078994751 0 -31941233.078994751 3335113.3231201172 0 0 0 0 2702608.7886900082 -28789820.944029249 0 -28789820.944029249 1019633.7983627357 0 0 0 0 6390656.3700408936 -34365806.387586594 0 -34365806.387586594 -5506348.3590698242 0 0 0 0 -30786697.0912323 -30953590.293792725 0 -30953590.293792725 6953080.5325698853 0 0 0 0 -50675151.821304321 -64118488.12184906 0 -64118488.12184906 974039.57780456543 0 0 0 0 7818200.9644885287 -20322214.354994029 0 -20322214.354994029 -4852822.2517022416 0 0 0 0 -3779340.7504577637 -44239743.655075073 0 -44239743.655075073 -23160376.609710693 0 0 0 0 -10767758.096313477 -37284458.873474121 0 -37284458.873474121 -10981708.104202271 0 0 0 0 -2999185.2820053101 -15567264.933979034 0 -15567264.933979034 -6545306.0209503174 0 0 0 0 -35864664.434860229 -11931616.103523254 0 -11931616.103523254 58541919.981750488 0 0 0 0 6993273.646194458 -41302479.008857727 0 -41302479.008857727 -50033950.80166626 0 0 0 0 -7262783.0848999023 -59549100.750099182 0 -59549100.750099182 -37040577.900604248 0 0 0 0 -7963359.0393638611 -29931224.971674919 0 -29931224.971674919 23358570.632888794 0 0 0 0 -42854514.305717468 -30539384.857105255 0 -30539384.857105255 10807113.979118347 0 0 0 0 -3561830.348413201 -29949034.836557969 0 -29949034.836557969 4619693.2476238906 0 0 0 0 55467310.621429443 -36677864.778518677 0 -36677864.778518677 -11060515.097602844 0 0 0 0 -31504862.468734741 -31835821.458869934 0 -31835821.458869934 -453577.42219924927 0 0 0 0 -26378907.246940613 -19795505.767765045 0 -19795505.767765045 14262251.973617554 0 0 0 0 -6613728.4815042522 -22157762.290651951 0 -22157762.290651951 7435291.0721021891 0 0 0 0 -34031550.958755493 -32654960.817825317 0 -32654960.817825317 4215320.3485717773 0 0 0 0 319900626.7974267 -939798294.36650181 0 -939798294.36650181 -1218555367.5754395 0 0 0 0 -34876583.125106812 -31293606.728668213 0 -31293606.728668213 10086716.16443634 0 0 0 0 -35570191.803218842 -28496204.693592072 0 -28496204.693592072 1974495.1504058838 0 0 0 0 -353167424.85595703 -366534418.22348022 0 -366534418.22348022 161647874.61543274 0 0 0 0 -226435641.81420898 -167818029.70526123 0 -167818029.70526123 -192066913.39019775 0 0 0 0 -5904799.529029456 -30247992.502486788 0 -30247992.502486788 734065.42412543297 0 0 0 0 -226512445.47364807 -209146115.53430176 0 -209146115.53430176 161881678.82440186 0 0 0 0 -21899629.582511902 -36157840.423934937 0 -36157840.423934937 2983382.1089782715 0 0 0 0 -30096984.488769531 -30232917.883216858 0 -30232917.883216858 1595259.4272193909 0 0 0 0 -31603679.275810242 -33460663.886087418 0 -33460663.886087418 2356576.8496704102 0 0 0 0 -40051346.131378174 -25479889.682388306 0 -25479889.682388306 3829997.2420902252 0 0 0 0 532420763.31398773 386512367.86014938 0 386512367.86014938 28345630.421203613 0 0 0 0 -9837529.0299274139 -28356486.030642264 0 -28356486.030642264 14434575.091998205 0 0 0 0 -50315650.749328613 -28369371.029281616 0 -28369371.029281616 13724286.796661377 0 0 0 0 -45530408.142990112 -26034658.649597168 0 -26034658.649597168 -3919459.3023681641 0 0 0 0 -76068562.816772461 -474058563.46827698 0 -474058563.46827698 228516119.34667969 0 0 0 0 139312760.19543457 -584946030.55941772 0 -584946030.55941772 154003175.27384758 0 0 0 0 -36314511.861371994 -37849139.033376694 0 -37849139.033376694 21745260.575408936 0 0 0 0 -50384546.716995239 -35904721.011184692 0 -35904721.011184692 13311783.074279785 0 0 0 0 -30067136.729827881 -20820228.445388794 0 -20820228.445388794 21988329.916313648 0 0 0 0 -95811434.118499756 -212813228.17623901 0 -212813228.17623901 -13962504.110584259 0 0 0 0 -22912644.757080078 -61435456.982460022 0 -61435456.982460022 339239048.18907166 0 0 0 0 -29005062.961456299 -102425420.5014801 0 -102425420.5014801 124759868.44389725 0 0 0 0 199100427.35977936 -201247801.53757858 0 -201247801.53757858 -16053353.909088135 0 0 0 0 -153693999.75112915 202840181.66348267 0 202840181.66348267 77913472.54208374 0 0 0 0 443177993.5145874 462718391.1307373 0 462718391.1307373 86092845.244506836 0 0 0 0 439276013.28070831 -149592774.84751129 0 -149592774.84751129 -21006281.715301514 0 0 0 0 -1808490.8244491816 -1379426.2000209615 0 -1379426.2000209615 75702.199833713472 0 0 0 0 -16117445.382049561 -74478246.780899048 0 -74478246.780899048 104442136.54705811 0 0 0 0 -11478170.367160603 -19531486.130308546 0 -19531486.130308546 2542179.5434064418 0 0 0 0 628928.55824995041 -23762258.606330514 0 -23762258.606330514 -3586976.2646789551 0 0 0 0 -17312732.128608704 -32515107.419696808 0 -32515107.419696808 4144037.7446746826 0 0 0 0 953367.25176620483 -15970558.917910814 0 -15970558.917910814 6179522.9641571045 0 0 0 0 7528513.1857702732 -18255647.374136791 0 -18255647.374136791 -6546203.6416426003 0 0 0 0 -119061027.7283783 8725045.6592025757 0 8725045.6592025757 10328917.501434326 0 0 0 0 6832322.1199798584 -56821602.457618713 0 -56821602.457618713 -203531056.56732178 0 0 0 0 3196220.0872779414 -1392288.1658517215 0 -1392288.1658517215 -2053315.2959096283 0 0 0 0 119364845.27082062 -36168071.375305176 0 -36168071.375305176 17821413.683685303 0 0 0 0 -14611475.008010384 -2785633.8540220857 0 -2785633.8540220857 10990876.260103535 0 0 0 0 -5579165.1749801636 -7157270.7558135986 0 -7157270.7558135986 -73477044.299682617 0 0 0 0 -9189005.0026101843 -2888622.3655942902 0 -2888622.3655942902 12332650.382813077 0 0 0 0 -35544287.138412476 17149245.590194702 0 17149245.590194702 55393531.310554504 0 0 0 0 -10476656.884895325 -16946842.828056335 0 -16946842.828056335 47526784.180648804 0 0 0 0 -6958578.0433717407 -12345510.154591154 0 -12345510.154591154 5389412.1024037302 0 0 0 0 -33445353.097770691 -27531631.15253067 0 -27531631.15253067 23438975.687316895 0 0 0 0 -82045474.252578735 -20721925.971382141 0 -20721925.971382141 23378531.317642212 0 0 0 0 -83072050.569732666 -43992695.453125 0 -43992695.453125 126454318.92599487 0 0 0 0 -64707007.629463196 -96478277.535461426 0 -96478277.535461426 36839044.832000732 0 0 0 0 -7861956.3885192871 -57504874.692520142 0 -57504874.692520142 76329700.43321991 0 0 0 0 122507222.95726013 77873814.664718628 0 77873814.664718628 -37329636.836723328 0 0 0 0 -10054520.075313095 -87827.689819119871 0 -87827.689819119871 6427737.9270667844 0 0 0 0 -73696467.70092392 -5616198.3229064941 0 -5616198.3229064941 2400853.6831207275 0 0 0 0 -131867194.09802628 43222275.848758698 0 43222275.848758698 255980962.77713013 0 0 0 0 -72825029.216896057 150473873.56261444 0 150473873.56261444 227458594.18795776 0 0 0 0 -64729610.926528931 -106020620.84857178 0 -106020620.84857178 -57880791.243833542 0 0 0 0 1231374.9036518633 -2003826.8155954964 0 -2003826.8155954964 -4673346.3325135969 0 0 0 0 -40044056.008735657 34342494.584480286 0 34342494.584480286 223925144.21479034 0 0 0 0 -124641322.98931885 76510608.102340698 0 76510608.102340698 215025518.75549507 0 0 0 0 -60928339.904605865 137247949.10457611 0 137247949.10457611 49209110.358665466 0 0 0 0 -14860428.828922272 126130767.42320251 0 126130767.42320251 -134248789.8938446 0 0 0 0 -152167091.04603577 -460356382.74050903 0 -460356382.74050903 -572939889.31374359 0 0 0 0 -274545769.91469193 -444058524.77453613 0 -444058524.77453613 -238603556.47550964 0 0 0 0 -3964951.6033517569 644642.88885517046 0 644642.88885517046 2465318.3243496343 0 0 0 0 -1413759461.7726402 100935143.00014496 0 100935143.00014496 1777346511.7579193 0 0 0 0 -389776477.88826752 -597367682.07118225 0 -597367682.07118225 -442236254.91521454 0 0 0 0 -18758209.523921967 210360985.48269653 0 210360985.48269653 -208436853.19181824 0 0 0 0 74953373.235177994 22912047.418548584 0 22912047.418548584 165908217.66381836 0 0 0 0 -6445409.7462005615 -393796065.67971802 0 -393796065.67971802 -413237527.43974304 0 0 0 0 -529548995.41642761 110256907.58236694 0 110256907.58236694 258288474.77536011 0 0 0 0 -363308151.68751335 -374544194.62572098 0 -374544194.62572098 -66739009.731292725 0 0 0 0 -195081627.14143372 -147785424.89770508 0 -147785424.89770508 223038770.05926514 0 0 0 0 -127060349.15416098 57210278.478051186 0 57210278.478051186 34178148.187942505 0 0 0 0 -90808255.34557724 -380009345.34285736 0 -380009345.34285736 -467794293.5566864 0 0 0 0 -2199814.0468305051 -1108909.2366675735 0 -1108909.2366675735 2735356.9322766811 0 0 0 0 77080738.31338501 -29058620.033477783 0 -29058620.033477783 -568510341.50715637 0 0 0 0 -17378303.572555542 173575527.02635193 0 173575527.02635193 -452674556.85813904 0 0 0 0 -9015039.8639297485 -80839560.443889618 0 -80839560.443889618 -124379801.26324463 0 0 0 0 -38090994.552230835 -136329588.85832214 0 -136329588.85832214 -138388913.00865173 0 0 0 0 18558130.190738678 -404655968.85126877 0 -404655968.85126877 36912233.630401611 0 0 0 0 -3602787.0293769836 -253022631.86974907 0 -253022631.86974907 2248848.9696960449 0 0 0 0 53947584.700920105 -46167836.010467529 0 -46167836.010467529 -105598869.87123871 0 0 0 0 29829078.614562988 -102909206.38970947 0 -102909206.38970947 -17267766.655929565 0 0 0 0 -48068870.965263367 -60525576.22832489 0 -60525576.22832489 238353427.14015961 0 0 0 0 57747631.270530701 -19148910.776786804 0 -19148910.776786804 43971477.550788879 0 0 0 0 48068793.50403595 -42208362.705249786 0 -42208362.705249786 -105696117.98117065 0 0 0 0 54264299.236549377 7852012.52003479 0 7852012.52003479 -184456592.26615143 0 0 0 0 -90615142.100191116 44991960.083435059 0 44991960.083435059 -83600653.130233765 0 0 0 0 15328550.674255371 -30024463.950622559 0 -30024463.950622559 -78523220.400009155 0 0 0 0 9146871.8044300079 -23246343.955024719 0 -23246343.955024719 -84225721.272979736 0 0 0 0 -226460061.26593399 -166921592.66007996 0 -166921592.66007996 439105196.76101685 0 0 0 0 -292359478.33183479 30727457.237360001 0 30727457.237360001 143107803.31848145 0 0 0 0 -41317159.467378616 -110841096.23634911 0 -110841096.23634911 -7311740.1747741699 0 0 0 0 15395187.589385986 -34493794.673583984 0 -34493794.673583984 -97021394.34954834 0 0 0 0 -35290380.22936631 -31249356.032907639 0 -31249356.032907639 3543468.7535532191 0 0 0 0 -9963399.7548336871 -9930473.8688590825 0 -9930473.8688590825 -13320057.993302919 0 0 0 0 -109895769.74279785 -279912084.58180237 0 -279912084.58180237 337621850.28199005 0 0 0 0 122451226.13790894 -305873892.9825592 0 -305873892.9825592 72073260.308860779 0 0 0 0 -79061512.31798172 14520086.645401001 0 14520086.645401001 -45587809.876373291 0 0 0 0 -20948396.380371045 -31034348.547979869 0 -31034348.547979869 -5476703.8411636055 0 0 0 0 -38890612.805332184 -35310626.04006958 0 -35310626.04006958 7936423.3446655273 0 0 0 0 14722145.734054565 -38809908.713195801 0 -38809908.713195801 -3560643.1435623169 0 0 0 0 -13131326.636404604 -30478148.453830361 0 -30478148.453830361 -12629696.571571883 0 0 0 0 -265668027.28204727 11458054.335533142 0 11458054.335533142 708294343.71781921 0 0 0 0 -4092371.3827857971 -19902110.171470642 0 -19902110.171470642 10834281.538146973 0 0 0 0 -21823463.93032971 -25687308.341514461 0 -25687308.341514461 -1301494.1426000595 0 0 0 0 196178420.25457764 1704503.3161621094 0 1704503.3161621094 245034950.91523743 0 0 0 0 12094532.497642517 -96107629.788963318 0 -96107629.788963318 317437004.85549164 0 0 0 0 2060300.1589334775 -26045506.499061137 0 -26045506.499061137 -25941976.284558531 0 0 0 0 285495.87274169922 -16770357.429199219 0 -16770357.429199219 -11140212.630371094 0 0 0 0 4700490.1357631683 -27604544.161209106 0 -27604544.161209106 -19685107.10168457 0 0 0 0 -3533852.3299769796 -17828822.408799451 0 -17828822.408799451 -10371265.296225052 0 0 0 0 -5359044.0312305838 -29490893.140338965 0 -29490893.140338965 -15201214.028975137 0 0 0 0 -18792835.548615932 142245377.9198842 0 142245377.9198842 306502197.6217041 0 0 0 0 8480525.0029907227 -21264443.126144409 0 -21264443.126144409 -9068191.4722900391 0 0 0 0 33678206.131262779 -36249692.086532593 0 -36249692.086532593 -9504314.4858551025 0 0 0 0 -3583510.8761920929 -25215476.708625793 0 -25215476.708625793 2494098.5049438477 0 0 0 0 -12338803.750515517 -29002461.912425965 0 -29002461.912425965 -11295400.566113219 0 0 0 0 -22169197.637870789 -72271237.188873291 0 -72271237.188873291 -889404.06564331055 0 0 0 0 -21012713.01160717 -77867238.336086273 0 -77867238.336086273 26115951.375091553 0 0 0 0 -33646288.190826416 -43505769.208465576 0 -43505769.208465576 7476927.0266265869 0 0 0 0 -4574874.2093276978 -67976229.273918152 0 -67976229.273918152 -153370.55871582031 0 0 0 0 -93641875.277276516 -88170135.788502693 0 -88170135.788502693 80943175.089263916 0 0 0 0 -90739801.837604523 -62446575.99319458 0 -62446575.99319458 23007658.328948975 0 0 0 0 -55649111.729574203 -106200434.24983215 0 -106200434.24983215 10570235.492889404 0 0 0 0 -56462921.847949982 -107892330.78982544 0 -107892330.78982544 17309819.710266113 0 0 0 0 -68212376.396869659 -122900059.97476196 0 -122900059.97476196 49372713.677566528 0 0 0 0 -102542065.33039856 -114950262.05014038 0 -114950262.05014038 120172646.4070015 0 0 0 0 -122135704.53705215 -152706901.84365845 0 -152706901.84365845 88656872.343963623 0 0 0 0 -21731788.53729894 -25455542.342209473 0 -25455542.342209473 2104453.1123787444 0 0 0 0 -16825913.331076711 -25821956.971819453 0 -25821956.971819453 -8244197.0090298653 0 0 0 0 -17166711.855918884 -26812365.234298706 0 -26812365.234298706 -5780910.9148674011 0 0 0 0 -8228675.9695739746 -29049363.316085815 0 -29049363.316085815 -18358347.170806885 0 0 0 0 36763195.924419403 -35982701.244734764 0 -35982701.244734764 -58768639.071868896 0 0 0 0 12504780.558446348 -20943833.459410034 0 -20943833.459410034 -13603544.060744166 0 0 0 0 20470696.275939941 -36002394.503982544 0 -36002394.503982544 -12305252.066383362 0 0 0 0 1933520.6658893377 -3753509.2492322102 0 -3753509.2492322102 -3679350.7894981839 0 0 0 0 46393745.016385078 -148011657.65867293 0 -148011657.65867293 27252526.337127686 0 0 0 0 -1002132.0936876237 -1742304.1631160155 0 -1742304.1631160155 -2248868.1751797348 0 0 0 0 48652055.707158566 -53512159.837897778 0 -53512159.837897778 -73155656.443267822 0 0 0 0 -25290552.99055481 -59805514.176551819 0 -59805514.176551819 -58854371.379547119 0 0 0 0 -155008790.83049011 4514558.9136734009 0 4514558.9136734009 92980937.014343262 0 0 0 0 41994607.446762085 -161978553.15180206 0 -161978553.15180206 -218481983.97117615 0 0 0 0 -5645522.1507129669 33924229.947986603 0 33924229.947986603 -222682000.59205627 0 0 0 0 -9362775.1112454757 418283.16768456623 0 418283.16768456623 8789608.3155088052 0 0 0 0 10504335.335205078 -49199498.751403809 0 -49199498.751403809 -45171029.96824646 0 0 0 0 -184805816.61158752 105340502.45995331 0 105340502.45995331 -207972462.93484497 0 0 0 0 -10581147.442481201 -32528050.88465469 0 -32528050.88465469 -3549876.412074998 0 0 0 0 23077225.739494324 -29490326.581771851 0 -29490326.581771851 -31027182.376434326 0 0 0 0 -1237137.9155816585 -24459263.325855829 0 -24459263.325855829 -10320608.669169812 0 0 0 0 -20880657.614486694 -48552850.454666138 0 -48552850.454666138 5962745.5307769775 0 0 0 0 22597817.151977539 -33338934.167572021 0 -33338934.167572021 -46007733.209953308 0 0 0 0 -2375483.2792567164 -5538381.1625846922 0 -5538381.1625846922 273904.345432695 0 0 0 0 1993764.7398163455 -25130279.512538884 0 -25130279.512538884 -8118992.0724645257 0 0 0 0 -5209482.0193842836 -20015567.897146478 0 -20015567.897146478 -7886263.0440830588 0 0 0 0 -6609882.5595779419 -27254549.603492737 0 -27254549.603492737 -6517855.8335113525 0 0 0 0 -5686616.2640533447 -28782758.711479187 0 -28782758.711479187 -3512006.769241333 0 0 0 0 -12652386.153007507 -30619173.255142212 0 -30619173.255142212 -4903516.8294830322 0 0 0 0 -18616461.915435791 -27308401.198074341 0 -27308401.198074341 -1998485.3150177002 0 0 0 0 -10069645.183169926 -23919872.312882408 0 -23919872.312882408 -4018618.3423855901 0 0 0 0 -13961781.285018921 -25229943.442108154 0 -25229943.442108154 -4237802.2401123047 0 0 0 0 11733765.448087692 -30754636.218734741 0 -30754636.218734741 -442763.09216308594 0 0 0 0 -4645031.3824583124 -19616320.990894772 0 -19616320.990894772 -5241953.4458850473 0 0 0 0 -28291789.613010883 -26820292.766026497 0 -26820292.766026497 -8851733.3898925781 0 0 0 0 -3984017.2238543695 -29165465.596091002 0 -29165465.596091002 -17084164.688003927 0 0 0 0 -29149065.36100769 -25576486.933029175 0 -25576486.933029175 -4183332.1576061249 0 0 0 0 -18243652.562982798 -56896986.033030033 0 -56896986.033030033 -32582001.608032227 0 0 0 0 -25797084.885050155 -21225353.770928726 0 -21225353.770928726 993526.57577887177 0 0 0 0 -21349172.711200714 -40485703.524935722 0 -40485703.524935722 -15070240.896575928 0 0 0 0 -8068599.1046600342 -31262733.025238037 0 -31262733.025238037 -15145625.559295654 0 0 0 0 -7715082.6144714355 -33998355.379615784 0 -33998355.379615784 -12300122.219955444 0 0 0 0 -6671340.413772583 -32487404.931510925 0 -32487404.931510925 -17313245.849281311 0 0 0 0 2665759.7404632568 -40500132.903377533 0 -40500132.903377533 -29163611.963287354 0 0 0 0 -10395939.977233887 -43237135.929603577 0 -43237135.929603577 -14631399.661514282 0 0 0 0 24706536.709823608 -26230679.893806458 0 -26230679.893806458 -7047371.2983074188 0 0 0 0 -4528861.3423080444 -47039797.379768372 0 -47039797.379768372 -21832164.554000854 0 0 0 0 -17943407.078685544 -31333218.247517034 0 -31333218.247517034 -16609574.226267934 0 0 0 0 23289840.125900269 -22594213.916137695 0 -22594213.916137695 -6450994.9264526367 0 0 0 0 -10991753.466634259 -25604420.3586725 0 -25604420.3586725 -8947865.1878204346 0 0 0 0 16767008.005102098 -8839111.5471091848 0 -8839111.5471091848 -15061792.744654886 0 0 0 0 50345107.85244751 -115423898.90126801 0 -115423898.90126801 35207743.144256592 0 0 0 0 79303080.334442139 8827821.030921936 0 8827821.030921936 -53866926.971759796 0 0 0 0 54234088.081787109 -62520997.577445984 0 -62520997.577445984 -47276882.492858887 0 0 0 0 31368161.200866699 -53502794.106735229 0 -53502794.106735229 40008962.873336792 0 0 0 0 78141761.054107666 -26613477.573379517 0 -26613477.573379517 4025365.057144165 0 0 0 0 -10720988.237702735 -5297755.3529280946 0 -5297755.3529280946 1506584.4444899112 0 0 0 0 -17800465.807666358 -34985776.661320828 0 -34985776.661320828 -11967313.547722936 0 0 0 0 -231265307.93774414 4945643.9732666016 0 4945643.9732666016 -34482972.966888428 0 0 0 0 95074468.868789673 -13889710.250762939 0 -13889710.250762939 -5350966.7092285156 0 0 0 0 131203782.06822205 -55840599.643032074 0 -55840599.643032074 -77747878.854980469 0 0 0 0 36397143.734305963 -33497289.885487653 0 -33497289.885487653 -36722822.090070784 0 0 0 0 26279070.661821485 -23066857.672970682 0 -23066857.672970682 -23786020.004902303 0 0 0 0 -204073014.18798828 142868328.94839478 0 142868328.94839478 658283364.72900391 0 0 0 0 108095017.19836426 -67845973.94342804 0 -67845973.94342804 -42373908.218914032 0 0 0 0 32652446.111226082 10868638.721926689 0 10868638.721926689 -12651045.932678223 0 0 0 0 31127340.170928955 -299004202.64096832 0 -299004202.64096832 -1040082301.0148926 0 0 0 0 165325.71032714844 -64475375.638809204 0 -64475375.638809204 -47342295.926391602 0 0 0 0 101150649.49020386 -86236527.153945923 0 -86236527.153945923 -108357750.05136108 0 0 0 0 43431208.033111572 -92871435.648468018 0 -92871435.648468018 -108954955.10340405 0 0 0 0 -3155754.8918075562 -60123581.079816461 0 -60123581.079816461 7449037.801864624 0 0 0 0 12259317.663098708 -4277453.2280509211 0 -4277453.2280509211 -7245787.7956301793 0 0 0 0 33452008.159835815 -22094781.105064392 0 -22094781.105064392 -20096345.338790894 0 0 0 0 -18254193.317306876 -32759508.842414558 0 -32759508.842414558 -8322932.8306935877 0 0 0 0 -13212840.022689819 -100364963.61830902 0 -100364963.61830902 -175536141.49784088 0 0 0 0 -1811158.6817440987 -85885491.605919123 0 -85885491.605919123 -101910417.43551636 0 0 0 0 -3584884.7450256348 -52339509.917617798 0 -52339509.917617798 -48636240.223602295 0 0 0 0 7431270.8250732422 -77488735.009902954 0 -77488735.009902954 -105711006.13705444 0 0 0 0 -56389230.816688538 -80692594.394314766 0 -80692594.394314766 -37615032.123062134 0 0 0 0 -55570956.235799789 -86928094.962707996 0 -86928094.962707996 -42869458.524581909 0 0 0 0 -128285044.30377197 -117907250.51284027 0 -117907250.51284027 -15766546.790756226 0 0 0 0 -10445754.261108398 -52188133.18145752 0 -52188133.18145752 -22220812.310424805 0 0 0 0 -70315551.787536621 -75503643.393379211 0 -75503643.393379211 6974041.8589859009 0 0 0 0 8421248.5147705078 -86532729.987884521 0 -86532729.987884521 -3408758.8410949707 0 0 0 0 73050332.659378052 -44439924.183469772 0 -44439924.183469772 -6401530.406036377 0 0 0 0 -104309204.40338135 29287476.788742065 0 29287476.788742065 54810342.883411407 0 0 0 0 -74736629.583992004 -69838311.803173065 0 -69838311.803173065 27360854.620254517 0 0 0 0 -175703786.11294556 -89523349.203987122 0 -89523349.203987122 70954632.966888428 0 0 0 0 -168669667.04672241 -96963173.517204285 0 -96963173.517204285 56786316.225311279 0 0 0 0 -155668205.41055298 -137219175.85835075 0 -137219175.85835075 31991346.317657471 0 0 0 0 -120395070.8666687 -128478615.00106049 0 -128478615.00106049 21356934.232284546 0 0 0 0 -124429990.15914917 -108666862.59963226 0 -108666862.59963226 2004608.79662323 0 0 0 0 -25215463.18762207 -123238068.67743683 0 -123238068.67743683 -7973084.6105194092 0 0 0 0 -29698124.499310493 -13391936.211865187 0 -13391936.211865187 28390610.933578491 0 0 0 0 -197982092.63208008 -40322414.284889221 0 -40322414.284889221 -22854874.910575867 0 0 0 0 -131406892.28718567 -109689914.19781685 0 -109689914.19781685 2844130.9230651855 0 0 0 0 -97916420.660148621 -36539628.78364563 0 -36539628.78364563 -30885342.939575195 0 0 0 0 -123998178.64550781 -105859833.58796692 0 -105859833.58796692 -16532777.412096024 0 0 0 0 -138886593.4251709 -105794806.35256958 0 -105794806.35256958 9359508.0673217773 0 0 0 0 -62587340.78805542 25183177.800483704 0 25183177.800483704 11771330.688903809 0 0 0 0 4205957.1945648193 7930047.1810531616 0 7930047.1810531616 15950242.022872925 0 0 0 0 -86489085.423980713 -58597179.363891602 0 -58597179.363891602 -3546608.7915420532 0 0 0 0 13900387.5365448 -41439051.604270935 0 -41439051.604270935 -76826770.343742371 0 0 0 0 -934475.70031664521 -1396821.6276236176 0 -1396821.6276236176 321448.44385267049 0 0 0 0 154611356.01400757 151562578.52657318 0 151562578.52657318 -464970807.57876587 0 0 0 0 -75373847.906188965 70819481.850784302 0 70819481.850784302 -193350222.19304657 0 0 0 0 -246688103.45532227 209761703.69119263 0 209761703.69119263 -166847866.45884514 0 0 0 0 -191165980.01150513 -222785870.81798553 0 -222785870.81798553 -344743660.25497818 0 0 0 0 -208072346.0866394 95097598.346851349 0 95097598.346851349 122563404.60578918 0 0 0 0 -107410970.19125366 -137702531.33391571 0 -137702531.33391571 -92416728.168365479 0 0 0 0 -195983551.32955933 -99806192.867004395 0 -99806192.867004395 -16400682.925376177 0 0 0 0 -149763624.34542847 -58310059.095695496 0 -58310059.095695496 -27898457.659179688 0 0 0 0 -395850138.38525391 -106036917.00439453 0 -106036917.00439453 -36994538.509181976 0 0 0 0 -403425919.56188965 -354180139.00777435 0 -354180139.00777435 -226561592.56916428 0 0 0 0 -582469287.5480957 -129375701.26983643 0 -129375701.26983643 91941075.739837646 0 0 0 0 -134680428.58944702 -145090599.18426514 0 -145090599.18426514 -125747554.28712463 0 0 0 0 -120864722.37155151 -121535224.23376465 0 -121535224.23376465 -91559803.138607979 0 0 0 0 -134241282.51992798 477993519.85781097 0 477993519.85781097 -546241282.05425262 0 0 0 0 -51173278.067863464 -139300078.83216858 0 -139300078.83216858 -458690745.31428528 0 0 0 0 -2593103.9392494559 -518476.35607497767 0 -518476.35607497767 604322.30092580616 0 0 0 0 -452553836.53336716 972186039.54492664 0 972186039.54492664 1106268854.5650787 0 0 0 0 -188278561.52215576 -87343742.587303162 0 -87343742.587303162 59879407.591697693 0 0 0 0 -1725281.0013746768 -1822758.2425041571 0 -1822758.2425041571 1333402.2195227668 0 0 0 0 -543479099.19853973 -65977963.225782394 0 -65977963.225782394 471908841.65531921 0 0 0 0 -245037237.40505219 13859382.612596512 0 13859382.612596512 58578035.435119629 0 0 0 0 -151691205.90678406 41676806.172416687 0 41676806.172416687 47982663.788352966 0 0 0 0 322201728.77891541 205701980.04124832 0 205701980.04124832 -58638909.291320801 0 0 0 0 -85204518.629241943 -195978328.28812408 0 -195978328.28812408 242612349.29981232 0 0 0 0 -706282.20444215834 -687864.02651264518 0 -687864.02651264518 286651.75789517164 0 0 0 0 -723946501.24359131 333525982.87756348 0 333525982.87756348 104690908.18087769 0 0 0 0 -198037360.51141357 -476803399.11297607 0 -476803399.11297607 -1846031377.3802795 0 0 0 0 69453414.909179688 282849512.68761444 0 282849512.68761444 -255845744.72361755 0 0 0 0 100685997.38607788 -126537155.61286926 0 -126537155.61286926 251114372.063797 0 0 0 0 -331297114.81584167 -333802136.78859329 0 -333802136.78859329 230465423.25735474 0 0 0 0 693940679.02749634 305459660.86592865 0 305459660.86592865 565321437.86903381 0 0 0 0 106678594.84640503 -546277573.5488739 0 -546277573.5488739 1338899937.2169876 0 0 0 0 1453661809.9001999 -1275483000.968626 0 -1275483000.968626 702373425.66642761 0 0 0 0 323279901.98202515 -558892376.78636551 0 -558892376.78636551 270399531.63259125 0 0 0 0 326278830.48713684 -554434055.29140282 0 -554434055.29140282 265585989.64427185 0 0 0 0 -322023830.1947937 74342.639114379883 0 74342.639114379883 417748253.2357254 0 0 0 0 557324284.34737682 -701735566.67927146 0 -701735566.67927146 36663871.299934387 0 0 0 0 -349738931.45819855 85470031.343090057 0 85470031.343090057 38158669.463096619 0 0 0 0 -1100431.1691970825 -1221179.0574540794 0 -1221179.0574540794 1122218.0299077779 0 0 0 0 338216617.01086426 -537677740.4789772 0 -537677740.4789772 192290965.90925598 0 0 0 0 21148733.347717285 -147377633.63210678 0 -147377633.63210678 109657248.46070099 0 0 0 0 -212973768.69830322 -55611809.84942627 0 -55611809.84942627 73713002.358905792 0 0 0 0 -71774321.434188843 38861086.368267059 0 38861086.368267059 840784.82399749756 0 0 0 0 -46836624.576408386 32732656.798031807 0 32732656.798031807 18918740.478515625 0 0 0 0 -77853638.166259766 29731412.887435913 0 29731412.887435913 20174029.066001892 0 0 0 0 -86362245.263912201 -24576572.950369835 0 -24576572.950369835 50337774.415512085 0 0 0 0 -150664232.04910278 -5641065.6334457397 0 -5641065.6334457397 44769957.853179932 0 0 0 0 -1530969.2069549561 -7460189.946975708 0 -7460189.946975708 16642274.312141418 0 0 0 0 7591572.7133566849 -23384662.407027036 0 -23384662.407027036 1858968.9572319165 0 0 0 0 25593952.780960083 -19235436.690883636 0 -19235436.690883636 -17266944.418334961 0 0 0 0 -28091662.569519043 -32755317.492477417 0 -32755317.492477417 19038063.894226074 0 0 0 0 -6635723.8718183935 -14247661.253828701 0 -14247661.253828701 814688.90886345133 0 0 0 0 -43306774.947463989 -24414425.29044342 0 -24414425.29044342 14594383.922187805 0 0 0 0 8599937.7817382812 -21561164.206665039 0 -21561164.206665039 5316017.7331542969 0 0 0 0 16202052.581192017 -31589780.089958191 0 -31589780.089958191 1353286.5199432373 0 0 0 0 21855371.692764282 -16546488.585250854 0 -16546488.585250854 8513869.4051513672 0 0 0 0 1285030.6586837918 -2418254.9844445772 0 -2418254.9844445772 -887365.28145282902 0 0 0 0 -16911380.737537842 -16566581.679536827 0 -16566581.679536827 2971906.5314491615 0 0 0 0 -3890636.5002323389 -22966810.891750507 0 -22966810.891750507 -3572394.5884073377 0 0 0 0 9172466.5504760742 -20027107.108901978 0 -20027107.108901978 1670954.0884246826 0 0 0 0 5921928.8311004639 -18044207.318473816 0 -18044207.318473816 8958981.7430877686 0 0 0 0 22636275.230010986 -14911879.246841431 0 -14911879.246841431 -10805471.358919144 0 0 0 0 17824203.140930176 -22401617.442604065 0 -22401617.442604065 -63802716.444774628 0 0 0 0 -19543392.943969727 -33923927.06427002 0 -33923927.06427002 -30578600.162063599 0 0 0 0 -6874129.3975872248 -3253653.9386942238 0 -3253653.9386942238 1809021.4037276991 0 0 0 0 13833632.728614807 17750351.639812469 0 17750351.639812469 -94954432.3878479 0 0 0 0 -148510468.57468796 43946823.630870819 0 43946823.630870819 863017.57653045654 0 0 0 0 -26452138.871887207 6583936.7004013062 0 6583936.7004013062 -11051109.893808365 0 0 0 0 
</DataArray>
<DataArray type="Float64" Name="cross_section_updated" format="ascii">
1 1 0.048495949997962154 1 1 1 1 0.048495115667470015 1 1 1 1 1 1 1 1 1 1 1 1 0.053813767694126449 1 1 1 1 0.053816760941439445 1 1 1 1 1 1 1 0.049864731969930867 1 1 1 1 1 1 1 1 0.049372168390234797 1 1 1 1 1 1 1 1 1 1 1 0.049151887701482475 0.05020243566057446 1 1 1 1 1 1 1 1 0.064681514466127313 1 1 1 1 1 1 1 1 1 1 1 1 1 1 1 1 1 1 1 1 1 1 0.062037355262314797 1 1 1 1 1 1 1 1 1 1 1 0.064843695146609925 1 1 1 0.055860248028110973 1 1 1 1 1 1 1 1 1 1 1 1 1 1 1 1 1 1 1 1 1 1 1 1 1 1 1 1 1 1 1 1 1 1 1 1 1 1 1 1 1 1 1 1 1 0.049908797863970983 1 0.054349580489184174 1 1 1 1 1 1 1 1 1 1 1 1 1 1 1 1 1 1 1 1 1 1 1 1 1 1 0.070737824046515588 1 1 0.052174652829458434 1 0.054150978717403292 1 1 1 1 1 1 1 1 1 1 1 1 1 1 0.04140471922357538 1 0.036237705180139537 1 1 1 1 1 1 1 0.086048989712483342 1 0.060886885493346282 1 1 1 1 1 1 0.049533868976467582 1 1 0.095991157221259477 1 1 1 1 1 1 0.10074390766663645 0.0084462558496195689 1 1 0.049087837857036902 1 0.02701161732253668 1 0.049047591690528622 0.048407970364360411 1 1 1 0.01814335564007688 1 1 1 1 1 1 1 1 1 1 1 1 1 0.0048899406097907827 1 1 1 1 1 1 1 0.0018147904137435639 1 1 1 1 1 1 1 -1.0604989109097573e-12 1 1 1 1 0.048472806926233666 1 1 1 1 1 1 0.048727397238582222 1 1 1 0.044964083082104714 1 1 1 1 1 1 1 0.040752511302381431 1 1 1 1 1 1 0.044948445519930796 1 1 1 1 1 1 0.056312284718491493 1 1 1 1 1 1 1 0.04480796281811978 1 1 1 1 1 1 1 1 1 1 1 1 1 1 1 1 1 1 1 1 1 0.034514874260021436 0.049403435071562668 1 1 1 1 1 0.080622131589464463 1 1 1 1 1 1 1 0.028888435413707857 1 0.079834773517343277 1 1 1 0.02670103543029792 1 1 1 0.056270991617995106 1 0.049862157409458346 1 1 1 1 1 1 1 0.12752958424029887 1 1 1 1 1 1 1 -1.2225637169294146e-12 1 1 1 0.049607499458397188 1 1 1 1 1 1 1 1 1 1 1 1 1 1 1 1 1 1 1 1 1 1 1 1 1 1 1 1 1 1 1 1 0.12185137642232116 1 1 1 1 1 1 1 1 1 1 1 1 1 1 1 1 1 1 1 1 1 1 1 1 1 1 1 1 1 1 1 1 0.052359625038900626 1 1 1 1 1 1 1 1 1 1 1 1 1 1 1 1 1 1 1 1 0.05123110799744611 1 1 1 1 1 1 1 0.048831047532585076 1 1 1 1 1 0.046425646668712545 1 1 0.050006991699983488 1 0.065370375020364649 1 1 1 1 0.069598610094963542 1 1 0.07391785757544439 1 1 1 1 1 1 0.054264305536447482 1 1 1 1 1 1 1 1 1 1 1 1 1 1 1 1 1 1 1 0.066451919448793278 1 1 1 1 1 1 1 1 1 1 1 0.049230849950902156 0.070387458646242032 1 1 1 1 1 1 1 1 1 1 1 1 1 1 1 1 1 1 1 1 1 0.054082315711862894 1 0.051139108232729574 0.059191034591566827 1 1 0.04630602102137435 1 1 1 1 1 1 1 1 1 1 1 1 1 0.064076475029780311 1 1 1 1 1 1 1 0.04962160647100565 0.048446352249957803 1 1 1 1 1 1 1 1 0.050848212200235339 0.045903750008429695 1 1 1 0.045921353223696504 1 1 1 1 1 1 1 1 1 1 1 1 1 1 1 1 1 1 1 1 1 1 1 1 1 1 1 1 1 1 1 1 1 1 1 0.048287305099497635 1 1 0.05040779862739117 1 1 1 1 0.050781250023174303 1 1 1 0.050556812366541304 1 1 1 0.050149935539281265 1 1 0.050407496265667651 1 1 1 1 1 1 1 1 1 1 1 1 1 1 1 1 1 1 1 1 1 0.050862611579666192 1 1 1 0.051069356918905587 1 1 1 1 1 0.052912427042910631 1 1 1 1 1 1 0.050356459202495818 1 1 1 1 1 1 1 1 1 1 1 1 1 1 1 1 1 1 0.050149761825771702 1 1 1 1 1 1 1 1 1 1 1 1 1 1 1 1 1 1 1 1 1 0.050373451395783128 1 1 1 1 1 1 1 1 1 1 1 1 1 1 1 0.04835392521175827 1 1 1 1 1 1 1 1 1 1 1 1 1 1 1 1 1 1 0.034409061780930228 1 1 1 1 1 1 1 0.052039778520655944 1 1 1 1 1 1 1 1 1 1 1 1 1 1 1 1 1 1 1 1 1 0.046819317147230179 1 1 1 1 1 1 1 1 1 0.040500861317371781 1 1 1 1 1 1 1 1 0.11344815860700029 1 1 1 1 1 1 1 1 1 1 1 1 1 1 1 1 1 1 1 -2.6962876376046552e-12 1 1 1 1 1 0.1029257889007674 1 1 1 0.050424085433853481 1 1 1 1 1 1 0.057019738788065627 1 1 1 1 1 1 1 1 1 1 0.04395455962558191 1 1 1 1 1 1 1 1 1 1 1 1 0.067143235566408457 1 0.031482946078840363 1 1 1 1 1 1 1 0.0051808062632474339 1 0.12459523552394206 1 1 1 1 1 1 1 1 1 1 1 1 1 1 1 1 1 1 1 1 1 1 1 1 1 1 1 1 1 1 1 1 1 1 1 1 1 1 1 1 1 1 1 1 1 0.054618604946614455 0.046812498794379674 1 1 0.050441997756600132 1 1 1 1 1 1 1 1 1 1 1 1 1 1 1 1 0.05351132344472645 1 1 1 1 -3.9088454695246355e-12 1 1 0.048711667355467558 1 1 1 1 1 1 0.0095807443270692627 1 0.01646082542399871 1 1 0.050576718364827605 1 1 1 1 1 1 1 1 1 1 0.037540242025423401 1 1 1 1 1 0.049748456017627368 0.049877170878289981 1 1 1 1 0.027492431323661651 1 1 0.021807633296377499 1 0.083585218547051907 1 1 1 1 1 0.046006359694011179 1 1 0.049975447985351945 1 1 1 1 1 1 1 1 1 1 1 1 0.049829201370251125 1 1 1 1 1 1 1 1 1 1 1 1 1 1 1 0.041262294801549748 1 0.049998439564625963 1 0.054422581072798515 0.056066909328926912 1 0.041675982378172508 1 1 0.049947456298200368 1 1 1 1 1 1 0.072738001621267367 1 0.049468077263019959 1 1 0.079769481251909732 1 1 1 0.039841215071643565 1 1 0.050011761039911382 1 1 1 1 1 0.088515534969161938 1 1 0.05028197732462493 1 1 1 1 1 0.049948739991391593 1 0.036046963012245754 1 1 0.037823821914553475 1 1 0.054591752540543034 1 1 1 1 1 1 1 1 0.051134526165862268 1 1 1 1 1 1 1 1 1 1 0.047937049778574742 1 1 1 1 0.046350377454297806 1 1 0.047563911201071826 1 1 1 1 1 0.052398483150197642 1 1 1 1 1 0.04998142401930511 1 0.049515703898594998 1 1 1 1 1 1 0.04989610689551071 1 1 1 1 1 1 1 1 0.050666417389976091 0.037455713001960739 0.044952753755489128 1 1 1 1 0.053080871802020764 1 0.04409837141447466 1 1 1 0.036977846485948346 0.049953979204228567 1 1 1 0.045340508674875879 1 1 1 0.036536758032700983 1 0.053831394059865034 1 0.043114433321143765 0.042750174858413433 1 0.050020116124189343 1 1 1 1 0.031554402597868833 1 1 1 0.050460118887625777 1 0.030495287360657194 1 0.080863976300167575 1 1 1 1 1 1 1 0.050037287252532286 1 1 1 1 0.069649839835712032 1 1 1 1 1 1 1 1 0.050021638840201429 1 0.050127348793752531 0.051373375385890173 1 1 1 0.053964873860666909 1 1 1 1 0.058211872793424282 0.053356997350614777 1 1 0.063580944130582323 0.049487166732675669 1 1 1 1 1 0.04978877483735665 1 1 1 1 1 1 1 1 0.049869411332833319 1 0.049735176558183283 1 1 1 1 1 1 1 1 1 1 1 1 1 1 1 1 1 0.049781036875399198 1 1 1 1 1 1 1 1 1 1 1 1 1 1 1 1 1 1 1 1 1 1 1 1 1 0.050037229098974179 1 0.049386560106727928 1 1 1 1 1 0.050006309821244613 0.049994666816488939 1 1 1 1 0.050426747139914727 0.05001242513795523 1 0.048642572364281517 1 1 0.052070902509011016 1 1 0.046479003872483229 1 1 1 1 0.050665905689942628 0.050487751536197445 1 1 1 1 1 1 1 1 0.05001259852481961 1 1 0.050057223127673203 1 1 1 0.050465775401335108 1 1 0.050098147987780707 1 1 1 1 1 1 0.049318971576094758 1 1 1 1 1 1 0.058115914655690687 1 1 1 1 1 0.047875746019942433 1 1 0.038366188061723205 0.062324484693486226 1 1 0.057606452120237142 1 1 0.050034426111208244 1 1 1 1 1 1 1 1 1 1 1 1 0.040117567333179685 1 0.052206610171102605 1 1 0.051024628384025994 1 1 1 1 1 1 0.049981899873284837 1 1 1 0.052097654335267043 0.041637907259526791 0.049999084913848399 1 1 1 0.056519027001095318 0.048943267123670267 1 0.05278959376705783 0.03855616906208012 1 1 0.046843184153491327 1 1 0.051403022129353035 1 0.052911084072740089 1 0.047322613252569506 1 1 1 0.050509714003747874 0.051781646193549635 1 1 0.050869835582028768 0.051255281246022022 0.046877989524461011 0.047267955118493077 1 1 1 0.049762298272272756 0.050076426754317643 1 1 0.053511667690389793 0.0398235136920565 0.047790333879470515 1 0.053299510272574034 0.049570201261807868 1 1 0.046701225295228695 1 0.047583540522928097 0.054442385302973233 1 0.042145205339788841 1 1 0.050054731066054375 1 0.042519775647205799 0.049106618574777064 1 1 1 1 0.04946941217665346 0.043337379157172201 1 1 0.050022513852149814 1 1 1 0.050146335827712329 1 1 1 1 1 1 1 1 1 1 1 1 1 1 1 1 1 1 1 1 1 1 1 1 1 1 1 1 1 1 1 1 1 1 1 1 1 1 1 1 1 1 1 1 1 1 1 1 1 1 1 1 1 1 1 1 1 1 0.061043908634243596 1 0.053182216001574988 1 1 1 1 1 1 1 1 1 1 1 1 1 1 0.062522242268265527 1 1 1 1 1 1 1 1 1 1 0.054170847361301407 1 1 1 1 1 1 1 1 1 1 1 1 1 1 1 1 1 1 1 1 1 1 1 1 1 1 1 1 1 1 1 1 1 1 1 1 1 1 1 1 1 1 1 1 1 1 0.049972087044751409 1 1 1 0.050716946903052326 1 0.047428566289046091 1 1 1 1 1 0.043116499399422081 1 0.049577468933593799 1 1 1 1 1 1 1 1 1 1 1 1 1 1 1 1 1 1 1 1 1 1 1 1 1 0.049651814104009234 1 1 1 1 1 1 0.076270823315747721 1 0.058519091765665797 1 1 1 0.092443145363924784 1 1 0.094902050438812835 1 1 1 1 1 1 1 1 1 1 1 1 1 1 1 1 1 1 1 1 1 1 1 1 1 1 1 1 1 1 1 1 1 1 1 1 1 0.043050582334188049 1 0.064373077217614302 1 1 1 1 1 1 1 1 1 1 0.049011983147984245 1 1 1 1 1 1 1 1 1 1 1 1 1 1 1 1 1 0.058064860928796577 1 1 1 0.049933795724759186 0.11208837132790223 1 0.077954016338935589 1 1 1 1 1 1 1 1 0.045842932472882757 1 1 1 1 0.046379321539323538 1 1 1 1 1 1 1 0.050639464929282146 1 1 0.074737816811215593 1 0.092450900777922104 1 1 0.048346539067903871 1 1 0.078647945113243148 0.049895186217736712 1 1 1 1 1 1 1 1 1 1 1 1 1 1 1 0.11387754217114308 1 0.062274133763637267 1 1 1 0.039083227115304431 1 0.050511473436249961 1 1 1 1 1 1 1 1 1 1 1 1 0.049066269388206983 1 0.047788865090446622 1 1 1 1 1 1 1 1 0.047155946005368078 1 1 0.052691381674722829 1 1 1 0.049195119912914448 0.053051961658487044 1 1 1 1 1 1 1 1 1 1 1 1 1 1 1 1 1 1 1 1 1 0.05254533542363822 1 1 1 1 1 0.050007864858400967 1 0.049459158890036124 1 1 1 1 0.047635067483431909 1 1 0.048492891067276306 1 1 1 1 1 0.051098679744407502 1 1 1 1 0.039159096449034064 1 1 1 1 1 1 1 0.050430482417911718 1 1 1 0.042403581267076829 1 1 1 1 1 1 1 1 1 1 1 0.043659327211185192 1 1 1 1 1 1 1 1 0.049214398072416829 1 1 1 1 1 1 0.047950676870094536 1 1 1 1 1 1 0.047125626518662762 1 1 1 1 1 1 1 1 1 1 1 0.051802778231159557 1 1 1 0.050431199688537195 1 1 1 0.0454065744897156 1 0.048945342748883 1 1 1 1 1 1 0.048389347720985063 1 1 1 1 1 1 1 1 1 1 1 1 1 1 1 0.045785121774367263 1 1 1 1 1 0.036307924406572371 1 1 1 1 1 1 1 1 0.044945512990970708 1 1 1 1 1 1 1 1 1 1 1 1 1 1 1 1 0.051235954830202712 1 1 1 1 0.047627032362267736 1 1 1 1 1 1 1 1 1 1 1 1 1 1 1 1 1 1 1 1 1 1 1 1 1 1 0.061194627867352837 1 1 1 0.050075140531364151 1 0.046761466145510244 1 1 1 1 0.05451428889565952 1 0.049274534238237438 1 1 1 1 1 0.050896505255265921 1 1 1 1 1 1 1 1 1 0.063341785806021692 1 1 1 1 1 1 1 1 1 1 1 1 1 1 1 1 1 1 1 1 1 1 1 1 0.052252198742944518 0.050368276355448618 1 1 1 1 1 0.050960419514924249 1 1 1 0.054674333641709816 1 1 1 0.053764948786940436 1 1 0.043571986031718912 1 0.051491521848869244 1 1 1 1 0.049444953686182305 1 1 1 1 0.047564601132530283 0.049591793192766249 1 1 1 1 1 1 1 1 1 1 1 1 0.051922538169964907 1 1 1 1 0.04988501732835534 1 1 1 1 1 0.048932780869115226 1 1 0.049730865771052415 1 1 1 1 1 1 1 1 1 1 1 1 1 1 1 1 0.049728979360670902 1 1 0.049216601098476698 1 1 1 0.048580795791329998 1 1 1 1 1 1 1 1 1 1 1 0.049364194692853317 1 1 1 1 1 1 1 1 1 1 1 1 1 1 1 1 0.049273836254709442 1 1 0.030342917390088039 1 0.031059956925862525 1 1 0.038233220884500999 1 0.047751445816501252 1 0.034760329206801839 1 1 1 1 1 1 1 1 1 1 1 1 1 0.036398343037873274 1 0.037203529913670784 0.052789085036270701 1 1 0.033272197701986826 0.049659432601263757 1 1 0.050013475634125462 0.058367481853174669 1 1 1 0.031090297559449767 1 0.068543913778729815 1 1 0.033961959500725947 1 1 1 1 0.0016649324964718862 0.016086513376986841 1 0.027888779647294221 1 1 0.058173366845455848 0.0500017337417277 1 1 0.059288186606673419 1 1 1 0.068959267653964207 1 1 1 0.039246761676358335 0.043711441715509114 0.067114746090939661 1 1 0.060993794508536661 1 0.062201827088390865 0.04999964468927183 1 1 1 1 1 1 1 1 1 1 1 0.051065190745814185 0.049461287733774534 1 0.074143354734321515 1 0.023998352078805255 1 0.060885984439328154 1 1 1 0.05056731958435285 1 1 1 1 1 0.049703699730199724 1 1 1 1 1 1 1 1 1 1 1 1 1 1 1 1 1 1 1 1 1 1 1 1 0.046920518578883977 1 1 1 1 1 1 1 1 1 1 1 1 1 1 1 1 1 1 0.06324415530148339 1 1 1 1 1 1 1 1 1 1 1 0.0062174403944415006 1 1 1 1 1 0.06914930561012117 1 1 1 1 1 1 1 1 1 1 1 1 1 1 0.045612349042760313 1 1 1 1 1 1 1 1 1 1 1 1 1 1 0.061797671045028472 1 0.03016925073521802 1 1 1 1 0.037439923491540295 1 1 1 1 1 1 1 1 1 1 1 1 0.076491623481503429 1 0.049731737072999785 1 1 1 1 0.050409659196404819 1 1 1 1 1 1 1 0.036462455145613304 1 1 1 1 1 1 1 0.049985270078574839 1 1 1 0.077103741783154864 1 0.050013370678405125 1 1 1 1 1 1 1 1 1 0.065049541548959811 1 1 1 1 1 1 1 1 1 1 1 1 1 1 1 1 1 1 1 1 1 1 1 1 1 1 1 1 1 1 1 1 1 1 1 1 1 1 1 1 1 1 1 0.052840299400660165 1 1 0.049569545025117984 1 1 1 1 1 1 1 1 1 1 0.050912784457300866 1 1 1 1 1 0.046875819047109343 1 1 0.050038063536093733 1 1 1 1 1 1 0.073019262661483966 1 1 1 1 0.049860367159218703 1 1 0.067002736963758386 1 0.057993500412626367 1 1 1 1 1 1 1 1 1 1 1 0.054536466214044794 1 0.066722634045402157 1 1 1 1 0.051471776082013122 1 1 1 1 1 1 1 1 1 1 1 1 1 1 1 1 1 1 1 1 1 0.042221055130933299 1 1 1 1 0.047494346896490715 1 1 1 1 1 1 1 0.056662442225303734 1 1 1 1 1 0.035286934345398993 1 1 1 0.062638085971207499 1 1 1 0.040005020535755276 1 1 0.046834566929495086 1 1 1 0.064938067952832357 1 1 0.055477574256372217 1 1 1 1 1 1 1 1 1 1 1 1 1 1 1 1 1 1 1 1 1 1 1 1 1 1 1 1 1 1 1 0.047861717704699422 1 1 1 1 1 1 1 1 1 1 1 0.05172714762285241 1 1 1 1 1 1 1 1 1 1 1 1 1 1 1 0.055172661089406522 0.054013509642616336 1 1 1 0.043699864372135522 1 1 1 1 0.05123623478208944 1 1 0.044053225578097419 1 1 1 1 1 1 1 1 1 1 1 1 1 0.042795443296127958 0.047280659794807695 1 1 1 1 1 1 1 1 1 1 1 0.029830428796294703 1 1 0.04056290386462956 1 1 1 1 1 1 1 1 1 1 1 1 1 1 1 1 1 1 1 0.033920409182655181 1 1 1 0.049904438679973753 1 1 1 1 1 0.053933013575477494 1 1 1 1 1 1 1 1 1 1 1 1 1 1 1 1 1 1 1 1 0.04440093331223563 1 1 0.047164093618216829 1 1 1 1 1 1 1 1 1 1 1 1 1 1 1 1 1 1 1 0.043631545809534683 1 1 1 1 1 1 1 1 1 1 1 1 1 1 1 1 1 1 1 1 1 1 1 1 1 1 1 1 1 1 1 1 0.050374426887812754 1 1 1 1 1 1 0.059544768695917266 1 1 1 1 1 0.055677993123603373 1 1 1 1 0.051852226562614637 1 1 1 1 1 1 1 1 1 1 1 1 1 1 1 1 1 1 1 1 1 1 0.0502294941852309 1 1 1 1 1 1 1 0.050044320668911998 1 1 0.054483017462450475 1 1 0.05047921382341556 1 1 1 1 1 1 0.051473078855090421 1 1 1 1 1 1 1 1 1 1 0.074136859378112319 1 0.028527489654977256 1 1 1 1 1 1 1 1 0.050160662808921369 1 1 0.075019948876586862 1 1 1 0.035548412864506163 1 1 1 0.040394857600779377 1 1 1 0.049999774955111695 0.050135590750775484 1 1 0.053788824304587438 1 1 0.058563028959506963 1 1 0.050033305224000221 1 1 1 1 1 1 1 1 1 0.050033265739803032 1 1 1 0.063304200353192147 1 1 1 0.068017078646685727 1 1 1 0.050041994682698265 1 0.050120782396084862 1 1 0.043349805740911171 1 1 1 1 1 1 1 1 0.066018019392564298 1 1 0.053009411128244831 1 1 1 1 1 1 1 1 1 1 1 1 1 0.063538284539762804 1 0.050038341841487519 1 1 1 0.047964918161383666 0.042071036596357234 1 0.056834045464075333 1 1 1 1 0.050000057598052851 1 0.048289887122238001 1 1 1 1 1 1 1 1 1 0.049644851076191265 1 1 1 1 1 1 1 1 1 1 1 1 1 1 1 1 1 1 1 1 1 1 1 1 1 1 1 1 0.051140492472867928 1 1 1 1 1 1 0.049194154073295165 1 1 1 1 1 1 0.049357161458666837 1 1 1 1 1 1 0.049753536941805565 1 1 1 0.049792595615962942 1 1 1 0.050306158050250405 1 1 0.07841613722508535 1 1 1 1 1 1 0.038847537142925131 1 1 1 0.077795059020373925 0.049974947313700474 1 1 1 1 1 1 1 1 1 1 1 1 1 1 1 1 1 0.049857963870442862 1 1 1 1 1 1 1 0.050119077870163328 1 1 1 1 1 0.059831367319600481 1 1 1 1 1 0.049991254753370302 1 1 0.044938375445063315 1 1 1 1 0.049768233290502659 1 1 1 1 1 1 0.036387900801882568 1 0.07895707116091491 1 0.035453119925509105 0.060462928219589505 1 0.049946695577126762 1 1 1 0.047879111218183244 1 1 1 1 1 0.044466651898139524 1 1 1 0.049913911264097895 1 1 1 1 0.049708790478144235 0.052168396698086192 0.044370082681015909 1 1 1 1 0.04992344253369118 0.058465067446427078 1 0.056759189463875412 1 1 1 1 1 1 0.049994015464417556 1 0.054565574352135902 1 1 0.052829396893687597 1 1 1 0.050497794049940897 1 1 0.054902118079872414 1 1 1 1 1 1 1 1 1 1 1 1 0.05040652198166494 1 1 1 1 0.055131685430994025 1 1 1 1 0.059573459780330948 1 1 1 1 1 1 1 1 1 0.051252113089021889 0.046238985106046036 0.041957731479395688 1 1 1 0.049991664142763528 0.049898027850776697 1 1 0.052262951262778953 1 0.048794778362076241 1 1 1 1 1 1 1 0.06160441820364794 1 1 1 1 1 1 1 1 1 1 1 1 1 1 1 1 0.050301789052760046 1 1 1 1 1 1 1 1 1 0.050928126989182698 1 1 0.058204172981514452 1 0.057483904136080802 1 0.053036954696991823 1 1 0.064461843169387203 1 1 1 0.049999888528145311 0.039274949531029772 1 1 0.049334631965579349 1 1 1 0.063239211228325806 1 1 1 1 0.049748446510356981 1 1 1 1 1 1 1 1 1 1 1 0.058489659967538757 0.050002133340656535 1 1 1 1 1 1 1 1 1 1 1 1 1 1 1 1 1 1 1 1 1 1 1 1 1 1 1 1 1 1 1 1 0.049976736354106419 1 1 1 1 1 1 1 1 1 1 1 1 1 1 1 1 1 1 1 0.043075538746751879 1 1 1 1 1 1 0.050031930933670116 0.057517375883590557 1 1 0.055054136140332735 0.054161968699464269 1 1 1 0.054019678764933632 1 1 1 1 1 1 1 1 1 1 1 1 1 1 1 1 1 1 1 1 1 1 1 0.042904782777180503 1 0.067725303962564196 1 0.047621358995812782 1 1 1 1 1 1 0.049969367342301667 1 0.045909411891314617 0.048741245859098184 1 1 0.0051408213111325887 1 1 1 1 1 1 0.050226765384211954 0.01013959226271393 1 1 0.035309233060661541 0.060985806068135605 1 1 0.053877289049899239 0.050069705488540589 1 1 1 1 1 1 1 1 0.050377272404975949 1 1 1 1 1 0.043805097760809326 1 1 0.0094009252871024712 1 1 1 0.050117817155427735 1 1 1 1 1 1 1 1 1 1 1 1 1 1 1 1 1 1 1 1 1 1 1 1 1 1 1 1 1 1 1 1 1 1 0.048590759521931655 1 1 0.06438457073065032 1 0.068774977241102375 0.046866951010740544 1 1 1 1 1 1 1 1 1 0.073393709957902412 1 1 1 1 1 0.077434572838591939 1 1 1 1 1 1 1 0.052482207237342739 1 1 1 1 1 1 1 1 0.057360678876427193 1 1 1 1 1 0.061955157926273402 1 1 1 1 1 1 1 1 1 1 1 1 1 1 1 1 1 1 1 1 1 1 1 1 1 1 1 1 1 1 0.050838642370375609 0.050741399254115756 1 1 1 1 1 1 1 0.04892588354262431 1 1 1 0.052792683190082498 1 0.052069818253383637 1 1 1 1 1 1 1 1 1 1 1 1 1 1 1 1 1 1 1 1 1 0.049780422155720851 1 1 1 1 1 1 0.060229351083196228 1 1 1 1 1 1 1 0.051515173234191913 1 1 0.049916398592653094 1 1 1 1 1 1 0.066472804881652789 1 1 1 0.046543189507873173 1 1 0.05875196231529102 0.05161268132627507 1 1 1 1 1 1 1 1 1 1 1 1 1 1 1 1 1 1 1 1 1 1 1 1 1 1 1 1 0.049590529556433879 1 1 1 1 1 1 1 1 1 1 1 1 1 1 1 1 1 1 1 0.054286105254061634 1 1 1 0.056507343141258784 0.049962333684826277 1 1 1 1 1 0.049960435754476729 1 1 1 0.05021798729571525 1 1 1 1 1 0.050668023721238659 1 1 1 1 1 1 1 1 1 1 1 1 1 1 1 1 1 1 1 1 1 0.048713268379844035 1 1 1 1 1 1 0.044749582385832112 1 1 1 1 1 1 1 1 1 1 1 1 0.051322805509534344 1 1 1 1 0.044623674353802878 1 0.05131767567285403 1 1 1 1 1 1 1 1 1 1 1 1 1 0.037836859554285202 1 1 1 1 1 0.030875396247880493 1 1 1 1 1 1 0.044636359348996089 1 1 1 1 1 1 1 1 1 1 1 1 0.048451761793398856 1 1 0.044344575044049678 1 1 0.054332824995995732 1 1 0.051384178630950628 1 1 1 1 1 1 1 1 1 1 0.041718862165448817 1 1 1 1 1 1 1 1 0.050004105564968232 1 1 1 0.04990135012079374 1 1 1 0.041020616137307953 1 1 0.038222876314756085 1 1 1 0.055700444781230624 1 1 1 1 1 0.03920765280298584 1 0.049999007061579684 1 1 1 1 0.050120151312008518 0.037944663379388802 1 1 1 0.0071182302927900176 1 1 1 1 0.049736791229214539 1 1 1 1 1 1 1 1 1 1 1 1 1 1 1 0.049596696157165221 1 1 0.042925995117719037 0.059937343234284624 1 1 1 1 0.058754856151708737 1 1 1 1 1 1 0.04984482692573905 1 1 1 1 1 1 0.049950292620752193 1 1 1 1 1 1 1 1 0.052294784156755633 1 1 1 1 1 1 1 1 1 1 0.049725372786987763 1 1 0.054000683015161852 1 1 0.05200326832362806 1 1 1 1 1 0.033478616189092522 0.049976495945706509 1 1 0.050038806427260718 0.049434746105377986 1 0.047686411047649369 1 0.056500496065650385 1 0.057582725911890509 0.044865798476700865 1 1 0.041652642145294058 1 0.051501491779727945 1 0.052384490717526946 1 0.049251166109930827 1 0.051036350895725571 1 1 0.049986474662066183 1 0.040934600189525189 1 0.055118277368538998 1 1 1 1 1 1 0.051630719263345629 1 1 1 0.049982380601486978 1 1 1 1 1 1 1 1 1 0.050037595181545491 1 1 0.054887873003703916 1 0.049994449292004431 1 0.042681940779066202 1 1 1 4.163336342344337e-17 0.049933147524188468 1 1 1 1 1 1 1 1 1 1 1 0.050486789705901342 1 1 1 1 1 0.055664843095360725 1 1 1 1 1 1 1 1 1 1 1 1 1 1 1 1 1 0.050941819214093798 1 1 1 1 1 1 0.052972172714493879 1 1 1 0.051710621944651633 1 1 0.049287904085161163 1 1 1 0.059139780757377802 1 0.066439281447739959 0.047771639503878027 1 1 1 1 1 1 1 1 1 0.053945155701908547 1 1 1 1 1 1 1 0.050031289784405422 1 0.051443262245686711 1 0.050490312971212994 1 1 1 1 1 1 1 1 1 1 1 1 1 1 1 1 1 1 1 1 1 1 1 1 1 1 1 1 1 1 1 1 1 1 1 1 1 0.024328607360503091 1 1 0.02503811860037964 0.06798283186155557 1 1 1 1 0.067784888866761872 1 1 1 1 1 0.061270320990568963 1 1 0.049947285422482543 0.011842233388140638 1 1 1 1 1 1 0.033888912456681852 1 0.049978222995039095 1 1 0.056093736455428179 0.048337189085782085 1 0.045659161832856177 1 1 1 0.047065901369950723 1 1 1 1 0.045617065821502691 1 1 1 0.05667772269132753 1 1 0.032788251723603778 0.050175790977249043 1 1 1 0.074690972587825713 1 1 1 1 0.049684242974457282 1 1 0.05314069070140201 1 1 1 0.048905970048219255 1 1 0.051778734298451368 1 1 1 0.034297945226278194 1 0.059466548086053249 1 1 0.061546885928911207 1 1 0.0576249482775434 0.049990631679642246 1 1 0.024146484640421888 1 0.049875488036914509 0.067426397261797985 1 1 1 1 0.035575537229525361 1 1 1 1 0.030276826746162042 1 1 1 1 1 1 1 1 1 1 1 1 0.082042261547940601 1 1 1 1 0.0499942013453894 1 0.03490714737870397 1 1 1 1 1 0.06044218204904421 0.050013058659973825 0.049829613180438367 1 1 1 1 1 1 1 1 0.064903336491398067 1 1 1 1 1 1 0.057768038332455862 1 1 1 1 0.064411010184060327 1 1 1 1 1 1 1 1 1 1 1 1 1 1 1 1 1 1 0.056008026755034149 1 0.025093264442995616 1 1 0.037007742511022249 0.037234710368824156 1 0.059850306411048562 1 1 0.048770699724099864 1 0.051509659310988054 1 0.056165475971747286 1 0.051938957731877719 1 1 1 1 0.050721467243197038 1 1 1 0.053822346949272404 1 1 1 1 1 1 1 1 1 1 1 1 1 1 1 1 1 1 1 1 1 1 1 1 1 0.050435982170677213 1 1 1 1 1 0.097549735072102461 1 1 1 1 1 1 1 1 1 1 1 0.050878687878885609 1 1 1 1 1 0.050402808886244516 1 1 0.04975416090910878 0.093411121554142773 1 1 1 0.063521280115752976 1 1 0.043822216749278296 0.065688914666244616 1 0.08756910958222866 1 1 1 1 1 1 1 1 1 1 1 1 1 1 1 1 0.051360895281128735 1 1 1 1 0.048606197716536431 1 1 1 1 1 1 1 1 0.043284496659381 0.046828219429201519 1 1 0.050070173906086174 1 1 1 1 1 1 1 1 1 0.050333430419449182 0.045826047518960605 1 1 0.050006147032565604 1 1 1 0.049412712114867904 1 1 1 1 1 1 1 1 1 1 1 1 1 1 1 1 1 1 1 1 1 1 1 1 1 1 0.050450724780840783 1 1 1 1 1 1 1 1 1 1 1 1 1 1 1 1 1 1 1 1 0.031300991931690475 1 1 1 0.054167141210873349 0.050190076266289435 1 1 1 0.031671332340387617 1 1 0.049816548334343361 1 1 1 1 1 0.048543180286691121 1 0.052384986757956858 1 1 1 1 1 1 1 1 0.049205710222345572 1 1 1 0.041837123091863854 1 1 0.047917766998866781 1 0.050053988324212331 1 1 1 0.057080509649781883 1 1 1 0.070996807188035263 1 1 1 1 1 1 1 1 1 1 1 1 1 1 1 1 1 0.083543770459388836 1 1 1 1 1 1 1 1 1 0.05151604489444235 1 1 1 1 1 1 1 1 0.094387404295200136 1 1 1 1 1 1 1 1 1 1 1 1 1 0.049875937600481958 1 1 1 0.049918390302348264 1 1 1 1 1 1 1 1 1 1 1 1 1 1 1 1 1 1 1 0.054121247816642515 1 1 1 0.04361418166149459 1 0.049886405719704791 1 1 1 0.026435949975958703 1 1 1 0.049962751631363905 0.047269759489373273 1 1 1 1 1 1 1 1 1 1 1 1 1 1 1 1 1 1 1 1 1 1 0.050287287185182813 1 1 1 1 0.050762629166115437 1 1 1 1 0.05047534198093262 1 1 1 1 1 1 1 0.049287812299037365 1 1 1 1 0.049508241859939815 1 1 1 1 1 1 0.049789233383031255 1 1 1 1 1 1 0.048913970623209853 1 1 1 0.050050509481528435 1 1 1 1 1 1 1 1 1 0.050509459261187779 1 1 1 1 1 1 0.051419563741695901 1 1 1 1 1 1 1 1 1 1 1 0.050011731090661732 1 1 0.04865669969924874 1 1 1 1 1 0.050636526148136962 1 1 0.055261755700121484 1 1 1 1 1 1 1 0.023931557135233594 0.049334876066209073 1 1 1 1 0.046993139173217624 1 1 1 1 1 1 0.049991888848578997 1 1 1 1 1 1 1 1 1 1 0.049010677820910988 1 1 1 1 1 1 1 1 1 1 1 1 0.051662184089775791 1 0.050298989633846436 1 1 1 0.069289218395539309 1 1 0.0032273939928201267 1 1 1 1 0.061716412325459886 1 1 1 1 1 0.0023792228123827187 1 1 1 1 1 1 1 1 0.0030606145240706078 1 1 1 1 0.052590211165403397 1 1 1 1 1 1 1 0.050923247579316003 1 1 1 1 1 1 1 1 1 1 0.052410228111983342 1 1 1 0.049310755747979357 1 0.047971547039124672 1 1 1 1 1 1 0.050134676165723979 1 0.043302831635722266 1 0.049764986671272035 1 1 1 1 0.052310539324349155 1 1 1 1 1 1 1 1 1 1 1 1 1 1 0.049553015089166944 1 0.035565733690630319 1 1 1 1 1 1 1 0.050710584704440245 1 1 1 1 1 1 1 1 1 1 1 1 1 0.03209245269289572 1 1 1 1 0.027938285699730905 1 1 1 1 1 1 1 1 1 1 1 1 1 1 1 1 1 1 1 1 1 1 1 1 0.049378335321144863 1 1 1 1 0.033724322027682996 1 1 1 0.050076916560738594 1 1 0.05016842402540133 1 1 0.04926292284544162 1 1 1 1 1 1 1 1 1 1 1 1 1 1 1 0.049529175373078591 1 1 0.049935775220691037 1 1 1 1 1 1 1 0.066819996090337605 1 1 1 1 1 0.071413077129966557 1 1 1 0.005032898500484273 1 1 1 -1.2073675392798577e-15 1 1 1 1 1 1 1 0.043451930674525477 1 1 1 0.04623943578746699 1 0.050446273943698633 0.058334220360211728 1 1 1 1 1 0.052334574588627017 1 1 1 1 1 1 1 1 1 1 0.05212556721422025 1 1 1 1 1 1 1 1 1 1 1 1 1 1 1 1 1 1 1 1 1 1 1 1 1 1 1 1 1 1 1 1 1 1 1 1 1 0.050046708754645813 1 1 1 1 1 1 1 1 1 1 1 1 1 1 1 1 0.048824795127595466 1 1 1 1 1 1 1 1 1 0.050046625744743778 1 1 1 1 1 1 1 0.049561872282153807 1 1 1 1 1 1 1 1 1 1 1 1 1 1 1 1 1 1 1 1 1 0.052142634586165353 1 1 1 1 1 1 1 1 1 1 1 1 1 1 1 1 1 0.051428748015014902 1 1 1 1 1 1 1 1 1 1 1 1 1 1 1 1 1 1 1 1 1 1 1 1 1 1 1 1 1 1 1 1 1 1 1 1 1 1 1 1 1 1 1 1 1 1 0.047731268975014979 1 1 1 1 1 1 1 1 1 1 1 1 1 0.044931163849865501 1 0.050023146106953305 1 1 1 1 1 0.050048113501253974 1 1 1 1 1 0.051988420742157718 0.056898378182264217 1 1 1 1 1 1 1 1 1 1 1 1 1 1 1 1 1 0.051984692704282992 0.046077304573723124 1 1 1 1 1 1 0.049079603425694562 1 0.045780623773593432 1 1 1 1 1 1 1 1 1 0.046920178504671742 1 1 1 1 1 1 1 1 1 1 1 1 1 1 1 1 1 1 1 0.05107342000854858 1 1 1 1 1 0.048631974556923432 1 0.047286962367805621 1 1 1 1 1 1 1 0.047653991170412337 1 1 1 0.048654987810882191 1 1 1 0.041363127293714622 1 1 0.043175681110399239 1 1 1 0.056991824338111716 1 1 0.05495064436032588 1 0.033091120491029864 1 0.052066783766338179 1 1 0.04491299422365938 1 1 1 1 1 1 1 1 1 1 1 1 1 1 1 1 1 1 1 1 1 0.050327604367561396 1 0.029240385900755637 1 1 1 1 1 1 1 0.031255875515608392 1 1 1 1 1 1 1 1 1 1 1 1 1 1 1 1 1 1 1 0.050378113849089828 1 1 1 0.050558643637047283 1 1 1 1 1 1 1 1 1 1 0.052495139538648025 1 1 1 1 0.054510393718116196 1 1 0.051089512713007726 1 1 1 1 1 0.047345197367263656 1 1 1 1 0.048931514026496523 1 0.052540728053273443 1 1 0.025176012933095474 1 1 1 1 1 1 1 0.026142464166103906 1 1 0.049224594739199837 1 0.029566322665618826 1 1 1 1 1 1 1 1 1 1 1 1 1 1 1 1 1 1 0.050366037521092352 1 1 1 1 1 1 1 0.051984505452351323 1 1 1 1 0.04324024344113879 1 1 1 1 1 1 1 1 1 0.050530869075960452 1 1 1 1 0.05238129170056053 1 1 1 1 1 1 1 1 1 1 1 1 0.049571760559512047 1 1 1 1 1 1 1 1 1 0.036148584223080177 1 1 1 1 1 1 1 1 1 1 1 1 0.043336985285319631 1 1 0.048493378254620897 1 1 1 1 1 1 1 1 1 0.049797080307675545 2.7249539430451719e-11 0.070659245551960029 1 1 1 0.049993774121692869 1 1 1 1 1 1 0.093337472987648412 1 1 1 0.057118402442106843 0.049818782969811154 1 1 1 1 1 1 1 1 1 1 1 1 0.029610399519591879 1 1 1 0.049830409251390845 0.098579304814090787 1 1 1 1 1 0.10346491042338625 1 1 1 1 0.10930881944828333 1 1 1 1 0.049638223816609608 1 1 1 1 1 0.009384456498362774 0.035362237505635295 0.060589169267927449 1 1 1 0.048626756003840386 0.033915427244157623 1 1 1 1 1 1 1 1 1 0.051380587572950526 0.05030773348194037 1 1 1 0.04699532602703152 0.050308188897015958 1 1 1 1 1 1 1 1 1 1 1 1 1 1 1 1 1 0.057383164542804496 1 0.065006036945183809 1 1 1 1 0.090079094613885538 1 1 1 1 1 1 1 0.086607158842422038 1 1 1 1 1 1 1 0.073807026239576079 1 1 0.019839363398468868 1 0.07298948556334886 0.079517565150133543 1 1 1 0.024008699038866429 0.050024166181739611 1 1 1 0.050059432572254751 0.048596522521932743 1 1 1 1 1 1 1 1 1 1 0.05035953343739813 1 1 1 1 1 1 1 0.041220756176048048 1 1 1 1 0.028222742624752894 1 1 1 1 1 1 0.089089736189299523 1 1 1 1 0.049375571531389856 1 0.078989151379936645 1 1 1 1 1 1 1 1 1 1 1 1 1 1 0.093371918470274373 1 1 1 1 1 1 1 0.095222118110989643 1 1 1 1 0.050073017280335738 1 1 1 0.022165680131487134 1 1 1 1 1 1 1 1 1 1 1 1 1 1 1 1 1 1 1 1 1 1 0.031443619284125465 1 0.04325001817242001 1 1 0.046574957824127579 1 1 1 0.042557502075897841 1 1 0.042911907965804699 1 1 1 1 1 1 1 1 1 1 1 1 1 1 1 1 1 1 1 1 0.042465976786881465 0.053254242269216129 0.055328748169917542 1 1 1 1 1 1 1 1 1 1 1 1 1 0.036049986418341194 1 1 1 0.054645439668573083 1 1 0.023827946533963962 1 1 1 1 0.033912673345512109 1 1 0.031536801217150218 0.053033455251100897 1 1 1 1 0.047023509065132918 1 1 0.054357664189989136 1 0.051411369380860383 1 1 1 1 1 1 1 1 1 1 1 1 0.054710344968188468 1 1 1 1 1 1 1 0.044404129202622294 1 0.050960423022943346 1 1 1 1 0.042913814520378367 1 1 1 1 1 1 1 1 1 1 1 1 1 1 1 1 1 1 1 1 1 1 1 0.039940781644775859 1 1 1 0.051237363113730713 1 0.066021621563524202 1 1 1 0.020891679421851907 1 1 1 1 1 0.050166276579184543 1 1 0.064143554483692578 1 1 1 1 1 1 1 1 0.046861738565983899 1 1 1 1 1 0.046057432827858472 1 1 1 1 1 1 1 1 1 1 1 1 1 1 0.04320268835469445 1 1 1 1 0.04263152794118158 1 1 1 1 1 1 1 1 1 1 1 1 0.049419504955259444 1 1 1 1 0.048752231737184813 1 1 1 1 1 1 1 1 1 1 1 1 1 0.051766923095950199 1 1 0.050573971620437641 1 1 1 0.047432898979496763 1 1 1 1 1 1 1 1 1 1 1 1 1 0.051833071843099501 0.026875241320327703 1 0.052431356049398588 0.041019927992625202 1 1 1 0.05641250766904482 -4.3141816508107667e-11 1 0.05344434284072562 1 0.0479864174150475 1 0.021824313391905277 1 1 1 0.064049290640429399 1 0.050033343357715962 1 1 1 1 0.02792873987173906 1 1 1 1 1 1 0.056701515617636498 1 1 1 1 1 -4.1010323609258492e-11 1 1 0.049180190755815464 1 1 0.074026145647975078 1 1 0.048583282579024271 1 1 1 1 1 0.097365537860598275 1 0.086230989914280257 1 1 1 1 1 1 1 1 1 1 1 1 1 0.047850200679082203 1 1 0.050068157173746013 1 1 1 1 1 1 1 1 1 0.056255742371562154 1 1 1 1 1 1 1 1 1 0.10405611852793924 1 1 0.052038372696039378 1 0.10535818640503986 1 1 1 1 1 1 1 0.07571714514717634 1 1 1 1 1 1 1 0.10083801630423364 1 0.058828240520684132 1 1 0.066159658026744741 1 1 1 0.048628523310045149 1 1 1 1 0.046653518573337514 1 1 1 1 1 0.0494204266874484 1 1 1 1 1 1 1 1 1 1 1 1 1 1 1 1 1 1 1 1 1 0.045811357053560514 1 1 0.045618540226244786 1 1 1 0.046455690987115113 1 1 1 1 0.048559414909869092 1 1 1 1 1 1 1 1 1 1 1 1 1 1 1 1 1 1 1 1 1 1 1 0.041178938071333188 1 1 1 1 1 1 0.02545244293683336 1 1 1 1 1 1 1 1 1 1 1 1 1 0.050293151377151804 1 0.01780817684193807 1 1 0.051838121743519122 1 1 1 1 0.0056299500190772622 0.044137694237440336 1 0.048865317407894633 1 0.032885941640121874 1 1 1 1 1 1.4895057409702872e-11 1 1 0.00061352697692346192 2.4309498858343659e-11 1 1 1 1 1 0.054539805688134803 1 1 0.05002272701863858 1 1 1 1 1 1 1 1 0.021811996605645118 0.053660670575657009 1 1 1 0.032130514869572885 1 0.049976687849595081 1 1 1 1 1 0.044699243590038309 1 0.046413546882330597 1 1 1 1 1 0.047161691630285295 0.050181573380142883 1 1 1 1 0.049957433922099004 1 1 1 1 0.049215537741703522 1 1 1 1 1 1 1 1 1 1 1 1 1 1 1 1 1 0.049467996962769843 1 1 0.049887673152119456 1 1 1 0.049828417337517188 1 1 1 1 1 1 1 1 1 1 1 1 1 1 1 1 1 1 1 0.047838539098103192 1 1 1 1 1 1 1 1 1 1 1 1 1 1 0.045978030922402963 0.05149487217499843 1 1 1 0.049945100233124887 1 1 1 1 1 0.047986759381250105 1 1 1 1 1 1 1 1 1 1 1 0.049647753543233697 1 1 0.049819336205716533 1 1 1 1 1 1 1 1 1 1 0.042406374475551456 1 1 1 0.032402954277267505 1 0.044800666004027462 1 0.055343072946083781 1 1 1 0.049983526201739625 0.056848179774626015 1 0.039602329781787737 1 1 0.050966367591345471 1 1 0.053954612865537391 0.033758369862878571 1 1 1 0.032323034191950123 1 1 0.060307012859446618 1 0.033661531584930598 1 1 1 0.064747725087735186 1 1 0.058775679985743817 0.063568598236268814 1 0.064279784774398219 1 1 0.070295729548493585 1 0.053284729046273197 1 1 1 1 1 1 1 1 1 0.050963205505414971 1 1 1 1 1 0.048562016071622055 1 1 1 1 1 1 1 1 1 1 0.069976229795185751 1 1 1 1 0.062799042593104273 0.069667587743606901 1 1 0.019194825175046726 1 0.013843537659797936 1 1 1 1 1 0.016099558793391974 1 1 0.068847241871098641 1 0.050004748183579861 1 1 1 1 1 1 1 0.068766682606574148 1 1 1 1 1 1 1 1 1 0.023461978034598922 1 0.050089600626712201 1 0.049941487903613913 1 0.056656240092315173 1 1 1 1 0.049708227119874236 1 1 1 1 1 0.049077518985921227 0.069588570410167513 1 1 1 1 1 1 0.051697580814056225 1 1 1 1 1 0.013429844717048445 1 1 1 1 0.023189562249595619 1 1 0.03749485604062322 1 0.028649088071381258 1 1 1 0.058715100559823485 1 0.016301527819031159 1 1 0.016776554301222275 0.050004327093344611 0.020432966977019205 1 1 1 1 1 1 0.049998768635564392 0.076802313399432304 0.055293192699479625 1 1 1 1 0.054412948764669358 1 0.044604370835394869 1 0.062862243660912615 1 1 1 1 1 1 0.048791375542432638 1 1 1 1 1 1 1 1 1 1 1 1 1 1 1 1 1 1 1 1 1 1 1 1 1 1 1 1 1 1 1 1 1 1 1 1 1 1 1 1 1 1 1 1 1 1 1 1 1 0.04103331342305893 1 1 1 0.025619965243968333 0.050091947096592662 1 1 1 1 1 1 1 1 1 1 1 1 1 1 1 1 1 1 1 0.064911414764705688 1 1 1 1 1 1 1 0.04682835725781398 1 1 0.071368481868276337 1 1 0.053625877266308783 1 1 0.036427921767476237 1 0.061419505638065031 1 1 0.062091699710739828 1 1 1 0.049781622589605681 1 0.033231704503701748 1 0.059886929985176057 0.057851801160581709 1 1 1 0.038090980927939819 0.049811358363421196 1 1 0.061974222638957563 1 1 0.0334252925708238 1 1 1 1 1 1 1 1 1 1 1 1 0.037257021888204761 1 1 1 1 0.040294252320343754 1 1 1 1 0.079886469955071052 1 1 1 1 1 1 1 1 1 0.05414272892513719 1 0.049981609428030746 1 1 1 1 0.060151115138969202 1 1 1 0.060830753862634854 1 1 1 1 1 1 0.075358972396106089 1 1 0.049212283394107 1 1 1 0.014008655573737532 1 1 1 1 1 1 1 0.06377398328484532 1 1 1 1 1 0.05743601278394829 1 1 1 1 1 1 1 1 1 1 1 1 1 1 1 0.073263365345182005 1 1 1 1 1 0.053763501683003145 1 1 0.040657026870251342 1 0.059544610156280542 1 1 1 1 0.05163399796292794 0.050730636747646898 1 1 0.041851451435389 1 1 1 1 1 1 1 1 1 1 1 0.04890131147730252 1 0.046848799920517652 1 1 1 1 1 0.049021184110806797 1 1 1 0.052829490298843915 1 1 1 0.050111075532483312 1 1 1 1 1 1 1 1 1 1 1 1 1 0.022783566366888178 1 1 1 1 1 1 1 0.060934341183958705 1 0.050991471764677755 1 1 1 1 1 1 1 0.050235537681279682 0.096068488889221051 1 1 1 1 1 1 1 1 1 0.048235680878151443 1 1 1 1 1 1 0.070599786659630154 0.050549543060425493 0.050086433725500396 1 0.082736858450561307 1 1 1 1 1 1 0.075252906269554595 1 0.051222674824063133 1 0.046035243596083325 1 0.093436868607997436 1 1 1 1 1 1 0.097969567770343477 1 1 0.05035055094066835 1 1 1 1 0.04832899659570665 1 1 1 1 1 1 1 1 1 1 1 1 1 1 1 1 1 1 1 1 1 2.8142946306708438e-11 1 0.052145074200976929 1 1 1 1 1 1 1 1 1 1 1 1 1 1 1 1 1 1 1 1 1 1 1 1 1 1 1 1 1 1 1 1 1 1 1 1 1 1 1 1 1 1 1 1 1 1 1 1 1 1 1 1 1 1 1 1 1 1 0.049535362459916424 1 1 1 1 1 1 1 1 1 1 1 1 1 1 1 1 1 1 1 1 1 1 1 0.048889060098518206 1 1 1 0.048155277233971366 1 0.050407581164325602 1 1 1 1 1 1 1 1 1 1 1 1 1 1 1 1 1 1 1 1 1 1 1 1 1 1 1 1 1 1 1 1 1 1 1 1 1 1 1 0.051795772121754999 1 0.0469285975889292 1 1 1 1 1 1 1 1 1 1 1 1 1 1 1 1 1 1 1 1 1 1 1 1 1 0.061532244148098658 1 1 1 1 1 1 1 1 1 1 1 1 1 1 1 1 1 1 1 1 1 1 1 1 1 1 1 1 1 1 1 1 1 1 1 1 1 1 1 1 1 1 1 1 1 1 1 1 1 1 1 1 1 1 1 1 1 1 1 1 1 1 1 1 1 1 1 1 1 0.10678054841216378 1 1 1 1 1 1 1 0.088816114173718153 1 1 0.051514009084034404 1 1 1 1 1 1 1 1 1 1 1 1 1 1 1 1 1 1 1 1 0.077845320557744319 1 1 1 1 1 1 1 1 1 1 1 1 1 1 1 1 1 1 1 1 1 1 1 1 1 1 1 1 1 1 1 1 0.050220081978212525 1 1 1 1 0.056212436685796077 1 0.049827855964497417 1 1 1 1 1 1 0.050070681516479379 1 1 0.050531994600263572 1 1 0.050265639325045963 0.050114117621386692 1 0.049905172577146467 1 1 1 0.050194914290460566 1 1 1 1 1 1 1 1 1 1 1 1 1 1 1 0.052578582403529077 1 1 1 1 1 1 1 1 0.050082378566036409 1 1 1 1 1 1 1 1 1 1 1 1 1 1 1 1 1 1 1 1 1 1 1 1 1 1 1 1 1 1 1 1 1 1 1 1 0.080901287246806119 1 1 1 1 1 1 1 0.042472882759537894 1 1 0.040057161049022239 1 0.088252595224855263 1 1 1 1 1 1 1 1 1 1 1 0.049994593576688645 0.049958039474482019 1 1 0.046261775618569465 1 1 0.049865725341426678 0.050591966513435699 1 1 1 1 0.053479673715916373 1 0.040212056034407917 1 1 0.05448111534796686 1 0.05075252189970577 0.044732126724356475 1 0.081483051493622186 1 0.047866634892213961 1 1 1 1 1 1 1 0.049655649286330344 1 0.050140384854679004 1 1 1 1 1 0.04996024442475859 1 1 1 0.076767064272811436 1 1 0.046607104606656916 1 0.051204931647667651 1 0.070838910931383808 0.05051271237970241 1 1 0.01771408617431447 1 1 1 1 1 1 0.065983999649490643 1 1 1 1 1 1 1 1 0.032823408833078285 0.0498760710150363 1 1 1 0.023402714550850495 1 1 1 1 0.052510032137868867 0.011370131157734858 1 0.02452898837361385 1 1 1 0.040793568394449732 1 1 1 1 1 1 1 1 1 1 1 1 1 1 1 1 0.044886344906401171 1 1 1 1 1 1 0.060241117443155405 1 0.066412993303978582 1 1 1 0.059991234302705754 0.072374880903931266 1 1 0.049876179946365749 1 0.050015572517291912 1 1 1 1 1 1 1 1 1 1 1 1 0.050030485218296158 0.049964948804925274 1 1 1 1 1 0.042587814916043104 1 1 1 1 1 1 1 0.041179346930188682 1 1 1 0.04999869137995943 1 0.072898514549979671 1 1 0.049836815952994287 1 1 1 1 1 1 1 1 1 0.046029610573172591 1 1 0.048370385399146329 1 1 1 1 1 1 1 1 1 1 1 0.058542805837647725 1 1 1 1 1 1 1 1 1 1 1 1 1 1 1 1 1 1 1 1 1 1 0.049059587815094147 1 1 1 1 1 1 1 1 1 1 1 0.04947196465376108 1 1 1 1 0.055306484019017957 1 1 1 1 1 1 1 1 1 1 1 0.050762710963426064 1 1 1 1 1 0.053505471381155204 1 0.050056955481140079 1 1 1 1 1 1 1 1 1 0.066265107879256921 1 1 0.078741596422401749 1 1 0.040423672112397016 1 1 1 1 0.047291596137054651 1 1 1 1 1 1 1 1 1 1 1 1 1 1 1 1 1 1 1 1 1 0.039227339296602298 1 1 0.069026017955440749 1 0.042419751602237016 1 1 1 1 1 1 1 1 1 0.063169126349841981 1 1 0.04127086264990075 0.05002997964254137 0.056000984845097961 1 1 1 0.049999671599085638 1 1 1 1 1 1 0.04333351485535078 0.050002420426009206 1 0.030091962431851457 1 1 0.026663930849533793 1 1 0.065361945918898934 1 1 1 1 0.064334093499681416 1 1 1 1 0.066648142265905277 1 1 1 1 1 1 1 1 1 1 1 0.053873384388748259 1 1 0.04714712361087571 1 0.065693502498184231 0.049605258116505485 1 1 0.049976255785105644 0.057379875371552334 0.047013883879107987 1 1 1 1 1 1 1 1 1 1 0.051757160853769121 1 1 1 1 1 1 1 1 1 0.05348912863619093 1 1 1 1 1 0.050478766087797444 1 1 1 1 1 1 1 1 1 1 0.055839536458460029 1 1 1 1 1 1 1 1 1 1 1 1 1 1 1 1 1 1 1 1 1 1 1 1 0.080512373271843171 0.042988489726407703 1 1 1 1 1 1 1 1 0.060958248791516796 1 1 1 1 1 1 1 1 1 1 1 1 1 1 1 1 0.053137497568986135 1 1 1 1 0.075191266106469451 1 1 1 0.026383291838401698 0.050037788859293053 1 1 1 1 1 1 0.050041545424743886 1 0.042446187548819625 1 1 1 0.054682817950010731 1 1 1 1 1 1 1 1 0.051730675231977441 1 0.076568392859148432 0.031921341297406106 1 1 1 1 1 1 1 1 1 1 1 1 0.044708362913143201 1 1 0.044179053100027912 1 0.048139154681928739 1 1 1 1 1 1 1 1 1 1 1 1 1 1 1 1 1 1 1 1 1 1 1 0.046565572131040955 1 1 1 1 1 0.086350645203068427 1 1 1 1 1 1 1 1 1 1 0.051298142236511246 1 1 1 0.050442450741086824 1 1 1 1 1 1 1 1 1 1 1 0.049719612985948791 0.07969735028768396 1 1 1 1 1 0.070645974911396167 1 1 1 0.063295198196857944 1 1 1 1 1 1 1 1 1 1 0.050281660629040326 1 1 1 1 1 1 1 0.0498649360139609 0.064468906174617271 1 0.037135111581758265 1 1 1 1 0.053764911952660754 1 1 1 1 1 0.060651988863603387 1 1 1 1 1 1 1 1 1 1 0.049967614534477109 1 1 1 1 1 1 1 1 1 1 0.059169780477046088 1 1 1 1 1 1 1 0.052823137254743205 1 1 1 1 1 1 1 1 1 1 1 1 1 1 1 1 1 1 1 1 0.049128385806299149 1 1 1 0.047277513956149042 1 1 1 1 1 1 1 1 1 1 1 1 1 0.044218755533264077 1 0.036467618596131596 0.058395990441322793 1 0.044226703869102914 0.070954386183948726 1 1 1 1 1 0.049755186216655263 1 1 1 1 1 1 1 0.056076273139868182 1 1 0.070328637761332483 1 1 0.035685808383213516 1 1 0.040390360232363365 1 1 0.057401527970265695 0.054905725610398748 0.046279763347183228 0.048694488278437663 1 1 0.052151454946541512 0.05002765651930681 1 1 0.038009324214889575 1 1 0.044664984027923647 1 1 1 1 0.058568826012641961 0.071155461547305371 0.053767683053856312 0.073396395310493551 1 1 1 0.048681400861458501 1 0.050392063259719025 1 0.036716953423946735 1 0.05342622946146381 0.0410569593438119 1 1 1 1 1 1 1 0.052383855863118695 1 1 0.092342099974461661 1 0.049439928718701814 1 1 0.058122001903968309 0.04467393947583187 1 1 1 1 1 1 1 1 1 1 1 1 1 1 1 1 1 0.050176094821038839 1 1 1 1 1 1 1 1 1 1 1 1 1 1 1 1 1 0.048700972601043495 1 1 1 1 1 1 1 1 1 1 1 1 1 1 0.023784932134469916 0.046620752125609011 1 1 1 1 0.049992077523799305 1 0.023333620959437251 1 1 1 0.056455741433026035 0.046413247594479026 1 0.050781579408224073 1 1 1 1 1 1 1 1 1 1 1 1 1 1 1 1 1 1 1 0.021038036666989043 1 0.04988104312517315 1 1 1 1 0.050297758672662916 1 1 1 1 1 1 1 1 1 1 1 1 1 1 1 1 1 1 1 1 0.050216770381911621 1 1 1 1 1 1 1 1 1 1 1 1 1 1 0.049177563703121666 1 1 1 1 1 1 1 1 1 1 1 1 1 1 1 1 1 1 1 1 1 1 1 1 1 1 1 1 1 1 1 1 1 1 1 1 1 1 1 1 1 1 1 1 1 1 1 1 1 1 1 1 1 1 1 1 1 1 1 1 1 1 0.064093910919797589 1 1 1 0.062166918961987686 1 1 0.05650105603769924 1 1 1 1 1 1 1 1 1 1 1 0.055665862924288476 1 1 1 1 0.048116071976342822 1 1 1 1 1 1 1 1 1 1 1 1 1 1 1 1 1 1 1 1 1 1 1 1 1 1 1 1 1 0.049658461730820391 1 1 1 1 0.049658149838045756 1 1 1 1 1 1 1 1 1 1 0.050971470118281001 1 1 0.052063912270949905 1 1 1 1 1 1 1 1 1 1 1 1 0.048600223074501001 1 1 1 1 1 1 1 1 0.051500986687517472 1 1 1 1 1 1 1 1 1 1 0.06193992055598263 1 0.045407926082004474 1 1 1 0.072011213520096137 1 1 1 0.045808138206316629 1 0.087730206245333966 1 0.067189401551857542 0.049655510437150718 1 1 1 1 1 0.049668967917472454 1 1 1 1 1 1 1 1 1 1 1 1 1 1 1 1 1 1 1 1 1 1 1 0.049638065115300611 1 1 0.044327056099875847 1 1 1 0.048399014522515438 1 0.049988245648283913 1 1 1 1 1 1 1 1 1 1 1 1 0.049616881461084894 1 1 1 1 1 1 1 1 1 1 1 1 1 1 1 1 1 1 1 0.049312255688107029 1 1 1 1 1 1 1 1 1 1 1 1 1 1 1 1 1 1 1 1 1 1 1 1 1 1 1 0.049595507850298606 1 1 1 1 1 1 1 1 1 1 1 1 1 1 1 1 1 1 0.049411265394787948 1 1 1 0.049082164170589151 1 1 1 0.050344695581170953 0.049857106714707625 1 1 1 1 1 0.050375610741199311 1 1 1 1 1 1 1 0.051290574451655024 0.050903493944086164 1 1 1 0.049598651804799734 1 0.049456489601613293 1 1 1 1 1 1 0.025045266349048623 0.040954818767586366 1 1 0.041303249098950293 0.045596999965735699 1 1 1 1 1 1 1 1 1 1 0.050046431510631907 1 1 1 1 1 1 0.049161758196045235 1 1 1 1 1 1 1 1 1 1 1 1 1 1 1 1 1 0.050140283846172987 1 1 1 1 0.059213369234159305 1 1 0.050436864563510223 1 1 1 1 1 1 1 1 1 1 1 0.04595470068989814 1 0.040098460455374046 1 0.037486343467203587 1 1 1 1 1 1 1 1 1 1 1 1 1 1 1 1 1 1 1 0.051325204588241011 1 1 0.053790962439241252 1 1 1 0.049960016766570775 1 1 0.047308363994664371 1 1 1 1 0.057737683745153506 1 1 1 1 1 1 1 0.058632387611203818 1 1 1 1 1 1 1 1 1 1 1 1 1 1 1 1 1 1 1 1 1 1 1 1 1 1 1 1 1 0.066973701302088601 1 1 1 1 1 1 1 1 1 1 1 1 1 1 1 1 1 1 1 1 1 1 1 1 1 1 1 1 1 1 1 1 1 1 1 1 1 0.046030439252394223 0.039685016620761474 0.060008502301260244 1 1 0.027811772392734954 1 1 1 0.049194904470402562 1 0.049906199477558838 1 1 1 1 1 0.049845567803860097 1 1 1 1 1 1 1 0.022339900502397508 1 1 1 1 1 1 1 1 1 1 1 1 1 1 0.044949395761060246 1 1 1 0.049933234402373995 1 0.017318362906857468 1 1 1 1 1 1 1 1 0.052793474216797157 1 1 1 1 1 1 1 0.050004323835601036 1 0.049834339741566536 1 0.037827060328512949 1 1 1 1 1 1 1 1 0.055097427845899966 1 1 0.052271291982891016 0.04834393999868615 0.056739489560873213 1 0.021162298585911274 1 0.06535380852693097 1 1 1 1 1 1 1 1 1 1 1 1 1 1 1 1 1 1 1 1 1 0.073591847253630271 1 1 0.042999656568135092 0.061119540756278401 1 1 1 0.050113375115944297 1 1 1 1 1 1 1 0.048315095169408837 1 0.049407744588954403 1 1 1 1 0.050030094745462148 1 1 0.047453868667729451 1 1 1 1 1 1 1 0.031985628905638969 1 1 0.031490376829331104 1 1 1 0.031735404555891258 1 1 1 1 1 1 1 1 1 0.048163108821400895 1 1 1 1 1 1 0.045543823748624354 1 1 0.023909410898668312 1 1 1 1 0.010968612720550081 1 1 1 1 1 1 0.053692087920920728 0.055038826477057073 0.040698833566581688 1 1 1 0.050132912732325535 1 0.050019705671652731 1 0.046256191592149568 1 1 1 1 1 1 0.038601948078874349 1 1 1 0.033744330869712791 1 1 1 0.047347224219403961 1 1 1 1 1 1 1 1 1 1 1 1 0.050286369684365465 1 1 1 0.049775155055082551 1 1 1 1 1 0.050854228779168176 0.036115464485618504 1 1 0.049667426847375989 1 0.036242370876152945 0.042056803349882016 0.060262020450313161 1 1 1 0.050215266134528952 1 1 1 1 1 0.021675925171632859 1 1 1 1 1 1 1 1 1 1 1 1 0.049940874047638792 1 1 1 1 1 1 0.061820989563119669 1 1 0.060943733835593622 1 1 0.049866388282285859 1 1 1 1 1 0.050716983277987265 1 1 0.04828054882236342 1 0.050241230290514458 1 0.049855788735528747 1 1 1 1 1 1 0.04979666278316755 1 1 1 1 0.050682672723202038 1 1 1 1 1 1 1 1 1 1 0.052062584602419665 1 1 1 1 1 0.05224992272330449 1 1 1 1 1 1 1 1 1 1 1 1 1 1 1 0.051236475932192299 1 1 1 1 1 0.053880727525459693 1 0.053565070781206245 1 1 1 1 1 0.048039293339238523 1 1 1 1 1 0.044873509033380249 1 1 1 1 1 0.051214820272543204 1 1 1 1 1 1 1 1 1 1 0.055472024636297093 1 0.050011796990135485 1 0.019174246677375835 1 1 0.062603309332339083 1 1 1 1 1 1 1 1 0.045363887767598532 1 0.055869180926962164 1 1 1 1 1 1 1 1 1 1 0.056965398188748864 1 1 1 1 1 1 1 1 1 1 0.051132452975766796 1 1 1 0.030015297628800647 1 0.05448973339171205 0.015609390389339364 1 1 1 0.046490258790438166 1 1 1 0.034735790061853636 0.050080999591016744 1 1 1 1 1 1 1 1 1 1 0.050009511635704162 0.050116983610900501 1 1 1 1 1 0.04991292255361475 1 1 1 1 1 1 1 1 1 1 0.034522173008147958 1 0.055314537237454942 0.046612760973045675 0.044459491036681606 1 1 1 1 1 1 1 1 0.048079406943185354 1 1 1 1 1 1 1 1 1 1 1 1 1 1 1 1 1 1 1 1 1 1 1 1 1 1 1 1 1 0.052941430342036827 1 1 1 1 0.051071762354043176 1 1 1 1 1 1 1 1 0.048627278151506574 1 1 1 1 1 1 1 1 0.051870379078257658 1 1 1 1 1 1 1 1 1 1 1 1 1 1 1 1 1 1 1 1 1 1 1 1 1 1 0.057058667621125714 1 1 1 1 1 1 0.070630092496750896 1 0.023653707782015254 1 1 0.052362491023038193 1 1 1 0.018994279621034747 1 0.056143418246746804 1 1 1 0.049768972377316451 1 1 1 0.031450592368934355 1 1 1 1 1 1 0.044837424235259354 1 1 1 1 1 1 1 1 1 1 1 1 1 1 1 1 1 1 1 1 1 1 1 1 1 1 1 0.044243120750365232 1 0.036175965878207227 1 1 1 1 0.041932845127841935 1 1 1 1 1 1 1 1 1 1 1 1 1 0.046296086358341024 1 1 0.044923364509847678 1 1 0.04336827543724197 1 1 1 1 1 0.03211523268773421 1 1 1 1 1 1 1 1 0.047944145647895522 1 0.043517420710796395 1 1 1 1 1 0.050751417762171652 0.053980883357861512 1 1 0.0490166605966776 1 1 1 0.037299922306895675 1 1 1 1 1 1 1 0.050743131584471135 1 1 1 1 1 1 1 1 1 1 1 1 1 1 1 1 0.045126568869535977 1 1 1 1 1 0.040553480402476597 1 0.044772583036085459 1 1 1 1 1 1 1 1 1 1 1 1 0.044449464016307089 1 0.044056951014728563 1 1 1 1 1 1 0.035800403084421284 0.048668566649915965 1 1 1 1 1 1 1 1 1 1 1 1 1 1 1 1 1 1 1 1 1 0.050931252101220487 1 1 0.050878930698781383 1 1 1 1 1 0.047649903209503575 1 1 1 1 1 1 0.050149586347273248 1 1 1 1 1 1 1 1 1 1 1 1 1 1 1 1 0.049208563710289671 1 1 0.043057030878049754 1 1 1 1 0.055436147313032563 1 1 1 1 1 1 1 1 1 1 1 0.052302894686069981 1 1 1 1 1 1 1 1 1 1 1 1 1 1 1 1 1 1 1 0.041743452069692724 1 1 1 1 1 1 1 1 1 1 1 1 0.049155754293875531 1 1 1 1 1 1 1 1 1 1 1 1 1 0.050391114116619298 2.1854740239746206e-13 1 1 1 1 1 1 0.015396168289729659 1 1 1 1 1 1 1 1 1 1 1 1 1 1 1 1 1 1 1 1 1 1 1 1 1 1 1 1 1 1 1 1 1 1 1 0.050225137155483449 1 1 1 1 1 1 1 1 0.050503602309876411 1 1 1 1 1 1 1 1 1 1 1 1 0.049712166020166093 1 1 1 1 0.028635855428889662 1 0.013770486520561009 1 1 1 1 1 1 1 1 0.053001431241663302 1 1 1 1 1 1 1 1 1 1 0.056134683868625912 1 1 1 0.063176107278613947 1 1 0.052354374525297814 1 1 1 1 0.069390253208029051 1 1 0.072403427117065502 1 1 1 1 1 1 1 1 0.057072906103014451 1 1 1 0.06186074160311289 1 1 1 1 1 1 1 0.036274545059233151 1 0.049730105015879905 1 0.0098637351375764903 1 0.020152128574927985 0.012371113206229606 1 1 1 0.049547499987414582 0.05027001270996509 0.057368595758315766 1 1 0.0139999711718654 1 1 1 0.073511011457604997 1 1 1 1 0.048960316836813976 1 1 1 1 1 1 1 1 1 1 1 1 1 1 1 1 1 1 1 1 1 1 1 1 1 1 1 1 1 1 1 1 1 1 1 1 1 1 0.049087349455378154 1 1 1 1 1 1 1 1 0.05540439870111627 1 1 1 1 0.05697177863640443 1 1 0.052212311579109383 1 1 0.054544472276644176 1 1 1 1 0.051937517458282012 1 1 1 1 1 0.052419959724196871 1 1 1 1 1 1 1 1 1 1 1 1 1 0.059360282192398292 0.05074664951236435 1 1 1 0.053852643716064547 1 1 1 1 1 1 1 1 1 1 1 1 1 1 0.048508443012399469 1 1 1 1 1 1 0.048746283982730648 1 1 0.047902038276606204 1 1 1 1 1 1 1 1 1 1 0.045174302831084964 1 1 1 1 1 0.041569003568542137 1 1 1 1 1 1 1 1 1 1 0.06137249728096264 1 1 1 1 1 1 1 1 1 1 1 1 1 1 1 0.050068501378252223 1 1 1 1 1 1 1 1 1 1 1 1 1 1 1 1 1 1 1 1 1 1 1 0.049334264425406352 1 0.054618610845635907 1 1 1 0.048421613880784503 1 1 1 1 1 1 1 1 1 0.051560033299724833 1 1 1 0.060781233181466401 1 1 1 1 1 1 1 1 1 1 1 1 1 1 1 1 0.021599682799120834 1 1 1 1 1 0.063325039139277492 1 1 1 0.019315834170564407 1 0.049991094394180688 1 1 1 1 1 1 0.023904104886522615 1 1 1 1 1 1 1 1 1 1 1 1 1 1 1 1 1 1 1 1 1 1 1 1 1 1 1 0.057735881218552054 1 1 0.052459263191973568 1 1 1 1 1 1 1 0.049016858870147409 1 1 1 1 0.050503948863060144 1 1 0.050502315806688652 1 1 1 1 1 1 0.049729702547397545 1 1 1 0.049868988918756949 1 1 1 0.049868636149505145 1 1 1 1 1 0.04523576395799149 1 1 1 1 1 0.037821484012226167 1 1 1 1 1 1 1 1 0.028399042128592726 1 1 0.050879573818548698 1 1 1 1 0.052670770473172507 1 1 1 1 0.054619885878113089 1 1 1 1 0.023876426178127227 1 1 1 0.031126328258327951 1 0.049803210552876176 1 1 1 1 1 1 1 1 1 1 0.049699805027253754 1 1 1 1 1 1 1 0.049519425380955731 0.026289068080539865 1 1 1 1 1 0.021068233506887565 1 1 1 1 1 0.029059576815592569 1 1 1 0.047883025839112442 1 1 0.050147894109962288 1 1 0.053909036196388121 1 1 1 0.019006032979942994 1 1 1 1 1 1 0.048517454168614471 1 1 1 1 1 0.049767744455690863 1 1 1 1 1 0.049901979230340912 1 1 1 1 1 1 0.049141808089362415 1 1 1 1 0.060375495648165051 1 1 1 1 1 0.050869060640998123 1 1 1 1 1 1 1 1 1 1 0.061115428127273427 1 1 1 1 1 1 1 0.055559307506672567 1 1 1 1 0.051475839075350582 0.054204874923804922 1 1 0.033380463457790999 1 1 1 1 1 1 1 0.044287514579277182 1 1 1 1 1 1 1 0.057926028516230285 1 0.052227575639558543 1 1 0.054582818611217707 1 1 1 1 0.047579934521387333 1 0.054605458193144302 1 1 1 1 1 1 1 1 1 1 0.050302685234154876 1 1 1 1 1 0.050377311984829864 1 1 1 0.059705624585786099 1 1 1 1 0.050159008144386438 1 1 0.024727974383771736 1 1 1 1 1 0.03569693416649973 1 0.070241099707064769 1 0.050012237153033171 0.040351919838069412 1 1 1 1 0.061799431978704064 0.048528285430528575 1 1 1 1 1 1 1 1 1 1 1 1 1 0.049508637674339814 1 1 1 1 1 1 0.051909428988266323 0.050266660535321472 1 1 1 1 1 1 1 1 1 1 1 1 1 0.051036860074000871 1 1 1 1 1 1 1 1 1 1 1 1 1 1 1 1 1 1 1 1 1 1 1 1 1 1 1 1 1 1 1 1 1 0.050260304756026782 1 1 0.050806328089667077 1 1 1 1 1 1 1 0.051292672846004583 1 1 1 0.049662154839650974 1 1 0.032793172379543746 1 1 1 0.055318479509430078 0.05002590104874427 1 1 1 1 0.064778029784433588 0.051086968319870529 1 1 1 1 1 1 1 1 1 1 1 1 1 1 0.069932606252101182 1 1 0.050005369853342432 1 1 1 0.0724256669077398 1 1 1 1 0.049571734852063447 1 1 0.094065006398601714 1 1 1 1 1 1 1 1 1 1 1 0.11815660074620067 1 1 1 1 1 1 1 0.13604755891637732 1 1 1 1 1 1 1 1 1 1 1 1 1 1 1 1 1 1 0.047043992613569278 1 1 1 1 1 1 0.033119940538514733 1 0.052117715175837485 1 1 1 1 1 0.046986435634323587 1 1 0.039493678566003075 1 1 1 0.10004923625484294 1 1 1 0.048786754766457927 1 1 1 1 1 1 1 1 1 1 1 1 1 1 0.048644527389794745 1 1 1 1 0.046161516211064318 0.037169555286791889 1 1 1 1 1 1 1 1 1 1 1 1 1 1 1 1 1 1 1 0.05074182053240954 1 1 1 1 1 1 1 1 0.054992423398244429 1 0.052723251047547687 1 1 1 1 1 1 1 0.050015001205782977 1 0.05083368732815656 1 1 1 1 1 0.057459335253129989 1 1 1 1 1 1 0.050465528966506454 1 1 1 1 1 0.041892263362629398 0.035568070331351065 1 1 1 0.028232040152022696 0.068044523400110829 0.06354252434589594 1 1 1 1 1 0.026386911834117361 1 1 1 1 1 0.075446805707934939 1 1 1 1 0.066019116163381131 1 0.026605376322344512 0.041936942685784975 1 0.067083759025589496 0.052382544519166588 1 1 1 0.055677321697783909 1 1 1 0.067850190553143383 1 1 1 0.060247303640547034 1 1 1 0.062384565416379031 1 1 1 1 1 1 1 1 0.052194502744770319 1 1 1 0.054660785195654253 1 1 1 1 1 1 0.049097204838605718 1 1 1 1 1 1 0.059862728010700764 1 1 1 1 1 1 1 1 1 1 1 1 1 1 0.050636053727389663 1 0.0302513974950613 1 1 1 0.059905681698432328 1 1 0.049704261346910236 1 0.039334042914439177 1 0.04589517172126846 1 1 0.059974673020007127 1 1 1 1 1 1 0.043483810896721965 1 1 1 1 0.050304518212062069 1 1 1 1 1 1 0.047768370201146451 1 1 1 1 1 1 1 1 1 1 0.048657116623408631 1 1 1 1 1 1 1 1 1 1 1 1 1 1 1 1 1 1 1 0.01457097368611255 0.045148160400923204 1 1 1 0.022758239906642802 1 1 0.031482925515392883 1 1 0.028697658352487804 1 1 0.059006842424558212 1 1 0.042296137097416052 0.054825403505094843 1 1 1 1 0.021932404204633257 1 1 1 1 1 1 1 1 1 1 1 0.027859398554465627 0.060805110532502843 1 1 1 0.033639478467750547 1 0.049957870535530094 1 0.049959419198130128 1 1 1 1 1 0.049642551793922789 1 1 0.045585365860597346 1 0.042303744245812611 1 1 0.049970191895193923 0.042174910851453945 0.042635580873265008 1 1 1 1 0.04563538332058939 1 1 0.044754331362905034 1 0.035023639818564115 1 1 0.058846892805092144 1 1 1 1 1 1 1 1 0.036547581824693851 1 0.037060112972840613 0.044484741088345492 1 1 1 1 1 0.049792514724288681 0.040200314436172557 1 1 1 0.025198312731794542 0.03399211222891417 1 1 1 1 1 1 1 1 0.049906814807312884 1 0.043111781119944195 1 1 1 1 1 1 1 1 1 1 1 1 1 1 1 1 1 1 1 1 1 1 1 1 1 1 1 1 1 0.049650762184741189 1 1 1 1 1 1 1 1 1 1 1 1 1 1 1 0.047898985187937185 1 1 0.049817663780273524 1 1 1 1 1 0.049774898904904261 1 1 1 1 1 1 1 1 1 1 1 1 1 0.050042764875369225 1 1 1 1 1 1 1 1 1 0.051273861393725875 1 1 0.039710673720903283 1 1 1 1 0.050003150908687455 0.052215337244830143 0.029035811774202634 1 1 1 1 1 0.043730811323199725 1 1 1 
</DataArray>
</CellData>
</Piece>
</UnstructuredGrid>
</VTKFile>
